# vtk DataFile Version 2.0
               (MEGA VTK FILE)
ASCII
DATASET UNSTRUCTURED_GRID
POINTS       1950    double
  0.10378E-02  0.67292E-03 -0.20514E-01
  0.17452E-02  0.12308E-02 -0.20498E-01
  0.23177E-02  0.59151E-03 -0.20496E-01
  0.16698E-02 -0.33775E-03 -0.20525E-01
  0.10379E-02  0.67237E-03 -0.11750E-01
  0.17453E-02  0.12301E-02 -0.11750E-01
  0.23178E-02  0.59098E-03 -0.11750E-01
  0.16700E-02 -0.33851E-03 -0.11750E-01
  0.30377E-02  0.14882E-03 -0.20467E-01
  0.27791E-02 -0.67643E-03 -0.20501E-01
  0.30377E-02  0.14846E-03 -0.11750E-01
  0.27788E-02 -0.67692E-03 -0.11750E-01
  0.12850E-02  0.18412E-02 -0.20481E-01
  0.65139E-03  0.14576E-02 -0.20503E-01
  0.12851E-02  0.18410E-02 -0.11750E-01
  0.65164E-03  0.14566E-02 -0.11750E-01
  0.12757E-03  0.29933E-03 -0.20515E-01
 -0.12822E-03  0.11672E-02 -0.20519E-01
  0.12783E-03  0.29819E-03 -0.11750E-01
 -0.12804E-03  0.11655E-02 -0.11750E-01
  0.94500E-03  0.22748E-02 -0.20470E-01
  0.11327E-02  0.28286E-02 -0.20456E-01
  0.17490E-02  0.24238E-02 -0.20463E-01
  0.94533E-03  0.22746E-02 -0.11750E-01
  0.11330E-02  0.28291E-02 -0.11750E-01
  0.17494E-02  0.24236E-02 -0.11750E-01
  0.40588E-03  0.21685E-02 -0.20497E-01
  0.39779E-03  0.29366E-02 -0.20488E-01
  0.40594E-03  0.21684E-02 -0.11750E-01
  0.39781E-03  0.29369E-02 -0.11750E-01
 -0.76303E-03 -0.10033E-02 -0.20527E-01
 -0.86604E-03  0.78969E-04 -0.20535E-01
  0.46119E-03 -0.70318E-03 -0.20522E-01
 -0.76268E-03 -0.10032E-02 -0.11750E-01
 -0.86593E-03  0.78160E-04 -0.11750E-01
  0.46164E-03 -0.70391E-03 -0.11750E-01
 -0.18300E-02 -0.71196E-03 -0.20496E-01
 -0.18440E-02  0.82749E-04 -0.20528E-01
 -0.18297E-02 -0.71210E-03 -0.11750E-01
 -0.18441E-02  0.82626E-04 -0.11750E-01
 -0.27238E-02 -0.77865E-03 -0.20487E-01
 -0.28028E-02  0.40713E-04 -0.20514E-01
 -0.27238E-02 -0.77882E-03 -0.11750E-01
 -0.28031E-02  0.40439E-04 -0.11750E-01
 -0.25365E-02 -0.15195E-02 -0.20463E-01
 -0.19287E-02 -0.13230E-02 -0.20475E-01
 -0.25363E-02 -0.15195E-02 -0.11750E-01
 -0.19283E-02 -0.13231E-02 -0.11750E-01
 -0.99363E-03  0.98847E-03 -0.20537E-01
 -0.99377E-03  0.98712E-03 -0.11750E-01
 -0.14380E-02 -0.17325E-02 -0.20492E-01
 -0.14377E-02 -0.17325E-02 -0.11750E-01
 -0.31574E-03  0.20220E-02 -0.20525E-01
 -0.31594E-03  0.20217E-02 -0.11750E-01
 -0.11068E-02  0.18615E-02 -0.20535E-01
 -0.11071E-02  0.18616E-02 -0.11750E-01
 -0.18845E-02  0.17175E-02 -0.20509E-01
 -0.18713E-02  0.90940E-03 -0.20530E-01
 -0.18846E-02  0.17175E-02 -0.11750E-01
 -0.18714E-02  0.90916E-03 -0.11750E-01
 -0.15871E-03 -0.19800E-02 -0.20520E-01
 -0.94089E-03 -0.23489E-02 -0.20492E-01
 -0.15844E-03 -0.19800E-02 -0.11750E-01
 -0.94029E-03 -0.23489E-02 -0.11750E-01
  0.78856E-03 -0.17074E-02 -0.20519E-01
  0.78922E-03 -0.17074E-02 -0.11750E-01
  0.17211E-02 -0.14894E-02 -0.20507E-01
  0.17211E-02 -0.14892E-02 -0.11750E-01
  0.32050E-02  0.76036E-03 -0.20423E-01
  0.28046E-02  0.12477E-02 -0.20457E-01
  0.32047E-02  0.75936E-03 -0.11750E-01
  0.28047E-02  0.12473E-02 -0.11750E-01
  0.23059E-02  0.18665E-02 -0.20470E-01
  0.23060E-02  0.18664E-02 -0.11750E-01
 -0.40614E-03  0.29038E-02 -0.20506E-01
 -0.40627E-03  0.29049E-02 -0.11750E-01
 -0.12092E-02  0.27207E-02 -0.20503E-01
 -0.12092E-02  0.27212E-02 -0.11750E-01
 -0.19448E-02  0.24642E-02 -0.20471E-01
 -0.19448E-02  0.24645E-02 -0.11750E-01
 -0.25029E-02  0.22359E-02 -0.20435E-01
 -0.26371E-02  0.16503E-02 -0.20480E-01
 -0.25029E-02  0.22359E-02 -0.11750E-01
 -0.26372E-02  0.16503E-02 -0.11750E-01
 -0.27671E-02  0.87493E-03 -0.20517E-01
 -0.27674E-02  0.87466E-03 -0.11750E-01
 -0.21123E-02 -0.21373E-02 -0.20466E-01
 -0.21122E-02 -0.21373E-02 -0.11750E-01
 -0.16087E-02 -0.26931E-02 -0.20453E-01
 -0.16087E-02 -0.26931E-02 -0.11750E-01
 -0.11939E-02 -0.31291E-02 -0.20420E-01
 -0.58641E-03 -0.30382E-02 -0.20465E-01
 -0.11937E-02 -0.31291E-02 -0.11750E-01
 -0.58606E-03 -0.30382E-02 -0.11750E-01
  0.20912E-03 -0.28748E-02 -0.20495E-01
  0.20952E-03 -0.28748E-02 -0.11750E-01
  0.10586E-02 -0.26423E-02 -0.20491E-01
  0.10589E-02 -0.26420E-02 -0.11750E-01
  0.18413E-02 -0.23707E-02 -0.20466E-01
  0.18413E-02 -0.23705E-02 -0.11750E-01
  0.24544E-02 -0.21445E-02 -0.20432E-01
  0.26022E-02 -0.15105E-02 -0.20472E-01
  0.24543E-02 -0.21439E-02 -0.11750E-01
  0.26021E-02 -0.15106E-02 -0.11750E-01
  0.37964E-02  0.93572E-03 -0.20331E-01
  0.39100E-02  0.00000E+00 -0.20347E-01
  0.37964E-02  0.93572E-03 -0.11750E-01
  0.39100E-02  0.00000E+00 -0.11750E-01
  0.34621E-02  0.18171E-02 -0.20345E-01
  0.34621E-02  0.18171E-02 -0.11750E-01
  0.29267E-02  0.25928E-02 -0.20333E-01
  0.29267E-02  0.25928E-02 -0.11750E-01
  0.22211E-02  0.32179E-02 -0.20334E-01
  0.22211E-02  0.32179E-02 -0.11750E-01
  0.13865E-02  0.36559E-02 -0.20333E-01
  0.13865E-02  0.36559E-02 -0.11750E-01
  0.47130E-03  0.38815E-02 -0.20342E-01
  0.47130E-03  0.38815E-02 -0.11750E-01
 -0.47130E-03  0.38815E-02 -0.20346E-01
 -0.47130E-03  0.38815E-02 -0.11750E-01
 -0.13865E-02  0.36559E-02 -0.20344E-01
 -0.13865E-02  0.36559E-02 -0.11750E-01
 -0.22211E-02  0.32179E-02 -0.20342E-01
 -0.22211E-02  0.32179E-02 -0.11750E-01
 -0.29267E-02  0.25928E-02 -0.20328E-01
 -0.29267E-02  0.25928E-02 -0.11750E-01
 -0.34621E-02  0.18171E-02 -0.20346E-01
 -0.34621E-02  0.18171E-02 -0.11750E-01
 -0.37964E-02  0.93572E-03 -0.20352E-01
 -0.37964E-02  0.93572E-03 -0.11750E-01
 -0.39100E-02  0.22152E-17 -0.20350E-01
 -0.39100E-02 -0.47884E-18 -0.11750E-01
 -0.37964E-02 -0.93572E-03 -0.20343E-01
 -0.37964E-02 -0.93572E-03 -0.11750E-01
 -0.34621E-02 -0.18171E-02 -0.20336E-01
 -0.34621E-02 -0.18171E-02 -0.11750E-01
 -0.29267E-02 -0.25928E-02 -0.20332E-01
 -0.29267E-02 -0.25928E-02 -0.11750E-01
 -0.22211E-02 -0.32179E-02 -0.20343E-01
 -0.22211E-02 -0.32179E-02 -0.11750E-01
 -0.13865E-02 -0.36559E-02 -0.20333E-01
 -0.13865E-02 -0.36559E-02 -0.11750E-01
 -0.47130E-03 -0.38815E-02 -0.20349E-01
 -0.47130E-03 -0.38815E-02 -0.11750E-01
  0.47130E-03 -0.38815E-02 -0.20343E-01
  0.47130E-03 -0.38815E-02 -0.11750E-01
  0.13865E-02 -0.36559E-02 -0.20338E-01
  0.13865E-02 -0.36559E-02 -0.11750E-01
  0.22211E-02 -0.32179E-02 -0.20347E-01
  0.22211E-02 -0.32179E-02 -0.11750E-01
  0.29267E-02 -0.25928E-02 -0.20334E-01
  0.29267E-02 -0.25928E-02 -0.11750E-01
  0.34621E-02 -0.18171E-02 -0.20347E-01
  0.34621E-02 -0.18171E-02 -0.11750E-01
  0.37964E-02 -0.93572E-03 -0.20348E-01
  0.37964E-02 -0.93572E-03 -0.11750E-01
  0.10376E-02  0.67348E-03 -0.23524E-01
  0.17450E-02  0.12314E-02 -0.23521E-01
  0.23175E-02  0.59203E-03 -0.23521E-01
  0.16696E-02 -0.33700E-03 -0.23525E-01
  0.30377E-02  0.14918E-03 -0.23517E-01
  0.27795E-02 -0.67594E-03 -0.23522E-01
  0.12849E-02  0.18414E-02 -0.23519E-01
  0.65115E-03  0.14586E-02 -0.23522E-01
  0.12731E-03  0.30048E-03 -0.23525E-01
 -0.12841E-03  0.11690E-02 -0.23525E-01
  0.94467E-03  0.22749E-02 -0.23518E-01
  0.11323E-02  0.28282E-02 -0.23516E-01
  0.17487E-02  0.24239E-02 -0.23516E-01
  0.40583E-03  0.21685E-02 -0.23521E-01
  0.39777E-03  0.29364E-02 -0.23520E-01
 -0.76338E-03 -0.10035E-02 -0.23525E-01
 -0.86615E-03  0.79778E-04 -0.23527E-01
  0.46074E-03 -0.70245E-03 -0.23525E-01
 -0.18303E-02 -0.71182E-03 -0.23521E-01
 -0.18439E-02  0.82873E-04 -0.23526E-01
 -0.27238E-02 -0.77848E-03 -0.23520E-01
 -0.28025E-02  0.40986E-04 -0.23524E-01
 -0.25366E-02 -0.15194E-02 -0.23516E-01
 -0.19292E-02 -0.13228E-02 -0.23518E-01
 -0.99349E-03  0.98983E-03 -0.23528E-01
 -0.14384E-02 -0.17324E-02 -0.23520E-01
 -0.31554E-03  0.20223E-02 -0.23526E-01
 -0.11064E-02  0.18614E-02 -0.23527E-01
 -0.18845E-02  0.17175E-02 -0.23523E-01
 -0.18712E-02  0.90964E-03 -0.23526E-01
 -0.15899E-03 -0.19800E-02 -0.23525E-01
 -0.94149E-03 -0.23489E-02 -0.23520E-01
  0.78790E-03 -0.17074E-02 -0.23525E-01
  0.17210E-02 -0.14896E-02 -0.23522E-01
  0.32053E-02  0.76137E-03 -0.23511E-01
  0.28046E-02  0.12481E-02 -0.23515E-01
  0.23058E-02  0.18665E-02 -0.23517E-01
 -0.40600E-03  0.29027E-02 -0.23523E-01
 -0.12092E-02  0.27202E-02 -0.23522E-01
 -0.19447E-02  0.24640E-02 -0.23517E-01
 -0.25028E-02  0.22359E-02 -0.23512E-01
 -0.26370E-02  0.16503E-02 -0.23519E-01
 -0.27668E-02  0.87519E-03 -0.23525E-01
 -0.21125E-02 -0.21373E-02 -0.23516E-01
 -0.16088E-02 -0.26932E-02 -0.23514E-01
 -0.11940E-02 -0.31291E-02 -0.23510E-01
 -0.58676E-03 -0.30382E-02 -0.23516E-01
  0.20871E-03 -0.28748E-02 -0.23521E-01
  0.10583E-02 -0.26426E-02 -0.23520E-01
  0.18413E-02 -0.23709E-02 -0.23516E-01
  0.24545E-02 -0.21450E-02 -0.23512E-01
  0.26022E-02 -0.15104E-02 -0.23517E-01
  0.37964E-02  0.93572E-03 -0.23501E-01
  0.39100E-02  0.00000E+00 -0.23503E-01
  0.34621E-02  0.18171E-02 -0.23503E-01
  0.29267E-02  0.25928E-02 -0.23502E-01
  0.22211E-02  0.32179E-02 -0.23502E-01
  0.13865E-02  0.36559E-02 -0.23502E-01
  0.47130E-03  0.38815E-02 -0.23503E-01
 -0.47130E-03  0.38815E-02 -0.23504E-01
 -0.13865E-02  0.36559E-02 -0.23503E-01
 -0.22211E-02  0.32179E-02 -0.23502E-01
 -0.29267E-02  0.25928E-02 -0.23500E-01
 -0.34621E-02  0.18171E-02 -0.23503E-01
 -0.37964E-02  0.93572E-03 -0.23505E-01
 -0.39100E-02 -0.47884E-18 -0.23504E-01
 -0.37964E-02 -0.93572E-03 -0.23503E-01
 -0.34621E-02 -0.18171E-02 -0.23502E-01
 -0.29267E-02 -0.25928E-02 -0.23502E-01
 -0.22211E-02 -0.32179E-02 -0.23503E-01
 -0.13865E-02 -0.36559E-02 -0.23501E-01
 -0.47130E-03 -0.38815E-02 -0.23504E-01
  0.47130E-03 -0.38815E-02 -0.23504E-01
  0.13865E-02 -0.36559E-02 -0.23503E-01
  0.22211E-02 -0.32179E-02 -0.23504E-01
  0.29267E-02 -0.25928E-02 -0.23501E-01
  0.34621E-02 -0.18171E-02 -0.23504E-01
  0.37964E-02 -0.93572E-03 -0.23504E-01
  0.10375E-02  0.67403E-03 -0.22872E-01
  0.17448E-02  0.12321E-02 -0.22872E-01
  0.23174E-02  0.59255E-03 -0.22872E-01
  0.16694E-02 -0.33624E-03 -0.22872E-01
  0.30377E-02  0.14955E-03 -0.22872E-01
  0.27798E-02 -0.67544E-03 -0.22872E-01
  0.12848E-02  0.18415E-02 -0.22872E-01
  0.65090E-03  0.14596E-02 -0.22872E-01
  0.12705E-03  0.30163E-03 -0.22872E-01
 -0.12859E-03  0.11707E-02 -0.22872E-01
  0.94434E-03  0.22750E-02 -0.22872E-01
  0.11320E-02  0.28277E-02 -0.22872E-01
  0.17483E-02  0.24241E-02 -0.22872E-01
  0.40577E-03  0.21685E-02 -0.22872E-01
  0.39776E-03  0.29361E-02 -0.22872E-01
 -0.76374E-03 -0.10036E-02 -0.22872E-01
 -0.86626E-03  0.80588E-04 -0.22872E-01
  0.46029E-03 -0.70173E-03 -0.22872E-01
 -0.18306E-02 -0.71168E-03 -0.22872E-01
 -0.18438E-02  0.82996E-04 -0.22872E-01
 -0.27238E-02 -0.77831E-03 -0.22872E-01
 -0.28022E-02  0.41259E-04 -0.22872E-01
 -0.25368E-02 -0.15194E-02 -0.22872E-01
 -0.19296E-02 -0.13227E-02 -0.22872E-01
 -0.99334E-03  0.99119E-03 -0.22872E-01
 -0.14387E-02 -0.17324E-02 -0.22872E-01
 -0.31534E-03  0.20226E-02 -0.22872E-01
 -0.11061E-02  0.18613E-02 -0.22872E-01
 -0.18844E-02  0.17175E-02 -0.22872E-01
 -0.18710E-02  0.90988E-03 -0.22872E-01
 -0.15926E-03 -0.19801E-02 -0.22872E-01
 -0.94209E-03 -0.23490E-02 -0.22872E-01
  0.78724E-03 -0.17074E-02 -0.22872E-01
  0.17210E-02 -0.14899E-02 -0.22872E-01
  0.32056E-02  0.76237E-03 -0.22872E-01
  0.28046E-02  0.12485E-02 -0.22872E-01
  0.23057E-02  0.18666E-02 -0.22872E-01
 -0.40586E-03  0.29017E-02 -0.22872E-01
 -0.12092E-02  0.27198E-02 -0.22872E-01
 -0.19447E-02  0.24638E-02 -0.22872E-01
 -0.25028E-02  0.22359E-02 -0.22872E-01
 -0.26369E-02  0.16503E-02 -0.22872E-01
 -0.27665E-02  0.87545E-03 -0.22872E-01
 -0.21126E-02 -0.21374E-02 -0.22872E-01
 -0.16088E-02 -0.26932E-02 -0.22872E-01
 -0.11941E-02 -0.31291E-02 -0.22872E-01
 -0.58711E-03 -0.30382E-02 -0.22872E-01
  0.20830E-03 -0.28748E-02 -0.22872E-01
  0.10580E-02 -0.26428E-02 -0.22872E-01
  0.18414E-02 -0.23711E-02 -0.22872E-01
  0.24546E-02 -0.21456E-02 -0.22872E-01
  0.26023E-02 -0.15103E-02 -0.22872E-01
  0.37964E-02  0.93572E-03 -0.22872E-01
  0.39100E-02  0.00000E+00 -0.22872E-01
  0.34621E-02  0.18171E-02 -0.22872E-01
  0.29267E-02  0.25928E-02 -0.22872E-01
  0.22211E-02  0.32179E-02 -0.22872E-01
  0.13865E-02  0.36559E-02 -0.22872E-01
  0.47130E-03  0.38815E-02 -0.22872E-01
 -0.47130E-03  0.38815E-02 -0.22872E-01
 -0.13865E-02  0.36559E-02 -0.22872E-01
 -0.22211E-02  0.32179E-02 -0.22872E-01
 -0.29267E-02  0.25928E-02 -0.22872E-01
 -0.34621E-02  0.18171E-02 -0.22872E-01
 -0.37964E-02  0.93572E-03 -0.22872E-01
 -0.39100E-02  0.39516E-17 -0.22872E-01
 -0.37964E-02 -0.93572E-03 -0.22872E-01
 -0.34621E-02 -0.18171E-02 -0.22872E-01
 -0.29267E-02 -0.25928E-02 -0.22872E-01
 -0.22211E-02 -0.32179E-02 -0.22872E-01
 -0.13865E-02 -0.36559E-02 -0.22872E-01
 -0.47130E-03 -0.38815E-02 -0.22872E-01
  0.47130E-03 -0.38815E-02 -0.22872E-01
  0.13865E-02 -0.36559E-02 -0.22872E-01
  0.22211E-02 -0.32179E-02 -0.22872E-01
  0.29267E-02 -0.25928E-02 -0.22872E-01
  0.34621E-02 -0.18171E-02 -0.22872E-01
  0.37964E-02 -0.93572E-03 -0.22872E-01
  0.10374E-02  0.67459E-03 -0.21893E-01
  0.17446E-02  0.12328E-02 -0.21893E-01
  0.23173E-02  0.59308E-03 -0.21893E-01
  0.16692E-02 -0.33549E-03 -0.21893E-01
  0.30376E-02  0.14991E-03 -0.21893E-01
  0.27801E-02 -0.67495E-03 -0.21893E-01
  0.12847E-02  0.18417E-02 -0.21893E-01
  0.65065E-03  0.14606E-02 -0.21893E-01
  0.12678E-03  0.30278E-03 -0.21893E-01
 -0.12878E-03  0.11725E-02 -0.21893E-01
  0.94401E-03  0.22752E-02 -0.21893E-01
  0.11316E-02  0.28273E-02 -0.21893E-01
  0.17479E-02  0.24242E-02 -0.21893E-01
  0.40572E-03  0.21686E-02 -0.21893E-01
  0.39774E-03  0.29359E-02 -0.21893E-01
 -0.76409E-03 -0.10038E-02 -0.21893E-01
 -0.86637E-03  0.81397E-04 -0.21893E-01
  0.45985E-03 -0.70100E-03 -0.21893E-01
 -0.18309E-02 -0.71154E-03 -0.21893E-01
 -0.18437E-02  0.83120E-04 -0.21893E-01
 -0.27237E-02 -0.77814E-03 -0.21893E-01
 -0.28020E-02  0.41533E-04 -0.21893E-01
 -0.25369E-02 -0.15193E-02 -0.21893E-01
 -0.19300E-02 -0.13227E-02 -0.21893E-01
 -0.99320E-03  0.99254E-03 -0.21893E-01
 -0.14391E-02 -0.17324E-02 -0.21893E-01
 -0.31514E-03  0.20228E-02 -0.21893E-01
 -0.11057E-02  0.18611E-02 -0.21893E-01
 -0.18844E-02  0.17175E-02 -0.21893E-01
 -0.18709E-02  0.91012E-03 -0.21893E-01
 -0.15954E-03 -0.19801E-02 -0.21893E-01
 -0.94269E-03 -0.23490E-02 -0.21893E-01
  0.78658E-03 -0.17074E-02 -0.21893E-01
  0.17209E-02 -0.14901E-02 -0.21893E-01
  0.32060E-02  0.76338E-03 -0.21893E-01
  0.28046E-02  0.12490E-02 -0.21893E-01
  0.23056E-02  0.18666E-02 -0.21893E-01
 -0.40572E-03  0.29006E-02 -0.21893E-01
 -0.12092E-02  0.27193E-02 -0.21893E-01
 -0.19446E-02  0.24636E-02 -0.21893E-01
 -0.25028E-02  0.22359E-02 -0.21893E-01
 -0.26368E-02  0.16503E-02 -0.21893E-01
 -0.27662E-02  0.87571E-03 -0.21893E-01
 -0.21128E-02 -0.21374E-02 -0.21893E-01
 -0.16088E-02 -0.26932E-02 -0.21893E-01
 -0.11942E-02 -0.31291E-02 -0.21893E-01
 -0.58746E-03 -0.30382E-02 -0.21893E-01
  0.20790E-03 -0.28748E-02 -0.21893E-01
  0.10577E-02 -0.26431E-02 -0.21893E-01
  0.18414E-02 -0.23713E-02 -0.21893E-01
  0.24548E-02 -0.21461E-02 -0.21893E-01
  0.26024E-02 -0.15102E-02 -0.21893E-01
  0.37964E-02  0.93572E-03 -0.21893E-01
  0.39100E-02  0.00000E+00 -0.21893E-01
  0.34621E-02  0.18171E-02 -0.21893E-01
  0.29267E-02  0.25928E-02 -0.21893E-01
  0.22211E-02  0.32179E-02 -0.21893E-01
  0.13865E-02  0.36559E-02 -0.21893E-01
  0.47130E-03  0.38815E-02 -0.21893E-01
 -0.47130E-03  0.38815E-02 -0.21893E-01
 -0.13865E-02  0.36559E-02 -0.21893E-01
 -0.22211E-02  0.32179E-02 -0.21893E-01
 -0.29267E-02  0.25928E-02 -0.21893E-01
 -0.34621E-02  0.18171E-02 -0.21893E-01
 -0.37964E-02  0.93572E-03 -0.21893E-01
 -0.39100E-02 -0.47884E-18 -0.21893E-01
 -0.37964E-02 -0.93572E-03 -0.21893E-01
 -0.34621E-02 -0.18171E-02 -0.21893E-01
 -0.29267E-02 -0.25928E-02 -0.21893E-01
 -0.22211E-02 -0.32179E-02 -0.21893E-01
 -0.13865E-02 -0.36559E-02 -0.21893E-01
 -0.47130E-03 -0.38815E-02 -0.21893E-01
  0.47130E-03 -0.38815E-02 -0.21893E-01
  0.13865E-02 -0.36559E-02 -0.21893E-01
  0.22211E-02 -0.32179E-02 -0.21893E-01
  0.29267E-02 -0.25928E-02 -0.21893E-01
  0.34621E-02 -0.18171E-02 -0.21893E-01
  0.37964E-02 -0.93572E-03 -0.21893E-01
  0.10373E-02  0.67514E-03 -0.20914E-01
  0.17445E-02  0.12334E-02 -0.20914E-01
  0.23172E-02  0.59360E-03 -0.20914E-01
  0.16689E-02 -0.33474E-03 -0.20914E-01
  0.30376E-02  0.15027E-03 -0.20914E-01
  0.27805E-02 -0.67446E-03 -0.20914E-01
  0.12846E-02  0.18419E-02 -0.20914E-01
  0.65041E-03  0.14616E-02 -0.20914E-01
  0.12652E-03  0.30393E-03 -0.20914E-01
 -0.12896E-03  0.11742E-02 -0.20914E-01
  0.94367E-03  0.22753E-02 -0.20914E-01
  0.11313E-02  0.28269E-02 -0.20914E-01
  0.17475E-02  0.24244E-02 -0.20914E-01
  0.40566E-03  0.21686E-02 -0.20914E-01
  0.39772E-03  0.29356E-02 -0.20914E-01
 -0.76444E-03 -0.10039E-02 -0.20914E-01
 -0.86648E-03  0.82206E-04 -0.20914E-01
  0.45940E-03 -0.70028E-03 -0.20914E-01
 -0.18312E-02 -0.71140E-03 -0.20914E-01
 -0.18436E-02  0.83243E-04 -0.20914E-01
 -0.27237E-02 -0.77797E-03 -0.20914E-01
 -0.28017E-02  0.41806E-04 -0.20914E-01
 -0.25371E-02 -0.15193E-02 -0.20914E-01
 -0.19305E-02 -0.13226E-02 -0.20914E-01
 -0.99305E-03  0.99390E-03 -0.20914E-01
 -0.14394E-02 -0.17323E-02 -0.20914E-01
 -0.31494E-03  0.20231E-02 -0.20914E-01
 -0.11054E-02  0.18610E-02 -0.20914E-01
 -0.18843E-02  0.17175E-02 -0.20914E-01
 -0.18708E-02  0.91036E-03 -0.20914E-01
 -0.15981E-03 -0.19801E-02 -0.20914E-01
 -0.94328E-03 -0.23490E-02 -0.20914E-01
  0.78592E-03 -0.17074E-02 -0.20914E-01
  0.17209E-02 -0.14904E-02 -0.20914E-01
  0.32063E-02  0.76439E-03 -0.20914E-01
  0.28045E-02  0.12494E-02 -0.20914E-01
  0.23055E-02  0.18666E-02 -0.20914E-01
 -0.40558E-03  0.28995E-02 -0.20914E-01
 -0.12092E-02  0.27188E-02 -0.20914E-01
 -0.19446E-02  0.24633E-02 -0.20914E-01
 -0.25027E-02  0.22359E-02 -0.20914E-01
 -0.26367E-02  0.16503E-02 -0.20914E-01
 -0.27658E-02  0.87597E-03 -0.20914E-01
 -0.21129E-02 -0.21374E-02 -0.20914E-01
 -0.16089E-02 -0.26932E-02 -0.20914E-01
 -0.11943E-02 -0.31291E-02 -0.20914E-01
 -0.58781E-03 -0.30382E-02 -0.20914E-01
  0.20749E-03 -0.28748E-02 -0.20914E-01
  0.10574E-02 -0.26434E-02 -0.20914E-01
  0.18415E-02 -0.23715E-02 -0.20914E-01
  0.24549E-02 -0.21467E-02 -0.20914E-01
  0.26025E-02 -0.15101E-02 -0.20914E-01
  0.37964E-02  0.93572E-03 -0.20914E-01
  0.39100E-02  0.00000E+00 -0.20914E-01
  0.34621E-02  0.18171E-02 -0.20914E-01
  0.29267E-02  0.25928E-02 -0.20914E-01
  0.22211E-02  0.32179E-02 -0.20914E-01
  0.13865E-02  0.36559E-02 -0.20914E-01
  0.47130E-03  0.38815E-02 -0.20914E-01
 -0.47130E-03  0.38815E-02 -0.20914E-01
 -0.13865E-02  0.36559E-02 -0.20914E-01
 -0.22211E-02  0.32179E-02 -0.20914E-01
 -0.29267E-02  0.25928E-02 -0.20914E-01
 -0.34621E-02  0.18171E-02 -0.20914E-01
 -0.37964E-02  0.93572E-03 -0.20914E-01
 -0.39100E-02 -0.47884E-18 -0.20914E-01
 -0.37964E-02 -0.93572E-03 -0.20914E-01
 -0.34621E-02 -0.18171E-02 -0.20914E-01
 -0.29267E-02 -0.25928E-02 -0.20914E-01
 -0.22211E-02 -0.32179E-02 -0.20914E-01
 -0.13865E-02 -0.36559E-02 -0.20914E-01
 -0.47130E-03 -0.38815E-02 -0.20914E-01
  0.47130E-03 -0.38815E-02 -0.20914E-01
  0.13865E-02 -0.36559E-02 -0.20914E-01
  0.22211E-02 -0.32179E-02 -0.20914E-01
  0.29267E-02 -0.25928E-02 -0.20914E-01
  0.34621E-02 -0.18171E-02 -0.20914E-01
  0.37964E-02 -0.93572E-03 -0.20914E-01
  0.10372E-02  0.67570E-03 -0.19934E-01
  0.17443E-02  0.12341E-02 -0.19934E-01
  0.23171E-02  0.59412E-03 -0.19934E-01
  0.16687E-02 -0.33398E-03 -0.19934E-01
  0.30376E-02  0.15064E-03 -0.19934E-01
  0.27808E-02 -0.67396E-03 -0.19934E-01
  0.12845E-02  0.18421E-02 -0.19934E-01
  0.65016E-03  0.14626E-02 -0.19934E-01
  0.12626E-03  0.30507E-03 -0.19934E-01
 -0.12915E-03  0.11760E-02 -0.19934E-01
  0.94334E-03  0.22754E-02 -0.19934E-01
  0.11310E-02  0.28264E-02 -0.19934E-01
  0.17471E-02  0.24245E-02 -0.19934E-01
  0.40561E-03  0.21686E-02 -0.19934E-01
  0.39770E-03  0.29353E-02 -0.19934E-01
 -0.76480E-03 -0.10040E-02 -0.19934E-01
 -0.86659E-03  0.83015E-04 -0.19934E-01
  0.45895E-03 -0.69955E-03 -0.19934E-01
 -0.18315E-02 -0.71126E-03 -0.19934E-01
 -0.18435E-02  0.83367E-04 -0.19934E-01
 -0.27237E-02 -0.77780E-03 -0.19934E-01
 -0.28014E-02  0.42080E-04 -0.19934E-01
 -0.25372E-02 -0.15192E-02 -0.19934E-01
 -0.19309E-02 -0.13224E-02 -0.19934E-01
 -0.99291E-03  0.99526E-03 -0.19934E-01
 -0.14398E-02 -0.17323E-02 -0.19934E-01
 -0.31474E-03  0.20234E-02 -0.19934E-01
 -0.11051E-02  0.18609E-02 -0.19934E-01
 -0.18843E-02  0.17175E-02 -0.19934E-01
 -0.18706E-02  0.91060E-03 -0.19934E-01
 -0.16009E-03 -0.19801E-02 -0.19934E-01
 -0.94388E-03 -0.23490E-02 -0.19934E-01
  0.78526E-03 -0.17074E-02 -0.19934E-01
  0.17208E-02 -0.14906E-02 -0.19934E-01
  0.32066E-02  0.76539E-03 -0.19934E-01
  0.28045E-02  0.12498E-02 -0.19934E-01
  0.23053E-02  0.18667E-02 -0.19934E-01
 -0.40545E-03  0.28984E-02 -0.19934E-01
 -0.12092E-02  0.27184E-02 -0.19934E-01
 -0.19446E-02  0.24631E-02 -0.19934E-01
 -0.25027E-02  0.22359E-02 -0.19934E-01
 -0.26366E-02  0.16503E-02 -0.19934E-01
 -0.27655E-02  0.87623E-03 -0.19934E-01
 -0.21130E-02 -0.21374E-02 -0.19934E-01
 -0.16089E-02 -0.26932E-02 -0.19934E-01
 -0.11944E-02 -0.31291E-02 -0.19934E-01
 -0.58816E-03 -0.30382E-02 -0.19934E-01
  0.20709E-03 -0.28748E-02 -0.19934E-01
  0.10571E-02 -0.26436E-02 -0.19934E-01
  0.18415E-02 -0.23717E-02 -0.19934E-01
  0.24550E-02 -0.21472E-02 -0.19934E-01
  0.26025E-02 -0.15100E-02 -0.19934E-01
  0.37964E-02  0.93572E-03 -0.19934E-01
  0.39100E-02  0.00000E+00 -0.19934E-01
  0.34621E-02  0.18171E-02 -0.19934E-01
  0.29267E-02  0.25928E-02 -0.19934E-01
  0.22211E-02  0.32179E-02 -0.19934E-01
  0.13865E-02  0.36559E-02 -0.19934E-01
  0.47130E-03  0.38815E-02 -0.19934E-01
 -0.47130E-03  0.38815E-02 -0.19934E-01
 -0.13865E-02  0.36559E-02 -0.19934E-01
 -0.22211E-02  0.32179E-02 -0.19934E-01
 -0.29267E-02  0.25928E-02 -0.19934E-01
 -0.34621E-02  0.18171E-02 -0.19934E-01
 -0.37964E-02  0.93572E-03 -0.19934E-01
 -0.39100E-02 -0.47884E-18 -0.19934E-01
 -0.37964E-02 -0.93572E-03 -0.19934E-01
 -0.34621E-02 -0.18171E-02 -0.19934E-01
 -0.29267E-02 -0.25928E-02 -0.19934E-01
 -0.22211E-02 -0.32179E-02 -0.19934E-01
 -0.13865E-02 -0.36559E-02 -0.19934E-01
 -0.47130E-03 -0.38815E-02 -0.19934E-01
  0.47130E-03 -0.38815E-02 -0.19934E-01
  0.13865E-02 -0.36559E-02 -0.19934E-01
  0.22211E-02 -0.32179E-02 -0.19934E-01
  0.29267E-02 -0.25928E-02 -0.19934E-01
  0.34621E-02 -0.18171E-02 -0.19934E-01
  0.37964E-02 -0.93572E-03 -0.19934E-01
  0.10371E-02  0.67625E-03 -0.18955E-01
  0.17441E-02  0.12348E-02 -0.18955E-01
  0.23169E-02  0.59465E-03 -0.18955E-01
  0.16685E-02 -0.33323E-03 -0.18955E-01
  0.30376E-02  0.15100E-03 -0.18955E-01
  0.27812E-02 -0.67347E-03 -0.18955E-01
  0.12844E-02  0.18423E-02 -0.18955E-01
  0.64992E-03  0.14636E-02 -0.18955E-01
  0.12600E-03  0.30622E-03 -0.18955E-01
 -0.12933E-03  0.11777E-02 -0.18955E-01
  0.94301E-03  0.22755E-02 -0.18955E-01
  0.11306E-02  0.28260E-02 -0.18955E-01
  0.17467E-02  0.24247E-02 -0.18955E-01
  0.40556E-03  0.21687E-02 -0.18955E-01
  0.39769E-03  0.29351E-02 -0.18955E-01
 -0.76515E-03 -0.10042E-02 -0.18955E-01
 -0.86670E-03  0.83825E-04 -0.18955E-01
  0.45850E-03 -0.69882E-03 -0.18955E-01
 -0.18318E-02 -0.71112E-03 -0.18955E-01
 -0.18434E-02  0.83490E-04 -0.18955E-01
 -0.27236E-02 -0.77763E-03 -0.18955E-01
 -0.28011E-02  0.42353E-04 -0.18955E-01
 -0.25374E-02 -0.15192E-02 -0.18955E-01
 -0.19313E-02 -0.13223E-02 -0.18955E-01
 -0.99277E-03  0.99661E-03 -0.18955E-01
 -0.14401E-02 -0.17322E-02 -0.18955E-01
 -0.31454E-03  0.20237E-02 -0.18955E-01
 -0.11047E-02  0.18607E-02 -0.18955E-01
 -0.18842E-02  0.17175E-02 -0.18955E-01
 -0.18705E-02  0.91084E-03 -0.18955E-01
 -0.16036E-03 -0.19801E-02 -0.18955E-01
 -0.94448E-03 -0.23491E-02 -0.18955E-01
  0.78460E-03 -0.17074E-02 -0.18955E-01
  0.17208E-02 -0.14909E-02 -0.18955E-01
  0.32070E-02  0.76640E-03 -0.18955E-01
  0.28045E-02  0.12503E-02 -0.18955E-01
  0.23052E-02  0.18667E-02 -0.18955E-01
 -0.40531E-03  0.28974E-02 -0.18955E-01
 -0.12092E-02  0.27179E-02 -0.18955E-01
 -0.19445E-02  0.24629E-02 -0.18955E-01
 -0.25027E-02  0.22359E-02 -0.18955E-01
 -0.26366E-02  0.16503E-02 -0.18955E-01
 -0.27652E-02  0.87650E-03 -0.18955E-01
 -0.21132E-02 -0.21374E-02 -0.18955E-01
 -0.16090E-02 -0.26933E-02 -0.18955E-01
 -0.11946E-02 -0.31291E-02 -0.18955E-01
 -0.58851E-03 -0.30382E-02 -0.18955E-01
  0.20668E-03 -0.28749E-02 -0.18955E-01
  0.10567E-02 -0.26439E-02 -0.18955E-01
  0.18416E-02 -0.23719E-02 -0.18955E-01
  0.24551E-02 -0.21478E-02 -0.18955E-01
  0.26026E-02 -0.15099E-02 -0.18955E-01
  0.37964E-02  0.93572E-03 -0.18955E-01
  0.39100E-02  0.00000E+00 -0.18955E-01
  0.34621E-02  0.18171E-02 -0.18955E-01
  0.29267E-02  0.25928E-02 -0.18955E-01
  0.22211E-02  0.32179E-02 -0.18955E-01
  0.13865E-02  0.36559E-02 -0.18955E-01
  0.47130E-03  0.38815E-02 -0.18955E-01
 -0.47130E-03  0.38815E-02 -0.18955E-01
 -0.13865E-02  0.36559E-02 -0.18955E-01
 -0.22211E-02  0.32179E-02 -0.18955E-01
 -0.29267E-02  0.25928E-02 -0.18955E-01
 -0.34621E-02  0.18171E-02 -0.18955E-01
 -0.37964E-02  0.93572E-03 -0.18955E-01
 -0.39100E-02 -0.47884E-18 -0.18955E-01
 -0.37964E-02 -0.93572E-03 -0.18955E-01
 -0.34621E-02 -0.18171E-02 -0.18955E-01
 -0.29267E-02 -0.25928E-02 -0.18955E-01
 -0.22211E-02 -0.32179E-02 -0.18955E-01
 -0.13865E-02 -0.36559E-02 -0.18955E-01
 -0.47130E-03 -0.38815E-02 -0.18955E-01
  0.47130E-03 -0.38815E-02 -0.18955E-01
  0.13865E-02 -0.36559E-02 -0.18955E-01
  0.22211E-02 -0.32179E-02 -0.18955E-01
  0.29267E-02 -0.25928E-02 -0.18955E-01
  0.34621E-02 -0.18171E-02 -0.18955E-01
  0.37964E-02 -0.93572E-03 -0.18955E-01
  0.10370E-02  0.67680E-03 -0.17976E-01
  0.17439E-02  0.12354E-02 -0.17976E-01
  0.23168E-02  0.59517E-03 -0.17976E-01
  0.16683E-02 -0.33247E-03 -0.17976E-01
  0.30375E-02  0.15136E-03 -0.17976E-01
  0.27815E-02 -0.67298E-03 -0.17976E-01
  0.12843E-02  0.18425E-02 -0.17976E-01
  0.64967E-03  0.14646E-02 -0.17976E-01
  0.12573E-03  0.30737E-03 -0.17976E-01
 -0.12952E-03  0.11795E-02 -0.17976E-01
  0.94268E-03  0.22757E-02 -0.17976E-01
  0.11303E-02  0.28255E-02 -0.17976E-01
  0.17463E-02  0.24248E-02 -0.17976E-01
  0.40550E-03  0.21687E-02 -0.17976E-01
  0.39767E-03  0.29348E-02 -0.17976E-01
 -0.76551E-03 -0.10043E-02 -0.17976E-01
 -0.86680E-03  0.84634E-04 -0.17976E-01
  0.45806E-03 -0.69810E-03 -0.17976E-01
 -0.18321E-02 -0.71098E-03 -0.17976E-01
 -0.18433E-02  0.83614E-04 -0.17976E-01
 -0.27236E-02 -0.77746E-03 -0.17976E-01
 -0.28009E-02  0.42626E-04 -0.17976E-01
 -0.25375E-02 -0.15191E-02 -0.17976E-01
 -0.19317E-02 -0.13223E-02 -0.17976E-01
 -0.99262E-03  0.99797E-03 -0.17976E-01
 -0.14405E-02 -0.17322E-02 -0.17976E-01
 -0.31434E-03  0.20240E-02 -0.17976E-01
 -0.11044E-02  0.18606E-02 -0.17976E-01
 -0.18842E-02  0.17175E-02 -0.17976E-01
 -0.18704E-02  0.91108E-03 -0.17976E-01
 -0.16064E-03 -0.19802E-02 -0.17976E-01
 -0.94508E-03 -0.23491E-02 -0.17976E-01
  0.78394E-03 -0.17074E-02 -0.17976E-01
  0.17208E-02 -0.14911E-02 -0.17976E-01
  0.32073E-02  0.76740E-03 -0.17976E-01
  0.28045E-02  0.12507E-02 -0.17976E-01
  0.23051E-02  0.18668E-02 -0.17976E-01
 -0.40517E-03  0.28963E-02 -0.17976E-01
 -0.12092E-02  0.27174E-02 -0.17976E-01
 -0.19445E-02  0.24627E-02 -0.17976E-01
 -0.25026E-02  0.22358E-02 -0.17976E-01
 -0.26365E-02  0.16503E-02 -0.17976E-01
 -0.27649E-02  0.87676E-03 -0.17976E-01
 -0.21133E-02 -0.21374E-02 -0.17976E-01
 -0.16090E-02 -0.26933E-02 -0.17976E-01
 -0.11947E-02 -0.31291E-02 -0.17976E-01
 -0.58886E-03 -0.30382E-02 -0.17976E-01
  0.20627E-03 -0.28749E-02 -0.17976E-01
  0.10564E-02 -0.26442E-02 -0.17976E-01
  0.18416E-02 -0.23721E-02 -0.17976E-01
  0.24553E-02 -0.21483E-02 -0.17976E-01
  0.26027E-02 -0.15097E-02 -0.17976E-01
  0.37964E-02  0.93572E-03 -0.17976E-01
  0.39100E-02  0.00000E+00 -0.17976E-01
  0.34621E-02  0.18171E-02 -0.17976E-01
  0.29267E-02  0.25928E-02 -0.17976E-01
  0.22211E-02  0.32179E-02 -0.17976E-01
  0.13865E-02  0.36559E-02 -0.17976E-01
  0.47130E-03  0.38815E-02 -0.17976E-01
 -0.47130E-03  0.38815E-02 -0.17976E-01
 -0.13865E-02  0.36559E-02 -0.17976E-01
 -0.22211E-02  0.32179E-02 -0.17976E-01
 -0.29267E-02  0.25928E-02 -0.17976E-01
 -0.34621E-02  0.18171E-02 -0.17976E-01
 -0.37964E-02  0.93572E-03 -0.17976E-01
 -0.39100E-02 -0.47884E-18 -0.17976E-01
 -0.37964E-02 -0.93572E-03 -0.17976E-01
 -0.34621E-02 -0.18171E-02 -0.17976E-01
 -0.29267E-02 -0.25928E-02 -0.17976E-01
 -0.22211E-02 -0.32179E-02 -0.17976E-01
 -0.13865E-02 -0.36559E-02 -0.17976E-01
 -0.47130E-03 -0.38815E-02 -0.17976E-01
  0.47130E-03 -0.38815E-02 -0.17976E-01
  0.13865E-02 -0.36559E-02 -0.17976E-01
  0.22211E-02 -0.32179E-02 -0.17976E-01
  0.29267E-02 -0.25928E-02 -0.17976E-01
  0.34621E-02 -0.18171E-02 -0.17976E-01
  0.37964E-02 -0.93572E-03 -0.17976E-01
  0.10368E-02  0.67736E-03 -0.16997E-01
  0.17438E-02  0.12361E-02 -0.16997E-01
  0.23167E-02  0.59570E-03 -0.16997E-01
  0.16681E-02 -0.33172E-03 -0.16997E-01
  0.30375E-02  0.15173E-03 -0.16997E-01
  0.27819E-02 -0.67248E-03 -0.16997E-01
  0.12842E-02  0.18427E-02 -0.16997E-01
  0.64943E-03  0.14656E-02 -0.16997E-01
  0.12547E-03  0.30852E-03 -0.16997E-01
 -0.12970E-03  0.11812E-02 -0.16997E-01
  0.94235E-03  0.22758E-02 -0.16997E-01
  0.11300E-02  0.28251E-02 -0.16997E-01
  0.17459E-02  0.24249E-02 -0.16997E-01
  0.40545E-03  0.21688E-02 -0.16997E-01
  0.39766E-03  0.29345E-02 -0.16997E-01
 -0.76586E-03 -0.10044E-02 -0.16997E-01
 -0.86691E-03  0.85443E-04 -0.16997E-01
  0.45761E-03 -0.69737E-03 -0.16997E-01
 -0.18324E-02 -0.71084E-03 -0.16997E-01
 -0.18432E-02  0.83737E-04 -0.16997E-01
 -0.27236E-02 -0.77729E-03 -0.16997E-01
 -0.28006E-02  0.42899E-04 -0.16997E-01
 -0.25377E-02 -0.15191E-02 -0.16997E-01
 -0.19322E-02 -0.13222E-02 -0.16997E-01
 -0.99248E-03  0.99932E-03 -0.16997E-01
 -0.14408E-02 -0.17322E-02 -0.16997E-01
 -0.31414E-03  0.20243E-02 -0.16997E-01
 -0.11040E-02  0.18605E-02 -0.16997E-01
 -0.18841E-02  0.17175E-02 -0.16997E-01
 -0.18703E-02  0.91132E-03 -0.16997E-01
 -0.16091E-03 -0.19802E-02 -0.16997E-01
 -0.94568E-03 -0.23491E-02 -0.16997E-01
  0.78328E-03 -0.17074E-02 -0.16997E-01
  0.17207E-02 -0.14914E-02 -0.16997E-01
  0.32076E-02  0.76841E-03 -0.16997E-01
  0.28044E-02  0.12511E-02 -0.16997E-01
  0.23050E-02  0.18668E-02 -0.16997E-01
 -0.40503E-03  0.28952E-02 -0.16997E-01
 -0.12092E-02  0.27170E-02 -0.16997E-01
 -0.19445E-02  0.24624E-02 -0.16997E-01
 -0.25026E-02  0.22358E-02 -0.16997E-01
 -0.26364E-02  0.16503E-02 -0.16997E-01
 -0.27646E-02  0.87702E-03 -0.16997E-01
 -0.21134E-02 -0.21374E-02 -0.16997E-01
 -0.16091E-02 -0.26933E-02 -0.16997E-01
 -0.11948E-02 -0.31291E-02 -0.16997E-01
 -0.58921E-03 -0.30382E-02 -0.16997E-01
  0.20587E-03 -0.28749E-02 -0.16997E-01
  0.10561E-02 -0.26444E-02 -0.16997E-01
  0.18416E-02 -0.23723E-02 -0.16997E-01
  0.24554E-02 -0.21489E-02 -0.16997E-01
  0.26027E-02 -0.15096E-02 -0.16997E-01
  0.37964E-02  0.93572E-03 -0.16997E-01
  0.39100E-02  0.00000E+00 -0.16997E-01
  0.34621E-02  0.18171E-02 -0.16997E-01
  0.29267E-02  0.25928E-02 -0.16997E-01
  0.22211E-02  0.32179E-02 -0.16997E-01
  0.13865E-02  0.36559E-02 -0.16997E-01
  0.47130E-03  0.38815E-02 -0.16997E-01
 -0.47130E-03  0.38815E-02 -0.16997E-01
 -0.13865E-02  0.36559E-02 -0.16997E-01
 -0.22211E-02  0.32179E-02 -0.16997E-01
 -0.29267E-02  0.25928E-02 -0.16997E-01
 -0.34621E-02  0.18171E-02 -0.16997E-01
 -0.37964E-02  0.93572E-03 -0.16997E-01
 -0.39100E-02 -0.47884E-18 -0.16997E-01
 -0.37964E-02 -0.93572E-03 -0.16997E-01
 -0.34621E-02 -0.18171E-02 -0.16997E-01
 -0.29267E-02 -0.25928E-02 -0.16997E-01
 -0.22211E-02 -0.32179E-02 -0.16997E-01
 -0.13865E-02 -0.36559E-02 -0.16997E-01
 -0.47130E-03 -0.38815E-02 -0.16997E-01
  0.47130E-03 -0.38815E-02 -0.16997E-01
  0.13865E-02 -0.36559E-02 -0.16997E-01
  0.22211E-02 -0.32179E-02 -0.16997E-01
  0.29267E-02 -0.25928E-02 -0.16997E-01
  0.34621E-02 -0.18171E-02 -0.16997E-01
  0.37964E-02 -0.93572E-03 -0.16997E-01
  0.10367E-02  0.67791E-03 -0.16018E-01
  0.17436E-02  0.12368E-02 -0.16018E-01
  0.23166E-02  0.59622E-03 -0.16018E-01
  0.16679E-02 -0.33096E-03 -0.16018E-01
  0.30375E-02  0.15209E-03 -0.16018E-01
  0.27822E-02 -0.67199E-03 -0.16018E-01
  0.12841E-02  0.18429E-02 -0.16018E-01
  0.64918E-03  0.14666E-02 -0.16018E-01
  0.12521E-03  0.30967E-03 -0.16018E-01
 -0.12989E-03  0.11830E-02 -0.16018E-01
  0.94202E-03  0.22759E-02 -0.16018E-01
  0.11296E-02  0.28247E-02 -0.16018E-01
  0.17455E-02  0.24251E-02 -0.16018E-01
  0.40539E-03  0.21688E-02 -0.16018E-01
  0.39764E-03  0.29343E-02 -0.16018E-01
 -0.76621E-03 -0.10046E-02 -0.16018E-01
 -0.86702E-03  0.86253E-04 -0.16018E-01
  0.45716E-03 -0.69665E-03 -0.16018E-01
 -0.18326E-02 -0.71070E-03 -0.16018E-01
 -0.18431E-02  0.83861E-04 -0.16018E-01
 -0.27235E-02 -0.77712E-03 -0.16018E-01
 -0.28003E-02  0.43173E-04 -0.16018E-01
 -0.25379E-02 -0.15190E-02 -0.16018E-01
 -0.19326E-02 -0.13220E-02 -0.16018E-01
 -0.99233E-03  0.10007E-02 -0.16018E-01
 -0.14412E-02 -0.17321E-02 -0.16018E-01
 -0.31394E-03  0.20245E-02 -0.16018E-01
 -0.11037E-02  0.18603E-02 -0.16018E-01
 -0.18841E-02  0.17175E-02 -0.16018E-01
 -0.18701E-02  0.91156E-03 -0.16018E-01
 -0.16119E-03 -0.19802E-02 -0.16018E-01
 -0.94628E-03 -0.23491E-02 -0.16018E-01
  0.78262E-03 -0.17074E-02 -0.16018E-01
  0.17207E-02 -0.14916E-02 -0.16018E-01
  0.32079E-02  0.76941E-03 -0.16018E-01
  0.28044E-02  0.12515E-02 -0.16018E-01
  0.23049E-02  0.18668E-02 -0.16018E-01
 -0.40490E-03  0.28942E-02 -0.16018E-01
 -0.12093E-02  0.27165E-02 -0.16018E-01
 -0.19444E-02  0.24622E-02 -0.16018E-01
 -0.25026E-02  0.22358E-02 -0.16018E-01
 -0.26363E-02  0.16503E-02 -0.16018E-01
 -0.27643E-02  0.87728E-03 -0.16018E-01
 -0.21136E-02 -0.21374E-02 -0.16018E-01
 -0.16091E-02 -0.26933E-02 -0.16018E-01
 -0.11949E-02 -0.31291E-02 -0.16018E-01
 -0.58956E-03 -0.30382E-02 -0.16018E-01
  0.20546E-03 -0.28749E-02 -0.16018E-01
  0.10558E-02 -0.26447E-02 -0.16018E-01
  0.18417E-02 -0.23725E-02 -0.16018E-01
  0.24555E-02 -0.21494E-02 -0.16018E-01
  0.26028E-02 -0.15095E-02 -0.16018E-01
  0.37964E-02  0.93572E-03 -0.16018E-01
  0.39100E-02  0.00000E+00 -0.16018E-01
  0.34621E-02  0.18171E-02 -0.16018E-01
  0.29267E-02  0.25928E-02 -0.16018E-01
  0.22211E-02  0.32179E-02 -0.16018E-01
  0.13865E-02  0.36559E-02 -0.16018E-01
  0.47130E-03  0.38815E-02 -0.16018E-01
 -0.47130E-03  0.38815E-02 -0.16018E-01
 -0.13865E-02  0.36559E-02 -0.16018E-01
 -0.22211E-02  0.32179E-02 -0.16018E-01
 -0.29267E-02  0.25928E-02 -0.16018E-01
 -0.34621E-02  0.18171E-02 -0.16018E-01
 -0.37964E-02  0.93572E-03 -0.16018E-01
 -0.39100E-02 -0.47884E-18 -0.16018E-01
 -0.37964E-02 -0.93572E-03 -0.16018E-01
 -0.34621E-02 -0.18171E-02 -0.16018E-01
 -0.29267E-02 -0.25928E-02 -0.16018E-01
 -0.22211E-02 -0.32179E-02 -0.16018E-01
 -0.13865E-02 -0.36559E-02 -0.16018E-01
 -0.47130E-03 -0.38815E-02 -0.16018E-01
  0.47130E-03 -0.38815E-02 -0.16018E-01
  0.13865E-02 -0.36559E-02 -0.16018E-01
  0.22211E-02 -0.32179E-02 -0.16018E-01
  0.29267E-02 -0.25928E-02 -0.16018E-01
  0.34621E-02 -0.18171E-02 -0.16018E-01
  0.37964E-02 -0.93572E-03 -0.16018E-01
  0.10366E-02  0.67847E-03 -0.15039E-01
  0.17434E-02  0.12374E-02 -0.15039E-01
  0.23164E-02  0.59674E-03 -0.15039E-01
  0.16677E-02 -0.33021E-03 -0.15039E-01
  0.30375E-02  0.15245E-03 -0.15039E-01
  0.27825E-02 -0.67150E-03 -0.15039E-01
  0.12840E-02  0.18430E-02 -0.15039E-01
  0.64894E-03  0.14676E-02 -0.15039E-01
  0.12495E-03  0.31081E-03 -0.15039E-01
 -0.13007E-03  0.11847E-02 -0.15039E-01
  0.94169E-03  0.22761E-02 -0.15039E-01
  0.11293E-02  0.28242E-02 -0.15039E-01
  0.17451E-02  0.24252E-02 -0.15039E-01
  0.40534E-03  0.21688E-02 -0.15039E-01
  0.39762E-03  0.29340E-02 -0.15039E-01
 -0.76657E-03 -0.10047E-02 -0.15039E-01
 -0.86713E-03  0.87062E-04 -0.15039E-01
  0.45671E-03 -0.69592E-03 -0.15039E-01
 -0.18329E-02 -0.71056E-03 -0.15039E-01
 -0.18430E-02  0.83985E-04 -0.15039E-01
 -0.27235E-02 -0.77695E-03 -0.15039E-01
 -0.28001E-02  0.43446E-04 -0.15039E-01
 -0.25380E-02 -0.15190E-02 -0.15039E-01
 -0.19330E-02 -0.13219E-02 -0.15039E-01
 -0.99219E-03  0.10020E-02 -0.15039E-01
 -0.14415E-02 -0.17321E-02 -0.15039E-01
 -0.31374E-03  0.20248E-02 -0.15039E-01
 -0.11033E-02  0.18602E-02 -0.15039E-01
 -0.18840E-02  0.17175E-02 -0.15039E-01
 -0.18700E-02  0.91180E-03 -0.15039E-01
 -0.16146E-03 -0.19803E-02 -0.15039E-01
 -0.94687E-03 -0.23491E-02 -0.15039E-01
  0.78195E-03 -0.17073E-02 -0.15039E-01
  0.17207E-02 -0.14919E-02 -0.15039E-01
  0.32083E-02  0.77042E-03 -0.15039E-01
  0.28044E-02  0.12520E-02 -0.15039E-01
  0.23048E-02  0.18669E-02 -0.15039E-01
 -0.40476E-03  0.28931E-02 -0.15039E-01
 -0.12093E-02  0.27160E-02 -0.15039E-01
 -0.19444E-02  0.24620E-02 -0.15039E-01
 -0.25026E-02  0.22358E-02 -0.15039E-01
 -0.26362E-02  0.16503E-02 -0.15039E-01
 -0.27640E-02  0.87754E-03 -0.15039E-01
 -0.21137E-02 -0.21374E-02 -0.15039E-01
 -0.16091E-02 -0.26933E-02 -0.15039E-01
 -0.11950E-02 -0.31291E-02 -0.15039E-01
 -0.58991E-03 -0.30382E-02 -0.15039E-01
  0.20505E-03 -0.28749E-02 -0.15039E-01
  0.10555E-02 -0.26450E-02 -0.15039E-01
  0.18417E-02 -0.23727E-02 -0.15039E-01
  0.24556E-02 -0.21500E-02 -0.15039E-01
  0.26029E-02 -0.15094E-02 -0.15039E-01
  0.37964E-02  0.93572E-03 -0.15039E-01
  0.39100E-02  0.00000E+00 -0.15039E-01
  0.34621E-02  0.18171E-02 -0.15039E-01
  0.29267E-02  0.25928E-02 -0.15039E-01
  0.22211E-02  0.32179E-02 -0.15039E-01
  0.13865E-02  0.36559E-02 -0.15039E-01
  0.47130E-03  0.38815E-02 -0.15039E-01
 -0.47130E-03  0.38815E-02 -0.15039E-01
 -0.13865E-02  0.36559E-02 -0.15039E-01
 -0.22211E-02  0.32179E-02 -0.15039E-01
 -0.29267E-02  0.25928E-02 -0.15039E-01
 -0.34621E-02  0.18171E-02 -0.15039E-01
 -0.37964E-02  0.93572E-03 -0.15039E-01
 -0.39100E-02  0.39516E-17 -0.15039E-01
 -0.37964E-02 -0.93572E-03 -0.15039E-01
 -0.34621E-02 -0.18171E-02 -0.15039E-01
 -0.29267E-02 -0.25928E-02 -0.15039E-01
 -0.22211E-02 -0.32179E-02 -0.15039E-01
 -0.13865E-02 -0.36559E-02 -0.15039E-01
 -0.47130E-03 -0.38815E-02 -0.15039E-01
  0.47130E-03 -0.38815E-02 -0.15039E-01
  0.13865E-02 -0.36559E-02 -0.15039E-01
  0.22211E-02 -0.32179E-02 -0.15039E-01
  0.29267E-02 -0.25928E-02 -0.15039E-01
  0.34621E-02 -0.18171E-02 -0.15039E-01
  0.37964E-02 -0.93572E-03 -0.15039E-01
  0.10365E-02  0.67902E-03 -0.14059E-01
  0.17432E-02  0.12381E-02 -0.14059E-01
  0.23163E-02  0.59727E-03 -0.14059E-01
  0.16675E-02 -0.32945E-03 -0.14059E-01
  0.30374E-02  0.15282E-03 -0.14059E-01
  0.27829E-02 -0.67100E-03 -0.14059E-01
  0.12839E-02  0.18432E-02 -0.14059E-01
  0.64869E-03  0.14686E-02 -0.14059E-01
  0.12468E-03  0.31196E-03 -0.14059E-01
 -0.13026E-03  0.11865E-02 -0.14059E-01
  0.94135E-03  0.22762E-02 -0.14059E-01
  0.11289E-02  0.28238E-02 -0.14059E-01
  0.17447E-02  0.24254E-02 -0.14059E-01
  0.40528E-03  0.21688E-02 -0.14059E-01
  0.39760E-03  0.29337E-02 -0.14059E-01
 -0.76692E-03 -0.10049E-02 -0.14059E-01
 -0.86724E-03  0.87871E-04 -0.14059E-01
  0.45626E-03 -0.69519E-03 -0.14059E-01
 -0.18332E-02 -0.71042E-03 -0.14059E-01
 -0.18430E-02  0.84108E-04 -0.14059E-01
 -0.27235E-02 -0.77678E-03 -0.14059E-01
 -0.27998E-02  0.43720E-04 -0.14059E-01
 -0.25382E-02 -0.15189E-02 -0.14059E-01
 -0.19334E-02 -0.13219E-02 -0.14059E-01
 -0.99205E-03  0.10034E-02 -0.14059E-01
 -0.14419E-02 -0.17320E-02 -0.14059E-01
 -0.31354E-03  0.20251E-02 -0.14059E-01
 -0.11030E-02  0.18601E-02 -0.14059E-01
 -0.18840E-02  0.17175E-02 -0.14059E-01
 -0.18699E-02  0.91204E-03 -0.14059E-01
 -0.16174E-03 -0.19803E-02 -0.14059E-01
 -0.94747E-03 -0.23492E-02 -0.14059E-01
  0.78129E-03 -0.17073E-02 -0.14059E-01
  0.17206E-02 -0.14921E-02 -0.14059E-01
  0.32086E-02  0.77142E-03 -0.14059E-01
  0.28044E-02  0.12524E-02 -0.14059E-01
  0.23047E-02  0.18669E-02 -0.14059E-01
 -0.40462E-03  0.28920E-02 -0.14059E-01
 -0.12093E-02  0.27155E-02 -0.14059E-01
 -0.19444E-02  0.24618E-02 -0.14059E-01
 -0.25025E-02  0.22358E-02 -0.14059E-01
 -0.26361E-02  0.16503E-02 -0.14059E-01
 -0.27637E-02  0.87781E-03 -0.14059E-01
 -0.21139E-02 -0.21374E-02 -0.14059E-01
 -0.16092E-02 -0.26934E-02 -0.14059E-01
 -0.11951E-02 -0.31291E-02 -0.14059E-01
 -0.59025E-03 -0.30382E-02 -0.14059E-01
  0.20465E-03 -0.28749E-02 -0.14059E-01
  0.10552E-02 -0.26452E-02 -0.14059E-01
  0.18418E-02 -0.23729E-02 -0.14059E-01
  0.24558E-02 -0.21505E-02 -0.14059E-01
  0.26030E-02 -0.15093E-02 -0.14059E-01
  0.37964E-02  0.93572E-03 -0.14059E-01
  0.39100E-02  0.00000E+00 -0.14059E-01
  0.34621E-02  0.18171E-02 -0.14059E-01
  0.29267E-02  0.25928E-02 -0.14059E-01
  0.22211E-02  0.32179E-02 -0.14059E-01
  0.13865E-02  0.36559E-02 -0.14059E-01
  0.47130E-03  0.38815E-02 -0.14059E-01
 -0.47130E-03  0.38815E-02 -0.14059E-01
 -0.13865E-02  0.36559E-02 -0.14059E-01
 -0.22211E-02  0.32179E-02 -0.14059E-01
 -0.29267E-02  0.25928E-02 -0.14059E-01
 -0.34621E-02  0.18171E-02 -0.14059E-01
 -0.37964E-02  0.93572E-03 -0.14059E-01
 -0.39100E-02 -0.47884E-18 -0.14059E-01
 -0.37964E-02 -0.93572E-03 -0.14059E-01
 -0.34621E-02 -0.18171E-02 -0.14059E-01
 -0.29267E-02 -0.25928E-02 -0.14059E-01
 -0.22211E-02 -0.32179E-02 -0.14059E-01
 -0.13865E-02 -0.36559E-02 -0.14059E-01
 -0.47130E-03 -0.38815E-02 -0.14059E-01
  0.47130E-03 -0.38815E-02 -0.14059E-01
  0.13865E-02 -0.36559E-02 -0.14059E-01
  0.22211E-02 -0.32179E-02 -0.14059E-01
  0.29267E-02 -0.25928E-02 -0.14059E-01
  0.34621E-02 -0.18171E-02 -0.14059E-01
  0.37964E-02 -0.93572E-03 -0.14059E-01
  0.10364E-02  0.67958E-03 -0.13080E-01
  0.17430E-02  0.12387E-02 -0.13080E-01
  0.23162E-02  0.59779E-03 -0.13080E-01
  0.16672E-02 -0.32870E-03 -0.13080E-01
  0.30374E-02  0.15318E-03 -0.13080E-01
  0.27832E-02 -0.67051E-03 -0.13080E-01
  0.12838E-02  0.18434E-02 -0.13080E-01
  0.64845E-03  0.14696E-02 -0.13080E-01
  0.12442E-03  0.31311E-03 -0.13080E-01
 -0.13044E-03  0.11882E-02 -0.13080E-01
  0.94102E-03  0.22763E-02 -0.13080E-01
  0.11286E-02  0.28233E-02 -0.13080E-01
  0.17443E-02  0.24255E-02 -0.13080E-01
  0.40523E-03  0.21689E-02 -0.13080E-01
  0.39759E-03  0.29335E-02 -0.13080E-01
 -0.76727E-03 -0.10050E-02 -0.13080E-01
 -0.86735E-03  0.88681E-04 -0.13080E-01
  0.45582E-03 -0.69447E-03 -0.13080E-01
 -0.18335E-02 -0.71028E-03 -0.13080E-01
 -0.18429E-02  0.84232E-04 -0.13080E-01
 -0.27235E-02 -0.77661E-03 -0.13080E-01
 -0.27995E-02  0.43993E-04 -0.13080E-01
 -0.25383E-02 -0.15189E-02 -0.13080E-01
 -0.19339E-02 -0.13218E-02 -0.13080E-01
 -0.99190E-03  0.10048E-02 -0.13080E-01
 -0.14422E-02 -0.17320E-02 -0.13080E-01
 -0.31334E-03  0.20254E-02 -0.13080E-01
 -0.11026E-02  0.18599E-02 -0.13080E-01
 -0.18839E-02  0.17175E-02 -0.13080E-01
 -0.18697E-02  0.91228E-03 -0.13080E-01
 -0.16201E-03 -0.19803E-02 -0.13080E-01
 -0.94807E-03 -0.23492E-02 -0.13080E-01
  0.78063E-03 -0.17073E-02 -0.13080E-01
  0.17206E-02 -0.14923E-02 -0.13080E-01
  0.32089E-02  0.77243E-03 -0.13080E-01
  0.28043E-02  0.12528E-02 -0.13080E-01
  0.23046E-02  0.18670E-02 -0.13080E-01
 -0.40448E-03  0.28910E-02 -0.13080E-01
 -0.12093E-02  0.27151E-02 -0.13080E-01
 -0.19443E-02  0.24615E-02 -0.13080E-01
 -0.25025E-02  0.22358E-02 -0.13080E-01
 -0.26360E-02  0.16503E-02 -0.13080E-01
 -0.27633E-02  0.87807E-03 -0.13080E-01
 -0.21140E-02 -0.21374E-02 -0.13080E-01
 -0.16092E-02 -0.26934E-02 -0.13080E-01
 -0.11953E-02 -0.31291E-02 -0.13080E-01
 -0.59060E-03 -0.30382E-02 -0.13080E-01
  0.20424E-03 -0.28749E-02 -0.13080E-01
  0.10549E-02 -0.26455E-02 -0.13080E-01
  0.18418E-02 -0.23732E-02 -0.13080E-01
  0.24559E-02 -0.21511E-02 -0.13080E-01
  0.26030E-02 -0.15092E-02 -0.13080E-01
  0.37964E-02  0.93572E-03 -0.13080E-01
  0.39100E-02  0.00000E+00 -0.13080E-01
  0.34621E-02  0.18171E-02 -0.13080E-01
  0.29267E-02  0.25928E-02 -0.13080E-01
  0.22211E-02  0.32179E-02 -0.13080E-01
  0.13865E-02  0.36559E-02 -0.13080E-01
  0.47130E-03  0.38815E-02 -0.13080E-01
 -0.47130E-03  0.38815E-02 -0.13080E-01
 -0.13865E-02  0.36559E-02 -0.13080E-01
 -0.22211E-02  0.32179E-02 -0.13080E-01
 -0.29267E-02  0.25928E-02 -0.13080E-01
 -0.34621E-02  0.18171E-02 -0.13080E-01
 -0.37964E-02  0.93572E-03 -0.13080E-01
 -0.39100E-02  0.22152E-17 -0.13080E-01
 -0.37964E-02 -0.93572E-03 -0.13080E-01
 -0.34621E-02 -0.18171E-02 -0.13080E-01
 -0.29267E-02 -0.25928E-02 -0.13080E-01
 -0.22211E-02 -0.32179E-02 -0.13080E-01
 -0.13865E-02 -0.36559E-02 -0.13080E-01
 -0.47130E-03 -0.38815E-02 -0.13080E-01
  0.47130E-03 -0.38815E-02 -0.13080E-01
  0.13865E-02 -0.36559E-02 -0.13080E-01
  0.22211E-02 -0.32179E-02 -0.13080E-01
  0.29267E-02 -0.25928E-02 -0.13080E-01
  0.34621E-02 -0.18171E-02 -0.13080E-01
  0.37964E-02 -0.93572E-03 -0.13080E-01
  0.10363E-02  0.68013E-03 -0.12101E-01
  0.17429E-02  0.12394E-02 -0.12101E-01
  0.23161E-02  0.59831E-03 -0.12101E-01
  0.16670E-02 -0.32794E-03 -0.12101E-01
  0.30374E-02  0.15354E-03 -0.12101E-01
  0.27836E-02 -0.67002E-03 -0.12101E-01
  0.12837E-02  0.18436E-02 -0.12101E-01
  0.64820E-03  0.14706E-02 -0.12101E-01
  0.12416E-03  0.31426E-03 -0.12101E-01
 -0.13063E-03  0.11900E-02 -0.12101E-01
  0.94069E-03  0.22765E-02 -0.12101E-01
  0.11282E-02  0.28229E-02 -0.12101E-01
  0.17439E-02  0.24257E-02 -0.12101E-01
  0.40518E-03  0.21689E-02 -0.12101E-01
  0.39757E-03  0.29332E-02 -0.12101E-01
 -0.76763E-03 -0.10051E-02 -0.12101E-01
 -0.86746E-03  0.89490E-04 -0.12101E-01
  0.45537E-03 -0.69374E-03 -0.12101E-01
 -0.18338E-02 -0.71013E-03 -0.12101E-01
 -0.18428E-02  0.84355E-04 -0.12101E-01
 -0.27234E-02 -0.77644E-03 -0.12101E-01
 -0.27992E-02  0.44266E-04 -0.12101E-01
 -0.25385E-02 -0.15188E-02 -0.12101E-01
 -0.19343E-02 -0.13216E-02 -0.12101E-01
 -0.99176E-03  0.10061E-02 -0.12101E-01
 -0.14425E-02 -0.17320E-02 -0.12101E-01
 -0.31314E-03  0.20257E-02 -0.12101E-01
 -0.11023E-02  0.18598E-02 -0.12101E-01
 -0.18839E-02  0.17175E-02 -0.12101E-01
 -0.18696E-02  0.91252E-03 -0.12101E-01
 -0.16229E-03 -0.19803E-02 -0.12101E-01
 -0.94867E-03 -0.23492E-02 -0.12101E-01
  0.77997E-03 -0.17073E-02 -0.12101E-01
  0.17205E-02 -0.14926E-02 -0.12101E-01
  0.32092E-02  0.77343E-03 -0.12101E-01
  0.28043E-02  0.12533E-02 -0.12101E-01
  0.23044E-02  0.18670E-02 -0.12101E-01
 -0.40434E-03  0.28899E-02 -0.12101E-01
 -0.12093E-02  0.27146E-02 -0.12101E-01
 -0.19443E-02  0.24613E-02 -0.12101E-01
 -0.25025E-02  0.22358E-02 -0.12101E-01
 -0.26359E-02  0.16503E-02 -0.12101E-01
 -0.27630E-02  0.87833E-03 -0.12101E-01
 -0.21141E-02 -0.21374E-02 -0.12101E-01
 -0.16093E-02 -0.26934E-02 -0.12101E-01
 -0.11954E-02 -0.31291E-02 -0.12101E-01
 -0.59095E-03 -0.30382E-02 -0.12101E-01
  0.20384E-03 -0.28750E-02 -0.12101E-01
  0.10546E-02 -0.26458E-02 -0.12101E-01
  0.18419E-02 -0.23734E-02 -0.12101E-01
  0.24560E-02 -0.21516E-02 -0.12101E-01
  0.26031E-02 -0.15091E-02 -0.12101E-01
  0.37964E-02  0.93572E-03 -0.12101E-01
  0.39100E-02  0.00000E+00 -0.12101E-01
  0.34621E-02  0.18171E-02 -0.12101E-01
  0.29267E-02  0.25928E-02 -0.12101E-01
  0.22211E-02  0.32179E-02 -0.12101E-01
  0.13865E-02  0.36559E-02 -0.12101E-01
  0.47130E-03  0.38815E-02 -0.12101E-01
 -0.47130E-03  0.38815E-02 -0.12101E-01
 -0.13865E-02  0.36559E-02 -0.12101E-01
 -0.22211E-02  0.32179E-02 -0.12101E-01
 -0.29267E-02  0.25928E-02 -0.12101E-01
 -0.34621E-02  0.18171E-02 -0.12101E-01
 -0.37964E-02  0.93572E-03 -0.12101E-01
 -0.39100E-02 -0.47884E-18 -0.12101E-01
 -0.37964E-02 -0.93572E-03 -0.12101E-01
 -0.34621E-02 -0.18171E-02 -0.12101E-01
 -0.29267E-02 -0.25928E-02 -0.12101E-01
 -0.22211E-02 -0.32179E-02 -0.12101E-01
 -0.13865E-02 -0.36559E-02 -0.12101E-01
 -0.47130E-03 -0.38815E-02 -0.12101E-01
  0.47130E-03 -0.38815E-02 -0.12101E-01
  0.13865E-02 -0.36559E-02 -0.12101E-01
  0.22211E-02 -0.32179E-02 -0.12101E-01
  0.29267E-02 -0.25928E-02 -0.12101E-01
  0.34621E-02 -0.18171E-02 -0.12101E-01
  0.37964E-02 -0.93572E-03 -0.12101E-01
  0.10362E-02  0.68068E-03 -0.11122E-01
  0.17427E-02  0.12401E-02 -0.11122E-01
  0.23160E-02  0.59884E-03 -0.11122E-01
  0.16668E-02 -0.32719E-03 -0.11122E-01
  0.30373E-02  0.15391E-03 -0.11122E-01
  0.27839E-02 -0.66953E-03 -0.11122E-01
  0.12836E-02  0.18438E-02 -0.11122E-01
  0.64796E-03  0.14716E-02 -0.11122E-01
  0.12390E-03  0.31541E-03 -0.11122E-01
 -0.13082E-03  0.11917E-02 -0.11122E-01
  0.94036E-03  0.22766E-02 -0.11122E-01
  0.11279E-02  0.28225E-02 -0.11122E-01
  0.17435E-02  0.24258E-02 -0.11122E-01
  0.40512E-03  0.21690E-02 -0.11122E-01
  0.39755E-03  0.29330E-02 -0.11122E-01
 -0.76798E-03 -0.10053E-02 -0.11122E-01
 -0.86756E-03  0.90299E-04 -0.11122E-01
  0.45492E-03 -0.69302E-03 -0.11122E-01
 -0.18341E-02 -0.70999E-03 -0.11122E-01
 -0.18427E-02  0.84479E-04 -0.11122E-01
 -0.27234E-02 -0.77627E-03 -0.11122E-01
 -0.27990E-02  0.44540E-04 -0.11122E-01
 -0.25386E-02 -0.15188E-02 -0.11122E-01
 -0.19347E-02 -0.13215E-02 -0.11122E-01
 -0.99161E-03  0.10075E-02 -0.11122E-01
 -0.14429E-02 -0.17319E-02 -0.11122E-01
 -0.31294E-03  0.20260E-02 -0.11122E-01
 -0.11019E-02  0.18597E-02 -0.11122E-01
 -0.18838E-02  0.17175E-02 -0.11122E-01
 -0.18695E-02  0.91276E-03 -0.11122E-01
 -0.16256E-03 -0.19804E-02 -0.11122E-01
 -0.94927E-03 -0.23493E-02 -0.11122E-01
  0.77931E-03 -0.17073E-02 -0.11122E-01
  0.17205E-02 -0.14928E-02 -0.11122E-01
  0.32096E-02  0.77444E-03 -0.11122E-01
  0.28043E-02  0.12537E-02 -0.11122E-01
  0.23043E-02  0.18670E-02 -0.11122E-01
 -0.40420E-03  0.28888E-02 -0.11122E-01
 -0.12093E-02  0.27141E-02 -0.11122E-01
 -0.19443E-02  0.24611E-02 -0.11122E-01
 -0.25024E-02  0.22358E-02 -0.11122E-01
 -0.26358E-02  0.16503E-02 -0.11122E-01
 -0.27627E-02  0.87859E-03 -0.11122E-01
 -0.21143E-02 -0.21374E-02 -0.11122E-01
 -0.16093E-02 -0.26934E-02 -0.11122E-01
 -0.11955E-02 -0.31291E-02 -0.11122E-01
 -0.59130E-03 -0.30382E-02 -0.11122E-01
  0.20343E-03 -0.28750E-02 -0.11122E-01
  0.10543E-02 -0.26460E-02 -0.11122E-01
  0.18419E-02 -0.23736E-02 -0.11122E-01
  0.24561E-02 -0.21521E-02 -0.11122E-01
  0.26032E-02 -0.15090E-02 -0.11122E-01
  0.37964E-02  0.93572E-03 -0.11122E-01
  0.39100E-02  0.00000E+00 -0.11122E-01
  0.34621E-02  0.18171E-02 -0.11122E-01
  0.29267E-02  0.25928E-02 -0.11122E-01
  0.22211E-02  0.32179E-02 -0.11122E-01
  0.13865E-02  0.36559E-02 -0.11122E-01
  0.47130E-03  0.38815E-02 -0.11122E-01
 -0.47130E-03  0.38815E-02 -0.11122E-01
 -0.13865E-02  0.36559E-02 -0.11122E-01
 -0.22211E-02  0.32179E-02 -0.11122E-01
 -0.29267E-02  0.25928E-02 -0.11122E-01
 -0.34621E-02  0.18171E-02 -0.11122E-01
 -0.37964E-02  0.93572E-03 -0.11122E-01
 -0.39100E-02  0.22152E-17 -0.11122E-01
 -0.37964E-02 -0.93572E-03 -0.11122E-01
 -0.34621E-02 -0.18171E-02 -0.11122E-01
 -0.29267E-02 -0.25928E-02 -0.11122E-01
 -0.22211E-02 -0.32179E-02 -0.11122E-01
 -0.13865E-02 -0.36559E-02 -0.11122E-01
 -0.47130E-03 -0.38815E-02 -0.11122E-01
  0.47130E-03 -0.38815E-02 -0.11122E-01
  0.13865E-02 -0.36559E-02 -0.11122E-01
  0.22211E-02 -0.32179E-02 -0.11122E-01
  0.29267E-02 -0.25928E-02 -0.11122E-01
  0.34621E-02 -0.18171E-02 -0.11122E-01
  0.37964E-02 -0.93572E-03 -0.11122E-01
  0.10360E-02  0.68124E-03 -0.10143E-01
  0.17425E-02  0.12407E-02 -0.10143E-01
  0.23158E-02  0.59936E-03 -0.10143E-01
  0.16666E-02 -0.32643E-03 -0.10143E-01
  0.30373E-02  0.15427E-03 -0.10143E-01
  0.27842E-02 -0.66903E-03 -0.10143E-01
  0.12835E-02  0.18440E-02 -0.10143E-01
  0.64771E-03  0.14727E-02 -0.10143E-01
  0.12363E-03  0.31656E-03 -0.10143E-01
 -0.13100E-03  0.11935E-02 -0.10143E-01
  0.94003E-03  0.22767E-02 -0.10143E-01
  0.11276E-02  0.28220E-02 -0.10143E-01
  0.17432E-02  0.24260E-02 -0.10143E-01
  0.40507E-03  0.21690E-02 -0.10143E-01
  0.39754E-03  0.29327E-02 -0.10143E-01
 -0.76834E-03 -0.10054E-02 -0.10143E-01
 -0.86767E-03  0.91108E-04 -0.10143E-01
  0.45447E-03 -0.69229E-03 -0.10143E-01
 -0.18344E-02 -0.70985E-03 -0.10143E-01
 -0.18426E-02  0.84602E-04 -0.10143E-01
 -0.27234E-02 -0.77610E-03 -0.10143E-01
 -0.27987E-02  0.44813E-04 -0.10143E-01
 -0.25388E-02 -0.15187E-02 -0.10143E-01
 -0.19352E-02 -0.13215E-02 -0.10143E-01
 -0.99147E-03  0.10088E-02 -0.10143E-01
 -0.14433E-02 -0.17319E-02 -0.10143E-01
 -0.31274E-03  0.20262E-02 -0.10143E-01
 -0.11016E-02  0.18595E-02 -0.10143E-01
 -0.18838E-02  0.17175E-02 -0.10143E-01
 -0.18694E-02  0.91300E-03 -0.10143E-01
 -0.16284E-03 -0.19804E-02 -0.10143E-01
 -0.94986E-03 -0.23493E-02 -0.10143E-01
  0.77865E-03 -0.17073E-02 -0.10143E-01
  0.17205E-02 -0.14931E-02 -0.10143E-01
  0.32099E-02  0.77544E-03 -0.10143E-01
  0.28042E-02  0.12541E-02 -0.10143E-01
  0.23042E-02  0.18671E-02 -0.10143E-01
 -0.40407E-03  0.28877E-02 -0.10143E-01
 -0.12093E-02  0.27137E-02 -0.10143E-01
 -0.19442E-02  0.24609E-02 -0.10143E-01
 -0.25024E-02  0.22358E-02 -0.10143E-01
 -0.26358E-02  0.16503E-02 -0.10143E-01
 -0.27624E-02  0.87885E-03 -0.10143E-01
 -0.21144E-02 -0.21374E-02 -0.10143E-01
 -0.16094E-02 -0.26934E-02 -0.10143E-01
 -0.11956E-02 -0.31291E-02 -0.10143E-01
 -0.59165E-03 -0.30382E-02 -0.10143E-01
  0.20302E-03 -0.28750E-02 -0.10143E-01
  0.10540E-02 -0.26463E-02 -0.10143E-01
  0.18419E-02 -0.23738E-02 -0.10143E-01
  0.24563E-02 -0.21527E-02 -0.10143E-01
  0.26033E-02 -0.15088E-02 -0.10143E-01
  0.37964E-02  0.93572E-03 -0.10143E-01
  0.39100E-02  0.00000E+00 -0.10143E-01
  0.34621E-02  0.18171E-02 -0.10143E-01
  0.29267E-02  0.25928E-02 -0.10143E-01
  0.22211E-02  0.32179E-02 -0.10143E-01
  0.13865E-02  0.36559E-02 -0.10143E-01
  0.47130E-03  0.38815E-02 -0.10143E-01
 -0.47130E-03  0.38815E-02 -0.10143E-01
 -0.13865E-02  0.36559E-02 -0.10143E-01
 -0.22211E-02  0.32179E-02 -0.10143E-01
 -0.29267E-02  0.25928E-02 -0.10143E-01
 -0.34621E-02  0.18171E-02 -0.10143E-01
 -0.37964E-02  0.93572E-03 -0.10143E-01
 -0.39100E-02 -0.47884E-18 -0.10143E-01
 -0.37964E-02 -0.93572E-03 -0.10143E-01
 -0.34621E-02 -0.18171E-02 -0.10143E-01
 -0.29267E-02 -0.25928E-02 -0.10143E-01
 -0.22211E-02 -0.32179E-02 -0.10143E-01
 -0.13865E-02 -0.36559E-02 -0.10143E-01
 -0.47130E-03 -0.38815E-02 -0.10143E-01
  0.47130E-03 -0.38815E-02 -0.10143E-01
  0.13865E-02 -0.36559E-02 -0.10143E-01
  0.22211E-02 -0.32179E-02 -0.10143E-01
  0.29267E-02 -0.25928E-02 -0.10143E-01
  0.34621E-02 -0.18171E-02 -0.10143E-01
  0.37964E-02 -0.93572E-03 -0.10143E-01
  0.10359E-02  0.68179E-03 -0.91635E-02
  0.17423E-02  0.12414E-02 -0.91635E-02
  0.23157E-02  0.59988E-03 -0.91635E-02
  0.16664E-02 -0.32568E-03 -0.91635E-02
  0.30373E-02  0.15463E-03 -0.91635E-02
  0.27846E-02 -0.66854E-03 -0.91635E-02
  0.12834E-02  0.18442E-02 -0.91635E-02
  0.64747E-03  0.14736E-02 -0.91635E-02
  0.12337E-03  0.31770E-03 -0.91635E-02
 -0.13118E-03  0.11952E-02 -0.91635E-02
  0.93970E-03  0.22768E-02 -0.91635E-02
  0.11272E-02  0.28216E-02 -0.91635E-02
  0.17428E-02  0.24261E-02 -0.91635E-02
  0.40501E-03  0.21690E-02 -0.91635E-02
  0.39752E-03  0.29324E-02 -0.91635E-02
 -0.76869E-03 -0.10056E-02 -0.91635E-02
 -0.86778E-03  0.91918E-04 -0.91635E-02
  0.45402E-03 -0.69156E-03 -0.91635E-02
 -0.18347E-02 -0.70971E-03 -0.91635E-02
 -0.18425E-02  0.84726E-04 -0.91635E-02
 -0.27234E-02 -0.77593E-03 -0.91635E-02
 -0.27984E-02  0.45086E-04 -0.91635E-02
 -0.25389E-02 -0.15187E-02 -0.91635E-02
 -0.19356E-02 -0.13213E-02 -0.91635E-02
 -0.99133E-03  0.10102E-02 -0.91635E-02
 -0.14436E-02 -0.17318E-02 -0.91635E-02
 -0.31254E-03  0.20265E-02 -0.91635E-02
 -0.11013E-02  0.18594E-02 -0.91635E-02
 -0.18837E-02  0.17175E-02 -0.91635E-02
 -0.18692E-02  0.91324E-03 -0.91635E-02
 -0.16311E-03 -0.19804E-02 -0.91635E-02
 -0.95046E-03 -0.23493E-02 -0.91635E-02
  0.77799E-03 -0.17073E-02 -0.91635E-02
  0.17204E-02 -0.14933E-02 -0.91635E-02
  0.32102E-02  0.77645E-03 -0.91635E-02
  0.28042E-02  0.12545E-02 -0.91635E-02
  0.23041E-02  0.18671E-02 -0.91635E-02
 -0.40393E-03  0.28867E-02 -0.91635E-02
 -0.12093E-02  0.27132E-02 -0.91635E-02
 -0.19442E-02  0.24606E-02 -0.91635E-02
 -0.25024E-02  0.22358E-02 -0.91635E-02
 -0.26357E-02  0.16503E-02 -0.91635E-02
 -0.27621E-02  0.87912E-03 -0.91635E-02
 -0.21146E-02 -0.21374E-02 -0.91635E-02
 -0.16094E-02 -0.26935E-02 -0.91635E-02
 -0.11957E-02 -0.31291E-02 -0.91635E-02
 -0.59200E-03 -0.30381E-02 -0.91635E-02
  0.20262E-03 -0.28750E-02 -0.91635E-02
  0.10536E-02 -0.26466E-02 -0.91635E-02
  0.18420E-02 -0.23740E-02 -0.91635E-02
  0.24564E-02 -0.21533E-02 -0.91635E-02
  0.26033E-02 -0.15087E-02 -0.91635E-02
  0.37964E-02  0.93572E-03 -0.91635E-02
  0.39100E-02  0.00000E+00 -0.91635E-02
  0.34621E-02  0.18171E-02 -0.91635E-02
  0.29267E-02  0.25928E-02 -0.91635E-02
  0.22211E-02  0.32179E-02 -0.91635E-02
  0.13865E-02  0.36559E-02 -0.91635E-02
  0.47130E-03  0.38815E-02 -0.91635E-02
 -0.47130E-03  0.38815E-02 -0.91635E-02
 -0.13865E-02  0.36559E-02 -0.91635E-02
 -0.22211E-02  0.32179E-02 -0.91635E-02
 -0.29267E-02  0.25928E-02 -0.91635E-02
 -0.34621E-02  0.18171E-02 -0.91635E-02
 -0.37964E-02  0.93572E-03 -0.91635E-02
 -0.39100E-02 -0.47884E-18 -0.91635E-02
 -0.37964E-02 -0.93572E-03 -0.91635E-02
 -0.34621E-02 -0.18171E-02 -0.91635E-02
 -0.29267E-02 -0.25928E-02 -0.91635E-02
 -0.22211E-02 -0.32179E-02 -0.91635E-02
 -0.13865E-02 -0.36559E-02 -0.91635E-02
 -0.47130E-03 -0.38815E-02 -0.91635E-02
  0.47130E-03 -0.38815E-02 -0.91635E-02
  0.13865E-02 -0.36559E-02 -0.91635E-02
  0.22211E-02 -0.32179E-02 -0.91635E-02
  0.29267E-02 -0.25928E-02 -0.91635E-02
  0.34621E-02 -0.18171E-02 -0.91635E-02
  0.37964E-02 -0.93572E-03 -0.91635E-02
  0.10358E-02  0.68235E-03 -0.81843E-02
  0.17422E-02  0.12421E-02 -0.81843E-02
  0.23156E-02  0.60041E-03 -0.81843E-02
  0.16662E-02 -0.32493E-03 -0.81843E-02
  0.30373E-02  0.15500E-03 -0.81843E-02
  0.27849E-02 -0.66805E-03 -0.81843E-02
  0.12833E-02  0.18444E-02 -0.81843E-02
  0.64722E-03  0.14747E-02 -0.81843E-02
  0.12311E-03  0.31885E-03 -0.81843E-02
 -0.13137E-03  0.11970E-02 -0.81843E-02
  0.93937E-03  0.22770E-02 -0.81843E-02
  0.11269E-02  0.28211E-02 -0.81843E-02
  0.17424E-02  0.24262E-02 -0.81843E-02
  0.40496E-03  0.21691E-02 -0.81843E-02
  0.39750E-03  0.29322E-02 -0.81843E-02
 -0.76904E-03 -0.10057E-02 -0.81843E-02
 -0.86789E-03  0.92727E-04 -0.81843E-02
  0.45358E-03 -0.69084E-03 -0.81843E-02
 -0.18350E-02 -0.70957E-03 -0.81843E-02
 -0.18424E-02  0.84849E-04 -0.81843E-02
 -0.27233E-02 -0.77576E-03 -0.81843E-02
 -0.27981E-02  0.45359E-04 -0.81843E-02
 -0.25391E-02 -0.15186E-02 -0.81843E-02
 -0.19360E-02 -0.13212E-02 -0.81843E-02
 -0.99118E-03  0.10115E-02 -0.81843E-02
 -0.14440E-02 -0.17318E-02 -0.81843E-02
 -0.31234E-03  0.20268E-02 -0.81843E-02
 -0.11009E-02  0.18593E-02 -0.81843E-02
 -0.18836E-02  0.17175E-02 -0.81843E-02
 -0.18691E-02  0.91347E-03 -0.81843E-02
 -0.16339E-03 -0.19804E-02 -0.81843E-02
 -0.95106E-03 -0.23493E-02 -0.81843E-02
  0.77733E-03 -0.17073E-02 -0.81843E-02
  0.17204E-02 -0.14936E-02 -0.81843E-02
  0.32105E-02  0.77745E-03 -0.81843E-02
  0.28042E-02  0.12550E-02 -0.81843E-02
  0.23040E-02  0.18671E-02 -0.81843E-02
 -0.40379E-03  0.28856E-02 -0.81843E-02
 -0.12093E-02  0.27127E-02 -0.81843E-02
 -0.19441E-02  0.24604E-02 -0.81843E-02
 -0.25023E-02  0.22358E-02 -0.81843E-02
 -0.26356E-02  0.16503E-02 -0.81843E-02
 -0.27618E-02  0.87938E-03 -0.81843E-02
 -0.21147E-02 -0.21374E-02 -0.81843E-02
 -0.16094E-02 -0.26935E-02 -0.81843E-02
 -0.11958E-02 -0.31291E-02 -0.81843E-02
 -0.59235E-03 -0.30381E-02 -0.81843E-02
  0.20221E-03 -0.28750E-02 -0.81843E-02
  0.10533E-02 -0.26468E-02 -0.81843E-02
  0.18420E-02 -0.23742E-02 -0.81843E-02
  0.24565E-02 -0.21538E-02 -0.81843E-02
  0.26034E-02 -0.15086E-02 -0.81843E-02
  0.37964E-02  0.93572E-03 -0.81843E-02
  0.39100E-02  0.00000E+00 -0.81843E-02
  0.34621E-02  0.18171E-02 -0.81843E-02
  0.29267E-02  0.25928E-02 -0.81843E-02
  0.22211E-02  0.32179E-02 -0.81843E-02
  0.13865E-02  0.36559E-02 -0.81843E-02
  0.47130E-03  0.38815E-02 -0.81843E-02
 -0.47130E-03  0.38815E-02 -0.81843E-02
 -0.13865E-02  0.36559E-02 -0.81843E-02
 -0.22211E-02  0.32179E-02 -0.81843E-02
 -0.29267E-02  0.25928E-02 -0.81843E-02
 -0.34621E-02  0.18171E-02 -0.81843E-02
 -0.37964E-02  0.93572E-03 -0.81843E-02
 -0.39100E-02 -0.47884E-18 -0.81843E-02
 -0.37964E-02 -0.93572E-03 -0.81843E-02
 -0.34621E-02 -0.18171E-02 -0.81843E-02
 -0.29267E-02 -0.25928E-02 -0.81843E-02
 -0.22211E-02 -0.32179E-02 -0.81843E-02
 -0.13865E-02 -0.36559E-02 -0.81843E-02
 -0.47130E-03 -0.38815E-02 -0.81843E-02
  0.47130E-03 -0.38815E-02 -0.81843E-02
  0.13865E-02 -0.36559E-02 -0.81843E-02
  0.22211E-02 -0.32179E-02 -0.81843E-02
  0.29267E-02 -0.25928E-02 -0.81843E-02
  0.34621E-02 -0.18171E-02 -0.81843E-02
  0.37964E-02 -0.93572E-03 -0.81843E-02
  0.10357E-02  0.68290E-03 -0.72052E-02
  0.17420E-02  0.12427E-02 -0.72052E-02
  0.23155E-02  0.60093E-03 -0.72052E-02
  0.16660E-02 -0.32417E-03 -0.72052E-02
  0.30372E-02  0.15536E-03 -0.72052E-02
  0.27853E-02 -0.66755E-03 -0.72052E-02
  0.12832E-02  0.18445E-02 -0.72052E-02
  0.64698E-03  0.14757E-02 -0.72052E-02
  0.12285E-03  0.32000E-03 -0.72052E-02
 -0.13155E-03  0.11987E-02 -0.72052E-02
  0.93903E-03  0.22771E-02 -0.72052E-02
  0.11266E-02  0.28207E-02 -0.72052E-02
  0.17420E-02  0.24264E-02 -0.72052E-02
  0.40490E-03  0.21691E-02 -0.72052E-02
  0.39749E-03  0.29319E-02 -0.72052E-02
 -0.76940E-03 -0.10058E-02 -0.72052E-02
 -0.86800E-03  0.93536E-04 -0.72052E-02
  0.45313E-03 -0.69011E-03 -0.72052E-02
 -0.18353E-02 -0.70943E-03 -0.72052E-02
 -0.18423E-02  0.84973E-04 -0.72052E-02
 -0.27233E-02 -0.77559E-03 -0.72052E-02
 -0.27979E-02  0.45633E-04 -0.72052E-02
 -0.25393E-02 -0.15186E-02 -0.72052E-02
 -0.19365E-02 -0.13212E-02 -0.72052E-02
 -0.99104E-03  0.10129E-02 -0.72052E-02
 -0.14443E-02 -0.17318E-02 -0.72052E-02
 -0.31214E-03  0.20271E-02 -0.72052E-02
 -0.11006E-02  0.18592E-02 -0.72052E-02
 -0.18836E-02  0.17175E-02 -0.72052E-02
 -0.18690E-02  0.91371E-03 -0.72052E-02
 -0.16366E-03 -0.19805E-02 -0.72052E-02
 -0.95166E-03 -0.23493E-02 -0.72052E-02
  0.77667E-03 -0.17073E-02 -0.72052E-02
  0.17203E-02 -0.14938E-02 -0.72052E-02
  0.32109E-02  0.77846E-03 -0.72052E-02
  0.28042E-02  0.12554E-02 -0.72052E-02
  0.23039E-02  0.18672E-02 -0.72052E-02
 -0.40365E-03  0.28845E-02 -0.72052E-02
 -0.12093E-02  0.27122E-02 -0.72052E-02
 -0.19441E-02  0.24602E-02 -0.72052E-02
 -0.25023E-02  0.22358E-02 -0.72052E-02
 -0.26355E-02  0.16502E-02 -0.72052E-02
 -0.27615E-02  0.87964E-03 -0.72052E-02
 -0.21148E-02 -0.21374E-02 -0.72052E-02
 -0.16095E-02 -0.26935E-02 -0.72052E-02
 -0.11960E-02 -0.31291E-02 -0.72052E-02
 -0.59270E-03 -0.30381E-02 -0.72052E-02
  0.20180E-03 -0.28750E-02 -0.72052E-02
  0.10530E-02 -0.26471E-02 -0.72052E-02
  0.18421E-02 -0.23744E-02 -0.72052E-02
  0.24566E-02 -0.21543E-02 -0.72052E-02
  0.26035E-02 -0.15085E-02 -0.72052E-02
  0.37964E-02  0.93572E-03 -0.72052E-02
  0.39100E-02  0.00000E+00 -0.72052E-02
  0.34621E-02  0.18171E-02 -0.72052E-02
  0.29267E-02  0.25928E-02 -0.72052E-02
  0.22211E-02  0.32179E-02 -0.72052E-02
  0.13865E-02  0.36559E-02 -0.72052E-02
  0.47130E-03  0.38815E-02 -0.72052E-02
 -0.47130E-03  0.38815E-02 -0.72052E-02
 -0.13865E-02  0.36559E-02 -0.72052E-02
 -0.22211E-02  0.32179E-02 -0.72052E-02
 -0.29267E-02  0.25928E-02 -0.72052E-02
 -0.34621E-02  0.18171E-02 -0.72052E-02
 -0.37964E-02  0.93572E-03 -0.72052E-02
 -0.39100E-02 -0.47884E-18 -0.72052E-02
 -0.37964E-02 -0.93572E-03 -0.72052E-02
 -0.34621E-02 -0.18171E-02 -0.72052E-02
 -0.29267E-02 -0.25928E-02 -0.72052E-02
 -0.22211E-02 -0.32179E-02 -0.72052E-02
 -0.13865E-02 -0.36559E-02 -0.72052E-02
 -0.47130E-03 -0.38815E-02 -0.72052E-02
  0.47130E-03 -0.38815E-02 -0.72052E-02
  0.13865E-02 -0.36559E-02 -0.72052E-02
  0.22211E-02 -0.32179E-02 -0.72052E-02
  0.29267E-02 -0.25928E-02 -0.72052E-02
  0.34621E-02 -0.18171E-02 -0.72052E-02
  0.37964E-02 -0.93572E-03 -0.72052E-02
  0.10356E-02  0.68346E-03 -0.62260E-02
  0.17418E-02  0.12434E-02 -0.62260E-02
  0.23153E-02  0.60145E-03 -0.62260E-02
  0.16657E-02 -0.32342E-03 -0.62260E-02
  0.30372E-02  0.15572E-03 -0.62260E-02
  0.27856E-02 -0.66706E-03 -0.62260E-02
  0.12830E-02  0.18447E-02 -0.62260E-02
  0.64673E-03  0.14767E-02 -0.62260E-02
  0.12259E-03  0.32115E-03 -0.62260E-02
 -0.13174E-03  0.12005E-02 -0.62260E-02
  0.93870E-03  0.22772E-02 -0.62260E-02
  0.11262E-02  0.28203E-02 -0.62260E-02
  0.17416E-02  0.24265E-02 -0.62260E-02
  0.40485E-03  0.21691E-02 -0.62260E-02
  0.39747E-03  0.29316E-02 -0.62260E-02
 -0.76975E-03 -0.10060E-02 -0.62260E-02
 -0.86811E-03  0.94345E-04 -0.62260E-02
  0.45268E-03 -0.68939E-03 -0.62260E-02
 -0.18356E-02 -0.70929E-03 -0.62260E-02
 -0.18422E-02  0.85096E-04 -0.62260E-02
 -0.27233E-02 -0.77542E-03 -0.62260E-02
 -0.27976E-02  0.45906E-04 -0.62260E-02
 -0.25394E-02 -0.15185E-02 -0.62260E-02
 -0.19369E-02 -0.13211E-02 -0.62260E-02
 -0.99090E-03  0.10142E-02 -0.62260E-02
 -0.14446E-02 -0.17317E-02 -0.62260E-02
 -0.31194E-03  0.20274E-02 -0.62260E-02
 -0.11002E-02  0.18590E-02 -0.62260E-02
 -0.18835E-02  0.17175E-02 -0.62260E-02
 -0.18689E-02  0.91395E-03 -0.62260E-02
 -0.16394E-03 -0.19805E-02 -0.62260E-02
 -0.95226E-03 -0.23494E-02 -0.62260E-02
  0.77601E-03 -0.17073E-02 -0.62260E-02
  0.17203E-02 -0.14941E-02 -0.62260E-02
  0.32112E-02  0.77946E-03 -0.62260E-02
  0.28042E-02  0.12558E-02 -0.62260E-02
  0.23038E-02  0.18672E-02 -0.62260E-02
 -0.40352E-03  0.28835E-02 -0.62260E-02
 -0.12093E-02  0.27118E-02 -0.62260E-02
 -0.19441E-02  0.24600E-02 -0.62260E-02
 -0.25023E-02  0.22358E-02 -0.62260E-02
 -0.26354E-02  0.16502E-02 -0.62260E-02
 -0.27612E-02  0.87990E-03 -0.62260E-02
 -0.21150E-02 -0.21374E-02 -0.62260E-02
 -0.16095E-02 -0.26935E-02 -0.62260E-02
 -0.11961E-02 -0.31291E-02 -0.62260E-02
 -0.59305E-03 -0.30381E-02 -0.62260E-02
  0.20140E-03 -0.28750E-02 -0.62260E-02
  0.10527E-02 -0.26474E-02 -0.62260E-02
  0.18421E-02 -0.23746E-02 -0.62260E-02
  0.24568E-02 -0.21549E-02 -0.62260E-02
  0.26036E-02 -0.15084E-02 -0.62260E-02
  0.37964E-02  0.93572E-03 -0.62260E-02
  0.39100E-02  0.00000E+00 -0.62260E-02
  0.34621E-02  0.18171E-02 -0.62260E-02
  0.29267E-02  0.25928E-02 -0.62260E-02
  0.22211E-02  0.32179E-02 -0.62260E-02
  0.13865E-02  0.36559E-02 -0.62260E-02
  0.47130E-03  0.38815E-02 -0.62260E-02
 -0.47130E-03  0.38815E-02 -0.62260E-02
 -0.13865E-02  0.36559E-02 -0.62260E-02
 -0.22211E-02  0.32179E-02 -0.62260E-02
 -0.29267E-02  0.25928E-02 -0.62260E-02
 -0.34621E-02  0.18171E-02 -0.62260E-02
 -0.37964E-02  0.93572E-03 -0.62260E-02
 -0.39100E-02  0.22152E-17 -0.62260E-02
 -0.37964E-02 -0.93572E-03 -0.62260E-02
 -0.34621E-02 -0.18171E-02 -0.62260E-02
 -0.29267E-02 -0.25928E-02 -0.62260E-02
 -0.22211E-02 -0.32179E-02 -0.62260E-02
 -0.13865E-02 -0.36559E-02 -0.62260E-02
 -0.47130E-03 -0.38815E-02 -0.62260E-02
  0.47130E-03 -0.38815E-02 -0.62260E-02
  0.13865E-02 -0.36559E-02 -0.62260E-02
  0.22211E-02 -0.32179E-02 -0.62260E-02
  0.29267E-02 -0.25928E-02 -0.62260E-02
  0.34621E-02 -0.18171E-02 -0.62260E-02
  0.37964E-02 -0.93572E-03 -0.62260E-02
  0.10355E-02  0.68401E-03 -0.52468E-02
  0.17416E-02  0.12440E-02 -0.52468E-02
  0.23152E-02  0.60198E-03 -0.52468E-02
  0.16655E-02 -0.32266E-03 -0.52468E-02
  0.30372E-02  0.15609E-03 -0.52468E-02
  0.27860E-02 -0.66657E-03 -0.52468E-02
  0.12829E-02  0.18449E-02 -0.52468E-02
  0.64649E-03  0.14777E-02 -0.52468E-02
  0.12232E-03  0.32230E-03 -0.52468E-02
 -0.13193E-03  0.12022E-02 -0.52468E-02
  0.93837E-03  0.22774E-02 -0.52468E-02
  0.11259E-02  0.28198E-02 -0.52468E-02
  0.17412E-02  0.24267E-02 -0.52468E-02
  0.40480E-03  0.21692E-02 -0.52468E-02
  0.39745E-03  0.29314E-02 -0.52468E-02
 -0.77011E-03 -0.10061E-02 -0.52468E-02
 -0.86822E-03  0.95155E-04 -0.52468E-02
  0.45223E-03 -0.68866E-03 -0.52468E-02
 -0.18359E-02 -0.70915E-03 -0.52468E-02
 -0.18421E-02  0.85220E-04 -0.52468E-02
 -0.27232E-02 -0.77525E-03 -0.52468E-02
 -0.27973E-02  0.46180E-04 -0.52468E-02
 -0.25396E-02 -0.15185E-02 -0.52468E-02
 -0.19373E-02 -0.13210E-02 -0.52468E-02
 -0.99075E-03  0.10156E-02 -0.52468E-02
 -0.14450E-02 -0.17317E-02 -0.52468E-02
 -0.31173E-03  0.20277E-02 -0.52468E-02
 -0.10999E-02  0.18589E-02 -0.52468E-02
 -0.18835E-02  0.17175E-02 -0.52468E-02
 -0.18687E-02  0.91419E-03 -0.52468E-02
 -0.16421E-03 -0.19805E-02 -0.52468E-02
 -0.95285E-03 -0.23494E-02 -0.52468E-02
  0.77535E-03 -0.17073E-02 -0.52468E-02
  0.17202E-02 -0.14943E-02 -0.52468E-02
  0.32115E-02  0.78047E-03 -0.52468E-02
  0.28041E-02  0.12563E-02 -0.52468E-02
  0.23037E-02  0.18672E-02 -0.52468E-02
 -0.40338E-03  0.28824E-02 -0.52468E-02
 -0.12093E-02  0.27113E-02 -0.52468E-02
 -0.19440E-02  0.24597E-02 -0.52468E-02
 -0.25023E-02  0.22358E-02 -0.52468E-02
 -0.26353E-02  0.16502E-02 -0.52468E-02
 -0.27609E-02  0.88016E-03 -0.52468E-02
 -0.21151E-02 -0.21374E-02 -0.52468E-02
 -0.16096E-02 -0.26935E-02 -0.52468E-02
 -0.11962E-02 -0.31291E-02 -0.52468E-02
 -0.59340E-03 -0.30381E-02 -0.52468E-02
  0.20099E-03 -0.28751E-02 -0.52468E-02
  0.10524E-02 -0.26476E-02 -0.52468E-02
  0.18422E-02 -0.23748E-02 -0.52468E-02
  0.24569E-02 -0.21554E-02 -0.52468E-02
  0.26036E-02 -0.15083E-02 -0.52468E-02
  0.37964E-02  0.93572E-03 -0.52468E-02
  0.39100E-02  0.00000E+00 -0.52468E-02
  0.34621E-02  0.18171E-02 -0.52468E-02
  0.29267E-02  0.25928E-02 -0.52468E-02
  0.22211E-02  0.32179E-02 -0.52468E-02
  0.13865E-02  0.36559E-02 -0.52468E-02
  0.47130E-03  0.38815E-02 -0.52468E-02
 -0.47130E-03  0.38815E-02 -0.52468E-02
 -0.13865E-02  0.36559E-02 -0.52468E-02
 -0.22211E-02  0.32179E-02 -0.52468E-02
 -0.29267E-02  0.25928E-02 -0.52468E-02
 -0.34621E-02  0.18171E-02 -0.52468E-02
 -0.37964E-02  0.93572E-03 -0.52468E-02
 -0.39100E-02 -0.47884E-18 -0.52468E-02
 -0.37964E-02 -0.93572E-03 -0.52468E-02
 -0.34621E-02 -0.18171E-02 -0.52468E-02
 -0.29267E-02 -0.25928E-02 -0.52468E-02
 -0.22211E-02 -0.32179E-02 -0.52468E-02
 -0.13865E-02 -0.36559E-02 -0.52468E-02
 -0.47130E-03 -0.38815E-02 -0.52468E-02
  0.47130E-03 -0.38815E-02 -0.52468E-02
  0.13865E-02 -0.36559E-02 -0.52468E-02
  0.22211E-02 -0.32179E-02 -0.52468E-02
  0.29267E-02 -0.25928E-02 -0.52468E-02
  0.34621E-02 -0.18171E-02 -0.52468E-02
  0.37964E-02 -0.93572E-03 -0.52468E-02
  0.10354E-02  0.68457E-03 -0.42677E-02
  0.17414E-02  0.12447E-02 -0.42677E-02
  0.23151E-02  0.60250E-03 -0.42677E-02
  0.16653E-02 -0.32191E-03 -0.42677E-02
  0.30372E-02  0.15645E-03 -0.42677E-02
  0.27863E-02 -0.66607E-03 -0.42677E-02
  0.12829E-02  0.18451E-02 -0.42677E-02
  0.64624E-03  0.14787E-02 -0.42677E-02
  0.12206E-03  0.32345E-03 -0.42677E-02
 -0.13211E-03  0.12040E-02 -0.42677E-02
  0.93804E-03  0.22775E-02 -0.42677E-02
  0.11255E-02  0.28194E-02 -0.42677E-02
  0.17408E-02  0.24268E-02 -0.42677E-02
  0.40474E-03  0.21692E-02 -0.42677E-02
  0.39744E-03  0.29311E-02 -0.42677E-02
 -0.77046E-03 -0.10062E-02 -0.42677E-02
 -0.86832E-03  0.95964E-04 -0.42677E-02
  0.45179E-03 -0.68793E-03 -0.42677E-02
 -0.18362E-02 -0.70901E-03 -0.42677E-02
 -0.18420E-02  0.85343E-04 -0.42677E-02
 -0.27232E-02 -0.77507E-03 -0.42677E-02
 -0.27970E-02  0.46453E-04 -0.42677E-02
 -0.25397E-02 -0.15184E-02 -0.42677E-02
 -0.19377E-02 -0.13209E-02 -0.42677E-02
 -0.99061E-03  0.10169E-02 -0.42677E-02
 -0.14453E-02 -0.17316E-02 -0.42677E-02
 -0.31153E-03  0.20280E-02 -0.42677E-02
 -0.10995E-02  0.18588E-02 -0.42677E-02
 -0.18834E-02  0.17175E-02 -0.42677E-02
 -0.18686E-02  0.91443E-03 -0.42677E-02
 -0.16449E-03 -0.19806E-02 -0.42677E-02
 -0.95345E-03 -0.23494E-02 -0.42677E-02
  0.77469E-03 -0.17073E-02 -0.42677E-02
  0.17202E-02 -0.14945E-02 -0.42677E-02
  0.32119E-02  0.78148E-03 -0.42677E-02
  0.28041E-02  0.12567E-02 -0.42677E-02
  0.23036E-02  0.18673E-02 -0.42677E-02
 -0.40324E-03  0.28813E-02 -0.42677E-02
 -0.12093E-02  0.27108E-02 -0.42677E-02
 -0.19440E-02  0.24595E-02 -0.42677E-02
 -0.25022E-02  0.22358E-02 -0.42677E-02
 -0.26352E-02  0.16502E-02 -0.42677E-02
 -0.27606E-02  0.88043E-03 -0.42677E-02
 -0.21152E-02 -0.21374E-02 -0.42677E-02
 -0.16096E-02 -0.26936E-02 -0.42677E-02
 -0.11963E-02 -0.31291E-02 -0.42677E-02
 -0.59375E-03 -0.30381E-02 -0.42677E-02
  0.20059E-03 -0.28751E-02 -0.42677E-02
  0.10521E-02 -0.26479E-02 -0.42677E-02
  0.18422E-02 -0.23750E-02 -0.42677E-02
  0.24570E-02 -0.21560E-02 -0.42677E-02
  0.26037E-02 -0.15082E-02 -0.42677E-02
  0.37964E-02  0.93572E-03 -0.42677E-02
  0.39100E-02  0.00000E+00 -0.42677E-02
  0.34621E-02  0.18171E-02 -0.42677E-02
  0.29267E-02  0.25928E-02 -0.42677E-02
  0.22211E-02  0.32179E-02 -0.42677E-02
  0.13865E-02  0.36559E-02 -0.42677E-02
  0.47130E-03  0.38815E-02 -0.42677E-02
 -0.47130E-03  0.38815E-02 -0.42677E-02
 -0.13865E-02  0.36559E-02 -0.42677E-02
 -0.22211E-02  0.32179E-02 -0.42677E-02
 -0.29267E-02  0.25928E-02 -0.42677E-02
 -0.34621E-02  0.18171E-02 -0.42677E-02
 -0.37964E-02  0.93572E-03 -0.42677E-02
 -0.39100E-02 -0.47884E-18 -0.42677E-02
 -0.37964E-02 -0.93572E-03 -0.42677E-02
 -0.34621E-02 -0.18171E-02 -0.42677E-02
 -0.29267E-02 -0.25928E-02 -0.42677E-02
 -0.22211E-02 -0.32179E-02 -0.42677E-02
 -0.13865E-02 -0.36559E-02 -0.42677E-02
 -0.47130E-03 -0.38815E-02 -0.42677E-02
  0.47130E-03 -0.38815E-02 -0.42677E-02
  0.13865E-02 -0.36559E-02 -0.42677E-02
  0.22211E-02 -0.32179E-02 -0.42677E-02
  0.29267E-02 -0.25928E-02 -0.42677E-02
  0.34621E-02 -0.18171E-02 -0.42677E-02
  0.37964E-02 -0.93572E-03 -0.42677E-02
  0.10352E-02  0.68512E-03 -0.32885E-02
  0.17413E-02  0.12454E-02 -0.32885E-02
  0.23150E-02  0.60302E-03 -0.32885E-02
  0.16651E-02 -0.32115E-03 -0.32885E-02
  0.30371E-02  0.15681E-03 -0.32885E-02
  0.27866E-02 -0.66558E-03 -0.32885E-02
  0.12827E-02  0.18453E-02 -0.32885E-02
  0.64600E-03  0.14797E-02 -0.32885E-02
  0.12180E-03  0.32459E-03 -0.32885E-02
 -0.13230E-03  0.12058E-02 -0.32885E-02
  0.93771E-03  0.22776E-02 -0.32885E-02
  0.11252E-02  0.28189E-02 -0.32885E-02
  0.17404E-02  0.24270E-02 -0.32885E-02
  0.40469E-03  0.21693E-02 -0.32885E-02
  0.39742E-03  0.29308E-02 -0.32885E-02
 -0.77081E-03 -0.10064E-02 -0.32885E-02
 -0.86843E-03  0.96773E-04 -0.32885E-02
  0.45134E-03 -0.68721E-03 -0.32885E-02
 -0.18365E-02 -0.70887E-03 -0.32885E-02
 -0.18419E-02  0.85467E-04 -0.32885E-02
 -0.27232E-02 -0.77490E-03 -0.32885E-02
 -0.27968E-02  0.46726E-04 -0.32885E-02
 -0.25399E-02 -0.15184E-02 -0.32885E-02
 -0.19382E-02 -0.13208E-02 -0.32885E-02
 -0.99046E-03  0.10183E-02 -0.32885E-02
 -0.14457E-02 -0.17316E-02 -0.32885E-02
 -0.31133E-03  0.20283E-02 -0.32885E-02
 -0.10992E-02  0.18586E-02 -0.32885E-02
 -0.18834E-02  0.17175E-02 -0.32885E-02
 -0.18685E-02  0.91467E-03 -0.32885E-02
 -0.16476E-03 -0.19806E-02 -0.32885E-02
 -0.95405E-03 -0.23494E-02 -0.32885E-02
  0.77402E-03 -0.17073E-02 -0.32885E-02
  0.17202E-02 -0.14948E-02 -0.32885E-02
  0.32122E-02  0.78248E-03 -0.32885E-02
  0.28041E-02  0.12571E-02 -0.32885E-02
  0.23034E-02  0.18673E-02 -0.32885E-02
 -0.40310E-03  0.28802E-02 -0.32885E-02
 -0.12093E-02  0.27103E-02 -0.32885E-02
 -0.19440E-02  0.24593E-02 -0.32885E-02
 -0.25022E-02  0.22358E-02 -0.32885E-02
 -0.26351E-02  0.16502E-02 -0.32885E-02
 -0.27602E-02  0.88069E-03 -0.32885E-02
 -0.21154E-02 -0.21374E-02 -0.32885E-02
 -0.16097E-02 -0.26936E-02 -0.32885E-02
 -0.11964E-02 -0.31291E-02 -0.32885E-02
 -0.59409E-03 -0.30381E-02 -0.32885E-02
  0.20018E-03 -0.28751E-02 -0.32885E-02
  0.10518E-02 -0.26482E-02 -0.32885E-02
  0.18422E-02 -0.23752E-02 -0.32885E-02
  0.24571E-02 -0.21565E-02 -0.32885E-02
  0.26038E-02 -0.15081E-02 -0.32885E-02
  0.37964E-02  0.93572E-03 -0.32885E-02
  0.39100E-02  0.00000E+00 -0.32885E-02
  0.34621E-02  0.18171E-02 -0.32885E-02
  0.29267E-02  0.25928E-02 -0.32885E-02
  0.22211E-02  0.32179E-02 -0.32885E-02
  0.13865E-02  0.36559E-02 -0.32885E-02
  0.47130E-03  0.38815E-02 -0.32885E-02
 -0.47130E-03  0.38815E-02 -0.32885E-02
 -0.13865E-02  0.36559E-02 -0.32885E-02
 -0.22211E-02  0.32179E-02 -0.32885E-02
 -0.29267E-02  0.25928E-02 -0.32885E-02
 -0.34621E-02  0.18171E-02 -0.32885E-02
 -0.37964E-02  0.93572E-03 -0.32885E-02
 -0.39100E-02 -0.47884E-18 -0.32885E-02
 -0.37964E-02 -0.93572E-03 -0.32885E-02
 -0.34621E-02 -0.18171E-02 -0.32885E-02
 -0.29267E-02 -0.25928E-02 -0.32885E-02
 -0.22211E-02 -0.32179E-02 -0.32885E-02
 -0.13865E-02 -0.36559E-02 -0.32885E-02
 -0.47130E-03 -0.38815E-02 -0.32885E-02
  0.47130E-03 -0.38815E-02 -0.32885E-02
  0.13865E-02 -0.36559E-02 -0.32885E-02
  0.22211E-02 -0.32179E-02 -0.32885E-02
  0.29267E-02 -0.25928E-02 -0.32885E-02
  0.34621E-02 -0.18171E-02 -0.32885E-02
  0.37964E-02 -0.93572E-03 -0.32885E-02
  0.10351E-02  0.68567E-03 -0.23093E-02
  0.17411E-02  0.12460E-02 -0.23093E-02
  0.23149E-02  0.60355E-03 -0.23093E-02
  0.16649E-02 -0.32040E-03 -0.23093E-02
  0.30371E-02  0.15718E-03 -0.23093E-02
  0.27870E-02 -0.66509E-03 -0.23093E-02
  0.12826E-02  0.18455E-02 -0.23093E-02
  0.64575E-03  0.14807E-02 -0.23093E-02
  0.12154E-03  0.32574E-03 -0.23093E-02
 -0.13248E-03  0.12075E-02 -0.23093E-02
  0.93738E-03  0.22777E-02 -0.23093E-02
  0.11249E-02  0.28185E-02 -0.23093E-02
  0.17400E-02  0.24271E-02 -0.23093E-02
  0.40463E-03  0.21693E-02 -0.23093E-02
  0.39740E-03  0.29306E-02 -0.23093E-02
 -0.77117E-03 -0.10065E-02 -0.23093E-02
 -0.86854E-03  0.97583E-04 -0.23093E-02
  0.45089E-03 -0.68648E-03 -0.23093E-02
 -0.18368E-02 -0.70873E-03 -0.23093E-02
 -0.18418E-02  0.85591E-04 -0.23093E-02
 -0.27232E-02 -0.77474E-03 -0.23093E-02
 -0.27965E-02  0.47000E-04 -0.23093E-02
 -0.25400E-02 -0.15183E-02 -0.23093E-02
 -0.19386E-02 -0.13207E-02 -0.23093E-02
 -0.99032E-03  0.10197E-02 -0.23093E-02
 -0.14460E-02 -0.17316E-02 -0.23093E-02
 -0.31113E-03  0.20285E-02 -0.23093E-02
 -0.10988E-02  0.18585E-02 -0.23093E-02
 -0.18833E-02  0.17175E-02 -0.23093E-02
 -0.18683E-02  0.91491E-03 -0.23093E-02
 -0.16504E-03 -0.19806E-02 -0.23093E-02
 -0.95465E-03 -0.23495E-02 -0.23093E-02
  0.77336E-03 -0.17073E-02 -0.23093E-02
  0.17201E-02 -0.14950E-02 -0.23093E-02
  0.32125E-02  0.78348E-03 -0.23093E-02
  0.28041E-02  0.12576E-02 -0.23093E-02
  0.23033E-02  0.18674E-02 -0.23093E-02
 -0.40296E-03  0.28792E-02 -0.23093E-02
 -0.12093E-02  0.27099E-02 -0.23093E-02
 -0.19439E-02  0.24591E-02 -0.23093E-02
 -0.25022E-02  0.22358E-02 -0.23093E-02
 -0.26350E-02  0.16502E-02 -0.23093E-02
 -0.27599E-02  0.88095E-03 -0.23093E-02
 -0.21155E-02 -0.21374E-02 -0.23093E-02
 -0.16097E-02 -0.26936E-02 -0.23093E-02
 -0.11965E-02 -0.31290E-02 -0.23093E-02
 -0.59444E-03 -0.30381E-02 -0.23093E-02
  0.19977E-03 -0.28751E-02 -0.23093E-02
  0.10515E-02 -0.26484E-02 -0.23093E-02
  0.18423E-02 -0.23754E-02 -0.23093E-02
  0.24573E-02 -0.21571E-02 -0.23093E-02
  0.26039E-02 -0.15080E-02 -0.23093E-02
  0.37964E-02  0.93572E-03 -0.23093E-02
  0.39100E-02  0.00000E+00 -0.23093E-02
  0.34621E-02  0.18171E-02 -0.23093E-02
  0.29267E-02  0.25928E-02 -0.23093E-02
  0.22211E-02  0.32179E-02 -0.23093E-02
  0.13865E-02  0.36559E-02 -0.23093E-02
  0.47130E-03  0.38815E-02 -0.23093E-02
 -0.47130E-03  0.38815E-02 -0.23093E-02
 -0.13865E-02  0.36559E-02 -0.23093E-02
 -0.22211E-02  0.32179E-02 -0.23093E-02
 -0.29267E-02  0.25928E-02 -0.23093E-02
 -0.34621E-02  0.18171E-02 -0.23093E-02
 -0.37964E-02  0.93572E-03 -0.23093E-02
 -0.39100E-02  0.47884E-18 -0.23093E-02
 -0.37964E-02 -0.93572E-03 -0.23093E-02
 -0.34621E-02 -0.18171E-02 -0.23093E-02
 -0.29267E-02 -0.25928E-02 -0.23093E-02
 -0.22211E-02 -0.32179E-02 -0.23093E-02
 -0.13865E-02 -0.36559E-02 -0.23093E-02
 -0.47130E-03 -0.38815E-02 -0.23093E-02
  0.47130E-03 -0.38815E-02 -0.23093E-02
  0.13865E-02 -0.36559E-02 -0.23093E-02
  0.22211E-02 -0.32179E-02 -0.23093E-02
  0.29267E-02 -0.25928E-02 -0.23093E-02
  0.34621E-02 -0.18171E-02 -0.23093E-02
  0.37964E-02 -0.93572E-03 -0.23093E-02
  
CELLS       3486               17724
       1       0
       1       1
       1       2
       1       3
       1       4
       1       5
       1       6
       1       7
       1       8
       1       9
       1      10
       1      11
       1      12
       1      13
       1      14
       1      15
       1      16
       1      17
       1      18
       1      19
       1      20
       1      21
       1      22
       1      23
       1      24
       1      25
       1      26
       1      27
       1      28
       1      29
       1      30
       1      31
       1      32
       1      33
       1      34
       1      35
       1      36
       1      37
       1      38
       1      39
       1      40
       1      41
       1      42
       1      43
       1      44
       1      45
       1      46
       1      47
       1      48
       1      49
       1      50
       1      51
       1      52
       1      53
       1      54
       1      55
       1      56
       1      57
       1      58
       1      59
       1      60
       1      61
       1      62
       1      63
       1      64
       1      65
       1      66
       1      67
       1      68
       1      69
       1      70
       1      71
       1      72
       1      73
       1      74
       1      75
       1      76
       1      77
       1      78
       1      79
       1      80
       1      81
       1      82
       1      83
       1      84
       1      85
       1      86
       1      87
       1      88
       1      89
       1      90
       1      91
       1      92
       1      93
       1      94
       1      95
       1      96
       1      97
       1      98
       1      99
       1     100
       1     101
       1     102
       1     103
       1     104
       1     105
       1     106
       1     107
       1     108
       1     109
       1     110
       1     111
       1     112
       1     113
       1     114
       1     115
       1     116
       1     117
       1     118
       1     119
       1     120
       1     121
       1     122
       1     123
       1     124
       1     125
       1     126
       1     127
       1     128
       1     129
       1     130
       1     131
       1     132
       1     133
       1     134
       1     135
       1     136
       1     137
       1     138
       1     139
       1     140
       1     141
       1     142
       1     143
       1     144
       1     145
       1     146
       1     147
       1     148
       1     149
       1     150
       1     151
       1     152
       1     153
       1     154
       1     155
       1     156
       1     157
       1     158
       1     159
       1     160
       1     161
       1     162
       1     163
       1     164
       1     165
       1     166
       1     167
       1     168
       1     169
       1     170
       1     171
       1     172
       1     173
       1     174
       1     175
       1     176
       1     177
       1     178
       1     179
       1     180
       1     181
       1     182
       1     183
       1     184
       1     185
       1     186
       1     187
       1     188
       1     189
       1     190
       1     191
       1     192
       1     193
       1     194
       1     195
       1     196
       1     197
       1     198
       1     199
       1     200
       1     201
       1     202
       1     203
       1     204
       1     205
       1     206
       1     207
       1     208
       1     209
       1     210
       1     211
       1     212
       1     213
       1     214
       1     215
       1     216
       1     217
       1     218
       1     219
       1     220
       1     221
       1     222
       1     223
       1     224
       1     225
       1     226
       1     227
       1     228
       1     229
       1     230
       1     231
       1     232
       1     233
       1     234
       1     235
       1     236
       1     237
       1     238
       1     239
       1     240
       1     241
       1     242
       1     243
       1     244
       1     245
       1     246
       1     247
       1     248
       1     249
       1     250
       1     251
       1     252
       1     253
       1     254
       1     255
       1     256
       1     257
       1     258
       1     259
       1     260
       1     261
       1     262
       1     263
       1     264
       1     265
       1     266
       1     267
       1     268
       1     269
       1     270
       1     271
       1     272
       1     273
       1     274
       1     275
       1     276
       1     277
       1     278
       1     279
       1     280
       1     281
       1     282
       1     283
       1     284
       1     285
       1     286
       1     287
       1     288
       1     289
       1     290
       1     291
       1     292
       1     293
       1     294
       1     295
       1     296
       1     297
       1     298
       1     299
       1     300
       1     301
       1     302
       1     303
       1     304
       1     305
       1     306
       1     307
       1     308
       1     309
       1     310
       1     311
       1     312
       1     313
       1     314
       1     315
       1     316
       1     317
       1     318
       1     319
       1     320
       1     321
       1     322
       1     323
       1     324
       1     325
       1     326
       1     327
       1     328
       1     329
       1     330
       1     331
       1     332
       1     333
       1     334
       1     335
       1     336
       1     337
       1     338
       1     339
       1     340
       1     341
       1     342
       1     343
       1     344
       1     345
       1     346
       1     347
       1     348
       1     349
       1     350
       1     351
       1     352
       1     353
       1     354
       1     355
       1     356
       1     357
       1     358
       1     359
       1     360
       1     361
       1     362
       1     363
       1     364
       1     365
       1     366
       1     367
       1     368
       1     369
       1     370
       1     371
       1     372
       1     373
       1     374
       1     375
       1     376
       1     377
       1     378
       1     379
       1     380
       1     381
       1     382
       1     383
       1     384
       1     385
       1     386
       1     387
       1     388
       1     389
       1     390
       1     391
       1     392
       1     393
       1     394
       1     395
       1     396
       1     397
       1     398
       1     399
       1     400
       1     401
       1     402
       1     403
       1     404
       1     405
       1     406
       1     407
       1     408
       1     409
       1     410
       1     411
       1     412
       1     413
       1     414
       1     415
       1     416
       1     417
       1     418
       1     419
       1     420
       1     421
       1     422
       1     423
       1     424
       1     425
       1     426
       1     427
       1     428
       1     429
       1     430
       1     431
       1     432
       1     433
       1     434
       1     435
       1     436
       1     437
       1     438
       1     439
       1     440
       1     441
       1     442
       1     443
       1     444
       1     445
       1     446
       1     447
       1     448
       1     449
       1     450
       1     451
       1     452
       1     453
       1     454
       1     455
       1     456
       1     457
       1     458
       1     459
       1     460
       1     461
       1     462
       1     463
       1     464
       1     465
       1     466
       1     467
       1     468
       1     469
       1     470
       1     471
       1     472
       1     473
       1     474
       1     475
       1     476
       1     477
       1     478
       1     479
       1     480
       1     481
       1     482
       1     483
       1     484
       1     485
       1     486
       1     487
       1     488
       1     489
       1     490
       1     491
       1     492
       1     493
       1     494
       1     495
       1     496
       1     497
       1     498
       1     499
       1     500
       1     501
       1     502
       1     503
       1     504
       1     505
       1     506
       1     507
       1     508
       1     509
       1     510
       1     511
       1     512
       1     513
       1     514
       1     515
       1     516
       1     517
       1     518
       1     519
       1     520
       1     521
       1     522
       1     523
       1     524
       1     525
       1     526
       1     527
       1     528
       1     529
       1     530
       1     531
       1     532
       1     533
       1     534
       1     535
       1     536
       1     537
       1     538
       1     539
       1     540
       1     541
       1     542
       1     543
       1     544
       1     545
       1     546
       1     547
       1     548
       1     549
       1     550
       1     551
       1     552
       1     553
       1     554
       1     555
       1     556
       1     557
       1     558
       1     559
       1     560
       1     561
       1     562
       1     563
       1     564
       1     565
       1     566
       1     567
       1     568
       1     569
       1     570
       1     571
       1     572
       1     573
       1     574
       1     575
       1     576
       1     577
       1     578
       1     579
       1     580
       1     581
       1     582
       1     583
       1     584
       1     585
       1     586
       1     587
       1     588
       1     589
       1     590
       1     591
       1     592
       1     593
       1     594
       1     595
       1     596
       1     597
       1     598
       1     599
       1     600
       1     601
       1     602
       1     603
       1     604
       1     605
       1     606
       1     607
       1     608
       1     609
       1     610
       1     611
       1     612
       1     613
       1     614
       1     615
       1     616
       1     617
       1     618
       1     619
       1     620
       1     621
       1     622
       1     623
       1     624
       1     625
       1     626
       1     627
       1     628
       1     629
       1     630
       1     631
       1     632
       1     633
       1     634
       1     635
       1     636
       1     637
       1     638
       1     639
       1     640
       1     641
       1     642
       1     643
       1     644
       1     645
       1     646
       1     647
       1     648
       1     649
       1     650
       1     651
       1     652
       1     653
       1     654
       1     655
       1     656
       1     657
       1     658
       1     659
       1     660
       1     661
       1     662
       1     663
       1     664
       1     665
       1     666
       1     667
       1     668
       1     669
       1     670
       1     671
       1     672
       1     673
       1     674
       1     675
       1     676
       1     677
       1     678
       1     679
       1     680
       1     681
       1     682
       1     683
       1     684
       1     685
       1     686
       1     687
       1     688
       1     689
       1     690
       1     691
       1     692
       1     693
       1     694
       1     695
       1     696
       1     697
       1     698
       1     699
       1     700
       1     701
       1     702
       1     703
       1     704
       1     705
       1     706
       1     707
       1     708
       1     709
       1     710
       1     711
       1     712
       1     713
       1     714
       1     715
       1     716
       1     717
       1     718
       1     719
       1     720
       1     721
       1     722
       1     723
       1     724
       1     725
       1     726
       1     727
       1     728
       1     729
       1     730
       1     731
       1     732
       1     733
       1     734
       1     735
       1     736
       1     737
       1     738
       1     739
       1     740
       1     741
       1     742
       1     743
       1     744
       1     745
       1     746
       1     747
       1     748
       1     749
       1     750
       1     751
       1     752
       1     753
       1     754
       1     755
       1     756
       1     757
       1     758
       1     759
       1     760
       1     761
       1     762
       1     763
       1     764
       1     765
       1     766
       1     767
       1     768
       1     769
       1     770
       1     771
       1     772
       1     773
       1     774
       1     775
       1     776
       1     777
       1     778
       1     779
       1     780
       1     781
       1     782
       1     783
       1     784
       1     785
       1     786
       1     787
       1     788
       1     789
       1     790
       1     791
       1     792
       1     793
       1     794
       1     795
       1     796
       1     797
       1     798
       1     799
       1     800
       1     801
       1     802
       1     803
       1     804
       1     805
       1     806
       1     807
       1     808
       1     809
       1     810
       1     811
       1     812
       1     813
       1     814
       1     815
       1     816
       1     817
       1     818
       1     819
       1     820
       1     821
       1     822
       1     823
       1     824
       1     825
       1     826
       1     827
       1     828
       1     829
       1     830
       1     831
       1     832
       1     833
       1     834
       1     835
       1     836
       1     837
       1     838
       1     839
       1     840
       1     841
       1     842
       1     843
       1     844
       1     845
       1     846
       1     847
       1     848
       1     849
       1     850
       1     851
       1     852
       1     853
       1     854
       1     855
       1     856
       1     857
       1     858
       1     859
       1     860
       1     861
       1     862
       1     863
       1     864
       1     865
       1     866
       1     867
       1     868
       1     869
       1     870
       1     871
       1     872
       1     873
       1     874
       1     875
       1     876
       1     877
       1     878
       1     879
       1     880
       1     881
       1     882
       1     883
       1     884
       1     885
       1     886
       1     887
       1     888
       1     889
       1     890
       1     891
       1     892
       1     893
       1     894
       1     895
       1     896
       1     897
       1     898
       1     899
       1     900
       1     901
       1     902
       1     903
       1     904
       1     905
       1     906
       1     907
       1     908
       1     909
       1     910
       1     911
       1     912
       1     913
       1     914
       1     915
       1     916
       1     917
       1     918
       1     919
       1     920
       1     921
       1     922
       1     923
       1     924
       1     925
       1     926
       1     927
       1     928
       1     929
       1     930
       1     931
       1     932
       1     933
       1     934
       1     935
       1     936
       1     937
       1     938
       1     939
       1     940
       1     941
       1     942
       1     943
       1     944
       1     945
       1     946
       1     947
       1     948
       1     949
       1     950
       1     951
       1     952
       1     953
       1     954
       1     955
       1     956
       1     957
       1     958
       1     959
       1     960
       1     961
       1     962
       1     963
       1     964
       1     965
       1     966
       1     967
       1     968
       1     969
       1     970
       1     971
       1     972
       1     973
       1     974
       1     975
       1     976
       1     977
       1     978
       1     979
       1     980
       1     981
       1     982
       1     983
       1     984
       1     985
       1     986
       1     987
       1     988
       1     989
       1     990
       1     991
       1     992
       1     993
       1     994
       1     995
       1     996
       1     997
       1     998
       1     999
       1    1000
       1    1001
       1    1002
       1    1003
       1    1004
       1    1005
       1    1006
       1    1007
       1    1008
       1    1009
       1    1010
       1    1011
       1    1012
       1    1013
       1    1014
       1    1015
       1    1016
       1    1017
       1    1018
       1    1019
       1    1020
       1    1021
       1    1022
       1    1023
       1    1024
       1    1025
       1    1026
       1    1027
       1    1028
       1    1029
       1    1030
       1    1031
       1    1032
       1    1033
       1    1034
       1    1035
       1    1036
       1    1037
       1    1038
       1    1039
       1    1040
       1    1041
       1    1042
       1    1043
       1    1044
       1    1045
       1    1046
       1    1047
       1    1048
       1    1049
       1    1050
       1    1051
       1    1052
       1    1053
       1    1054
       1    1055
       1    1056
       1    1057
       1    1058
       1    1059
       1    1060
       1    1061
       1    1062
       1    1063
       1    1064
       1    1065
       1    1066
       1    1067
       1    1068
       1    1069
       1    1070
       1    1071
       1    1072
       1    1073
       1    1074
       1    1075
       1    1076
       1    1077
       1    1078
       1    1079
       1    1080
       1    1081
       1    1082
       1    1083
       1    1084
       1    1085
       1    1086
       1    1087
       1    1088
       1    1089
       1    1090
       1    1091
       1    1092
       1    1093
       1    1094
       1    1095
       1    1096
       1    1097
       1    1098
       1    1099
       1    1100
       1    1101
       1    1102
       1    1103
       1    1104
       1    1105
       1    1106
       1    1107
       1    1108
       1    1109
       1    1110
       1    1111
       1    1112
       1    1113
       1    1114
       1    1115
       1    1116
       1    1117
       1    1118
       1    1119
       1    1120
       1    1121
       1    1122
       1    1123
       1    1124
       1    1125
       1    1126
       1    1127
       1    1128
       1    1129
       1    1130
       1    1131
       1    1132
       1    1133
       1    1134
       1    1135
       1    1136
       1    1137
       1    1138
       1    1139
       1    1140
       1    1141
       1    1142
       1    1143
       1    1144
       1    1145
       1    1146
       1    1147
       1    1148
       1    1149
       1    1150
       1    1151
       1    1152
       1    1153
       1    1154
       1    1155
       1    1156
       1    1157
       1    1158
       1    1159
       1    1160
       1    1161
       1    1162
       1    1163
       1    1164
       1    1165
       1    1166
       1    1167
       1    1168
       1    1169
       1    1170
       1    1171
       1    1172
       1    1173
       1    1174
       1    1175
       1    1176
       1    1177
       1    1178
       1    1179
       1    1180
       1    1181
       1    1182
       1    1183
       1    1184
       1    1185
       1    1186
       1    1187
       1    1188
       1    1189
       1    1190
       1    1191
       1    1192
       1    1193
       1    1194
       1    1195
       1    1196
       1    1197
       1    1198
       1    1199
       1    1200
       1    1201
       1    1202
       1    1203
       1    1204
       1    1205
       1    1206
       1    1207
       1    1208
       1    1209
       1    1210
       1    1211
       1    1212
       1    1213
       1    1214
       1    1215
       1    1216
       1    1217
       1    1218
       1    1219
       1    1220
       1    1221
       1    1222
       1    1223
       1    1224
       1    1225
       1    1226
       1    1227
       1    1228
       1    1229
       1    1230
       1    1231
       1    1232
       1    1233
       1    1234
       1    1235
       1    1236
       1    1237
       1    1238
       1    1239
       1    1240
       1    1241
       1    1242
       1    1243
       1    1244
       1    1245
       1    1246
       1    1247
       1    1248
       1    1249
       1    1250
       1    1251
       1    1252
       1    1253
       1    1254
       1    1255
       1    1256
       1    1257
       1    1258
       1    1259
       1    1260
       1    1261
       1    1262
       1    1263
       1    1264
       1    1265
       1    1266
       1    1267
       1    1268
       1    1269
       1    1270
       1    1271
       1    1272
       1    1273
       1    1274
       1    1275
       1    1276
       1    1277
       1    1278
       1    1279
       1    1280
       1    1281
       1    1282
       1    1283
       1    1284
       1    1285
       1    1286
       1    1287
       1    1288
       1    1289
       1    1290
       1    1291
       1    1292
       1    1293
       1    1294
       1    1295
       1    1296
       1    1297
       1    1298
       1    1299
       1    1300
       1    1301
       1    1302
       1    1303
       1    1304
       1    1305
       1    1306
       1    1307
       1    1308
       1    1309
       1    1310
       1    1311
       1    1312
       1    1313
       1    1314
       1    1315
       1    1316
       1    1317
       1    1318
       1    1319
       1    1320
       1    1321
       1    1322
       1    1323
       1    1324
       1    1325
       1    1326
       1    1327
       1    1328
       1    1329
       1    1330
       1    1331
       1    1332
       1    1333
       1    1334
       1    1335
       1    1336
       1    1337
       1    1338
       1    1339
       1    1340
       1    1341
       1    1342
       1    1343
       1    1344
       1    1345
       1    1346
       1    1347
       1    1348
       1    1349
       1    1350
       1    1351
       1    1352
       1    1353
       1    1354
       1    1355
       1    1356
       1    1357
       1    1358
       1    1359
       1    1360
       1    1361
       1    1362
       1    1363
       1    1364
       1    1365
       1    1366
       1    1367
       1    1368
       1    1369
       1    1370
       1    1371
       1    1372
       1    1373
       1    1374
       1    1375
       1    1376
       1    1377
       1    1378
       1    1379
       1    1380
       1    1381
       1    1382
       1    1383
       1    1384
       1    1385
       1    1386
       1    1387
       1    1388
       1    1389
       1    1390
       1    1391
       1    1392
       1    1393
       1    1394
       1    1395
       1    1396
       1    1397
       1    1398
       1    1399
       1    1400
       1    1401
       1    1402
       1    1403
       1    1404
       1    1405
       1    1406
       1    1407
       1    1408
       1    1409
       1    1410
       1    1411
       1    1412
       1    1413
       1    1414
       1    1415
       1    1416
       1    1417
       1    1418
       1    1419
       1    1420
       1    1421
       1    1422
       1    1423
       1    1424
       1    1425
       1    1426
       1    1427
       1    1428
       1    1429
       1    1430
       1    1431
       1    1432
       1    1433
       1    1434
       1    1435
       1    1436
       1    1437
       1    1438
       1    1439
       1    1440
       1    1441
       1    1442
       1    1443
       1    1444
       1    1445
       1    1446
       1    1447
       1    1448
       1    1449
       1    1450
       1    1451
       1    1452
       1    1453
       1    1454
       1    1455
       1    1456
       1    1457
       1    1458
       1    1459
       1    1460
       1    1461
       1    1462
       1    1463
       1    1464
       1    1465
       1    1466
       1    1467
       1    1468
       1    1469
       1    1470
       1    1471
       1    1472
       1    1473
       1    1474
       1    1475
       1    1476
       1    1477
       1    1478
       1    1479
       1    1480
       1    1481
       1    1482
       1    1483
       1    1484
       1    1485
       1    1486
       1    1487
       1    1488
       1    1489
       1    1490
       1    1491
       1    1492
       1    1493
       1    1494
       1    1495
       1    1496
       1    1497
       1    1498
       1    1499
       1    1500
       1    1501
       1    1502
       1    1503
       1    1504
       1    1505
       1    1506
       1    1507
       1    1508
       1    1509
       1    1510
       1    1511
       1    1512
       1    1513
       1    1514
       1    1515
       1    1516
       1    1517
       1    1518
       1    1519
       1    1520
       1    1521
       1    1522
       1    1523
       1    1524
       1    1525
       1    1526
       1    1527
       1    1528
       1    1529
       1    1530
       1    1531
       1    1532
       1    1533
       1    1534
       1    1535
       1    1536
       1    1537
       1    1538
       1    1539
       1    1540
       1    1541
       1    1542
       1    1543
       1    1544
       1    1545
       1    1546
       1    1547
       1    1548
       1    1549
       1    1550
       1    1551
       1    1552
       1    1553
       1    1554
       1    1555
       1    1556
       1    1557
       1    1558
       1    1559
       1    1560
       1    1561
       1    1562
       1    1563
       1    1564
       1    1565
       1    1566
       1    1567
       1    1568
       1    1569
       1    1570
       1    1571
       1    1572
       1    1573
       1    1574
       1    1575
       1    1576
       1    1577
       1    1578
       1    1579
       1    1580
       1    1581
       1    1582
       1    1583
       1    1584
       1    1585
       1    1586
       1    1587
       1    1588
       1    1589
       1    1590
       1    1591
       1    1592
       1    1593
       1    1594
       1    1595
       1    1596
       1    1597
       1    1598
       1    1599
       1    1600
       1    1601
       1    1602
       1    1603
       1    1604
       1    1605
       1    1606
       1    1607
       1    1608
       1    1609
       1    1610
       1    1611
       1    1612
       1    1613
       1    1614
       1    1615
       1    1616
       1    1617
       1    1618
       1    1619
       1    1620
       1    1621
       1    1622
       1    1623
       1    1624
       1    1625
       1    1626
       1    1627
       1    1628
       1    1629
       1    1630
       1    1631
       1    1632
       1    1633
       1    1634
       1    1635
       1    1636
       1    1637
       1    1638
       1    1639
       1    1640
       1    1641
       1    1642
       1    1643
       1    1644
       1    1645
       1    1646
       1    1647
       1    1648
       1    1649
       1    1650
       1    1651
       1    1652
       1    1653
       1    1654
       1    1655
       1    1656
       1    1657
       1    1658
       1    1659
       1    1660
       1    1661
       1    1662
       1    1663
       1    1664
       1    1665
       1    1666
       1    1667
       1    1668
       1    1669
       1    1670
       1    1671
       1    1672
       1    1673
       1    1674
       1    1675
       1    1676
       1    1677
       1    1678
       1    1679
       1    1680
       1    1681
       1    1682
       1    1683
       1    1684
       1    1685
       1    1686
       1    1687
       1    1688
       1    1689
       1    1690
       1    1691
       1    1692
       1    1693
       1    1694
       1    1695
       1    1696
       1    1697
       1    1698
       1    1699
       1    1700
       1    1701
       1    1702
       1    1703
       1    1704
       1    1705
       1    1706
       1    1707
       1    1708
       1    1709
       1    1710
       1    1711
       1    1712
       1    1713
       1    1714
       1    1715
       1    1716
       1    1717
       1    1718
       1    1719
       1    1720
       1    1721
       1    1722
       1    1723
       1    1724
       1    1725
       1    1726
       1    1727
       1    1728
       1    1729
       1    1730
       1    1731
       1    1732
       1    1733
       1    1734
       1    1735
       1    1736
       1    1737
       1    1738
       1    1739
       1    1740
       1    1741
       1    1742
       1    1743
       1    1744
       1    1745
       1    1746
       1    1747
       1    1748
       1    1749
       1    1750
       1    1751
       1    1752
       1    1753
       1    1754
       1    1755
       1    1756
       1    1757
       1    1758
       1    1759
       1    1760
       1    1761
       1    1762
       1    1763
       1    1764
       1    1765
       1    1766
       1    1767
       1    1768
       1    1769
       1    1770
       1    1771
       1    1772
       1    1773
       1    1774
       1    1775
       1    1776
       1    1777
       1    1778
       1    1779
       1    1780
       1    1781
       1    1782
       1    1783
       1    1784
       1    1785
       1    1786
       1    1787
       1    1788
       1    1789
       1    1790
       1    1791
       1    1792
       1    1793
       1    1794
       1    1795
       1    1796
       1    1797
       1    1798
       1    1799
       1    1800
       1    1801
       1    1802
       1    1803
       1    1804
       1    1805
       1    1806
       1    1807
       1    1808
       1    1809
       1    1810
       1    1811
       1    1812
       1    1813
       1    1814
       1    1815
       1    1816
       1    1817
       1    1818
       1    1819
       1    1820
       1    1821
       1    1822
       1    1823
       1    1824
       1    1825
       1    1826
       1    1827
       1    1828
       1    1829
       1    1830
       1    1831
       1    1832
       1    1833
       1    1834
       1    1835
       1    1836
       1    1837
       1    1838
       1    1839
       1    1840
       1    1841
       1    1842
       1    1843
       1    1844
       1    1845
       1    1846
       1    1847
       1    1848
       1    1849
       1    1850
       1    1851
       1    1852
       1    1853
       1    1854
       1    1855
       1    1856
       1    1857
       1    1858
       1    1859
       1    1860
       1    1861
       1    1862
       1    1863
       1    1864
       1    1865
       1    1866
       1    1867
       1    1868
       1    1869
       1    1870
       1    1871
       1    1872
       1    1873
       1    1874
       1    1875
       1    1876
       1    1877
       1    1878
       1    1879
       1    1880
       1    1881
       1    1882
       1    1883
       1    1884
       1    1885
       1    1886
       1    1887
       1    1888
       1    1889
       1    1890
       1    1891
       1    1892
       1    1893
       1    1894
       1    1895
       1    1896
       1    1897
       1    1898
       1    1899
       1    1900
       1    1901
       1    1902
       1    1903
       1    1904
       1    1905
       1    1906
       1    1907
       1    1908
       1    1909
       1    1910
       1    1911
       1    1912
       1    1913
       1    1914
       1    1915
       1    1916
       1    1917
       1    1918
       1    1919
       1    1920
       1    1921
       1    1922
       1    1923
       1    1924
       1    1925
       1    1926
       1    1927
       1    1928
       1    1929
       1    1930
       1    1931
       1    1932
       1    1933
       1    1934
       1    1935
       1    1936
       1    1937
       1    1938
       1    1939
       1    1940
       1    1941
       1    1942
       1    1943
       1    1944
       1    1945
       1    1946
       1    1947
       1    1948
       1    1949
       8       0       1       2       3       4       5       6       7
       8       2       8       9       3       6      10      11       7
       8      12       1       0      13      14       5       4      15
       8       0      16      17      13       4      18      19      15
       8      20      21      22      12      23      24      25      14
       8      26      27      21      20      28      29      24      23
       8      13      26      20      12      15      28      23      14
       8      30      31      16      32      33      34      18      35
       8      36      37      31      30      38      39      34      33
       8      40      41      37      36      42      43      39      38
       8      44      40      36      45      46      42      38      47
       8      48      17      16      31      49      19      18      34
       8      30      50      45      36      33      51      47      38
       8       0       3      32      16       4       7      35      18
       8      52      26      13      17      53      28      15      19
       8      54      52      17      48      55      53      19      49
       8      56      54      48      57      58      55      49      59
       8      37      57      48      31      39      59      49      34
       8      60      61      50      30      62      63      51      33
       8      64      60      30      32      65      62      33      35
       8      66      64      32       3      67      65      35       7
       8      68       8       2      69      70      10       6      71
       8      72      69       2       1      73      71       6       5
       8      22      72       1      12      25      73       5      14
       8      74      27      26      52      75      29      28      53
       8      76      74      52      54      77      75      53      55
       8      78      76      54      56      79      77      55      58
       8      80      78      56      81      82      79      58      83
       8      84      81      56      57      85      83      58      59
       8      41      84      57      37      43      85      59      39
       8      86      44      45      50      87      46      47      51
       8      88      86      50      61      89      87      51      63
       8      90      88      61      91      92      89      63      93
       8      94      91      61      60      95      93      63      62
       8      96      94      60      64      97      95      62      65
       8      98      96      64      66      99      97      65      67
       8     100      98      66     101     102      99      67     103
       8       9     101      66       3      11     103      67       7
       8     104     105       8      68     106     107      10      70
       8     108     104      68      69     109     106      70      71
       8     110     108      69      72     111     109      71      73
       8     112     110      72      22     113     111      73      25
       8     114     112      22      21     115     113      25      24
       8     116     114      21      27     117     115      24      29
       8     118     116      27      74     119     117      29      75
       8     120     118      74      76     121     119      75      77
       8     122     120      76      78     123     121      77      79
       8     124     122      78      80     125     123      79      82
       8     126     124      80      81     127     125      82      83
       8     128     126      81      84     129     127      83      85
       8     130     128      84      41     131     129      85      43
       8     132     130      41      40     133     131      43      42
       8     134     132      40      44     135     133      42      46
       8     136     134      44      86     137     135      46      87
       8     138     136      86      88     139     137      87      89
       8     140     138      88      90     141     139      89      92
       8     142     140      90      91     143     141      92      93
       8     144     142      91      94     145     143      93      95
       8     146     144      94      96     147     145      95      97
       8     148     146      96      98     149     147      97      99
       8     150     148      98     100     151     149      99     102
       8     152     150     100     101     153     151     102     103
       8     154     152     101       9     155     153     103      11
       8     105     154       9       8     107     155      11      10
       8     156     157     158     159       0       1       2       3
       8     158     160     161     159       2       8       9       3
       8     162     157     156     163      12       1       0      13
       8     156     164     165     163       0      16      17      13
       8     166     167     168     162      20      21      22      12
       8     169     170     167     166      26      27      21      20
       8     163     169     166     162      13      26      20      12
       8     171     172     164     173      30      31      16      32
       8     174     175     172     171      36      37      31      30
       8     176     177     175     174      40      41      37      36
       8     178     176     174     179      44      40      36      45
       8     180     165     164     172      48      17      16      31
       8     171     181     179     174      30      50      45      36
       8     156     159     173     164       0       3      32      16
       8     182     169     163     165      52      26      13      17
       8     183     182     165     180      54      52      17      48
       8     184     183     180     185      56      54      48      57
       8     175     185     180     172      37      57      48      31
       8     186     187     181     171      60      61      50      30
       8     188     186     171     173      64      60      30      32
       8     189     188     173     159      66      64      32       3
       8     190     160     158     191      68       8       2      69
       8     192     191     158     157      72      69       2       1
       8     168     192     157     162      22      72       1      12
       8     193     170     169     182      74      27      26      52
       8     194     193     182     183      76      74      52      54
       8     195     194     183     184      78      76      54      56
       8     196     195     184     197      80      78      56      81
       8     198     197     184     185      84      81      56      57
       8     177     198     185     175      41      84      57      37
       8     199     178     179     181      86      44      45      50
       8     200     199     181     187      88      86      50      61
       8     201     200     187     202      90      88      61      91
       8     203     202     187     186      94      91      61      60
       8     204     203     186     188      96      94      60      64
       8     205     204     188     189      98      96      64      66
       8     206     205     189     207     100      98      66     101
       8     161     207     189     159       9     101      66       3
       8     208     209     160     190     104     105       8      68
       8     210     208     190     191     108     104      68      69
       8     211     210     191     192     110     108      69      72
       8     212     211     192     168     112     110      72      22
       8     213     212     168     167     114     112      22      21
       8     214     213     167     170     116     114      21      27
       8     215     214     170     193     118     116      27      74
       8     216     215     193     194     120     118      74      76
       8     217     216     194     195     122     120      76      78
       8     218     217     195     196     124     122      78      80
       8     219     218     196     197     126     124      80      81
       8     220     219     197     198     128     126      81      84
       8     221     220     198     177     130     128      84      41
       8     222     221     177     176     132     130      41      40
       8     223     222     176     178     134     132      40      44
       8     224     223     178     199     136     134      44      86
       8     225     224     199     200     138     136      86      88
       8     226     225     200     201     140     138      88      90
       8     227     226     201     202     142     140      90      91
       8     228     227     202     203     144     142      91      94
       8     229     228     203     204     146     144      94      96
       8     230     229     204     205     148     146      96      98
       8     231     230     205     206     150     148      98     100
       8     232     231     206     207     152     150     100     101
       8     233     232     207     161     154     152     101       9
       8     209     233     161     160     105     154       9       8
       8     234     235     236     237     156     157     158     159
       8     236     238     239     237     158     160     161     159
       8     240     235     234     241     162     157     156     163
       8     234     242     243     241     156     164     165     163
       8     244     245     246     240     166     167     168     162
       8     247     248     245     244     169     170     167     166
       8     241     247     244     240     163     169     166     162
       8     249     250     242     251     171     172     164     173
       8     252     253     250     249     174     175     172     171
       8     254     255     253     252     176     177     175     174
       8     256     254     252     257     178     176     174     179
       8     258     243     242     250     180     165     164     172
       8     249     259     257     252     171     181     179     174
       8     234     237     251     242     156     159     173     164
       8     260     247     241     243     182     169     163     165
       8     261     260     243     258     183     182     165     180
       8     262     261     258     263     184     183     180     185
       8     253     263     258     250     175     185     180     172
       8     264     265     259     249     186     187     181     171
       8     266     264     249     251     188     186     171     173
       8     267     266     251     237     189     188     173     159
       8     268     238     236     269     190     160     158     191
       8     270     269     236     235     192     191     158     157
       8     246     270     235     240     168     192     157     162
       8     271     248     247     260     193     170     169     182
       8     272     271     260     261     194     193     182     183
       8     273     272     261     262     195     194     183     184
       8     274     273     262     275     196     195     184     197
       8     276     275     262     263     198     197     184     185
       8     255     276     263     253     177     198     185     175
       8     277     256     257     259     199     178     179     181
       8     278     277     259     265     200     199     181     187
       8     279     278     265     280     201     200     187     202
       8     281     280     265     264     203     202     187     186
       8     282     281     264     266     204     203     186     188
       8     283     282     266     267     205     204     188     189
       8     284     283     267     285     206     205     189     207
       8     239     285     267     237     161     207     189     159
       8     286     287     238     268     208     209     160     190
       8     288     286     268     269     210     208     190     191
       8     289     288     269     270     211     210     191     192
       8     290     289     270     246     212     211     192     168
       8     291     290     246     245     213     212     168     167
       8     292     291     245     248     214     213     167     170
       8     293     292     248     271     215     214     170     193
       8     294     293     271     272     216     215     193     194
       8     295     294     272     273     217     216     194     195
       8     296     295     273     274     218     217     195     196
       8     297     296     274     275     219     218     196     197
       8     298     297     275     276     220     219     197     198
       8     299     298     276     255     221     220     198     177
       8     300     299     255     254     222     221     177     176
       8     301     300     254     256     223     222     176     178
       8     302     301     256     277     224     223     178     199
       8     303     302     277     278     225     224     199     200
       8     304     303     278     279     226     225     200     201
       8     305     304     279     280     227     226     201     202
       8     306     305     280     281     228     227     202     203
       8     307     306     281     282     229     228     203     204
       8     308     307     282     283     230     229     204     205
       8     309     308     283     284     231     230     205     206
       8     310     309     284     285     232     231     206     207
       8     311     310     285     239     233     232     207     161
       8     287     311     239     238     209     233     161     160
       8     312     313     314     315     234     235     236     237
       8     314     316     317     315     236     238     239     237
       8     318     313     312     319     240     235     234     241
       8     312     320     321     319     234     242     243     241
       8     322     323     324     318     244     245     246     240
       8     325     326     323     322     247     248     245     244
       8     319     325     322     318     241     247     244     240
       8     327     328     320     329     249     250     242     251
       8     330     331     328     327     252     253     250     249
       8     332     333     331     330     254     255     253     252
       8     334     332     330     335     256     254     252     257
       8     336     321     320     328     258     243     242     250
       8     327     337     335     330     249     259     257     252
       8     312     315     329     320     234     237     251     242
       8     338     325     319     321     260     247     241     243
       8     339     338     321     336     261     260     243     258
       8     340     339     336     341     262     261     258     263
       8     331     341     336     328     253     263     258     250
       8     342     343     337     327     264     265     259     249
       8     344     342     327     329     266     264     249     251
       8     345     344     329     315     267     266     251     237
       8     346     316     314     347     268     238     236     269
       8     348     347     314     313     270     269     236     235
       8     324     348     313     318     246     270     235     240
       8     349     326     325     338     271     248     247     260
       8     350     349     338     339     272     271     260     261
       8     351     350     339     340     273     272     261     262
       8     352     351     340     353     274     273     262     275
       8     354     353     340     341     276     275     262     263
       8     333     354     341     331     255     276     263     253
       8     355     334     335     337     277     256     257     259
       8     356     355     337     343     278     277     259     265
       8     357     356     343     358     279     278     265     280
       8     359     358     343     342     281     280     265     264
       8     360     359     342     344     282     281     264     266
       8     361     360     344     345     283     282     266     267
       8     362     361     345     363     284     283     267     285
       8     317     363     345     315     239     285     267     237
       8     364     365     316     346     286     287     238     268
       8     366     364     346     347     288     286     268     269
       8     367     366     347     348     289     288     269     270
       8     368     367     348     324     290     289     270     246
       8     369     368     324     323     291     290     246     245
       8     370     369     323     326     292     291     245     248
       8     371     370     326     349     293     292     248     271
       8     372     371     349     350     294     293     271     272
       8     373     372     350     351     295     294     272     273
       8     374     373     351     352     296     295     273     274
       8     375     374     352     353     297     296     274     275
       8     376     375     353     354     298     297     275     276
       8     377     376     354     333     299     298     276     255
       8     378     377     333     332     300     299     255     254
       8     379     378     332     334     301     300     254     256
       8     380     379     334     355     302     301     256     277
       8     381     380     355     356     303     302     277     278
       8     382     381     356     357     304     303     278     279
       8     383     382     357     358     305     304     279     280
       8     384     383     358     359     306     305     280     281
       8     385     384     359     360     307     306     281     282
       8     386     385     360     361     308     307     282     283
       8     387     386     361     362     309     308     283     284
       8     388     387     362     363     310     309     284     285
       8     389     388     363     317     311     310     285     239
       8     365     389     317     316     287     311     239     238
       8     390     391     392     393     312     313     314     315
       8     392     394     395     393     314     316     317     315
       8     396     391     390     397     318     313     312     319
       8     390     398     399     397     312     320     321     319
       8     400     401     402     396     322     323     324     318
       8     403     404     401     400     325     326     323     322
       8     397     403     400     396     319     325     322     318
       8     405     406     398     407     327     328     320     329
       8     408     409     406     405     330     331     328     327
       8     410     411     409     408     332     333     331     330
       8     412     410     408     413     334     332     330     335
       8     414     399     398     406     336     321     320     328
       8     405     415     413     408     327     337     335     330
       8     390     393     407     398     312     315     329     320
       8     416     403     397     399     338     325     319     321
       8     417     416     399     414     339     338     321     336
       8     418     417     414     419     340     339     336     341
       8     409     419     414     406     331     341     336     328
       8     420     421     415     405     342     343     337     327
       8     422     420     405     407     344     342     327     329
       8     423     422     407     393     345     344     329     315
       8     424     394     392     425     346     316     314     347
       8     426     425     392     391     348     347     314     313
       8     402     426     391     396     324     348     313     318
       8     427     404     403     416     349     326     325     338
       8     428     427     416     417     350     349     338     339
       8     429     428     417     418     351     350     339     340
       8     430     429     418     431     352     351     340     353
       8     432     431     418     419     354     353     340     341
       8     411     432     419     409     333     354     341     331
       8     433     412     413     415     355     334     335     337
       8     434     433     415     421     356     355     337     343
       8     435     434     421     436     357     356     343     358
       8     437     436     421     420     359     358     343     342
       8     438     437     420     422     360     359     342     344
       8     439     438     422     423     361     360     344     345
       8     440     439     423     441     362     361     345     363
       8     395     441     423     393     317     363     345     315
       8     442     443     394     424     364     365     316     346
       8     444     442     424     425     366     364     346     347
       8     445     444     425     426     367     366     347     348
       8     446     445     426     402     368     367     348     324
       8     447     446     402     401     369     368     324     323
       8     448     447     401     404     370     369     323     326
       8     449     448     404     427     371     370     326     349
       8     450     449     427     428     372     371     349     350
       8     451     450     428     429     373     372     350     351
       8     452     451     429     430     374     373     351     352
       8     453     452     430     431     375     374     352     353
       8     454     453     431     432     376     375     353     354
       8     455     454     432     411     377     376     354     333
       8     456     455     411     410     378     377     333     332
       8     457     456     410     412     379     378     332     334
       8     458     457     412     433     380     379     334     355
       8     459     458     433     434     381     380     355     356
       8     460     459     434     435     382     381     356     357
       8     461     460     435     436     383     382     357     358
       8     462     461     436     437     384     383     358     359
       8     463     462     437     438     385     384     359     360
       8     464     463     438     439     386     385     360     361
       8     465     464     439     440     387     386     361     362
       8     466     465     440     441     388     387     362     363
       8     467     466     441     395     389     388     363     317
       8     443     467     395     394     365     389     317     316
       8     468     469     470     471     390     391     392     393
       8     470     472     473     471     392     394     395     393
       8     474     469     468     475     396     391     390     397
       8     468     476     477     475     390     398     399     397
       8     478     479     480     474     400     401     402     396
       8     481     482     479     478     403     404     401     400
       8     475     481     478     474     397     403     400     396
       8     483     484     476     485     405     406     398     407
       8     486     487     484     483     408     409     406     405
       8     488     489     487     486     410     411     409     408
       8     490     488     486     491     412     410     408     413
       8     492     477     476     484     414     399     398     406
       8     483     493     491     486     405     415     413     408
       8     468     471     485     476     390     393     407     398
       8     494     481     475     477     416     403     397     399
       8     495     494     477     492     417     416     399     414
       8     496     495     492     497     418     417     414     419
       8     487     497     492     484     409     419     414     406
       8     498     499     493     483     420     421     415     405
       8     500     498     483     485     422     420     405     407
       8     501     500     485     471     423     422     407     393
       8     502     472     470     503     424     394     392     425
       8     504     503     470     469     426     425     392     391
       8     480     504     469     474     402     426     391     396
       8     505     482     481     494     427     404     403     416
       8     506     505     494     495     428     427     416     417
       8     507     506     495     496     429     428     417     418
       8     508     507     496     509     430     429     418     431
       8     510     509     496     497     432     431     418     419
       8     489     510     497     487     411     432     419     409
       8     511     490     491     493     433     412     413     415
       8     512     511     493     499     434     433     415     421
       8     513     512     499     514     435     434     421     436
       8     515     514     499     498     437     436     421     420
       8     516     515     498     500     438     437     420     422
       8     517     516     500     501     439     438     422     423
       8     518     517     501     519     440     439     423     441
       8     473     519     501     471     395     441     423     393
       8     520     521     472     502     442     443     394     424
       8     522     520     502     503     444     442     424     425
       8     523     522     503     504     445     444     425     426
       8     524     523     504     480     446     445     426     402
       8     525     524     480     479     447     446     402     401
       8     526     525     479     482     448     447     401     404
       8     527     526     482     505     449     448     404     427
       8     528     527     505     506     450     449     427     428
       8     529     528     506     507     451     450     428     429
       8     530     529     507     508     452     451     429     430
       8     531     530     508     509     453     452     430     431
       8     532     531     509     510     454     453     431     432
       8     533     532     510     489     455     454     432     411
       8     534     533     489     488     456     455     411     410
       8     535     534     488     490     457     456     410     412
       8     536     535     490     511     458     457     412     433
       8     537     536     511     512     459     458     433     434
       8     538     537     512     513     460     459     434     435
       8     539     538     513     514     461     460     435     436
       8     540     539     514     515     462     461     436     437
       8     541     540     515     516     463     462     437     438
       8     542     541     516     517     464     463     438     439
       8     543     542     517     518     465     464     439     440
       8     544     543     518     519     466     465     440     441
       8     545     544     519     473     467     466     441     395
       8     521     545     473     472     443     467     395     394
       8     546     547     548     549     468     469     470     471
       8     548     550     551     549     470     472     473     471
       8     552     547     546     553     474     469     468     475
       8     546     554     555     553     468     476     477     475
       8     556     557     558     552     478     479     480     474
       8     559     560     557     556     481     482     479     478
       8     553     559     556     552     475     481     478     474
       8     561     562     554     563     483     484     476     485
       8     564     565     562     561     486     487     484     483
       8     566     567     565     564     488     489     487     486
       8     568     566     564     569     490     488     486     491
       8     570     555     554     562     492     477     476     484
       8     561     571     569     564     483     493     491     486
       8     546     549     563     554     468     471     485     476
       8     572     559     553     555     494     481     475     477
       8     573     572     555     570     495     494     477     492
       8     574     573     570     575     496     495     492     497
       8     565     575     570     562     487     497     492     484
       8     576     577     571     561     498     499     493     483
       8     578     576     561     563     500     498     483     485
       8     579     578     563     549     501     500     485     471
       8     580     550     548     581     502     472     470     503
       8     582     581     548     547     504     503     470     469
       8     558     582     547     552     480     504     469     474
       8     583     560     559     572     505     482     481     494
       8     584     583     572     573     506     505     494     495
       8     585     584     573     574     507     506     495     496
       8     586     585     574     587     508     507     496     509
       8     588     587     574     575     510     509     496     497
       8     567     588     575     565     489     510     497     487
       8     589     568     569     571     511     490     491     493
       8     590     589     571     577     512     511     493     499
       8     591     590     577     592     513     512     499     514
       8     593     592     577     576     515     514     499     498
       8     594     593     576     578     516     515     498     500
       8     595     594     578     579     517     516     500     501
       8     596     595     579     597     518     517     501     519
       8     551     597     579     549     473     519     501     471
       8     598     599     550     580     520     521     472     502
       8     600     598     580     581     522     520     502     503
       8     601     600     581     582     523     522     503     504
       8     602     601     582     558     524     523     504     480
       8     603     602     558     557     525     524     480     479
       8     604     603     557     560     526     525     479     482
       8     605     604     560     583     527     526     482     505
       8     606     605     583     584     528     527     505     506
       8     607     606     584     585     529     528     506     507
       8     608     607     585     586     530     529     507     508
       8     609     608     586     587     531     530     508     509
       8     610     609     587     588     532     531     509     510
       8     611     610     588     567     533     532     510     489
       8     612     611     567     566     534     533     489     488
       8     613     612     566     568     535     534     488     490
       8     614     613     568     589     536     535     490     511
       8     615     614     589     590     537     536     511     512
       8     616     615     590     591     538     537     512     513
       8     617     616     591     592     539     538     513     514
       8     618     617     592     593     540     539     514     515
       8     619     618     593     594     541     540     515     516
       8     620     619     594     595     542     541     516     517
       8     621     620     595     596     543     542     517     518
       8     622     621     596     597     544     543     518     519
       8     623     622     597     551     545     544     519     473
       8     599     623     551     550     521     545     473     472
       8     624     625     626     627     546     547     548     549
       8     626     628     629     627     548     550     551     549
       8     630     625     624     631     552     547     546     553
       8     624     632     633     631     546     554     555     553
       8     634     635     636     630     556     557     558     552
       8     637     638     635     634     559     560     557     556
       8     631     637     634     630     553     559     556     552
       8     639     640     632     641     561     562     554     563
       8     642     643     640     639     564     565     562     561
       8     644     645     643     642     566     567     565     564
       8     646     644     642     647     568     566     564     569
       8     648     633     632     640     570     555     554     562
       8     639     649     647     642     561     571     569     564
       8     624     627     641     632     546     549     563     554
       8     650     637     631     633     572     559     553     555
       8     651     650     633     648     573     572     555     570
       8     652     651     648     653     574     573     570     575
       8     643     653     648     640     565     575     570     562
       8     654     655     649     639     576     577     571     561
       8     656     654     639     641     578     576     561     563
       8     657     656     641     627     579     578     563     549
       8     658     628     626     659     580     550     548     581
       8     660     659     626     625     582     581     548     547
       8     636     660     625     630     558     582     547     552
       8     661     638     637     650     583     560     559     572
       8     662     661     650     651     584     583     572     573
       8     663     662     651     652     585     584     573     574
       8     664     663     652     665     586     585     574     587
       8     666     665     652     653     588     587     574     575
       8     645     666     653     643     567     588     575     565
       8     667     646     647     649     589     568     569     571
       8     668     667     649     655     590     589     571     577
       8     669     668     655     670     591     590     577     592
       8     671     670     655     654     593     592     577     576
       8     672     671     654     656     594     593     576     578
       8     673     672     656     657     595     594     578     579
       8     674     673     657     675     596     595     579     597
       8     629     675     657     627     551     597     579     549
       8     676     677     628     658     598     599     550     580
       8     678     676     658     659     600     598     580     581
       8     679     678     659     660     601     600     581     582
       8     680     679     660     636     602     601     582     558
       8     681     680     636     635     603     602     558     557
       8     682     681     635     638     604     603     557     560
       8     683     682     638     661     605     604     560     583
       8     684     683     661     662     606     605     583     584
       8     685     684     662     663     607     606     584     585
       8     686     685     663     664     608     607     585     586
       8     687     686     664     665     609     608     586     587
       8     688     687     665     666     610     609     587     588
       8     689     688     666     645     611     610     588     567
       8     690     689     645     644     612     611     567     566
       8     691     690     644     646     613     612     566     568
       8     692     691     646     667     614     613     568     589
       8     693     692     667     668     615     614     589     590
       8     694     693     668     669     616     615     590     591
       8     695     694     669     670     617     616     591     592
       8     696     695     670     671     618     617     592     593
       8     697     696     671     672     619     618     593     594
       8     698     697     672     673     620     619     594     595
       8     699     698     673     674     621     620     595     596
       8     700     699     674     675     622     621     596     597
       8     701     700     675     629     623     622     597     551
       8     677     701     629     628     599     623     551     550
       8     702     703     704     705     624     625     626     627
       8     704     706     707     705     626     628     629     627
       8     708     703     702     709     630     625     624     631
       8     702     710     711     709     624     632     633     631
       8     712     713     714     708     634     635     636     630
       8     715     716     713     712     637     638     635     634
       8     709     715     712     708     631     637     634     630
       8     717     718     710     719     639     640     632     641
       8     720     721     718     717     642     643     640     639
       8     722     723     721     720     644     645     643     642
       8     724     722     720     725     646     644     642     647
       8     726     711     710     718     648     633     632     640
       8     717     727     725     720     639     649     647     642
       8     702     705     719     710     624     627     641     632
       8     728     715     709     711     650     637     631     633
       8     729     728     711     726     651     650     633     648
       8     730     729     726     731     652     651     648     653
       8     721     731     726     718     643     653     648     640
       8     732     733     727     717     654     655     649     639
       8     734     732     717     719     656     654     639     641
       8     735     734     719     705     657     656     641     627
       8     736     706     704     737     658     628     626     659
       8     738     737     704     703     660     659     626     625
       8     714     738     703     708     636     660     625     630
       8     739     716     715     728     661     638     637     650
       8     740     739     728     729     662     661     650     651
       8     741     740     729     730     663     662     651     652
       8     742     741     730     743     664     663     652     665
       8     744     743     730     731     666     665     652     653
       8     723     744     731     721     645     666     653     643
       8     745     724     725     727     667     646     647     649
       8     746     745     727     733     668     667     649     655
       8     747     746     733     748     669     668     655     670
       8     749     748     733     732     671     670     655     654
       8     750     749     732     734     672     671     654     656
       8     751     750     734     735     673     672     656     657
       8     752     751     735     753     674     673     657     675
       8     707     753     735     705     629     675     657     627
       8     754     755     706     736     676     677     628     658
       8     756     754     736     737     678     676     658     659
       8     757     756     737     738     679     678     659     660
       8     758     757     738     714     680     679     660     636
       8     759     758     714     713     681     680     636     635
       8     760     759     713     716     682     681     635     638
       8     761     760     716     739     683     682     638     661
       8     762     761     739     740     684     683     661     662
       8     763     762     740     741     685     684     662     663
       8     764     763     741     742     686     685     663     664
       8     765     764     742     743     687     686     664     665
       8     766     765     743     744     688     687     665     666
       8     767     766     744     723     689     688     666     645
       8     768     767     723     722     690     689     645     644
       8     769     768     722     724     691     690     644     646
       8     770     769     724     745     692     691     646     667
       8     771     770     745     746     693     692     667     668
       8     772     771     746     747     694     693     668     669
       8     773     772     747     748     695     694     669     670
       8     774     773     748     749     696     695     670     671
       8     775     774     749     750     697     696     671     672
       8     776     775     750     751     698     697     672     673
       8     777     776     751     752     699     698     673     674
       8     778     777     752     753     700     699     674     675
       8     779     778     753     707     701     700     675     629
       8     755     779     707     706     677     701     629     628
       8     780     781     782     783     702     703     704     705
       8     782     784     785     783     704     706     707     705
       8     786     781     780     787     708     703     702     709
       8     780     788     789     787     702     710     711     709
       8     790     791     792     786     712     713     714     708
       8     793     794     791     790     715     716     713     712
       8     787     793     790     786     709     715     712     708
       8     795     796     788     797     717     718     710     719
       8     798     799     796     795     720     721     718     717
       8     800     801     799     798     722     723     721     720
       8     802     800     798     803     724     722     720     725
       8     804     789     788     796     726     711     710     718
       8     795     805     803     798     717     727     725     720
       8     780     783     797     788     702     705     719     710
       8     806     793     787     789     728     715     709     711
       8     807     806     789     804     729     728     711     726
       8     808     807     804     809     730     729     726     731
       8     799     809     804     796     721     731     726     718
       8     810     811     805     795     732     733     727     717
       8     812     810     795     797     734     732     717     719
       8     813     812     797     783     735     734     719     705
       8     814     784     782     815     736     706     704     737
       8     816     815     782     781     738     737     704     703
       8     792     816     781     786     714     738     703     708
       8     817     794     793     806     739     716     715     728
       8     818     817     806     807     740     739     728     729
       8     819     818     807     808     741     740     729     730
       8     820     819     808     821     742     741     730     743
       8     822     821     808     809     744     743     730     731
       8     801     822     809     799     723     744     731     721
       8     823     802     803     805     745     724     725     727
       8     824     823     805     811     746     745     727     733
       8     825     824     811     826     747     746     733     748
       8     827     826     811     810     749     748     733     732
       8     828     827     810     812     750     749     732     734
       8     829     828     812     813     751     750     734     735
       8     830     829     813     831     752     751     735     753
       8     785     831     813     783     707     753     735     705
       8     832     833     784     814     754     755     706     736
       8     834     832     814     815     756     754     736     737
       8     835     834     815     816     757     756     737     738
       8     836     835     816     792     758     757     738     714
       8     837     836     792     791     759     758     714     713
       8     838     837     791     794     760     759     713     716
       8     839     838     794     817     761     760     716     739
       8     840     839     817     818     762     761     739     740
       8     841     840     818     819     763     762     740     741
       8     842     841     819     820     764     763     741     742
       8     843     842     820     821     765     764     742     743
       8     844     843     821     822     766     765     743     744
       8     845     844     822     801     767     766     744     723
       8     846     845     801     800     768     767     723     722
       8     847     846     800     802     769     768     722     724
       8     848     847     802     823     770     769     724     745
       8     849     848     823     824     771     770     745     746
       8     850     849     824     825     772     771     746     747
       8     851     850     825     826     773     772     747     748
       8     852     851     826     827     774     773     748     749
       8     853     852     827     828     775     774     749     750
       8     854     853     828     829     776     775     750     751
       8     855     854     829     830     777     776     751     752
       8     856     855     830     831     778     777     752     753
       8     857     856     831     785     779     778     753     707
       8     833     857     785     784     755     779     707     706
       8     858     859     860     861     780     781     782     783
       8     860     862     863     861     782     784     785     783
       8     864     859     858     865     786     781     780     787
       8     858     866     867     865     780     788     789     787
       8     868     869     870     864     790     791     792     786
       8     871     872     869     868     793     794     791     790
       8     865     871     868     864     787     793     790     786
       8     873     874     866     875     795     796     788     797
       8     876     877     874     873     798     799     796     795
       8     878     879     877     876     800     801     799     798
       8     880     878     876     881     802     800     798     803
       8     882     867     866     874     804     789     788     796
       8     873     883     881     876     795     805     803     798
       8     858     861     875     866     780     783     797     788
       8     884     871     865     867     806     793     787     789
       8     885     884     867     882     807     806     789     804
       8     886     885     882     887     808     807     804     809
       8     877     887     882     874     799     809     804     796
       8     888     889     883     873     810     811     805     795
       8     890     888     873     875     812     810     795     797
       8     891     890     875     861     813     812     797     783
       8     892     862     860     893     814     784     782     815
       8     894     893     860     859     816     815     782     781
       8     870     894     859     864     792     816     781     786
       8     895     872     871     884     817     794     793     806
       8     896     895     884     885     818     817     806     807
       8     897     896     885     886     819     818     807     808
       8     898     897     886     899     820     819     808     821
       8     900     899     886     887     822     821     808     809
       8     879     900     887     877     801     822     809     799
       8     901     880     881     883     823     802     803     805
       8     902     901     883     889     824     823     805     811
       8     903     902     889     904     825     824     811     826
       8     905     904     889     888     827     826     811     810
       8     906     905     888     890     828     827     810     812
       8     907     906     890     891     829     828     812     813
       8     908     907     891     909     830     829     813     831
       8     863     909     891     861     785     831     813     783
       8     910     911     862     892     832     833     784     814
       8     912     910     892     893     834     832     814     815
       8     913     912     893     894     835     834     815     816
       8     914     913     894     870     836     835     816     792
       8     915     914     870     869     837     836     792     791
       8     916     915     869     872     838     837     791     794
       8     917     916     872     895     839     838     794     817
       8     918     917     895     896     840     839     817     818
       8     919     918     896     897     841     840     818     819
       8     920     919     897     898     842     841     819     820
       8     921     920     898     899     843     842     820     821
       8     922     921     899     900     844     843     821     822
       8     923     922     900     879     845     844     822     801
       8     924     923     879     878     846     845     801     800
       8     925     924     878     880     847     846     800     802
       8     926     925     880     901     848     847     802     823
       8     927     926     901     902     849     848     823     824
       8     928     927     902     903     850     849     824     825
       8     929     928     903     904     851     850     825     826
       8     930     929     904     905     852     851     826     827
       8     931     930     905     906     853     852     827     828
       8     932     931     906     907     854     853     828     829
       8     933     932     907     908     855     854     829     830
       8     934     933     908     909     856     855     830     831
       8     935     934     909     863     857     856     831     785
       8     911     935     863     862     833     857     785     784
       8     936     937     938     939     858     859     860     861
       8     938     940     941     939     860     862     863     861
       8     942     937     936     943     864     859     858     865
       8     936     944     945     943     858     866     867     865
       8     946     947     948     942     868     869     870     864
       8     949     950     947     946     871     872     869     868
       8     943     949     946     942     865     871     868     864
       8     951     952     944     953     873     874     866     875
       8     954     955     952     951     876     877     874     873
       8     956     957     955     954     878     879     877     876
       8     958     956     954     959     880     878     876     881
       8     960     945     944     952     882     867     866     874
       8     951     961     959     954     873     883     881     876
       8     936     939     953     944     858     861     875     866
       8     962     949     943     945     884     871     865     867
       8     963     962     945     960     885     884     867     882
       8     964     963     960     965     886     885     882     887
       8     955     965     960     952     877     887     882     874
       8     966     967     961     951     888     889     883     873
       8     968     966     951     953     890     888     873     875
       8     969     968     953     939     891     890     875     861
       8     970     940     938     971     892     862     860     893
       8     972     971     938     937     894     893     860     859
       8     948     972     937     942     870     894     859     864
       8     973     950     949     962     895     872     871     884
       8     974     973     962     963     896     895     884     885
       8     975     974     963     964     897     896     885     886
       8     976     975     964     977     898     897     886     899
       8     978     977     964     965     900     899     886     887
       8     957     978     965     955     879     900     887     877
       8     979     958     959     961     901     880     881     883
       8     980     979     961     967     902     901     883     889
       8     981     980     967     982     903     902     889     904
       8     983     982     967     966     905     904     889     888
       8     984     983     966     968     906     905     888     890
       8     985     984     968     969     907     906     890     891
       8     986     985     969     987     908     907     891     909
       8     941     987     969     939     863     909     891     861
       8     988     989     940     970     910     911     862     892
       8     990     988     970     971     912     910     892     893
       8     991     990     971     972     913     912     893     894
       8     992     991     972     948     914     913     894     870
       8     993     992     948     947     915     914     870     869
       8     994     993     947     950     916     915     869     872
       8     995     994     950     973     917     916     872     895
       8     996     995     973     974     918     917     895     896
       8     997     996     974     975     919     918     896     897
       8     998     997     975     976     920     919     897     898
       8     999     998     976     977     921     920     898     899
       8    1000     999     977     978     922     921     899     900
       8    1001    1000     978     957     923     922     900     879
       8    1002    1001     957     956     924     923     879     878
       8    1003    1002     956     958     925     924     878     880
       8    1004    1003     958     979     926     925     880     901
       8    1005    1004     979     980     927     926     901     902
       8    1006    1005     980     981     928     927     902     903
       8    1007    1006     981     982     929     928     903     904
       8    1008    1007     982     983     930     929     904     905
       8    1009    1008     983     984     931     930     905     906
       8    1010    1009     984     985     932     931     906     907
       8    1011    1010     985     986     933     932     907     908
       8    1012    1011     986     987     934     933     908     909
       8    1013    1012     987     941     935     934     909     863
       8     989    1013     941     940     911     935     863     862
       8    1014    1015    1016    1017     936     937     938     939
       8    1016    1018    1019    1017     938     940     941     939
       8    1020    1015    1014    1021     942     937     936     943
       8    1014    1022    1023    1021     936     944     945     943
       8    1024    1025    1026    1020     946     947     948     942
       8    1027    1028    1025    1024     949     950     947     946
       8    1021    1027    1024    1020     943     949     946     942
       8    1029    1030    1022    1031     951     952     944     953
       8    1032    1033    1030    1029     954     955     952     951
       8    1034    1035    1033    1032     956     957     955     954
       8    1036    1034    1032    1037     958     956     954     959
       8    1038    1023    1022    1030     960     945     944     952
       8    1029    1039    1037    1032     951     961     959     954
       8    1014    1017    1031    1022     936     939     953     944
       8    1040    1027    1021    1023     962     949     943     945
       8    1041    1040    1023    1038     963     962     945     960
       8    1042    1041    1038    1043     964     963     960     965
       8    1033    1043    1038    1030     955     965     960     952
       8    1044    1045    1039    1029     966     967     961     951
       8    1046    1044    1029    1031     968     966     951     953
       8    1047    1046    1031    1017     969     968     953     939
       8    1048    1018    1016    1049     970     940     938     971
       8    1050    1049    1016    1015     972     971     938     937
       8    1026    1050    1015    1020     948     972     937     942
       8    1051    1028    1027    1040     973     950     949     962
       8    1052    1051    1040    1041     974     973     962     963
       8    1053    1052    1041    1042     975     974     963     964
       8    1054    1053    1042    1055     976     975     964     977
       8    1056    1055    1042    1043     978     977     964     965
       8    1035    1056    1043    1033     957     978     965     955
       8    1057    1036    1037    1039     979     958     959     961
       8    1058    1057    1039    1045     980     979     961     967
       8    1059    1058    1045    1060     981     980     967     982
       8    1061    1060    1045    1044     983     982     967     966
       8    1062    1061    1044    1046     984     983     966     968
       8    1063    1062    1046    1047     985     984     968     969
       8    1064    1063    1047    1065     986     985     969     987
       8    1019    1065    1047    1017     941     987     969     939
       8    1066    1067    1018    1048     988     989     940     970
       8    1068    1066    1048    1049     990     988     970     971
       8    1069    1068    1049    1050     991     990     971     972
       8    1070    1069    1050    1026     992     991     972     948
       8    1071    1070    1026    1025     993     992     948     947
       8    1072    1071    1025    1028     994     993     947     950
       8    1073    1072    1028    1051     995     994     950     973
       8    1074    1073    1051    1052     996     995     973     974
       8    1075    1074    1052    1053     997     996     974     975
       8    1076    1075    1053    1054     998     997     975     976
       8    1077    1076    1054    1055     999     998     976     977
       8    1078    1077    1055    1056    1000     999     977     978
       8    1079    1078    1056    1035    1001    1000     978     957
       8    1080    1079    1035    1034    1002    1001     957     956
       8    1081    1080    1034    1036    1003    1002     956     958
       8    1082    1081    1036    1057    1004    1003     958     979
       8    1083    1082    1057    1058    1005    1004     979     980
       8    1084    1083    1058    1059    1006    1005     980     981
       8    1085    1084    1059    1060    1007    1006     981     982
       8    1086    1085    1060    1061    1008    1007     982     983
       8    1087    1086    1061    1062    1009    1008     983     984
       8    1088    1087    1062    1063    1010    1009     984     985
       8    1089    1088    1063    1064    1011    1010     985     986
       8    1090    1089    1064    1065    1012    1011     986     987
       8    1091    1090    1065    1019    1013    1012     987     941
       8    1067    1091    1019    1018     989    1013     941     940
       8    1092    1093    1094    1095    1014    1015    1016    1017
       8    1094    1096    1097    1095    1016    1018    1019    1017
       8    1098    1093    1092    1099    1020    1015    1014    1021
       8    1092    1100    1101    1099    1014    1022    1023    1021
       8    1102    1103    1104    1098    1024    1025    1026    1020
       8    1105    1106    1103    1102    1027    1028    1025    1024
       8    1099    1105    1102    1098    1021    1027    1024    1020
       8    1107    1108    1100    1109    1029    1030    1022    1031
       8    1110    1111    1108    1107    1032    1033    1030    1029
       8    1112    1113    1111    1110    1034    1035    1033    1032
       8    1114    1112    1110    1115    1036    1034    1032    1037
       8    1116    1101    1100    1108    1038    1023    1022    1030
       8    1107    1117    1115    1110    1029    1039    1037    1032
       8    1092    1095    1109    1100    1014    1017    1031    1022
       8    1118    1105    1099    1101    1040    1027    1021    1023
       8    1119    1118    1101    1116    1041    1040    1023    1038
       8    1120    1119    1116    1121    1042    1041    1038    1043
       8    1111    1121    1116    1108    1033    1043    1038    1030
       8    1122    1123    1117    1107    1044    1045    1039    1029
       8    1124    1122    1107    1109    1046    1044    1029    1031
       8    1125    1124    1109    1095    1047    1046    1031    1017
       8    1126    1096    1094    1127    1048    1018    1016    1049
       8    1128    1127    1094    1093    1050    1049    1016    1015
       8    1104    1128    1093    1098    1026    1050    1015    1020
       8    1129    1106    1105    1118    1051    1028    1027    1040
       8    1130    1129    1118    1119    1052    1051    1040    1041
       8    1131    1130    1119    1120    1053    1052    1041    1042
       8    1132    1131    1120    1133    1054    1053    1042    1055
       8    1134    1133    1120    1121    1056    1055    1042    1043
       8    1113    1134    1121    1111    1035    1056    1043    1033
       8    1135    1114    1115    1117    1057    1036    1037    1039
       8    1136    1135    1117    1123    1058    1057    1039    1045
       8    1137    1136    1123    1138    1059    1058    1045    1060
       8    1139    1138    1123    1122    1061    1060    1045    1044
       8    1140    1139    1122    1124    1062    1061    1044    1046
       8    1141    1140    1124    1125    1063    1062    1046    1047
       8    1142    1141    1125    1143    1064    1063    1047    1065
       8    1097    1143    1125    1095    1019    1065    1047    1017
       8    1144    1145    1096    1126    1066    1067    1018    1048
       8    1146    1144    1126    1127    1068    1066    1048    1049
       8    1147    1146    1127    1128    1069    1068    1049    1050
       8    1148    1147    1128    1104    1070    1069    1050    1026
       8    1149    1148    1104    1103    1071    1070    1026    1025
       8    1150    1149    1103    1106    1072    1071    1025    1028
       8    1151    1150    1106    1129    1073    1072    1028    1051
       8    1152    1151    1129    1130    1074    1073    1051    1052
       8    1153    1152    1130    1131    1075    1074    1052    1053
       8    1154    1153    1131    1132    1076    1075    1053    1054
       8    1155    1154    1132    1133    1077    1076    1054    1055
       8    1156    1155    1133    1134    1078    1077    1055    1056
       8    1157    1156    1134    1113    1079    1078    1056    1035
       8    1158    1157    1113    1112    1080    1079    1035    1034
       8    1159    1158    1112    1114    1081    1080    1034    1036
       8    1160    1159    1114    1135    1082    1081    1036    1057
       8    1161    1160    1135    1136    1083    1082    1057    1058
       8    1162    1161    1136    1137    1084    1083    1058    1059
       8    1163    1162    1137    1138    1085    1084    1059    1060
       8    1164    1163    1138    1139    1086    1085    1060    1061
       8    1165    1164    1139    1140    1087    1086    1061    1062
       8    1166    1165    1140    1141    1088    1087    1062    1063
       8    1167    1166    1141    1142    1089    1088    1063    1064
       8    1168    1167    1142    1143    1090    1089    1064    1065
       8    1169    1168    1143    1097    1091    1090    1065    1019
       8    1145    1169    1097    1096    1067    1091    1019    1018
       8    1170    1171    1172    1173    1092    1093    1094    1095
       8    1172    1174    1175    1173    1094    1096    1097    1095
       8    1176    1171    1170    1177    1098    1093    1092    1099
       8    1170    1178    1179    1177    1092    1100    1101    1099
       8    1180    1181    1182    1176    1102    1103    1104    1098
       8    1183    1184    1181    1180    1105    1106    1103    1102
       8    1177    1183    1180    1176    1099    1105    1102    1098
       8    1185    1186    1178    1187    1107    1108    1100    1109
       8    1188    1189    1186    1185    1110    1111    1108    1107
       8    1190    1191    1189    1188    1112    1113    1111    1110
       8    1192    1190    1188    1193    1114    1112    1110    1115
       8    1194    1179    1178    1186    1116    1101    1100    1108
       8    1185    1195    1193    1188    1107    1117    1115    1110
       8    1170    1173    1187    1178    1092    1095    1109    1100
       8    1196    1183    1177    1179    1118    1105    1099    1101
       8    1197    1196    1179    1194    1119    1118    1101    1116
       8    1198    1197    1194    1199    1120    1119    1116    1121
       8    1189    1199    1194    1186    1111    1121    1116    1108
       8    1200    1201    1195    1185    1122    1123    1117    1107
       8    1202    1200    1185    1187    1124    1122    1107    1109
       8    1203    1202    1187    1173    1125    1124    1109    1095
       8    1204    1174    1172    1205    1126    1096    1094    1127
       8    1206    1205    1172    1171    1128    1127    1094    1093
       8    1182    1206    1171    1176    1104    1128    1093    1098
       8    1207    1184    1183    1196    1129    1106    1105    1118
       8    1208    1207    1196    1197    1130    1129    1118    1119
       8    1209    1208    1197    1198    1131    1130    1119    1120
       8    1210    1209    1198    1211    1132    1131    1120    1133
       8    1212    1211    1198    1199    1134    1133    1120    1121
       8    1191    1212    1199    1189    1113    1134    1121    1111
       8    1213    1192    1193    1195    1135    1114    1115    1117
       8    1214    1213    1195    1201    1136    1135    1117    1123
       8    1215    1214    1201    1216    1137    1136    1123    1138
       8    1217    1216    1201    1200    1139    1138    1123    1122
       8    1218    1217    1200    1202    1140    1139    1122    1124
       8    1219    1218    1202    1203    1141    1140    1124    1125
       8    1220    1219    1203    1221    1142    1141    1125    1143
       8    1175    1221    1203    1173    1097    1143    1125    1095
       8    1222    1223    1174    1204    1144    1145    1096    1126
       8    1224    1222    1204    1205    1146    1144    1126    1127
       8    1225    1224    1205    1206    1147    1146    1127    1128
       8    1226    1225    1206    1182    1148    1147    1128    1104
       8    1227    1226    1182    1181    1149    1148    1104    1103
       8    1228    1227    1181    1184    1150    1149    1103    1106
       8    1229    1228    1184    1207    1151    1150    1106    1129
       8    1230    1229    1207    1208    1152    1151    1129    1130
       8    1231    1230    1208    1209    1153    1152    1130    1131
       8    1232    1231    1209    1210    1154    1153    1131    1132
       8    1233    1232    1210    1211    1155    1154    1132    1133
       8    1234    1233    1211    1212    1156    1155    1133    1134
       8    1235    1234    1212    1191    1157    1156    1134    1113
       8    1236    1235    1191    1190    1158    1157    1113    1112
       8    1237    1236    1190    1192    1159    1158    1112    1114
       8    1238    1237    1192    1213    1160    1159    1114    1135
       8    1239    1238    1213    1214    1161    1160    1135    1136
       8    1240    1239    1214    1215    1162    1161    1136    1137
       8    1241    1240    1215    1216    1163    1162    1137    1138
       8    1242    1241    1216    1217    1164    1163    1138    1139
       8    1243    1242    1217    1218    1165    1164    1139    1140
       8    1244    1243    1218    1219    1166    1165    1140    1141
       8    1245    1244    1219    1220    1167    1166    1141    1142
       8    1246    1245    1220    1221    1168    1167    1142    1143
       8    1247    1246    1221    1175    1169    1168    1143    1097
       8    1223    1247    1175    1174    1145    1169    1097    1096
       8    1248    1249    1250    1251    1170    1171    1172    1173
       8    1250    1252    1253    1251    1172    1174    1175    1173
       8    1254    1249    1248    1255    1176    1171    1170    1177
       8    1248    1256    1257    1255    1170    1178    1179    1177
       8    1258    1259    1260    1254    1180    1181    1182    1176
       8    1261    1262    1259    1258    1183    1184    1181    1180
       8    1255    1261    1258    1254    1177    1183    1180    1176
       8    1263    1264    1256    1265    1185    1186    1178    1187
       8    1266    1267    1264    1263    1188    1189    1186    1185
       8    1268    1269    1267    1266    1190    1191    1189    1188
       8    1270    1268    1266    1271    1192    1190    1188    1193
       8    1272    1257    1256    1264    1194    1179    1178    1186
       8    1263    1273    1271    1266    1185    1195    1193    1188
       8    1248    1251    1265    1256    1170    1173    1187    1178
       8    1274    1261    1255    1257    1196    1183    1177    1179
       8    1275    1274    1257    1272    1197    1196    1179    1194
       8    1276    1275    1272    1277    1198    1197    1194    1199
       8    1267    1277    1272    1264    1189    1199    1194    1186
       8    1278    1279    1273    1263    1200    1201    1195    1185
       8    1280    1278    1263    1265    1202    1200    1185    1187
       8    1281    1280    1265    1251    1203    1202    1187    1173
       8    1282    1252    1250    1283    1204    1174    1172    1205
       8    1284    1283    1250    1249    1206    1205    1172    1171
       8    1260    1284    1249    1254    1182    1206    1171    1176
       8    1285    1262    1261    1274    1207    1184    1183    1196
       8    1286    1285    1274    1275    1208    1207    1196    1197
       8    1287    1286    1275    1276    1209    1208    1197    1198
       8    1288    1287    1276    1289    1210    1209    1198    1211
       8    1290    1289    1276    1277    1212    1211    1198    1199
       8    1269    1290    1277    1267    1191    1212    1199    1189
       8    1291    1270    1271    1273    1213    1192    1193    1195
       8    1292    1291    1273    1279    1214    1213    1195    1201
       8    1293    1292    1279    1294    1215    1214    1201    1216
       8    1295    1294    1279    1278    1217    1216    1201    1200
       8    1296    1295    1278    1280    1218    1217    1200    1202
       8    1297    1296    1280    1281    1219    1218    1202    1203
       8    1298    1297    1281    1299    1220    1219    1203    1221
       8    1253    1299    1281    1251    1175    1221    1203    1173
       8    1300    1301    1252    1282    1222    1223    1174    1204
       8    1302    1300    1282    1283    1224    1222    1204    1205
       8    1303    1302    1283    1284    1225    1224    1205    1206
       8    1304    1303    1284    1260    1226    1225    1206    1182
       8    1305    1304    1260    1259    1227    1226    1182    1181
       8    1306    1305    1259    1262    1228    1227    1181    1184
       8    1307    1306    1262    1285    1229    1228    1184    1207
       8    1308    1307    1285    1286    1230    1229    1207    1208
       8    1309    1308    1286    1287    1231    1230    1208    1209
       8    1310    1309    1287    1288    1232    1231    1209    1210
       8    1311    1310    1288    1289    1233    1232    1210    1211
       8    1312    1311    1289    1290    1234    1233    1211    1212
       8    1313    1312    1290    1269    1235    1234    1212    1191
       8    1314    1313    1269    1268    1236    1235    1191    1190
       8    1315    1314    1268    1270    1237    1236    1190    1192
       8    1316    1315    1270    1291    1238    1237    1192    1213
       8    1317    1316    1291    1292    1239    1238    1213    1214
       8    1318    1317    1292    1293    1240    1239    1214    1215
       8    1319    1318    1293    1294    1241    1240    1215    1216
       8    1320    1319    1294    1295    1242    1241    1216    1217
       8    1321    1320    1295    1296    1243    1242    1217    1218
       8    1322    1321    1296    1297    1244    1243    1218    1219
       8    1323    1322    1297    1298    1245    1244    1219    1220
       8    1324    1323    1298    1299    1246    1245    1220    1221
       8    1325    1324    1299    1253    1247    1246    1221    1175
       8    1301    1325    1253    1252    1223    1247    1175    1174
       8    1326    1327    1328    1329    1248    1249    1250    1251
       8    1328    1330    1331    1329    1250    1252    1253    1251
       8    1332    1327    1326    1333    1254    1249    1248    1255
       8    1326    1334    1335    1333    1248    1256    1257    1255
       8    1336    1337    1338    1332    1258    1259    1260    1254
       8    1339    1340    1337    1336    1261    1262    1259    1258
       8    1333    1339    1336    1332    1255    1261    1258    1254
       8    1341    1342    1334    1343    1263    1264    1256    1265
       8    1344    1345    1342    1341    1266    1267    1264    1263
       8    1346    1347    1345    1344    1268    1269    1267    1266
       8    1348    1346    1344    1349    1270    1268    1266    1271
       8    1350    1335    1334    1342    1272    1257    1256    1264
       8    1341    1351    1349    1344    1263    1273    1271    1266
       8    1326    1329    1343    1334    1248    1251    1265    1256
       8    1352    1339    1333    1335    1274    1261    1255    1257
       8    1353    1352    1335    1350    1275    1274    1257    1272
       8    1354    1353    1350    1355    1276    1275    1272    1277
       8    1345    1355    1350    1342    1267    1277    1272    1264
       8    1356    1357    1351    1341    1278    1279    1273    1263
       8    1358    1356    1341    1343    1280    1278    1263    1265
       8    1359    1358    1343    1329    1281    1280    1265    1251
       8    1360    1330    1328    1361    1282    1252    1250    1283
       8    1362    1361    1328    1327    1284    1283    1250    1249
       8    1338    1362    1327    1332    1260    1284    1249    1254
       8    1363    1340    1339    1352    1285    1262    1261    1274
       8    1364    1363    1352    1353    1286    1285    1274    1275
       8    1365    1364    1353    1354    1287    1286    1275    1276
       8    1366    1365    1354    1367    1288    1287    1276    1289
       8    1368    1367    1354    1355    1290    1289    1276    1277
       8    1347    1368    1355    1345    1269    1290    1277    1267
       8    1369    1348    1349    1351    1291    1270    1271    1273
       8    1370    1369    1351    1357    1292    1291    1273    1279
       8    1371    1370    1357    1372    1293    1292    1279    1294
       8    1373    1372    1357    1356    1295    1294    1279    1278
       8    1374    1373    1356    1358    1296    1295    1278    1280
       8    1375    1374    1358    1359    1297    1296    1280    1281
       8    1376    1375    1359    1377    1298    1297    1281    1299
       8    1331    1377    1359    1329    1253    1299    1281    1251
       8    1378    1379    1330    1360    1300    1301    1252    1282
       8    1380    1378    1360    1361    1302    1300    1282    1283
       8    1381    1380    1361    1362    1303    1302    1283    1284
       8    1382    1381    1362    1338    1304    1303    1284    1260
       8    1383    1382    1338    1337    1305    1304    1260    1259
       8    1384    1383    1337    1340    1306    1305    1259    1262
       8    1385    1384    1340    1363    1307    1306    1262    1285
       8    1386    1385    1363    1364    1308    1307    1285    1286
       8    1387    1386    1364    1365    1309    1308    1286    1287
       8    1388    1387    1365    1366    1310    1309    1287    1288
       8    1389    1388    1366    1367    1311    1310    1288    1289
       8    1390    1389    1367    1368    1312    1311    1289    1290
       8    1391    1390    1368    1347    1313    1312    1290    1269
       8    1392    1391    1347    1346    1314    1313    1269    1268
       8    1393    1392    1346    1348    1315    1314    1268    1270
       8    1394    1393    1348    1369    1316    1315    1270    1291
       8    1395    1394    1369    1370    1317    1316    1291    1292
       8    1396    1395    1370    1371    1318    1317    1292    1293
       8    1397    1396    1371    1372    1319    1318    1293    1294
       8    1398    1397    1372    1373    1320    1319    1294    1295
       8    1399    1398    1373    1374    1321    1320    1295    1296
       8    1400    1399    1374    1375    1322    1321    1296    1297
       8    1401    1400    1375    1376    1323    1322    1297    1298
       8    1402    1401    1376    1377    1324    1323    1298    1299
       8    1403    1402    1377    1331    1325    1324    1299    1253
       8    1379    1403    1331    1330    1301    1325    1253    1252
       8    1404    1405    1406    1407    1326    1327    1328    1329
       8    1406    1408    1409    1407    1328    1330    1331    1329
       8    1410    1405    1404    1411    1332    1327    1326    1333
       8    1404    1412    1413    1411    1326    1334    1335    1333
       8    1414    1415    1416    1410    1336    1337    1338    1332
       8    1417    1418    1415    1414    1339    1340    1337    1336
       8    1411    1417    1414    1410    1333    1339    1336    1332
       8    1419    1420    1412    1421    1341    1342    1334    1343
       8    1422    1423    1420    1419    1344    1345    1342    1341
       8    1424    1425    1423    1422    1346    1347    1345    1344
       8    1426    1424    1422    1427    1348    1346    1344    1349
       8    1428    1413    1412    1420    1350    1335    1334    1342
       8    1419    1429    1427    1422    1341    1351    1349    1344
       8    1404    1407    1421    1412    1326    1329    1343    1334
       8    1430    1417    1411    1413    1352    1339    1333    1335
       8    1431    1430    1413    1428    1353    1352    1335    1350
       8    1432    1431    1428    1433    1354    1353    1350    1355
       8    1423    1433    1428    1420    1345    1355    1350    1342
       8    1434    1435    1429    1419    1356    1357    1351    1341
       8    1436    1434    1419    1421    1358    1356    1341    1343
       8    1437    1436    1421    1407    1359    1358    1343    1329
       8    1438    1408    1406    1439    1360    1330    1328    1361
       8    1440    1439    1406    1405    1362    1361    1328    1327
       8    1416    1440    1405    1410    1338    1362    1327    1332
       8    1441    1418    1417    1430    1363    1340    1339    1352
       8    1442    1441    1430    1431    1364    1363    1352    1353
       8    1443    1442    1431    1432    1365    1364    1353    1354
       8    1444    1443    1432    1445    1366    1365    1354    1367
       8    1446    1445    1432    1433    1368    1367    1354    1355
       8    1425    1446    1433    1423    1347    1368    1355    1345
       8    1447    1426    1427    1429    1369    1348    1349    1351
       8    1448    1447    1429    1435    1370    1369    1351    1357
       8    1449    1448    1435    1450    1371    1370    1357    1372
       8    1451    1450    1435    1434    1373    1372    1357    1356
       8    1452    1451    1434    1436    1374    1373    1356    1358
       8    1453    1452    1436    1437    1375    1374    1358    1359
       8    1454    1453    1437    1455    1376    1375    1359    1377
       8    1409    1455    1437    1407    1331    1377    1359    1329
       8    1456    1457    1408    1438    1378    1379    1330    1360
       8    1458    1456    1438    1439    1380    1378    1360    1361
       8    1459    1458    1439    1440    1381    1380    1361    1362
       8    1460    1459    1440    1416    1382    1381    1362    1338
       8    1461    1460    1416    1415    1383    1382    1338    1337
       8    1462    1461    1415    1418    1384    1383    1337    1340
       8    1463    1462    1418    1441    1385    1384    1340    1363
       8    1464    1463    1441    1442    1386    1385    1363    1364
       8    1465    1464    1442    1443    1387    1386    1364    1365
       8    1466    1465    1443    1444    1388    1387    1365    1366
       8    1467    1466    1444    1445    1389    1388    1366    1367
       8    1468    1467    1445    1446    1390    1389    1367    1368
       8    1469    1468    1446    1425    1391    1390    1368    1347
       8    1470    1469    1425    1424    1392    1391    1347    1346
       8    1471    1470    1424    1426    1393    1392    1346    1348
       8    1472    1471    1426    1447    1394    1393    1348    1369
       8    1473    1472    1447    1448    1395    1394    1369    1370
       8    1474    1473    1448    1449    1396    1395    1370    1371
       8    1475    1474    1449    1450    1397    1396    1371    1372
       8    1476    1475    1450    1451    1398    1397    1372    1373
       8    1477    1476    1451    1452    1399    1398    1373    1374
       8    1478    1477    1452    1453    1400    1399    1374    1375
       8    1479    1478    1453    1454    1401    1400    1375    1376
       8    1480    1479    1454    1455    1402    1401    1376    1377
       8    1481    1480    1455    1409    1403    1402    1377    1331
       8    1457    1481    1409    1408    1379    1403    1331    1330
       8    1482    1483    1484    1485    1404    1405    1406    1407
       8    1484    1486    1487    1485    1406    1408    1409    1407
       8    1488    1483    1482    1489    1410    1405    1404    1411
       8    1482    1490    1491    1489    1404    1412    1413    1411
       8    1492    1493    1494    1488    1414    1415    1416    1410
       8    1495    1496    1493    1492    1417    1418    1415    1414
       8    1489    1495    1492    1488    1411    1417    1414    1410
       8    1497    1498    1490    1499    1419    1420    1412    1421
       8    1500    1501    1498    1497    1422    1423    1420    1419
       8    1502    1503    1501    1500    1424    1425    1423    1422
       8    1504    1502    1500    1505    1426    1424    1422    1427
       8    1506    1491    1490    1498    1428    1413    1412    1420
       8    1497    1507    1505    1500    1419    1429    1427    1422
       8    1482    1485    1499    1490    1404    1407    1421    1412
       8    1508    1495    1489    1491    1430    1417    1411    1413
       8    1509    1508    1491    1506    1431    1430    1413    1428
       8    1510    1509    1506    1511    1432    1431    1428    1433
       8    1501    1511    1506    1498    1423    1433    1428    1420
       8    1512    1513    1507    1497    1434    1435    1429    1419
       8    1514    1512    1497    1499    1436    1434    1419    1421
       8    1515    1514    1499    1485    1437    1436    1421    1407
       8    1516    1486    1484    1517    1438    1408    1406    1439
       8    1518    1517    1484    1483    1440    1439    1406    1405
       8    1494    1518    1483    1488    1416    1440    1405    1410
       8    1519    1496    1495    1508    1441    1418    1417    1430
       8    1520    1519    1508    1509    1442    1441    1430    1431
       8    1521    1520    1509    1510    1443    1442    1431    1432
       8    1522    1521    1510    1523    1444    1443    1432    1445
       8    1524    1523    1510    1511    1446    1445    1432    1433
       8    1503    1524    1511    1501    1425    1446    1433    1423
       8    1525    1504    1505    1507    1447    1426    1427    1429
       8    1526    1525    1507    1513    1448    1447    1429    1435
       8    1527    1526    1513    1528    1449    1448    1435    1450
       8    1529    1528    1513    1512    1451    1450    1435    1434
       8    1530    1529    1512    1514    1452    1451    1434    1436
       8    1531    1530    1514    1515    1453    1452    1436    1437
       8    1532    1531    1515    1533    1454    1453    1437    1455
       8    1487    1533    1515    1485    1409    1455    1437    1407
       8    1534    1535    1486    1516    1456    1457    1408    1438
       8    1536    1534    1516    1517    1458    1456    1438    1439
       8    1537    1536    1517    1518    1459    1458    1439    1440
       8    1538    1537    1518    1494    1460    1459    1440    1416
       8    1539    1538    1494    1493    1461    1460    1416    1415
       8    1540    1539    1493    1496    1462    1461    1415    1418
       8    1541    1540    1496    1519    1463    1462    1418    1441
       8    1542    1541    1519    1520    1464    1463    1441    1442
       8    1543    1542    1520    1521    1465    1464    1442    1443
       8    1544    1543    1521    1522    1466    1465    1443    1444
       8    1545    1544    1522    1523    1467    1466    1444    1445
       8    1546    1545    1523    1524    1468    1467    1445    1446
       8    1547    1546    1524    1503    1469    1468    1446    1425
       8    1548    1547    1503    1502    1470    1469    1425    1424
       8    1549    1548    1502    1504    1471    1470    1424    1426
       8    1550    1549    1504    1525    1472    1471    1426    1447
       8    1551    1550    1525    1526    1473    1472    1447    1448
       8    1552    1551    1526    1527    1474    1473    1448    1449
       8    1553    1552    1527    1528    1475    1474    1449    1450
       8    1554    1553    1528    1529    1476    1475    1450    1451
       8    1555    1554    1529    1530    1477    1476    1451    1452
       8    1556    1555    1530    1531    1478    1477    1452    1453
       8    1557    1556    1531    1532    1479    1478    1453    1454
       8    1558    1557    1532    1533    1480    1479    1454    1455
       8    1559    1558    1533    1487    1481    1480    1455    1409
       8    1535    1559    1487    1486    1457    1481    1409    1408
       8    1560    1561    1562    1563    1482    1483    1484    1485
       8    1562    1564    1565    1563    1484    1486    1487    1485
       8    1566    1561    1560    1567    1488    1483    1482    1489
       8    1560    1568    1569    1567    1482    1490    1491    1489
       8    1570    1571    1572    1566    1492    1493    1494    1488
       8    1573    1574    1571    1570    1495    1496    1493    1492
       8    1567    1573    1570    1566    1489    1495    1492    1488
       8    1575    1576    1568    1577    1497    1498    1490    1499
       8    1578    1579    1576    1575    1500    1501    1498    1497
       8    1580    1581    1579    1578    1502    1503    1501    1500
       8    1582    1580    1578    1583    1504    1502    1500    1505
       8    1584    1569    1568    1576    1506    1491    1490    1498
       8    1575    1585    1583    1578    1497    1507    1505    1500
       8    1560    1563    1577    1568    1482    1485    1499    1490
       8    1586    1573    1567    1569    1508    1495    1489    1491
       8    1587    1586    1569    1584    1509    1508    1491    1506
       8    1588    1587    1584    1589    1510    1509    1506    1511
       8    1579    1589    1584    1576    1501    1511    1506    1498
       8    1590    1591    1585    1575    1512    1513    1507    1497
       8    1592    1590    1575    1577    1514    1512    1497    1499
       8    1593    1592    1577    1563    1515    1514    1499    1485
       8    1594    1564    1562    1595    1516    1486    1484    1517
       8    1596    1595    1562    1561    1518    1517    1484    1483
       8    1572    1596    1561    1566    1494    1518    1483    1488
       8    1597    1574    1573    1586    1519    1496    1495    1508
       8    1598    1597    1586    1587    1520    1519    1508    1509
       8    1599    1598    1587    1588    1521    1520    1509    1510
       8    1600    1599    1588    1601    1522    1521    1510    1523
       8    1602    1601    1588    1589    1524    1523    1510    1511
       8    1581    1602    1589    1579    1503    1524    1511    1501
       8    1603    1582    1583    1585    1525    1504    1505    1507
       8    1604    1603    1585    1591    1526    1525    1507    1513
       8    1605    1604    1591    1606    1527    1526    1513    1528
       8    1607    1606    1591    1590    1529    1528    1513    1512
       8    1608    1607    1590    1592    1530    1529    1512    1514
       8    1609    1608    1592    1593    1531    1530    1514    1515
       8    1610    1609    1593    1611    1532    1531    1515    1533
       8    1565    1611    1593    1563    1487    1533    1515    1485
       8    1612    1613    1564    1594    1534    1535    1486    1516
       8    1614    1612    1594    1595    1536    1534    1516    1517
       8    1615    1614    1595    1596    1537    1536    1517    1518
       8    1616    1615    1596    1572    1538    1537    1518    1494
       8    1617    1616    1572    1571    1539    1538    1494    1493
       8    1618    1617    1571    1574    1540    1539    1493    1496
       8    1619    1618    1574    1597    1541    1540    1496    1519
       8    1620    1619    1597    1598    1542    1541    1519    1520
       8    1621    1620    1598    1599    1543    1542    1520    1521
       8    1622    1621    1599    1600    1544    1543    1521    1522
       8    1623    1622    1600    1601    1545    1544    1522    1523
       8    1624    1623    1601    1602    1546    1545    1523    1524
       8    1625    1624    1602    1581    1547    1546    1524    1503
       8    1626    1625    1581    1580    1548    1547    1503    1502
       8    1627    1626    1580    1582    1549    1548    1502    1504
       8    1628    1627    1582    1603    1550    1549    1504    1525
       8    1629    1628    1603    1604    1551    1550    1525    1526
       8    1630    1629    1604    1605    1552    1551    1526    1527
       8    1631    1630    1605    1606    1553    1552    1527    1528
       8    1632    1631    1606    1607    1554    1553    1528    1529
       8    1633    1632    1607    1608    1555    1554    1529    1530
       8    1634    1633    1608    1609    1556    1555    1530    1531
       8    1635    1634    1609    1610    1557    1556    1531    1532
       8    1636    1635    1610    1611    1558    1557    1532    1533
       8    1637    1636    1611    1565    1559    1558    1533    1487
       8    1613    1637    1565    1564    1535    1559    1487    1486
       8    1638    1639    1640    1641    1560    1561    1562    1563
       8    1640    1642    1643    1641    1562    1564    1565    1563
       8    1644    1639    1638    1645    1566    1561    1560    1567
       8    1638    1646    1647    1645    1560    1568    1569    1567
       8    1648    1649    1650    1644    1570    1571    1572    1566
       8    1651    1652    1649    1648    1573    1574    1571    1570
       8    1645    1651    1648    1644    1567    1573    1570    1566
       8    1653    1654    1646    1655    1575    1576    1568    1577
       8    1656    1657    1654    1653    1578    1579    1576    1575
       8    1658    1659    1657    1656    1580    1581    1579    1578
       8    1660    1658    1656    1661    1582    1580    1578    1583
       8    1662    1647    1646    1654    1584    1569    1568    1576
       8    1653    1663    1661    1656    1575    1585    1583    1578
       8    1638    1641    1655    1646    1560    1563    1577    1568
       8    1664    1651    1645    1647    1586    1573    1567    1569
       8    1665    1664    1647    1662    1587    1586    1569    1584
       8    1666    1665    1662    1667    1588    1587    1584    1589
       8    1657    1667    1662    1654    1579    1589    1584    1576
       8    1668    1669    1663    1653    1590    1591    1585    1575
       8    1670    1668    1653    1655    1592    1590    1575    1577
       8    1671    1670    1655    1641    1593    1592    1577    1563
       8    1672    1642    1640    1673    1594    1564    1562    1595
       8    1674    1673    1640    1639    1596    1595    1562    1561
       8    1650    1674    1639    1644    1572    1596    1561    1566
       8    1675    1652    1651    1664    1597    1574    1573    1586
       8    1676    1675    1664    1665    1598    1597    1586    1587
       8    1677    1676    1665    1666    1599    1598    1587    1588
       8    1678    1677    1666    1679    1600    1599    1588    1601
       8    1680    1679    1666    1667    1602    1601    1588    1589
       8    1659    1680    1667    1657    1581    1602    1589    1579
       8    1681    1660    1661    1663    1603    1582    1583    1585
       8    1682    1681    1663    1669    1604    1603    1585    1591
       8    1683    1682    1669    1684    1605    1604    1591    1606
       8    1685    1684    1669    1668    1607    1606    1591    1590
       8    1686    1685    1668    1670    1608    1607    1590    1592
       8    1687    1686    1670    1671    1609    1608    1592    1593
       8    1688    1687    1671    1689    1610    1609    1593    1611
       8    1643    1689    1671    1641    1565    1611    1593    1563
       8    1690    1691    1642    1672    1612    1613    1564    1594
       8    1692    1690    1672    1673    1614    1612    1594    1595
       8    1693    1692    1673    1674    1615    1614    1595    1596
       8    1694    1693    1674    1650    1616    1615    1596    1572
       8    1695    1694    1650    1649    1617    1616    1572    1571
       8    1696    1695    1649    1652    1618    1617    1571    1574
       8    1697    1696    1652    1675    1619    1618    1574    1597
       8    1698    1697    1675    1676    1620    1619    1597    1598
       8    1699    1698    1676    1677    1621    1620    1598    1599
       8    1700    1699    1677    1678    1622    1621    1599    1600
       8    1701    1700    1678    1679    1623    1622    1600    1601
       8    1702    1701    1679    1680    1624    1623    1601    1602
       8    1703    1702    1680    1659    1625    1624    1602    1581
       8    1704    1703    1659    1658    1626    1625    1581    1580
       8    1705    1704    1658    1660    1627    1626    1580    1582
       8    1706    1705    1660    1681    1628    1627    1582    1603
       8    1707    1706    1681    1682    1629    1628    1603    1604
       8    1708    1707    1682    1683    1630    1629    1604    1605
       8    1709    1708    1683    1684    1631    1630    1605    1606
       8    1710    1709    1684    1685    1632    1631    1606    1607
       8    1711    1710    1685    1686    1633    1632    1607    1608
       8    1712    1711    1686    1687    1634    1633    1608    1609
       8    1713    1712    1687    1688    1635    1634    1609    1610
       8    1714    1713    1688    1689    1636    1635    1610    1611
       8    1715    1714    1689    1643    1637    1636    1611    1565
       8    1691    1715    1643    1642    1613    1637    1565    1564
       8    1716    1717    1718    1719    1638    1639    1640    1641
       8    1718    1720    1721    1719    1640    1642    1643    1641
       8    1722    1717    1716    1723    1644    1639    1638    1645
       8    1716    1724    1725    1723    1638    1646    1647    1645
       8    1726    1727    1728    1722    1648    1649    1650    1644
       8    1729    1730    1727    1726    1651    1652    1649    1648
       8    1723    1729    1726    1722    1645    1651    1648    1644
       8    1731    1732    1724    1733    1653    1654    1646    1655
       8    1734    1735    1732    1731    1656    1657    1654    1653
       8    1736    1737    1735    1734    1658    1659    1657    1656
       8    1738    1736    1734    1739    1660    1658    1656    1661
       8    1740    1725    1724    1732    1662    1647    1646    1654
       8    1731    1741    1739    1734    1653    1663    1661    1656
       8    1716    1719    1733    1724    1638    1641    1655    1646
       8    1742    1729    1723    1725    1664    1651    1645    1647
       8    1743    1742    1725    1740    1665    1664    1647    1662
       8    1744    1743    1740    1745    1666    1665    1662    1667
       8    1735    1745    1740    1732    1657    1667    1662    1654
       8    1746    1747    1741    1731    1668    1669    1663    1653
       8    1748    1746    1731    1733    1670    1668    1653    1655
       8    1749    1748    1733    1719    1671    1670    1655    1641
       8    1750    1720    1718    1751    1672    1642    1640    1673
       8    1752    1751    1718    1717    1674    1673    1640    1639
       8    1728    1752    1717    1722    1650    1674    1639    1644
       8    1753    1730    1729    1742    1675    1652    1651    1664
       8    1754    1753    1742    1743    1676    1675    1664    1665
       8    1755    1754    1743    1744    1677    1676    1665    1666
       8    1756    1755    1744    1757    1678    1677    1666    1679
       8    1758    1757    1744    1745    1680    1679    1666    1667
       8    1737    1758    1745    1735    1659    1680    1667    1657
       8    1759    1738    1739    1741    1681    1660    1661    1663
       8    1760    1759    1741    1747    1682    1681    1663    1669
       8    1761    1760    1747    1762    1683    1682    1669    1684
       8    1763    1762    1747    1746    1685    1684    1669    1668
       8    1764    1763    1746    1748    1686    1685    1668    1670
       8    1765    1764    1748    1749    1687    1686    1670    1671
       8    1766    1765    1749    1767    1688    1687    1671    1689
       8    1721    1767    1749    1719    1643    1689    1671    1641
       8    1768    1769    1720    1750    1690    1691    1642    1672
       8    1770    1768    1750    1751    1692    1690    1672    1673
       8    1771    1770    1751    1752    1693    1692    1673    1674
       8    1772    1771    1752    1728    1694    1693    1674    1650
       8    1773    1772    1728    1727    1695    1694    1650    1649
       8    1774    1773    1727    1730    1696    1695    1649    1652
       8    1775    1774    1730    1753    1697    1696    1652    1675
       8    1776    1775    1753    1754    1698    1697    1675    1676
       8    1777    1776    1754    1755    1699    1698    1676    1677
       8    1778    1777    1755    1756    1700    1699    1677    1678
       8    1779    1778    1756    1757    1701    1700    1678    1679
       8    1780    1779    1757    1758    1702    1701    1679    1680
       8    1781    1780    1758    1737    1703    1702    1680    1659
       8    1782    1781    1737    1736    1704    1703    1659    1658
       8    1783    1782    1736    1738    1705    1704    1658    1660
       8    1784    1783    1738    1759    1706    1705    1660    1681
       8    1785    1784    1759    1760    1707    1706    1681    1682
       8    1786    1785    1760    1761    1708    1707    1682    1683
       8    1787    1786    1761    1762    1709    1708    1683    1684
       8    1788    1787    1762    1763    1710    1709    1684    1685
       8    1789    1788    1763    1764    1711    1710    1685    1686
       8    1790    1789    1764    1765    1712    1711    1686    1687
       8    1791    1790    1765    1766    1713    1712    1687    1688
       8    1792    1791    1766    1767    1714    1713    1688    1689
       8    1793    1792    1767    1721    1715    1714    1689    1643
       8    1769    1793    1721    1720    1691    1715    1643    1642
       8    1794    1795    1796    1797    1716    1717    1718    1719
       8    1796    1798    1799    1797    1718    1720    1721    1719
       8    1800    1795    1794    1801    1722    1717    1716    1723
       8    1794    1802    1803    1801    1716    1724    1725    1723
       8    1804    1805    1806    1800    1726    1727    1728    1722
       8    1807    1808    1805    1804    1729    1730    1727    1726
       8    1801    1807    1804    1800    1723    1729    1726    1722
       8    1809    1810    1802    1811    1731    1732    1724    1733
       8    1812    1813    1810    1809    1734    1735    1732    1731
       8    1814    1815    1813    1812    1736    1737    1735    1734
       8    1816    1814    1812    1817    1738    1736    1734    1739
       8    1818    1803    1802    1810    1740    1725    1724    1732
       8    1809    1819    1817    1812    1731    1741    1739    1734
       8    1794    1797    1811    1802    1716    1719    1733    1724
       8    1820    1807    1801    1803    1742    1729    1723    1725
       8    1821    1820    1803    1818    1743    1742    1725    1740
       8    1822    1821    1818    1823    1744    1743    1740    1745
       8    1813    1823    1818    1810    1735    1745    1740    1732
       8    1824    1825    1819    1809    1746    1747    1741    1731
       8    1826    1824    1809    1811    1748    1746    1731    1733
       8    1827    1826    1811    1797    1749    1748    1733    1719
       8    1828    1798    1796    1829    1750    1720    1718    1751
       8    1830    1829    1796    1795    1752    1751    1718    1717
       8    1806    1830    1795    1800    1728    1752    1717    1722
       8    1831    1808    1807    1820    1753    1730    1729    1742
       8    1832    1831    1820    1821    1754    1753    1742    1743
       8    1833    1832    1821    1822    1755    1754    1743    1744
       8    1834    1833    1822    1835    1756    1755    1744    1757
       8    1836    1835    1822    1823    1758    1757    1744    1745
       8    1815    1836    1823    1813    1737    1758    1745    1735
       8    1837    1816    1817    1819    1759    1738    1739    1741
       8    1838    1837    1819    1825    1760    1759    1741    1747
       8    1839    1838    1825    1840    1761    1760    1747    1762
       8    1841    1840    1825    1824    1763    1762    1747    1746
       8    1842    1841    1824    1826    1764    1763    1746    1748
       8    1843    1842    1826    1827    1765    1764    1748    1749
       8    1844    1843    1827    1845    1766    1765    1749    1767
       8    1799    1845    1827    1797    1721    1767    1749    1719
       8    1846    1847    1798    1828    1768    1769    1720    1750
       8    1848    1846    1828    1829    1770    1768    1750    1751
       8    1849    1848    1829    1830    1771    1770    1751    1752
       8    1850    1849    1830    1806    1772    1771    1752    1728
       8    1851    1850    1806    1805    1773    1772    1728    1727
       8    1852    1851    1805    1808    1774    1773    1727    1730
       8    1853    1852    1808    1831    1775    1774    1730    1753
       8    1854    1853    1831    1832    1776    1775    1753    1754
       8    1855    1854    1832    1833    1777    1776    1754    1755
       8    1856    1855    1833    1834    1778    1777    1755    1756
       8    1857    1856    1834    1835    1779    1778    1756    1757
       8    1858    1857    1835    1836    1780    1779    1757    1758
       8    1859    1858    1836    1815    1781    1780    1758    1737
       8    1860    1859    1815    1814    1782    1781    1737    1736
       8    1861    1860    1814    1816    1783    1782    1736    1738
       8    1862    1861    1816    1837    1784    1783    1738    1759
       8    1863    1862    1837    1838    1785    1784    1759    1760
       8    1864    1863    1838    1839    1786    1785    1760    1761
       8    1865    1864    1839    1840    1787    1786    1761    1762
       8    1866    1865    1840    1841    1788    1787    1762    1763
       8    1867    1866    1841    1842    1789    1788    1763    1764
       8    1868    1867    1842    1843    1790    1789    1764    1765
       8    1869    1868    1843    1844    1791    1790    1765    1766
       8    1870    1869    1844    1845    1792    1791    1766    1767
       8    1871    1870    1845    1799    1793    1792    1767    1721
       8    1847    1871    1799    1798    1769    1793    1721    1720
       8    1872    1873    1874    1875    1794    1795    1796    1797
       8    1874    1876    1877    1875    1796    1798    1799    1797
       8    1878    1873    1872    1879    1800    1795    1794    1801
       8    1872    1880    1881    1879    1794    1802    1803    1801
       8    1882    1883    1884    1878    1804    1805    1806    1800
       8    1885    1886    1883    1882    1807    1808    1805    1804
       8    1879    1885    1882    1878    1801    1807    1804    1800
       8    1887    1888    1880    1889    1809    1810    1802    1811
       8    1890    1891    1888    1887    1812    1813    1810    1809
       8    1892    1893    1891    1890    1814    1815    1813    1812
       8    1894    1892    1890    1895    1816    1814    1812    1817
       8    1896    1881    1880    1888    1818    1803    1802    1810
       8    1887    1897    1895    1890    1809    1819    1817    1812
       8    1872    1875    1889    1880    1794    1797    1811    1802
       8    1898    1885    1879    1881    1820    1807    1801    1803
       8    1899    1898    1881    1896    1821    1820    1803    1818
       8    1900    1899    1896    1901    1822    1821    1818    1823
       8    1891    1901    1896    1888    1813    1823    1818    1810
       8    1902    1903    1897    1887    1824    1825    1819    1809
       8    1904    1902    1887    1889    1826    1824    1809    1811
       8    1905    1904    1889    1875    1827    1826    1811    1797
       8    1906    1876    1874    1907    1828    1798    1796    1829
       8    1908    1907    1874    1873    1830    1829    1796    1795
       8    1884    1908    1873    1878    1806    1830    1795    1800
       8    1909    1886    1885    1898    1831    1808    1807    1820
       8    1910    1909    1898    1899    1832    1831    1820    1821
       8    1911    1910    1899    1900    1833    1832    1821    1822
       8    1912    1911    1900    1913    1834    1833    1822    1835
       8    1914    1913    1900    1901    1836    1835    1822    1823
       8    1893    1914    1901    1891    1815    1836    1823    1813
       8    1915    1894    1895    1897    1837    1816    1817    1819
       8    1916    1915    1897    1903    1838    1837    1819    1825
       8    1917    1916    1903    1918    1839    1838    1825    1840
       8    1919    1918    1903    1902    1841    1840    1825    1824
       8    1920    1919    1902    1904    1842    1841    1824    1826
       8    1921    1920    1904    1905    1843    1842    1826    1827
       8    1922    1921    1905    1923    1844    1843    1827    1845
       8    1877    1923    1905    1875    1799    1845    1827    1797
       8    1924    1925    1876    1906    1846    1847    1798    1828
       8    1926    1924    1906    1907    1848    1846    1828    1829
       8    1927    1926    1907    1908    1849    1848    1829    1830
       8    1928    1927    1908    1884    1850    1849    1830    1806
       8    1929    1928    1884    1883    1851    1850    1806    1805
       8    1930    1929    1883    1886    1852    1851    1805    1808
       8    1931    1930    1886    1909    1853    1852    1808    1831
       8    1932    1931    1909    1910    1854    1853    1831    1832
       8    1933    1932    1910    1911    1855    1854    1832    1833
       8    1934    1933    1911    1912    1856    1855    1833    1834
       8    1935    1934    1912    1913    1857    1856    1834    1835
       8    1936    1935    1913    1914    1858    1857    1835    1836
       8    1937    1936    1914    1893    1859    1858    1836    1815
       8    1938    1937    1893    1892    1860    1859    1815    1814
       8    1939    1938    1892    1894    1861    1860    1814    1816
       8    1940    1939    1894    1915    1862    1861    1816    1837
       8    1941    1940    1915    1916    1863    1862    1837    1838
       8    1942    1941    1916    1917    1864    1863    1838    1839
       8    1943    1942    1917    1918    1865    1864    1839    1840
       8    1944    1943    1918    1919    1866    1865    1840    1841
       8    1945    1944    1919    1920    1867    1866    1841    1842
       8    1946    1945    1920    1921    1868    1867    1842    1843
       8    1947    1946    1921    1922    1869    1868    1843    1844
       8    1948    1947    1922    1923    1870    1869    1844    1845
       8    1949    1948    1923    1877    1871    1870    1845    1799
       8    1925    1949    1877    1876    1847    1871    1799    1798
  
CELL_TYPES    3486
       1
       1
       1
       1
       1
       1
       1
       1
       1
       1
       1
       1
       1
       1
       1
       1
       1
       1
       1
       1
       1
       1
       1
       1
       1
       1
       1
       1
       1
       1
       1
       1
       1
       1
       1
       1
       1
       1
       1
       1
       1
       1
       1
       1
       1
       1
       1
       1
       1
       1
       1
       1
       1
       1
       1
       1
       1
       1
       1
       1
       1
       1
       1
       1
       1
       1
       1
       1
       1
       1
       1
       1
       1
       1
       1
       1
       1
       1
       1
       1
       1
       1
       1
       1
       1
       1
       1
       1
       1
       1
       1
       1
       1
       1
       1
       1
       1
       1
       1
       1
       1
       1
       1
       1
       1
       1
       1
       1
       1
       1
       1
       1
       1
       1
       1
       1
       1
       1
       1
       1
       1
       1
       1
       1
       1
       1
       1
       1
       1
       1
       1
       1
       1
       1
       1
       1
       1
       1
       1
       1
       1
       1
       1
       1
       1
       1
       1
       1
       1
       1
       1
       1
       1
       1
       1
       1
       1
       1
       1
       1
       1
       1
       1
       1
       1
       1
       1
       1
       1
       1
       1
       1
       1
       1
       1
       1
       1
       1
       1
       1
       1
       1
       1
       1
       1
       1
       1
       1
       1
       1
       1
       1
       1
       1
       1
       1
       1
       1
       1
       1
       1
       1
       1
       1
       1
       1
       1
       1
       1
       1
       1
       1
       1
       1
       1
       1
       1
       1
       1
       1
       1
       1
       1
       1
       1
       1
       1
       1
       1
       1
       1
       1
       1
       1
       1
       1
       1
       1
       1
       1
       1
       1
       1
       1
       1
       1
       1
       1
       1
       1
       1
       1
       1
       1
       1
       1
       1
       1
       1
       1
       1
       1
       1
       1
       1
       1
       1
       1
       1
       1
       1
       1
       1
       1
       1
       1
       1
       1
       1
       1
       1
       1
       1
       1
       1
       1
       1
       1
       1
       1
       1
       1
       1
       1
       1
       1
       1
       1
       1
       1
       1
       1
       1
       1
       1
       1
       1
       1
       1
       1
       1
       1
       1
       1
       1
       1
       1
       1
       1
       1
       1
       1
       1
       1
       1
       1
       1
       1
       1
       1
       1
       1
       1
       1
       1
       1
       1
       1
       1
       1
       1
       1
       1
       1
       1
       1
       1
       1
       1
       1
       1
       1
       1
       1
       1
       1
       1
       1
       1
       1
       1
       1
       1
       1
       1
       1
       1
       1
       1
       1
       1
       1
       1
       1
       1
       1
       1
       1
       1
       1
       1
       1
       1
       1
       1
       1
       1
       1
       1
       1
       1
       1
       1
       1
       1
       1
       1
       1
       1
       1
       1
       1
       1
       1
       1
       1
       1
       1
       1
       1
       1
       1
       1
       1
       1
       1
       1
       1
       1
       1
       1
       1
       1
       1
       1
       1
       1
       1
       1
       1
       1
       1
       1
       1
       1
       1
       1
       1
       1
       1
       1
       1
       1
       1
       1
       1
       1
       1
       1
       1
       1
       1
       1
       1
       1
       1
       1
       1
       1
       1
       1
       1
       1
       1
       1
       1
       1
       1
       1
       1
       1
       1
       1
       1
       1
       1
       1
       1
       1
       1
       1
       1
       1
       1
       1
       1
       1
       1
       1
       1
       1
       1
       1
       1
       1
       1
       1
       1
       1
       1
       1
       1
       1
       1
       1
       1
       1
       1
       1
       1
       1
       1
       1
       1
       1
       1
       1
       1
       1
       1
       1
       1
       1
       1
       1
       1
       1
       1
       1
       1
       1
       1
       1
       1
       1
       1
       1
       1
       1
       1
       1
       1
       1
       1
       1
       1
       1
       1
       1
       1
       1
       1
       1
       1
       1
       1
       1
       1
       1
       1
       1
       1
       1
       1
       1
       1
       1
       1
       1
       1
       1
       1
       1
       1
       1
       1
       1
       1
       1
       1
       1
       1
       1
       1
       1
       1
       1
       1
       1
       1
       1
       1
       1
       1
       1
       1
       1
       1
       1
       1
       1
       1
       1
       1
       1
       1
       1
       1
       1
       1
       1
       1
       1
       1
       1
       1
       1
       1
       1
       1
       1
       1
       1
       1
       1
       1
       1
       1
       1
       1
       1
       1
       1
       1
       1
       1
       1
       1
       1
       1
       1
       1
       1
       1
       1
       1
       1
       1
       1
       1
       1
       1
       1
       1
       1
       1
       1
       1
       1
       1
       1
       1
       1
       1
       1
       1
       1
       1
       1
       1
       1
       1
       1
       1
       1
       1
       1
       1
       1
       1
       1
       1
       1
       1
       1
       1
       1
       1
       1
       1
       1
       1
       1
       1
       1
       1
       1
       1
       1
       1
       1
       1
       1
       1
       1
       1
       1
       1
       1
       1
       1
       1
       1
       1
       1
       1
       1
       1
       1
       1
       1
       1
       1
       1
       1
       1
       1
       1
       1
       1
       1
       1
       1
       1
       1
       1
       1
       1
       1
       1
       1
       1
       1
       1
       1
       1
       1
       1
       1
       1
       1
       1
       1
       1
       1
       1
       1
       1
       1
       1
       1
       1
       1
       1
       1
       1
       1
       1
       1
       1
       1
       1
       1
       1
       1
       1
       1
       1
       1
       1
       1
       1
       1
       1
       1
       1
       1
       1
       1
       1
       1
       1
       1
       1
       1
       1
       1
       1
       1
       1
       1
       1
       1
       1
       1
       1
       1
       1
       1
       1
       1
       1
       1
       1
       1
       1
       1
       1
       1
       1
       1
       1
       1
       1
       1
       1
       1
       1
       1
       1
       1
       1
       1
       1
       1
       1
       1
       1
       1
       1
       1
       1
       1
       1
       1
       1
       1
       1
       1
       1
       1
       1
       1
       1
       1
       1
       1
       1
       1
       1
       1
       1
       1
       1
       1
       1
       1
       1
       1
       1
       1
       1
       1
       1
       1
       1
       1
       1
       1
       1
       1
       1
       1
       1
       1
       1
       1
       1
       1
       1
       1
       1
       1
       1
       1
       1
       1
       1
       1
       1
       1
       1
       1
       1
       1
       1
       1
       1
       1
       1
       1
       1
       1
       1
       1
       1
       1
       1
       1
       1
       1
       1
       1
       1
       1
       1
       1
       1
       1
       1
       1
       1
       1
       1
       1
       1
       1
       1
       1
       1
       1
       1
       1
       1
       1
       1
       1
       1
       1
       1
       1
       1
       1
       1
       1
       1
       1
       1
       1
       1
       1
       1
       1
       1
       1
       1
       1
       1
       1
       1
       1
       1
       1
       1
       1
       1
       1
       1
       1
       1
       1
       1
       1
       1
       1
       1
       1
       1
       1
       1
       1
       1
       1
       1
       1
       1
       1
       1
       1
       1
       1
       1
       1
       1
       1
       1
       1
       1
       1
       1
       1
       1
       1
       1
       1
       1
       1
       1
       1
       1
       1
       1
       1
       1
       1
       1
       1
       1
       1
       1
       1
       1
       1
       1
       1
       1
       1
       1
       1
       1
       1
       1
       1
       1
       1
       1
       1
       1
       1
       1
       1
       1
       1
       1
       1
       1
       1
       1
       1
       1
       1
       1
       1
       1
       1
       1
       1
       1
       1
       1
       1
       1
       1
       1
       1
       1
       1
       1
       1
       1
       1
       1
       1
       1
       1
       1
       1
       1
       1
       1
       1
       1
       1
       1
       1
       1
       1
       1
       1
       1
       1
       1
       1
       1
       1
       1
       1
       1
       1
       1
       1
       1
       1
       1
       1
       1
       1
       1
       1
       1
       1
       1
       1
       1
       1
       1
       1
       1
       1
       1
       1
       1
       1
       1
       1
       1
       1
       1
       1
       1
       1
       1
       1
       1
       1
       1
       1
       1
       1
       1
       1
       1
       1
       1
       1
       1
       1
       1
       1
       1
       1
       1
       1
       1
       1
       1
       1
       1
       1
       1
       1
       1
       1
       1
       1
       1
       1
       1
       1
       1
       1
       1
       1
       1
       1
       1
       1
       1
       1
       1
       1
       1
       1
       1
       1
       1
       1
       1
       1
       1
       1
       1
       1
       1
       1
       1
       1
       1
       1
       1
       1
       1
       1
       1
       1
       1
       1
       1
       1
       1
       1
       1
       1
       1
       1
       1
       1
       1
       1
       1
       1
       1
       1
       1
       1
       1
       1
       1
       1
       1
       1
       1
       1
       1
       1
       1
       1
       1
       1
       1
       1
       1
       1
       1
       1
       1
       1
       1
       1
       1
       1
       1
       1
       1
       1
       1
       1
       1
       1
       1
       1
       1
       1
       1
       1
       1
       1
       1
       1
       1
       1
       1
       1
       1
       1
       1
       1
       1
       1
       1
       1
       1
       1
       1
       1
       1
       1
       1
       1
       1
       1
       1
       1
       1
       1
       1
       1
       1
       1
       1
       1
       1
       1
       1
       1
       1
       1
       1
       1
       1
       1
       1
       1
       1
       1
       1
       1
       1
       1
       1
       1
       1
       1
       1
       1
       1
       1
       1
       1
       1
       1
       1
       1
       1
       1
       1
       1
       1
       1
       1
       1
       1
       1
       1
       1
       1
       1
       1
       1
       1
       1
       1
       1
       1
       1
       1
       1
       1
       1
       1
       1
       1
       1
       1
       1
       1
       1
       1
       1
       1
       1
       1
       1
       1
       1
       1
       1
       1
       1
       1
       1
       1
       1
       1
       1
       1
       1
       1
       1
       1
       1
       1
       1
       1
       1
       1
       1
       1
       1
       1
       1
       1
       1
       1
       1
       1
       1
       1
       1
       1
       1
       1
       1
       1
       1
       1
       1
       1
       1
       1
       1
       1
       1
       1
       1
       1
       1
       1
       1
       1
       1
       1
       1
       1
       1
       1
       1
       1
       1
       1
       1
       1
       1
       1
       1
       1
       1
       1
       1
       1
       1
       1
       1
       1
       1
       1
       1
       1
       1
       1
       1
       1
       1
       1
       1
       1
       1
       1
       1
       1
       1
       1
       1
       1
       1
       1
       1
       1
       1
       1
       1
       1
       1
       1
       1
       1
       1
       1
       1
       1
       1
       1
       1
       1
       1
       1
       1
       1
       1
       1
       1
       1
       1
       1
       1
       1
       1
       1
       1
       1
       1
       1
       1
       1
       1
       1
       1
       1
       1
       1
       1
       1
       1
       1
       1
       1
       1
       1
       1
       1
       1
       1
       1
       1
       1
       1
       1
       1
       1
       1
       1
       1
       1
       1
       1
       1
       1
       1
       1
       1
       1
       1
       1
       1
       1
       1
       1
       1
       1
       1
       1
       1
       1
       1
       1
       1
       1
       1
       1
       1
       1
       1
       1
       1
       1
       1
       1
       1
       1
       1
       1
       1
       1
       1
       1
       1
       1
       1
       1
       1
       1
       1
       1
       1
       1
       1
       1
       1
       1
       1
       1
       1
       1
       1
       1
       1
       1
       1
       1
       1
       1
       1
       1
       1
       1
       1
       1
       1
       1
       1
       1
       1
       1
       1
       1
       1
       1
       1
       1
       1
       1
       1
       1
       1
       1
       1
       1
       1
       1
       1
       1
       1
       1
       1
       1
       1
       1
       1
       1
       1
       1
       1
       1
       1
       1
       1
       1
       1
       1
       1
       1
       1
       1
       1
       1
       1
       1
       1
       1
       1
       1
       1
       1
       1
       1
       1
       1
       1
       1
       1
       1
       1
       1
       1
       1
       1
       1
       1
       1
       1
       1
       1
       1
       1
       1
       1
       1
       1
       1
       1
       1
       1
       1
       1
       1
       1
       1
       1
       1
       1
       1
       1
       1
       1
       1
       1
       1
       1
       1
       1
       1
       1
       1
       1
       1
       1
       1
       1
       1
       1
       1
       1
       1
       1
       1
       1
       1
       1
       1
       1
       1
       1
       1
       1
       1
       1
       1
       1
       1
       1
       1
       1
       1
       1
       1
       1
       1
       1
       1
       1
       1
       1
       1
       1
       1
       1
       1
       1
       1
       1
       1
       1
       1
       1
       1
       1
       1
       1
       1
       1
       1
       1
       1
       1
       1
       1
       1
       1
       1
       1
       1
       1
       1
       1
       1
       1
       1
       1
       1
       1
       1
       1
       1
       1
       1
       1
       1
       1
       1
       1
       1
       1
       1
       1
       1
       1
       1
       1
       1
       1
       1
       1
       1
       1
       1
       1
       1
       1
       1
       1
       1
       1
       1
       1
       1
       1
       1
       1
       1
       1
       1
       1
       1
       1
       1
       1
       1
       1
       1
       1
       1
       1
       1
       1
       1
       1
       1
       1
       1
       1
       1
       1
       1
       1
       1
       1
       1
       1
       1
       1
       1
       1
       1
       1
       1
       1
       1
       1
       1
       1
       1
       1
       1
       1
       1
       1
       1
       1
       1
       1
       1
       1
       1
       1
       1
       1
       1
       1
       1
       1
       1
       1
       1
       1
       1
       1
       1
       1
       1
       1
       1
       1
       1
       1
       1
       1
       1
       1
       1
       1
       1
       1
       1
       1
       1
       1
       1
       1
       1
       1
       1
       1
       1
       1
       1
       1
       1
       1
       1
       1
      12
      12
      12
      12
      12
      12
      12
      12
      12
      12
      12
      12
      12
      12
      12
      12
      12
      12
      12
      12
      12
      12
      12
      12
      12
      12
      12
      12
      12
      12
      12
      12
      12
      12
      12
      12
      12
      12
      12
      12
      12
      12
      12
      12
      12
      12
      12
      12
      12
      12
      12
      12
      12
      12
      12
      12
      12
      12
      12
      12
      12
      12
      12
      12
      12
      12
      12
      12
      12
      12
      12
      12
      12
      12
      12
      12
      12
      12
      12
      12
      12
      12
      12
      12
      12
      12
      12
      12
      12
      12
      12
      12
      12
      12
      12
      12
      12
      12
      12
      12
      12
      12
      12
      12
      12
      12
      12
      12
      12
      12
      12
      12
      12
      12
      12
      12
      12
      12
      12
      12
      12
      12
      12
      12
      12
      12
      12
      12
      12
      12
      12
      12
      12
      12
      12
      12
      12
      12
      12
      12
      12
      12
      12
      12
      12
      12
      12
      12
      12
      12
      12
      12
      12
      12
      12
      12
      12
      12
      12
      12
      12
      12
      12
      12
      12
      12
      12
      12
      12
      12
      12
      12
      12
      12
      12
      12
      12
      12
      12
      12
      12
      12
      12
      12
      12
      12
      12
      12
      12
      12
      12
      12
      12
      12
      12
      12
      12
      12
      12
      12
      12
      12
      12
      12
      12
      12
      12
      12
      12
      12
      12
      12
      12
      12
      12
      12
      12
      12
      12
      12
      12
      12
      12
      12
      12
      12
      12
      12
      12
      12
      12
      12
      12
      12
      12
      12
      12
      12
      12
      12
      12
      12
      12
      12
      12
      12
      12
      12
      12
      12
      12
      12
      12
      12
      12
      12
      12
      12
      12
      12
      12
      12
      12
      12
      12
      12
      12
      12
      12
      12
      12
      12
      12
      12
      12
      12
      12
      12
      12
      12
      12
      12
      12
      12
      12
      12
      12
      12
      12
      12
      12
      12
      12
      12
      12
      12
      12
      12
      12
      12
      12
      12
      12
      12
      12
      12
      12
      12
      12
      12
      12
      12
      12
      12
      12
      12
      12
      12
      12
      12
      12
      12
      12
      12
      12
      12
      12
      12
      12
      12
      12
      12
      12
      12
      12
      12
      12
      12
      12
      12
      12
      12
      12
      12
      12
      12
      12
      12
      12
      12
      12
      12
      12
      12
      12
      12
      12
      12
      12
      12
      12
      12
      12
      12
      12
      12
      12
      12
      12
      12
      12
      12
      12
      12
      12
      12
      12
      12
      12
      12
      12
      12
      12
      12
      12
      12
      12
      12
      12
      12
      12
      12
      12
      12
      12
      12
      12
      12
      12
      12
      12
      12
      12
      12
      12
      12
      12
      12
      12
      12
      12
      12
      12
      12
      12
      12
      12
      12
      12
      12
      12
      12
      12
      12
      12
      12
      12
      12
      12
      12
      12
      12
      12
      12
      12
      12
      12
      12
      12
      12
      12
      12
      12
      12
      12
      12
      12
      12
      12
      12
      12
      12
      12
      12
      12
      12
      12
      12
      12
      12
      12
      12
      12
      12
      12
      12
      12
      12
      12
      12
      12
      12
      12
      12
      12
      12
      12
      12
      12
      12
      12
      12
      12
      12
      12
      12
      12
      12
      12
      12
      12
      12
      12
      12
      12
      12
      12
      12
      12
      12
      12
      12
      12
      12
      12
      12
      12
      12
      12
      12
      12
      12
      12
      12
      12
      12
      12
      12
      12
      12
      12
      12
      12
      12
      12
      12
      12
      12
      12
      12
      12
      12
      12
      12
      12
      12
      12
      12
      12
      12
      12
      12
      12
      12
      12
      12
      12
      12
      12
      12
      12
      12
      12
      12
      12
      12
      12
      12
      12
      12
      12
      12
      12
      12
      12
      12
      12
      12
      12
      12
      12
      12
      12
      12
      12
      12
      12
      12
      12
      12
      12
      12
      12
      12
      12
      12
      12
      12
      12
      12
      12
      12
      12
      12
      12
      12
      12
      12
      12
      12
      12
      12
      12
      12
      12
      12
      12
      12
      12
      12
      12
      12
      12
      12
      12
      12
      12
      12
      12
      12
      12
      12
      12
      12
      12
      12
      12
      12
      12
      12
      12
      12
      12
      12
      12
      12
      12
      12
      12
      12
      12
      12
      12
      12
      12
      12
      12
      12
      12
      12
      12
      12
      12
      12
      12
      12
      12
      12
      12
      12
      12
      12
      12
      12
      12
      12
      12
      12
      12
      12
      12
      12
      12
      12
      12
      12
      12
      12
      12
      12
      12
      12
      12
      12
      12
      12
      12
      12
      12
      12
      12
      12
      12
      12
      12
      12
      12
      12
      12
      12
      12
      12
      12
      12
      12
      12
      12
      12
      12
      12
      12
      12
      12
      12
      12
      12
      12
      12
      12
      12
      12
      12
      12
      12
      12
      12
      12
      12
      12
      12
      12
      12
      12
      12
      12
      12
      12
      12
      12
      12
      12
      12
      12
      12
      12
      12
      12
      12
      12
      12
      12
      12
      12
      12
      12
      12
      12
      12
      12
      12
      12
      12
      12
      12
      12
      12
      12
      12
      12
      12
      12
      12
      12
      12
      12
      12
      12
      12
      12
      12
      12
      12
      12
      12
      12
      12
      12
      12
      12
      12
      12
      12
      12
      12
      12
      12
      12
      12
      12
      12
      12
      12
      12
      12
      12
      12
      12
      12
      12
      12
      12
      12
      12
      12
      12
      12
      12
      12
      12
      12
      12
      12
      12
      12
      12
      12
      12
      12
      12
      12
      12
      12
      12
      12
      12
      12
      12
      12
      12
      12
      12
      12
      12
      12
      12
      12
      12
      12
      12
      12
      12
      12
      12
      12
      12
      12
      12
      12
      12
      12
      12
      12
      12
      12
      12
      12
      12
      12
      12
      12
      12
      12
      12
      12
      12
      12
      12
      12
      12
      12
      12
      12
      12
      12
      12
      12
      12
      12
      12
      12
      12
      12
      12
      12
      12
      12
      12
      12
      12
      12
      12
      12
      12
      12
      12
      12
      12
      12
      12
      12
      12
      12
      12
      12
      12
      12
      12
      12
      12
      12
      12
      12
      12
      12
      12
      12
      12
      12
      12
      12
      12
      12
      12
      12
      12
      12
      12
      12
      12
      12
      12
      12
      12
      12
      12
      12
      12
      12
      12
      12
      12
      12
      12
      12
      12
      12
      12
      12
      12
      12
      12
      12
      12
      12
      12
      12
      12
      12
      12
      12
      12
      12
      12
      12
      12
      12
      12
      12
      12
      12
      12
      12
      12
      12
      12
      12
      12
      12
      12
      12
      12
      12
      12
      12
      12
      12
      12
      12
      12
      12
      12
      12
      12
      12
      12
      12
      12
      12
      12
      12
      12
      12
      12
      12
      12
      12
      12
      12
      12
      12
      12
      12
      12
      12
      12
      12
      12
      12
      12
      12
      12
      12
      12
      12
      12
      12
      12
      12
      12
      12
      12
      12
      12
      12
      12
      12
      12
      12
      12
      12
      12
      12
      12
      12
      12
      12
      12
      12
      12
      12
      12
      12
      12
      12
      12
      12
      12
      12
      12
      12
      12
      12
      12
      12
      12
      12
      12
      12
      12
      12
      12
      12
      12
      12
      12
      12
      12
      12
      12
      12
      12
      12
      12
      12
      12
      12
      12
      12
      12
      12
      12
      12
      12
      12
      12
      12
      12
      12
      12
      12
      12
      12
      12
      12
      12
      12
      12
      12
      12
      12
      12
      12
      12
      12
      12
      12
      12
      12
      12
      12
      12
      12
      12
      12
      12
      12
      12
      12
      12
      12
      12
      12
      12
      12
      12
      12
      12
      12
      12
      12
      12
      12
      12
      12
      12
      12
      12
      12
      12
      12
      12
      12
      12
      12
      12
      12
      12
      12
      12
      12
      12
      12
      12
      12
      12
      12
      12
      12
      12
      12
      12
      12
      12
      12
      12
      12
      12
      12
      12
      12
      12
      12
      12
      12
      12
      12
      12
      12
      12
      12
      12
      12
      12
      12
      12
      12
      12
      12
      12
      12
      12
      12
      12
      12
      12
      12
      12
      12
      12
      12
      12
      12
      12
      12
      12
      12
      12
      12
      12
      12
      12
      12
      12
      12
      12
      12
      12
      12
      12
      12
      12
      12
      12
      12
      12
      12
      12
      12
      12
      12
      12
      12
      12
      12
      12
      12
      12
      12
      12
      12
      12
      12
      12
      12
      12
      12
      12
      12
      12
      12
      12
      12
      12
      12
      12
      12
      12
      12
      12
      12
      12
      12
      12
      12
      12
      12
      12
      12
      12
      12
      12
      12
      12
      12
      12
      12
      12
      12
      12
      12
      12
      12
      12
      12
      12
      12
      12
      12
      12
      12
      12
      12
      12
      12
      12
      12
      12
      12
      12
      12
      12
      12
      12
      12
      12
      12
      12
      12
      12
      12
      12
      12
      12
      12
      12
      12
      12
      12
      12
      12
      12
      12
      12
      12
      12
      12
      12
      12
      12
      12
      12
      12
      12
      12
      12
      12
      12
      12
      12
      12
      12
      12
      12
      12
      12
      12
      12
      12
      12
      12
      12
      12
      12
      12
      12
      12
      12
      12
      12
      12
      12
      12
      12
      12
      12
      12
      12
      12
      12
      12
      12
      12
      12
      12
      12
      12
      12
      12
      12
      12
      12
      12
      12
      12
      12
      12
      12
      12
      12
      12
      12
      12
      12
      12
      12
      12
      12
      12
      12
      12
      12
      12
      12
      12
      12
      12
      12
      12
      12
      12
      12
      12
      12
      12
      12
      12
      12
      12
      12
      12
      12
      12
      12
      12
      12
      12
      12
      12
      12
      12
      12
      12
      12
      12
      12
      12
      12
      12
      12
      12
      12
      12
      12
      12
      12
      12
      12
      12
      12
      12
      12
      12
      12
      12
      12
      12
      12
      12
      12
      12
      12
      12
      12
      12
      12
      12
      12
      12
      12
      12
      12
      12
      12
      12
      12
      12
      12
      12
      12
      12
      12
      12
      12
      12
      12
      12
      12
      12
      12
      12
      12
      12
      12
      12
      12
      12
      12
      12
      12
      12
      12
      12
      12
      12
      12
      12
      12
      12
      12
      12
      12
      12
      12
      12
      12
      12
  
  
POINT_DATA       1950
  
SCALARS                  material_type  double 1
LOOKUP_TABLE default
                   2
                   2
                   2
                   2
                   2
                   2
                   2
                   2
                   2
                   2
                   2
                   2
                   2
                   2
                   2
                   2
                   2
                   2
                   2
                   2
                   2
                   2
                   2
                   2
                   2
                   2
                   2
                   2
                   2
                   2
                   2
                   2
                   2
                   2
                   2
                   2
                   2
                   2
                   2
                   2
                   2
                   2
                   2
                   2
                   2
                   2
                   2
                   2
                   2
                   2
                   2
                   2
                   2
                   2
                   2
                   2
                   2
                   2
                   2
                   2
                   2
                   2
                   2
                   2
                   2
                   2
                   2
                   2
                   2
                   2
                   2
                   2
                   2
                   2
                   2
                   2
                   2
                   2
                   2
                   2
                   2
                   2
                   2
                   2
                   2
                   2
                   2
                   2
                   2
                   2
                   2
                   2
                   2
                   2
                   2
                   2
                   2
                   2
                   2
                   2
                   2
                   2
                   2
                   2
                   2
                   2
                   2
                   2
                   2
                   2
                   2
                   2
                   2
                   2
                   2
                   2
                   2
                   2
                   2
                   2
                   2
                   2
                   2
                   2
                   2
                   2
                   2
                   2
                   2
                   2
                   2
                   2
                   2
                   2
                   2
                   2
                   2
                   2
                   2
                   2
                   2
                   2
                   2
                   2
                   2
                   2
                   2
                   2
                   2
                   2
                   2
                   2
                   2
                   2
                   2
                   2
                   2
                   2
                   2
                   2
                   2
                   2
                   2
                   2
                   2
                   2
                   2
                   2
                   2
                   2
                   2
                   2
                   2
                   2
                   2
                   2
                   2
                   2
                   2
                   2
                   2
                   2
                   2
                   2
                   2
                   2
                   2
                   2
                   2
                   2
                   2
                   2
                   2
                   2
                   2
                   2
                   2
                   2
                   2
                   2
                   2
                   2
                   2
                   2
                   2
                   2
                   2
                   2
                   2
                   2
                   2
                   2
                   2
                   2
                   2
                   2
                   2
                   2
                   2
                   2
                   2
                   2
                   2
                   2
                   2
                   2
                   2
                   2
                   2
                   2
                   2
                   2
                   2
                   2
                   2
                   2
                   2
                   2
                   2
                   2
                   2
                   2
                   2
                   2
                   2
                   2
                   2
                   2
                   2
                   2
                   2
                   2
                   2
                   2
                   2
                   2
                   2
                   2
                   2
                   2
                   2
                   2
                   2
                   2
                   2
                   2
                   2
                   2
                   2
                   2
                   2
                   2
                   2
                   2
                   2
                   2
                   2
                   2
                   2
                   2
                   2
                   2
                   2
                   2
                   2
                   2
                   2
                   2
                   2
                   2
                   2
                   2
                   2
                   2
                   2
                   2
                   2
                   2
                   2
                   2
                   2
                   2
                   2
                   2
                   2
                   2
                   2
                   2
                   2
                   2
                   2
                   2
                   2
                   2
                   2
                   2
                   2
                   2
                   2
                   2
                   2
                   2
                   2
                   2
                   2
                   2
                   2
                   2
                   2
                   2
                   2
                   2
                   2
                   2
                   2
                   2
                   2
                   2
                   2
                   2
                   2
                   2
                   2
                   2
                   2
                   2
                   2
                   2
                   2
                   2
                   2
                   2
                   2
                   2
                   2
                   2
                   2
                   2
                   2
                   2
                   2
                   2
                   2
                   2
                   2
                   2
                   2
                   2
                   2
                   2
                   2
                   2
                   2
                   2
                   2
                   2
                   2
                   2
                   2
                   2
                   2
                   2
                   2
                   2
                   2
                   2
                   2
                   2
                   2
                   2
                   2
                   2
                   2
                   2
                   2
                   2
                   2
                   2
                   2
                   2
                   2
                   2
                   2
                   2
                   2
                   2
                   2
                   2
                   2
                   2
                   2
                   2
                   2
                   2
                   2
                   2
                   2
                   2
                   2
                   2
                   2
                   2
                   2
                   2
                   2
                   2
                   2
                   2
                   2
                   2
                   2
                   2
                   2
                   2
                   2
                   2
                   2
                   2
                   2
                   2
                   2
                   2
                   2
                   2
                   2
                   2
                   2
                   2
                   2
                   2
                   2
                   2
                   2
                   2
                   2
                   2
                   2
                   2
                   2
                   2
                   2
                   2
                   2
                   2
                   2
                   2
                   2
                   2
                   2
                   2
                   2
                   2
                   2
                   2
                   2
                   2
                   2
                   2
                   2
                   2
                   2
                   2
                   2
                   2
                   2
                   2
                   2
                   2
                   2
                   2
                   2
                   2
                   2
                   2
                   2
                   2
                   2
                   2
                   2
                   2
                   2
                   2
                   2
                   2
                   2
                   2
                   2
                   2
                   2
                   2
                   2
                   2
                   2
                   2
                   2
                   2
                   2
                   2
                   2
                   2
                   2
                   2
                   2
                   2
                   2
                   2
                   2
                   2
                   2
                   2
                   2
                   2
                   2
                   2
                   2
                   2
                   2
                   2
                   2
                   2
                   2
                   2
                   2
                   2
                   2
                   2
                   2
                   2
                   2
                   2
                   2
                   2
                   2
                   2
                   2
                   2
                   2
                   2
                   2
                   2
                   2
                   2
                   2
                   2
                   2
                   2
                   2
                   2
                   2
                   2
                   2
                   2
                   2
                   2
                   2
                   2
                   2
                   2
                   2
                   2
                   2
                   2
                   2
                   2
                   2
                   2
                   2
                   2
                   2
                   2
                   2
                   2
                   2
                   2
                   2
                   2
                   2
                   2
                   2
                   2
                   2
                   2
                   2
                   2
                   2
                   2
                   2
                   2
                   2
                   2
                   2
                   2
                   2
                   2
                   2
                   2
                   2
                   2
                   2
                   2
                   2
                   2
                   2
                   2
                   2
                   2
                   2
                   2
                   2
                   2
                   2
                   2
                   2
                   2
                   2
                   2
                   2
                   2
                   2
                   2
                   2
                   2
                   2
                   2
                   2
                   2
                   2
                   2
                   2
                   2
                   2
                   2
                   2
                   2
                   2
                   2
                   2
                   2
                   2
                   2
                   2
                   2
                   2
                   2
                   2
                   2
                   2
                   2
                   2
                   2
                   2
                   2
                   2
                   2
                   2
                   2
                   2
                   2
                   2
                   2
                   2
                   2
                   2
                   2
                   2
                   2
                   2
                   2
                   2
                   2
                   2
                   2
                   2
                   2
                   2
                   2
                   2
                   2
                   2
                   2
                   2
                   2
                   2
                   2
                   2
                   2
                   2
                   2
                   2
                   2
                   2
                   2
                   2
                   2
                   2
                   2
                   2
                   2
                   2
                   2
                   2
                   2
                   2
                   2
                   2
                   2
                   2
                   2
                   2
                   2
                   2
                   2
                   2
                   2
                   2
                   2
                   2
                   2
                   2
                   2
                   2
                   2
                   2
                   2
                   2
                   2
                   2
                   2
                   2
                   2
                   2
                   2
                   2
                   2
                   2
                   2
                   2
                   2
                   2
                   2
                   2
                   2
                   2
                   2
                   2
                   2
                   2
                   2
                   2
                   2
                   2
                   2
                   2
                   2
                   2
                   2
                   2
                   2
                   2
                   2
                   2
                   2
                   2
                   2
                   2
                   2
                   2
                   2
                   2
                   2
                   2
                   2
                   2
                   2
                   2
                   2
                   2
                   2
                   2
                   2
                   2
                   2
                   2
                   2
                   2
                   2
                   2
                   2
                   2
                   2
                   2
                   2
                   2
                   2
                   2
                   2
                   2
                   2
                   2
                   2
                   2
                   2
                   2
                   2
                   2
                   2
                   2
                   2
                   2
                   2
                   2
                   2
                   2
                   2
                   2
                   2
                   2
                   2
                   2
                   2
                   2
                   2
                   2
                   2
                   2
                   2
                   2
                   2
                   2
                   2
                   2
                   2
                   2
                   2
                   2
                   2
                   2
                   2
                   2
                   2
                   2
                   2
                   2
                   2
                   2
                   2
                   2
                   2
                   2
                   2
                   2
                   2
                   2
                   2
                   2
                   2
                   2
                   2
                   2
                   2
                   2
                   2
                   2
                   2
                   2
                   2
                   2
                   2
                   2
                   2
                   2
                   2
                   2
                   2
                   2
                   2
                   2
                   2
                   2
                   2
                   2
                   2
                   2
                   2
                   2
                   2
                   2
                   2
                   2
                   2
                   2
                   2
                   2
                   2
                   2
                   2
                   2
                   2
                   2
                   2
                   2
                   2
                   2
                   2
                   2
                   2
                   2
                   2
                   2
                   2
                   2
                   2
                   2
                   2
                   2
                   2
                   2
                   2
                   2
                   2
                   2
                   2
                   2
                   2
                   2
                   2
                   2
                   2
                   2
                   2
                   2
                   2
                   2
                   2
                   2
                   2
                   2
                   2
                   2
                   2
                   2
                   2
                   2
                   2
                   2
                   2
                   2
                   2
                   2
                   2
                   2
                   2
                   2
                   2
                   2
                   2
                   2
                   2
                   2
                   2
                   2
                   2
                   2
                   2
                   2
                   2
                   2
                   2
                   2
                   2
                   2
                   2
                   2
                   2
                   2
                   2
                   2
                   2
                   2
                   2
                   2
                   2
                   2
                   2
                   2
                   2
                   2
                   2
                   2
                   2
                   2
                   2
                   2
                   2
                   2
                   2
                   2
                   2
                   2
                   2
                   2
                   2
                   2
                   2
                   2
                   2
                   2
                   2
                   2
                   2
                   2
                   2
                   2
                   2
                   2
                   2
                   2
                   2
                   2
                   2
                   2
                   2
                   2
                   2
                   2
                   2
                   2
                   2
                   2
                   2
                   2
                   2
                   2
                   2
                   2
                   2
                   2
                   2
                   2
                   2
                   2
                   2
                   2
                   2
                   2
                   2
                   2
                   2
                   2
                   2
                   2
                   2
                   2
                   2
                   2
                   2
                   2
                   2
                   2
                   2
                   2
                   2
                   2
                   2
                   2
                   2
                   2
                   2
                   2
                   2
                   2
                   2
                   2
                   2
                   2
                   2
                   2
                   2
                   2
                   2
                   2
                   2
                   2
                   2
                   2
                   2
                   2
                   2
                   2
                   2
                   2
                   2
                   2
                   2
                   2
                   2
                   2
                   2
                   2
                   2
                   2
                   2
                   2
                   2
                   2
                   2
                   2
                   2
                   2
                   2
                   2
                   2
                   2
                   2
                   2
                   2
                   2
                   2
                   2
                   2
                   2
                   2
                   2
                   2
                   2
                   2
                   2
                   2
                   2
                   2
                   2
                   2
                   2
                   2
                   2
                   2
                   2
                   2
                   2
                   2
                   2
                   2
                   2
                   2
                   2
                   2
                   2
                   2
                   2
                   2
                   2
                   2
                   2
                   2
                   2
                   2
                   2
                   2
                   2
                   2
                   2
                   2
                   2
                   2
                   2
                   2
                   2
                   2
                   2
                   2
                   2
                   2
                   2
                   2
                   2
                   2
                   2
                   2
                   2
                   2
                   2
                   2
                   2
                   2
                   2
                   2
                   2
                   2
                   2
                   2
                   2
                   2
                   2
                   2
                   2
                   2
                   2
                   2
                   2
                   2
                   2
                   2
                   2
                   2
                   2
                   2
                   2
                   2
                   2
                   2
                   2
                   2
                   2
                   2
                   2
                   2
                   2
                   2
                   2
                   2
                   2
                   2
                   2
                   2
                   2
                   2
                   2
                   2
                   2
                   2
                   2
                   2
                   2
                   2
                   2
                   2
                   2
                   2
                   2
                   2
                   2
                   2
                   2
                   2
                   2
                   2
                   2
                   2
                   2
                   2
                   2
                   2
                   2
                   2
                   2
                   2
                   2
                   2
                   2
                   2
                   2
                   2
                   2
                   2
                   2
                   2
                   2
                   2
                   2
                   2
                   2
                   2
                   2
                   2
                   2
                   2
                   2
                   2
                   2
                   2
                   2
                   2
                   2
                   2
                   2
                   2
                   2
                   2
                   2
                   2
                   2
                   2
                   2
                   2
                   2
                   2
                   2
                   2
                   2
                   2
                   2
                   2
                   2
                   2
                   2
                   2
                   2
                   2
                   2
                   2
                   2
                   2
                   2
                   2
                   2
                   2
                   2
                   2
                   2
                   2
                   2
                   2
                   2
                   2
                   2
                   2
                   2
                   2
                   2
                   2
                   2
                   2
                   2
                   2
                   2
                   2
                   2
                   2
                   2
                   2
                   2
                   2
                   2
                   2
                   2
                   2
                   2
                   2
                   2
                   2
                   2
                   2
                   2
                   2
                   2
                   2
                   2
                   2
                   2
                   2
                   2
                   2
                   2
                   2
                   2
                   2
                   2
                   2
                   2
                   2
                   2
                   2
                   2
                   2
                   2
                   2
                   2
                   2
                   2
                   2
                   2
                   2
                   2
                   2
                   2
                   2
                   2
                   2
                   2
                   2
                   2
                   2
                   2
                   2
                   2
                   2
                   2
                   2
                   2
                   2
                   2
                   2
                   2
                   2
                   2
                   2
                   2
                   2
                   2
                   2
                   2
                   2
                   2
                   2
                   2
                   2
                   2
                   2
                   2
                   2
                   2
                   2
                   2
                   2
                   2
                   2
                   2
                   2
                   2
                   2
                   2
                   2
                   2
                   2
                   2
                   2
                   2
                   2
                   2
                   2
                   2
                   2
                   2
                   2
                   2
                   2
                   2
                   2
                   2
                   2
                   2
                   2
                   2
                   2
                   2
                   2
                   2
                   2
                   2
                   2
                   2
                   2
                   2
                   2
                   2
                   2
                   2
                   2
                   2
                   2
                   2
                   2
                   2
                   2
                   2
                   2
                   2
                   2
                   2
                   2
                   2
                   2
                   2
                   2
                   2
                   2
                   2
                   2
                   2
                   2
                   2
                   2
                   2
                   2
                   2
                   2
                   2
                   2
                   2
                   2
                   2
                   2
                   2
                   2
                   2
                   2
                   2
                   2
                   2
                   2
                   2
                   2
                   2
                   2
                   2
                   2
                   2
                   2
                   2
                   2
                   2
                   2
                   2
                   2
                   2
                   2
                   2
                   2
                   2
                   2
                   2
                   2
                   2
                   2
                   2
                   2
                   2
                   2
                   2
                   2
                   2
                   2
                   2
                   2
                   2
                   2
                   2
                   2
                   2
                   2
                   2
                   2
                   2
                   2
                   2
                   2
                   2
                   2
                   2
                   2
                   2
                   2
                   2
                   2
                   2
                   2
                   2
                   2
                   2
                   2
                   2
                   2
                   2
                   2
                   2
                   2
                   2
                   2
                   2
                   2
                   2
                   2
                   2
                   2
                   2
                   2
                   2
                   2
                   2
                   2
                   2
                   2
                   2
                   2
                   2
                   2
                   2
                   2
                   2
                   2
                   2
                   2
                   2
                   2
                   2
                   2
                   2
                   2
                   2
                   2
                   2
                   2
                   2
                   2
                   2
                   2
                   2
                   2
                   2
                   2
                   2
                   2
                   2
                   2
                   2
                   2
                   2
                   2
                   2
                   2
                   2
                   2
                   2
                   2
                   2
                   2
                   2
                   2
                   2
                   2
                   2
                   2
                   2
                   2
                   2
                   2
                   2
                   2
                   2
                   2
                   2
                   2
                   2
                   2
                   2
                   2
                   2
                   2
                   2
                   2
                   2
                   2
                   2
                   2
                   2
                   2
                   2
                   2
                   2
                   2
                   2
                   2
                   2
                   2
                   2
                   2
                   2
                   2
                   2
                   2
                   2
                   2
                   2
                   2
                   2
                   2
                   2
                   2
                   2
                   2
                   2
                   2
                   2
                   2
                   2
                   2
                   2
                   2
                   2
                   2
                   2
                   2
                   2
                   2
                   2
                   2
                   2
                   2
                   2
                   2
                   2
                   2
                   2
                   2
                   2
                   2
                   2
                   2
                   2
                   2
                   2
                   2
                   2
                   2
                   2
                   2
                   2
                   2
                   2
                   2
                   2
                   2
                   2
                   2
                   2
                   2
                   2
                   2
                   2
                   2
                   2
                   2
                   2
                   2
                   2
                   2
                   2
                   2
                   2
                   2
                   2
                   2
                   2
                   2
                   2
                   2
                   2
                   2
                   2
                   2
                   2
                   2
                   2
                   2
                   2
                   2
                   2
                   2
                   2
                   2
                   2
                   2
                   2
                   2
                   2
                   2
                   2
                   2
                   2
                   2
                   2
                   2
                   2
                   2
                   2
                   2
                   2
                   2
                   2
                   2
                   2
                   2
                   2
                   2
                   2
                   2
                   2
                   2
                   2
                   2
                   2
                   2
                   2
                   2
                   2
                   2
                   2
                   2
                   2
                   2
                   2
                   2
                   2
                   2
                   2
                   2
                   2
                   2
                   2
                   2
                   2
                   2
                   2
                   2
                   2
                   2
                   2
                   2
                   2
                   2
                   2
                   2
                   2
                   2
                   2
                   2
                   2
                   2
                   2
                   2
                   2
                   2
                   2
                   2
                   2
                   2
                   2
                   2
                   2
                   2
                   2
                   2
                   2
                   2
                   2
                   2
                   2
                   2
                   2
                   2
                   2
                   2
                   2
                   2
                   2
                   2
                   2
                   2
                   2
                   2
                   2
                   2
                   2
                   2
                   2
                   2
                   2
                   2
                   2
                   2
                   2
                   2
                   2
                   2
                   2
                   2
                   2
                   2
                   2
                   2
                   2
                   2
                   2
                   2
                   2
                   2
                   2
                   2
                   2
                   2
                   2
                   2
                   2
                   2
                   2
                   2
                   2
                   2
                   2
                   2
                   2
                   2
                   2
                   2
                   2
                   2
                   2
                   2
                   2
                   2
                   2
                   2
                   2
                   2
                   2
                   2
                   2
                   2
                   2
                   2
  
SCALARS                        node_id  double 1
LOOKUP_TABLE default
                   1
                   2
                   3
                   4
                   5
                   6
                   7
                   8
                   9
                  10
                  11
                  12
                  13
                  14
                  15
                  16
                  17
                  18
                  19
                  20
                  21
                  22
                  23
                  24
                  25
                  26
                  27
                  28
                  29
                  30
                  31
                  32
                  33
                  34
                  35
                  36
                  37
                  38
                  39
                  40
                  41
                  42
                  43
                  44
                  45
                  46
                  47
                  48
                  49
                  50
                  51
                  52
                  53
                  54
                  55
                  56
                  57
                  58
                  59
                  60
                  61
                  62
                  63
                  64
                  65
                  66
                  67
                  68
                  69
                  70
                  71
                  72
                  73
                  74
                  75
                  76
                  77
                  78
                  79
                  80
                  81
                  82
                  83
                  84
                  85
                  86
                  87
                  88
                  89
                  90
                  91
                  92
                  93
                  94
                  95
                  96
                  97
                  98
                  99
                 100
                 101
                 102
                 103
                 104
                 105
                 106
                 107
                 108
                 109
                 110
                 111
                 112
                 113
                 114
                 115
                 116
                 117
                 118
                 119
                 120
                 121
                 122
                 123
                 124
                 125
                 126
                 127
                 128
                 129
                 130
                 131
                 132
                 133
                 134
                 135
                 136
                 137
                 138
                 139
                 140
                 141
                 142
                 143
                 144
                 145
                 146
                 147
                 148
                 149
                 150
                 151
                 152
                 153
                 154
                 155
                 156
                 157
                 158
                 159
                 160
                 161
                 162
                 163
                 164
                 165
                 166
                 167
                 168
                 169
                 170
                 171
                 172
                 173
                 174
                 175
                 176
                 177
                 178
                 179
                 180
                 181
                 182
                 183
                 184
                 185
                 186
                 187
                 188
                 189
                 190
                 191
                 192
                 193
                 194
                 195
                 196
                 197
                 198
                 199
                 200
                 201
                 202
                 203
                 204
                 205
                 206
                 207
                 208
                 209
                 210
                 211
                 212
                 213
                 214
                 215
                 216
                 217
                 218
                 219
                 220
                 221
                 222
                 223
                 224
                 225
                 226
                 227
                 228
                 229
                 230
                 231
                 232
                 233
                 234
                 235
                 236
                 237
                 238
                 239
                 240
                 241
                 242
                 243
                 244
                 245
                 246
                 247
                 248
                 249
                 250
                 251
                 252
                 253
                 254
                 255
                 256
                 257
                 258
                 259
                 260
                 261
                 262
                 263
                 264
                 265
                 266
                 267
                 268
                 269
                 270
                 271
                 272
                 273
                 274
                 275
                 276
                 277
                 278
                 279
                 280
                 281
                 282
                 283
                 284
                 285
                 286
                 287
                 288
                 289
                 290
                 291
                 292
                 293
                 294
                 295
                 296
                 297
                 298
                 299
                 300
                 301
                 302
                 303
                 304
                 305
                 306
                 307
                 308
                 309
                 310
                 311
                 312
                 313
                 314
                 315
                 316
                 317
                 318
                 319
                 320
                 321
                 322
                 323
                 324
                 325
                 326
                 327
                 328
                 329
                 330
                 331
                 332
                 333
                 334
                 335
                 336
                 337
                 338
                 339
                 340
                 341
                 342
                 343
                 344
                 345
                 346
                 347
                 348
                 349
                 350
                 351
                 352
                 353
                 354
                 355
                 356
                 357
                 358
                 359
                 360
                 361
                 362
                 363
                 364
                 365
                 366
                 367
                 368
                 369
                 370
                 371
                 372
                 373
                 374
                 375
                 376
                 377
                 378
                 379
                 380
                 381
                 382
                 383
                 384
                 385
                 386
                 387
                 388
                 389
                 390
                 391
                 392
                 393
                 394
                 395
                 396
                 397
                 398
                 399
                 400
                 401
                 402
                 403
                 404
                 405
                 406
                 407
                 408
                 409
                 410
                 411
                 412
                 413
                 414
                 415
                 416
                 417
                 418
                 419
                 420
                 421
                 422
                 423
                 424
                 425
                 426
                 427
                 428
                 429
                 430
                 431
                 432
                 433
                 434
                 435
                 436
                 437
                 438
                 439
                 440
                 441
                 442
                 443
                 444
                 445
                 446
                 447
                 448
                 449
                 450
                 451
                 452
                 453
                 454
                 455
                 456
                 457
                 458
                 459
                 460
                 461
                 462
                 463
                 464
                 465
                 466
                 467
                 468
                 469
                 470
                 471
                 472
                 473
                 474
                 475
                 476
                 477
                 478
                 479
                 480
                 481
                 482
                 483
                 484
                 485
                 486
                 487
                 488
                 489
                 490
                 491
                 492
                 493
                 494
                 495
                 496
                 497
                 498
                 499
                 500
                 501
                 502
                 503
                 504
                 505
                 506
                 507
                 508
                 509
                 510
                 511
                 512
                 513
                 514
                 515
                 516
                 517
                 518
                 519
                 520
                 521
                 522
                 523
                 524
                 525
                 526
                 527
                 528
                 529
                 530
                 531
                 532
                 533
                 534
                 535
                 536
                 537
                 538
                 539
                 540
                 541
                 542
                 543
                 544
                 545
                 546
                 547
                 548
                 549
                 550
                 551
                 552
                 553
                 554
                 555
                 556
                 557
                 558
                 559
                 560
                 561
                 562
                 563
                 564
                 565
                 566
                 567
                 568
                 569
                 570
                 571
                 572
                 573
                 574
                 575
                 576
                 577
                 578
                 579
                 580
                 581
                 582
                 583
                 584
                 585
                 586
                 587
                 588
                 589
                 590
                 591
                 592
                 593
                 594
                 595
                 596
                 597
                 598
                 599
                 600
                 601
                 602
                 603
                 604
                 605
                 606
                 607
                 608
                 609
                 610
                 611
                 612
                 613
                 614
                 615
                 616
                 617
                 618
                 619
                 620
                 621
                 622
                 623
                 624
                 625
                 626
                 627
                 628
                 629
                 630
                 631
                 632
                 633
                 634
                 635
                 636
                 637
                 638
                 639
                 640
                 641
                 642
                 643
                 644
                 645
                 646
                 647
                 648
                 649
                 650
                 651
                 652
                 653
                 654
                 655
                 656
                 657
                 658
                 659
                 660
                 661
                 662
                 663
                 664
                 665
                 666
                 667
                 668
                 669
                 670
                 671
                 672
                 673
                 674
                 675
                 676
                 677
                 678
                 679
                 680
                 681
                 682
                 683
                 684
                 685
                 686
                 687
                 688
                 689
                 690
                 691
                 692
                 693
                 694
                 695
                 696
                 697
                 698
                 699
                 700
                 701
                 702
                 703
                 704
                 705
                 706
                 707
                 708
                 709
                 710
                 711
                 712
                 713
                 714
                 715
                 716
                 717
                 718
                 719
                 720
                 721
                 722
                 723
                 724
                 725
                 726
                 727
                 728
                 729
                 730
                 731
                 732
                 733
                 734
                 735
                 736
                 737
                 738
                 739
                 740
                 741
                 742
                 743
                 744
                 745
                 746
                 747
                 748
                 749
                 750
                 751
                 752
                 753
                 754
                 755
                 756
                 757
                 758
                 759
                 760
                 761
                 762
                 763
                 764
                 765
                 766
                 767
                 768
                 769
                 770
                 771
                 772
                 773
                 774
                 775
                 776
                 777
                 778
                 779
                 780
                 781
                 782
                 783
                 784
                 785
                 786
                 787
                 788
                 789
                 790
                 791
                 792
                 793
                 794
                 795
                 796
                 797
                 798
                 799
                 800
                 801
                 802
                 803
                 804
                 805
                 806
                 807
                 808
                 809
                 810
                 811
                 812
                 813
                 814
                 815
                 816
                 817
                 818
                 819
                 820
                 821
                 822
                 823
                 824
                 825
                 826
                 827
                 828
                 829
                 830
                 831
                 832
                 833
                 834
                 835
                 836
                 837
                 838
                 839
                 840
                 841
                 842
                 843
                 844
                 845
                 846
                 847
                 848
                 849
                 850
                 851
                 852
                 853
                 854
                 855
                 856
                 857
                 858
                 859
                 860
                 861
                 862
                 863
                 864
                 865
                 866
                 867
                 868
                 869
                 870
                 871
                 872
                 873
                 874
                 875
                 876
                 877
                 878
                 879
                 880
                 881
                 882
                 883
                 884
                 885
                 886
                 887
                 888
                 889
                 890
                 891
                 892
                 893
                 894
                 895
                 896
                 897
                 898
                 899
                 900
                 901
                 902
                 903
                 904
                 905
                 906
                 907
                 908
                 909
                 910
                 911
                 912
                 913
                 914
                 915
                 916
                 917
                 918
                 919
                 920
                 921
                 922
                 923
                 924
                 925
                 926
                 927
                 928
                 929
                 930
                 931
                 932
                 933
                 934
                 935
                 936
                 937
                 938
                 939
                 940
                 941
                 942
                 943
                 944
                 945
                 946
                 947
                 948
                 949
                 950
                 951
                 952
                 953
                 954
                 955
                 956
                 957
                 958
                 959
                 960
                 961
                 962
                 963
                 964
                 965
                 966
                 967
                 968
                 969
                 970
                 971
                 972
                 973
                 974
                 975
                 976
                 977
                 978
                 979
                 980
                 981
                 982
                 983
                 984
                 985
                 986
                 987
                 988
                 989
                 990
                 991
                 992
                 993
                 994
                 995
                 996
                 997
                 998
                 999
                1000
                1001
                1002
                1003
                1004
                1005
                1006
                1007
                1008
                1009
                1010
                1011
                1012
                1013
                1014
                1015
                1016
                1017
                1018
                1019
                1020
                1021
                1022
                1023
                1024
                1025
                1026
                1027
                1028
                1029
                1030
                1031
                1032
                1033
                1034
                1035
                1036
                1037
                1038
                1039
                1040
                1041
                1042
                1043
                1044
                1045
                1046
                1047
                1048
                1049
                1050
                1051
                1052
                1053
                1054
                1055
                1056
                1057
                1058
                1059
                1060
                1061
                1062
                1063
                1064
                1065
                1066
                1067
                1068
                1069
                1070
                1071
                1072
                1073
                1074
                1075
                1076
                1077
                1078
                1079
                1080
                1081
                1082
                1083
                1084
                1085
                1086
                1087
                1088
                1089
                1090
                1091
                1092
                1093
                1094
                1095
                1096
                1097
                1098
                1099
                1100
                1101
                1102
                1103
                1104
                1105
                1106
                1107
                1108
                1109
                1110
                1111
                1112
                1113
                1114
                1115
                1116
                1117
                1118
                1119
                1120
                1121
                1122
                1123
                1124
                1125
                1126
                1127
                1128
                1129
                1130
                1131
                1132
                1133
                1134
                1135
                1136
                1137
                1138
                1139
                1140
                1141
                1142
                1143
                1144
                1145
                1146
                1147
                1148
                1149
                1150
                1151
                1152
                1153
                1154
                1155
                1156
                1157
                1158
                1159
                1160
                1161
                1162
                1163
                1164
                1165
                1166
                1167
                1168
                1169
                1170
                1171
                1172
                1173
                1174
                1175
                1176
                1177
                1178
                1179
                1180
                1181
                1182
                1183
                1184
                1185
                1186
                1187
                1188
                1189
                1190
                1191
                1192
                1193
                1194
                1195
                1196
                1197
                1198
                1199
                1200
                1201
                1202
                1203
                1204
                1205
                1206
                1207
                1208
                1209
                1210
                1211
                1212
                1213
                1214
                1215
                1216
                1217
                1218
                1219
                1220
                1221
                1222
                1223
                1224
                1225
                1226
                1227
                1228
                1229
                1230
                1231
                1232
                1233
                1234
                1235
                1236
                1237
                1238
                1239
                1240
                1241
                1242
                1243
                1244
                1245
                1246
                1247
                1248
                1249
                1250
                1251
                1252
                1253
                1254
                1255
                1256
                1257
                1258
                1259
                1260
                1261
                1262
                1263
                1264
                1265
                1266
                1267
                1268
                1269
                1270
                1271
                1272
                1273
                1274
                1275
                1276
                1277
                1278
                1279
                1280
                1281
                1282
                1283
                1284
                1285
                1286
                1287
                1288
                1289
                1290
                1291
                1292
                1293
                1294
                1295
                1296
                1297
                1298
                1299
                1300
                1301
                1302
                1303
                1304
                1305
                1306
                1307
                1308
                1309
                1310
                1311
                1312
                1313
                1314
                1315
                1316
                1317
                1318
                1319
                1320
                1321
                1322
                1323
                1324
                1325
                1326
                1327
                1328
                1329
                1330
                1331
                1332
                1333
                1334
                1335
                1336
                1337
                1338
                1339
                1340
                1341
                1342
                1343
                1344
                1345
                1346
                1347
                1348
                1349
                1350
                1351
                1352
                1353
                1354
                1355
                1356
                1357
                1358
                1359
                1360
                1361
                1362
                1363
                1364
                1365
                1366
                1367
                1368
                1369
                1370
                1371
                1372
                1373
                1374
                1375
                1376
                1377
                1378
                1379
                1380
                1381
                1382
                1383
                1384
                1385
                1386
                1387
                1388
                1389
                1390
                1391
                1392
                1393
                1394
                1395
                1396
                1397
                1398
                1399
                1400
                1401
                1402
                1403
                1404
                1405
                1406
                1407
                1408
                1409
                1410
                1411
                1412
                1413
                1414
                1415
                1416
                1417
                1418
                1419
                1420
                1421
                1422
                1423
                1424
                1425
                1426
                1427
                1428
                1429
                1430
                1431
                1432
                1433
                1434
                1435
                1436
                1437
                1438
                1439
                1440
                1441
                1442
                1443
                1444
                1445
                1446
                1447
                1448
                1449
                1450
                1451
                1452
                1453
                1454
                1455
                1456
                1457
                1458
                1459
                1460
                1461
                1462
                1463
                1464
                1465
                1466
                1467
                1468
                1469
                1470
                1471
                1472
                1473
                1474
                1475
                1476
                1477
                1478
                1479
                1480
                1481
                1482
                1483
                1484
                1485
                1486
                1487
                1488
                1489
                1490
                1491
                1492
                1493
                1494
                1495
                1496
                1497
                1498
                1499
                1500
                1501
                1502
                1503
                1504
                1505
                1506
                1507
                1508
                1509
                1510
                1511
                1512
                1513
                1514
                1515
                1516
                1517
                1518
                1519
                1520
                1521
                1522
                1523
                1524
                1525
                1526
                1527
                1528
                1529
                1530
                1531
                1532
                1533
                1534
                1535
                1536
                1537
                1538
                1539
                1540
                1541
                1542
                1543
                1544
                1545
                1546
                1547
                1548
                1549
                1550
                1551
                1552
                1553
                1554
                1555
                1556
                1557
                1558
                1559
                1560
                1561
                1562
                1563
                1564
                1565
                1566
                1567
                1568
                1569
                1570
                1571
                1572
                1573
                1574
                1575
                1576
                1577
                1578
                1579
                1580
                1581
                1582
                1583
                1584
                1585
                1586
                1587
                1588
                1589
                1590
                1591
                1592
                1593
                1594
                1595
                1596
                1597
                1598
                1599
                1600
                1601
                1602
                1603
                1604
                1605
                1606
                1607
                1608
                1609
                1610
                1611
                1612
                1613
                1614
                1615
                1616
                1617
                1618
                1619
                1620
                1621
                1622
                1623
                1624
                1625
                1626
                1627
                1628
                1629
                1630
                1631
                1632
                1633
                1634
                1635
                1636
                1637
                1638
                1639
                1640
                1641
                1642
                1643
                1644
                1645
                1646
                1647
                1648
                1649
                1650
                1651
                1652
                1653
                1654
                1655
                1656
                1657
                1658
                1659
                1660
                1661
                1662
                1663
                1664
                1665
                1666
                1667
                1668
                1669
                1670
                1671
                1672
                1673
                1674
                1675
                1676
                1677
                1678
                1679
                1680
                1681
                1682
                1683
                1684
                1685
                1686
                1687
                1688
                1689
                1690
                1691
                1692
                1693
                1694
                1695
                1696
                1697
                1698
                1699
                1700
                1701
                1702
                1703
                1704
                1705
                1706
                1707
                1708
                1709
                1710
                1711
                1712
                1713
                1714
                1715
                1716
                1717
                1718
                1719
                1720
                1721
                1722
                1723
                1724
                1725
                1726
                1727
                1728
                1729
                1730
                1731
                1732
                1733
                1734
                1735
                1736
                1737
                1738
                1739
                1740
                1741
                1742
                1743
                1744
                1745
                1746
                1747
                1748
                1749
                1750
                1751
                1752
                1753
                1754
                1755
                1756
                1757
                1758
                1759
                1760
                1761
                1762
                1763
                1764
                1765
                1766
                1767
                1768
                1769
                1770
                1771
                1772
                1773
                1774
                1775
                1776
                1777
                1778
                1779
                1780
                1781
                1782
                1783
                1784
                1785
                1786
                1787
                1788
                1789
                1790
                1791
                1792
                1793
                1794
                1795
                1796
                1797
                1798
                1799
                1800
                1801
                1802
                1803
                1804
                1805
                1806
                1807
                1808
                1809
                1810
                1811
                1812
                1813
                1814
                1815
                1816
                1817
                1818
                1819
                1820
                1821
                1822
                1823
                1824
                1825
                1826
                1827
                1828
                1829
                1830
                1831
                1832
                1833
                1834
                1835
                1836
                1837
                1838
                1839
                1840
                1841
                1842
                1843
                1844
                1845
                1846
                1847
                1848
                1849
                1850
                1851
                1852
                1853
                1854
                1855
                1856
                1857
                1858
                1859
                1860
                1861
                1862
                1863
                1864
                1865
                1866
                1867
                1868
                1869
                1870
                1871
                1872
                1873
                1874
                1875
                1876
                1877
                1878
                1879
                1880
                1881
                1882
                1883
                1884
                1885
                1886
                1887
                1888
                1889
                1890
                1891
                1892
                1893
                1894
                1895
                1896
                1897
                1898
                1899
                1900
                1901
                1902
                1903
                1904
                1905
                1906
                1907
                1908
                1909
                1910
                1911
                1912
                1913
                1914
                1915
                1916
                1917
                1918
                1919
                1920
                1921
                1922
                1923
                1924
                1925
                1926
                1927
                1928
                1929
                1930
                1931
                1932
                1933
                1934
                1935
                1936
                1937
                1938
                1939
                1940
                1941
                1942
                1943
                1944
                1945
                1946
                1947
                1948
                1949
                1950
  
SCALARS                         bodyid  double 1
LOOKUP_TABLE default
                   1
                   1
                   1
                   1
                   1
                   1
                   1
                   1
                   1
                   1
                   1
                   1
                   1
                   1
                   1
                   1
                   1
                   1
                   1
                   1
                   1
                   1
                   1
                   1
                   1
                   1
                   1
                   1
                   1
                   1
                   1
                   1
                   1
                   1
                   1
                   1
                   1
                   1
                   1
                   1
                   1
                   1
                   1
                   1
                   1
                   1
                   1
                   1
                   1
                   1
                   1
                   1
                   1
                   1
                   1
                   1
                   1
                   1
                   1
                   1
                   1
                   1
                   1
                   1
                   1
                   1
                   1
                   1
                   1
                   1
                   1
                   1
                   1
                   1
                   1
                   1
                   1
                   1
                   1
                   1
                   1
                   1
                   1
                   1
                   1
                   1
                   1
                   1
                   1
                   1
                   1
                   1
                   1
                   1
                   1
                   1
                   1
                   1
                   1
                   1
                   1
                   1
                   1
                   1
                   1
                   1
                   1
                   1
                   1
                   1
                   1
                   1
                   1
                   1
                   1
                   1
                   1
                   1
                   1
                   1
                   1
                   1
                   1
                   1
                   1
                   1
                   1
                   1
                   1
                   1
                   1
                   1
                   1
                   1
                   1
                   1
                   1
                   1
                   1
                   1
                   1
                   1
                   1
                   1
                   1
                   1
                   1
                   1
                   1
                   1
                   1
                   1
                   1
                   1
                   1
                   1
                   1
                   1
                   1
                   1
                   1
                   1
                   1
                   1
                   1
                   1
                   1
                   1
                   1
                   1
                   1
                   1
                   1
                   1
                   1
                   1
                   1
                   1
                   1
                   1
                   1
                   1
                   1
                   1
                   1
                   1
                   1
                   1
                   1
                   1
                   1
                   1
                   1
                   1
                   1
                   1
                   1
                   1
                   1
                   1
                   1
                   1
                   1
                   1
                   1
                   1
                   1
                   1
                   1
                   1
                   1
                   1
                   1
                   1
                   1
                   1
                   1
                   1
                   1
                   1
                   1
                   1
                   1
                   1
                   1
                   1
                   1
                   1
                   1
                   1
                   1
                   1
                   1
                   1
                   1
                   1
                   1
                   1
                   1
                   1
                   1
                   1
                   1
                   1
                   1
                   1
                   1
                   1
                   1
                   1
                   1
                   1
                   1
                   1
                   1
                   1
                   1
                   1
                   1
                   1
                   1
                   1
                   1
                   1
                   1
                   1
                   1
                   1
                   1
                   1
                   1
                   1
                   1
                   1
                   1
                   1
                   1
                   1
                   1
                   1
                   1
                   1
                   1
                   1
                   1
                   1
                   1
                   1
                   1
                   1
                   1
                   1
                   1
                   1
                   1
                   1
                   1
                   1
                   1
                   1
                   1
                   1
                   1
                   1
                   1
                   1
                   1
                   1
                   1
                   1
                   1
                   1
                   1
                   1
                   1
                   1
                   1
                   1
                   1
                   1
                   1
                   1
                   1
                   1
                   1
                   1
                   1
                   1
                   1
                   1
                   1
                   1
                   1
                   1
                   1
                   1
                   1
                   1
                   1
                   1
                   1
                   1
                   1
                   1
                   1
                   1
                   1
                   1
                   1
                   1
                   1
                   1
                   1
                   1
                   1
                   1
                   1
                   1
                   1
                   1
                   1
                   1
                   1
                   1
                   1
                   1
                   1
                   1
                   1
                   1
                   1
                   1
                   1
                   1
                   1
                   1
                   1
                   1
                   1
                   1
                   1
                   1
                   1
                   1
                   1
                   1
                   1
                   1
                   1
                   1
                   1
                   1
                   1
                   1
                   1
                   1
                   1
                   1
                   1
                   1
                   1
                   1
                   1
                   1
                   1
                   1
                   1
                   1
                   1
                   1
                   1
                   1
                   1
                   1
                   1
                   1
                   1
                   1
                   1
                   1
                   1
                   1
                   1
                   1
                   1
                   1
                   1
                   1
                   1
                   1
                   1
                   1
                   1
                   1
                   1
                   1
                   1
                   1
                   1
                   1
                   1
                   1
                   1
                   1
                   1
                   1
                   1
                   1
                   1
                   1
                   1
                   1
                   1
                   1
                   1
                   1
                   1
                   1
                   1
                   1
                   1
                   1
                   1
                   1
                   1
                   1
                   1
                   1
                   1
                   1
                   1
                   1
                   1
                   1
                   1
                   1
                   1
                   1
                   1
                   1
                   1
                   1
                   1
                   1
                   1
                   1
                   1
                   1
                   1
                   1
                   1
                   1
                   1
                   1
                   1
                   1
                   1
                   1
                   1
                   1
                   1
                   1
                   1
                   1
                   1
                   1
                   1
                   1
                   1
                   1
                   1
                   1
                   1
                   1
                   1
                   1
                   1
                   1
                   1
                   1
                   1
                   1
                   1
                   1
                   1
                   1
                   1
                   1
                   1
                   1
                   1
                   1
                   1
                   1
                   1
                   1
                   1
                   1
                   1
                   1
                   1
                   1
                   1
                   1
                   1
                   1
                   1
                   1
                   1
                   1
                   1
                   1
                   1
                   1
                   1
                   1
                   1
                   1
                   1
                   1
                   1
                   1
                   1
                   1
                   1
                   1
                   1
                   1
                   1
                   1
                   1
                   1
                   1
                   1
                   1
                   1
                   1
                   1
                   1
                   1
                   1
                   1
                   1
                   1
                   1
                   1
                   1
                   1
                   1
                   1
                   1
                   1
                   1
                   1
                   1
                   1
                   1
                   1
                   1
                   1
                   1
                   1
                   1
                   1
                   1
                   1
                   1
                   1
                   1
                   1
                   1
                   1
                   1
                   1
                   1
                   1
                   1
                   1
                   1
                   1
                   1
                   1
                   1
                   1
                   1
                   1
                   1
                   1
                   1
                   1
                   1
                   1
                   1
                   1
                   1
                   1
                   1
                   1
                   1
                   1
                   1
                   1
                   1
                   1
                   1
                   1
                   1
                   1
                   1
                   1
                   1
                   1
                   1
                   1
                   1
                   1
                   1
                   1
                   1
                   1
                   1
                   1
                   1
                   1
                   1
                   1
                   1
                   1
                   1
                   1
                   1
                   1
                   1
                   1
                   1
                   1
                   1
                   1
                   1
                   1
                   1
                   1
                   1
                   1
                   1
                   1
                   1
                   1
                   1
                   1
                   1
                   1
                   1
                   1
                   1
                   1
                   1
                   1
                   1
                   1
                   1
                   1
                   1
                   1
                   1
                   1
                   1
                   1
                   1
                   1
                   1
                   1
                   1
                   1
                   1
                   1
                   1
                   1
                   1
                   1
                   1
                   1
                   1
                   1
                   1
                   1
                   1
                   1
                   1
                   1
                   1
                   1
                   1
                   1
                   1
                   1
                   1
                   1
                   1
                   1
                   1
                   1
                   1
                   1
                   1
                   1
                   1
                   1
                   1
                   1
                   1
                   1
                   1
                   1
                   1
                   1
                   1
                   1
                   1
                   1
                   1
                   1
                   1
                   1
                   1
                   1
                   1
                   1
                   1
                   1
                   1
                   1
                   1
                   1
                   1
                   1
                   1
                   1
                   1
                   1
                   1
                   1
                   1
                   1
                   1
                   1
                   1
                   1
                   1
                   1
                   1
                   1
                   1
                   1
                   1
                   1
                   1
                   1
                   1
                   1
                   1
                   1
                   1
                   1
                   1
                   1
                   1
                   1
                   1
                   1
                   1
                   1
                   1
                   1
                   1
                   1
                   1
                   1
                   1
                   1
                   1
                   1
                   1
                   1
                   1
                   1
                   1
                   1
                   1
                   1
                   1
                   1
                   1
                   1
                   1
                   1
                   1
                   1
                   1
                   1
                   1
                   1
                   1
                   1
                   1
                   1
                   1
                   1
                   1
                   1
                   1
                   1
                   1
                   1
                   1
                   1
                   1
                   1
                   1
                   1
                   1
                   1
                   1
                   1
                   1
                   1
                   1
                   1
                   1
                   1
                   1
                   1
                   1
                   1
                   1
                   1
                   1
                   1
                   1
                   1
                   1
                   1
                   1
                   1
                   1
                   1
                   1
                   1
                   1
                   1
                   1
                   1
                   1
                   1
                   1
                   1
                   1
                   1
                   1
                   1
                   1
                   1
                   1
                   1
                   1
                   1
                   1
                   1
                   1
                   1
                   1
                   1
                   1
                   1
                   1
                   1
                   1
                   1
                   1
                   1
                   1
                   1
                   1
                   1
                   1
                   1
                   1
                   1
                   1
                   1
                   1
                   1
                   1
                   1
                   1
                   1
                   1
                   1
                   1
                   1
                   1
                   1
                   1
                   1
                   1
                   1
                   1
                   1
                   1
                   1
                   1
                   1
                   1
                   1
                   1
                   1
                   1
                   1
                   1
                   1
                   1
                   1
                   1
                   1
                   1
                   1
                   1
                   1
                   1
                   1
                   1
                   1
                   1
                   1
                   1
                   1
                   1
                   1
                   1
                   1
                   1
                   1
                   1
                   1
                   1
                   1
                   1
                   1
                   1
                   1
                   1
                   1
                   1
                   1
                   1
                   1
                   1
                   1
                   1
                   1
                   1
                   1
                   1
                   1
                   1
                   1
                   1
                   1
                   1
                   1
                   1
                   1
                   1
                   1
                   1
                   1
                   1
                   1
                   1
                   1
                   1
                   1
                   1
                   1
                   1
                   1
                   1
                   1
                   1
                   1
                   1
                   1
                   1
                   1
                   1
                   1
                   1
                   1
                   1
                   1
                   1
                   1
                   1
                   1
                   1
                   1
                   1
                   1
                   1
                   1
                   1
                   1
                   1
                   1
                   1
                   1
                   1
                   1
                   1
                   1
                   1
                   1
                   1
                   1
                   1
                   1
                   1
                   1
                   1
                   1
                   1
                   1
                   1
                   1
                   1
                   1
                   1
                   1
                   1
                   1
                   1
                   1
                   1
                   1
                   1
                   1
                   1
                   1
                   1
                   1
                   1
                   1
                   1
                   1
                   1
                   1
                   1
                   1
                   1
                   1
                   1
                   1
                   1
                   1
                   1
                   1
                   1
                   1
                   1
                   1
                   1
                   1
                   1
                   1
                   1
                   1
                   1
                   1
                   1
                   1
                   1
                   1
                   1
                   1
                   1
                   1
                   1
                   1
                   1
                   1
                   1
                   1
                   1
                   1
                   1
                   1
                   1
                   1
                   1
                   1
                   1
                   1
                   1
                   1
                   1
                   1
                   1
                   1
                   1
                   1
                   1
                   1
                   1
                   1
                   1
                   1
                   1
                   1
                   1
                   1
                   1
                   1
                   1
                   1
                   1
                   1
                   1
                   1
                   1
                   1
                   1
                   1
                   1
                   1
                   1
                   1
                   1
                   1
                   1
                   1
                   1
                   1
                   1
                   1
                   1
                   1
                   1
                   1
                   1
                   1
                   1
                   1
                   1
                   1
                   1
                   1
                   1
                   1
                   1
                   1
                   1
                   1
                   1
                   1
                   1
                   1
                   1
                   1
                   1
                   1
                   1
                   1
                   1
                   1
                   1
                   1
                   1
                   1
                   1
                   1
                   1
                   1
                   1
                   1
                   1
                   1
                   1
                   1
                   1
                   1
                   1
                   1
                   1
                   1
                   1
                   1
                   1
                   1
                   1
                   1
                   1
                   1
                   1
                   1
                   1
                   1
                   1
                   1
                   1
                   1
                   1
                   1
                   1
                   1
                   1
                   1
                   1
                   1
                   1
                   1
                   1
                   1
                   1
                   1
                   1
                   1
                   1
                   1
                   1
                   1
                   1
                   1
                   1
                   1
                   1
                   1
                   1
                   1
                   1
                   1
                   1
                   1
                   1
                   1
                   1
                   1
                   1
                   1
                   1
                   1
                   1
                   1
                   1
                   1
                   1
                   1
                   1
                   1
                   1
                   1
                   1
                   1
                   1
                   1
                   1
                   1
                   1
                   1
                   1
                   1
                   1
                   1
                   1
                   1
                   1
                   1
                   1
                   1
                   1
                   1
                   1
                   1
                   1
                   1
                   1
                   1
                   1
                   1
                   1
                   1
                   1
                   1
                   1
                   1
                   1
                   1
                   1
                   1
                   1
                   1
                   1
                   1
                   1
                   1
                   1
                   1
                   1
                   1
                   1
                   1
                   1
                   1
                   1
                   1
                   1
                   1
                   1
                   1
                   1
                   1
                   1
                   1
                   1
                   1
                   1
                   1
                   1
                   1
                   1
                   1
                   1
                   1
                   1
                   1
                   1
                   1
                   1
                   1
                   1
                   1
                   1
                   1
                   1
                   1
                   1
                   1
                   1
                   1
                   1
                   1
                   1
                   1
                   1
                   1
                   1
                   1
                   1
                   1
                   1
                   1
                   1
                   1
                   1
                   1
                   1
                   1
                   1
                   1
                   1
                   1
                   1
                   1
                   1
                   1
                   1
                   1
                   1
                   1
                   1
                   1
                   1
                   1
                   1
                   1
                   1
                   1
                   1
                   1
                   1
                   1
                   1
                   1
                   1
                   1
                   1
                   1
                   1
                   1
                   1
                   1
                   1
                   1
                   1
                   1
                   1
                   1
                   1
                   1
                   1
                   1
                   1
                   1
                   1
                   1
                   1
                   1
                   1
                   1
                   1
                   1
                   1
                   1
                   1
                   1
                   1
                   1
                   1
                   1
                   1
                   1
                   1
                   1
                   1
                   1
                   1
                   1
                   1
                   1
                   1
                   1
                   1
                   1
                   1
                   1
                   1
                   1
                   1
                   1
                   1
                   1
                   1
                   1
                   1
                   1
                   1
                   1
                   1
                   1
                   1
                   1
                   1
                   1
                   1
                   1
                   1
                   1
                   1
                   1
                   1
                   1
                   1
                   1
                   1
                   1
                   1
                   1
                   1
                   1
                   1
                   1
                   1
                   1
                   1
                   1
                   1
                   1
                   1
                   1
                   1
                   1
                   1
                   1
                   1
                   1
                   1
                   1
                   1
                   1
                   1
                   1
                   1
                   1
                   1
                   1
                   1
                   1
                   1
                   1
                   1
                   1
                   1
                   1
                   1
                   1
                   1
                   1
                   1
                   1
                   1
                   1
                   1
                   1
                   1
                   1
                   1
                   1
                   1
                   1
                   1
                   1
                   1
                   1
                   1
                   1
                   1
                   1
                   1
                   1
                   1
                   1
                   1
                   1
                   1
                   1
                   1
                   1
                   1
                   1
                   1
                   1
                   1
                   1
                   1
                   1
                   1
                   1
                   1
                   1
                   1
                   1
                   1
                   1
                   1
                   1
                   1
                   1
                   1
                   1
                   1
                   1
                   1
                   1
                   1
                   1
                   1
                   1
                   1
                   1
                   1
                   1
                   1
                   1
                   1
                   1
                   1
                   1
                   1
                   1
                   1
                   1
                   1
                   1
                   1
                   1
                   1
                   1
                   1
                   1
                   1
                   1
                   1
                   1
                   1
                   1
                   1
                   1
                   1
                   1
                   1
                   1
                   1
                   1
                   1
                   1
                   1
                   1
                   1
                   1
                   1
                   1
                   1
                   1
                   1
                   1
                   1
                   1
                   1
                   1
                   1
                   1
                   1
                   1
                   1
                   1
                   1
                   1
                   1
                   1
                   1
                   1
                   1
                   1
                   1
                   1
                   1
                   1
                   1
                   1
                   1
                   1
                   1
                   1
                   1
                   1
                   1
                   1
                   1
                   1
                   1
                   1
                   1
                   1
                   1
                   1
                   1
                   1
                   1
                   1
                   1
                   1
                   1
                   1
                   1
                   1
                   1
                   1
                   1
                   1
                   1
                   1
                   1
                   1
                   1
                   1
                   1
                   1
                   1
                   1
                   1
                   1
                   1
                   1
                   1
                   1
                   1
                   1
                   1
                   1
                   1
                   1
                   1
                   1
                   1
                   1
                   1
                   1
                   1
                   1
                   1
                   1
                   1
                   1
                   1
                   1
                   1
                   1
                   1
                   1
                   1
                   1
                   1
                   1
                   1
                   1
                   1
                   1
                   1
                   1
                   1
                   1
                   1
                   1
                   1
                   1
                   1
                   1
                   1
                   1
                   1
                   1
                   1
                   1
                   1
                   1
                   1
                   1
                   1
                   1
                   1
                   1
                   1
                   1
                   1
                   1
                   1
                   1
                   1
                   1
                   1
                   1
                   1
                   1
                   1
                   1
                   1
                   1
                   1
                   1
                   1
                   1
                   1
                   1
                   1
                   1
                   1
                   1
                   1
                   1
                   1
                   1
                   1
                   1
                   1
                   1
                   1
                   1
                   1
                   1
                   1
                   1
                   1
                   1
                   1
                   1
                   1
                   1
                   1
                   1
                   1
                   1
                   1
                   1
                   1
                   1
                   1
                   1
                   1
                   1
                   1
                   1
                   1
                   1
                   1
                   1
                   1
                   1
                   1
                   1
                   1
                   1
                   1
                   1
                   1
                   1
                   1
                   1
                   1
                   1
                   1
                   1
                   1
                   1
                   1
                   1
                   1
                   1
                   1
                   1
                   1
                   1
                   1
                   1
                   1
                   1
                   1
                   1
                   1
                   1
                   1
                   1
                   1
                   1
                   1
                   1
                   1
                   1
                   1
                   1
                   1
                   1
                   1
                   1
                   1
                   1
                   1
                   1
                   1
                   1
                   1
                   1
                   1
                   1
                   1
                   1
                   1
                   1
                   1
                   1
                   1
                   1
                   1
                   1
                   1
                   1
                   1
                   1
                   1
                   1
                   1
                   1
                   1
                   1
                   1
                   1
                   1
                   1
                   1
                   1
                   1
                   1
                   1
                   1
                   1
                   1
                   1
                   1
                   1
                   1
                   1
                   1
  
SCALARS                  material_type  double 1
LOOKUP_TABLE default
                   2
                   2
                   2
                   2
                   2
                   2
                   2
                   2
                   2
                   2
                   2
                   2
                   2
                   2
                   2
                   2
                   2
                   2
                   2
                   2
                   2
                   2
                   2
                   2
                   2
                   2
                   2
                   2
                   2
                   2
                   2
                   2
                   2
                   2
                   2
                   2
                   2
                   2
                   2
                   2
                   2
                   2
                   2
                   2
                   2
                   2
                   2
                   2
                   2
                   2
                   2
                   2
                   2
                   2
                   2
                   2
                   2
                   2
                   2
                   2
                   2
                   2
                   2
                   2
                   2
                   2
                   2
                   2
                   2
                   2
                   2
                   2
                   2
                   2
                   2
                   2
                   2
                   2
                   2
                   2
                   2
                   2
                   2
                   2
                   2
                   2
                   2
                   2
                   2
                   2
                   2
                   2
                   2
                   2
                   2
                   2
                   2
                   2
                   2
                   2
                   2
                   2
                   2
                   2
                   2
                   2
                   2
                   2
                   2
                   2
                   2
                   2
                   2
                   2
                   2
                   2
                   2
                   2
                   2
                   2
                   2
                   2
                   2
                   2
                   2
                   2
                   2
                   2
                   2
                   2
                   2
                   2
                   2
                   2
                   2
                   2
                   2
                   2
                   2
                   2
                   2
                   2
                   2
                   2
                   2
                   2
                   2
                   2
                   2
                   2
                   2
                   2
                   2
                   2
                   2
                   2
                   2
                   2
                   2
                   2
                   2
                   2
                   2
                   2
                   2
                   2
                   2
                   2
                   2
                   2
                   2
                   2
                   2
                   2
                   2
                   2
                   2
                   2
                   2
                   2
                   2
                   2
                   2
                   2
                   2
                   2
                   2
                   2
                   2
                   2
                   2
                   2
                   2
                   2
                   2
                   2
                   2
                   2
                   2
                   2
                   2
                   2
                   2
                   2
                   2
                   2
                   2
                   2
                   2
                   2
                   2
                   2
                   2
                   2
                   2
                   2
                   2
                   2
                   2
                   2
                   2
                   2
                   2
                   2
                   2
                   2
                   2
                   2
                   2
                   2
                   2
                   2
                   2
                   2
                   2
                   2
                   2
                   2
                   2
                   2
                   2
                   2
                   2
                   2
                   2
                   2
                   2
                   2
                   2
                   2
                   2
                   2
                   2
                   2
                   2
                   2
                   2
                   2
                   2
                   2
                   2
                   2
                   2
                   2
                   2
                   2
                   2
                   2
                   2
                   2
                   2
                   2
                   2
                   2
                   2
                   2
                   2
                   2
                   2
                   2
                   2
                   2
                   2
                   2
                   2
                   2
                   2
                   2
                   2
                   2
                   2
                   2
                   2
                   2
                   2
                   2
                   2
                   2
                   2
                   2
                   2
                   2
                   2
                   2
                   2
                   2
                   2
                   2
                   2
                   2
                   2
                   2
                   2
                   2
                   2
                   2
                   2
                   2
                   2
                   2
                   2
                   2
                   2
                   2
                   2
                   2
                   2
                   2
                   2
                   2
                   2
                   2
                   2
                   2
                   2
                   2
                   2
                   2
                   2
                   2
                   2
                   2
                   2
                   2
                   2
                   2
                   2
                   2
                   2
                   2
                   2
                   2
                   2
                   2
                   2
                   2
                   2
                   2
                   2
                   2
                   2
                   2
                   2
                   2
                   2
                   2
                   2
                   2
                   2
                   2
                   2
                   2
                   2
                   2
                   2
                   2
                   2
                   2
                   2
                   2
                   2
                   2
                   2
                   2
                   2
                   2
                   2
                   2
                   2
                   2
                   2
                   2
                   2
                   2
                   2
                   2
                   2
                   2
                   2
                   2
                   2
                   2
                   2
                   2
                   2
                   2
                   2
                   2
                   2
                   2
                   2
                   2
                   2
                   2
                   2
                   2
                   2
                   2
                   2
                   2
                   2
                   2
                   2
                   2
                   2
                   2
                   2
                   2
                   2
                   2
                   2
                   2
                   2
                   2
                   2
                   2
                   2
                   2
                   2
                   2
                   2
                   2
                   2
                   2
                   2
                   2
                   2
                   2
                   2
                   2
                   2
                   2
                   2
                   2
                   2
                   2
                   2
                   2
                   2
                   2
                   2
                   2
                   2
                   2
                   2
                   2
                   2
                   2
                   2
                   2
                   2
                   2
                   2
                   2
                   2
                   2
                   2
                   2
                   2
                   2
                   2
                   2
                   2
                   2
                   2
                   2
                   2
                   2
                   2
                   2
                   2
                   2
                   2
                   2
                   2
                   2
                   2
                   2
                   2
                   2
                   2
                   2
                   2
                   2
                   2
                   2
                   2
                   2
                   2
                   2
                   2
                   2
                   2
                   2
                   2
                   2
                   2
                   2
                   2
                   2
                   2
                   2
                   2
                   2
                   2
                   2
                   2
                   2
                   2
                   2
                   2
                   2
                   2
                   2
                   2
                   2
                   2
                   2
                   2
                   2
                   2
                   2
                   2
                   2
                   2
                   2
                   2
                   2
                   2
                   2
                   2
                   2
                   2
                   2
                   2
                   2
                   2
                   2
                   2
                   2
                   2
                   2
                   2
                   2
                   2
                   2
                   2
                   2
                   2
                   2
                   2
                   2
                   2
                   2
                   2
                   2
                   2
                   2
                   2
                   2
                   2
                   2
                   2
                   2
                   2
                   2
                   2
                   2
                   2
                   2
                   2
                   2
                   2
                   2
                   2
                   2
                   2
                   2
                   2
                   2
                   2
                   2
                   2
                   2
                   2
                   2
                   2
                   2
                   2
                   2
                   2
                   2
                   2
                   2
                   2
                   2
                   2
                   2
                   2
                   2
                   2
                   2
                   2
                   2
                   2
                   2
                   2
                   2
                   2
                   2
                   2
                   2
                   2
                   2
                   2
                   2
                   2
                   2
                   2
                   2
                   2
                   2
                   2
                   2
                   2
                   2
                   2
                   2
                   2
                   2
                   2
                   2
                   2
                   2
                   2
                   2
                   2
                   2
                   2
                   2
                   2
                   2
                   2
                   2
                   2
                   2
                   2
                   2
                   2
                   2
                   2
                   2
                   2
                   2
                   2
                   2
                   2
                   2
                   2
                   2
                   2
                   2
                   2
                   2
                   2
                   2
                   2
                   2
                   2
                   2
                   2
                   2
                   2
                   2
                   2
                   2
                   2
                   2
                   2
                   2
                   2
                   2
                   2
                   2
                   2
                   2
                   2
                   2
                   2
                   2
                   2
                   2
                   2
                   2
                   2
                   2
                   2
                   2
                   2
                   2
                   2
                   2
                   2
                   2
                   2
                   2
                   2
                   2
                   2
                   2
                   2
                   2
                   2
                   2
                   2
                   2
                   2
                   2
                   2
                   2
                   2
                   2
                   2
                   2
                   2
                   2
                   2
                   2
                   2
                   2
                   2
                   2
                   2
                   2
                   2
                   2
                   2
                   2
                   2
                   2
                   2
                   2
                   2
                   2
                   2
                   2
                   2
                   2
                   2
                   2
                   2
                   2
                   2
                   2
                   2
                   2
                   2
                   2
                   2
                   2
                   2
                   2
                   2
                   2
                   2
                   2
                   2
                   2
                   2
                   2
                   2
                   2
                   2
                   2
                   2
                   2
                   2
                   2
                   2
                   2
                   2
                   2
                   2
                   2
                   2
                   2
                   2
                   2
                   2
                   2
                   2
                   2
                   2
                   2
                   2
                   2
                   2
                   2
                   2
                   2
                   2
                   2
                   2
                   2
                   2
                   2
                   2
                   2
                   2
                   2
                   2
                   2
                   2
                   2
                   2
                   2
                   2
                   2
                   2
                   2
                   2
                   2
                   2
                   2
                   2
                   2
                   2
                   2
                   2
                   2
                   2
                   2
                   2
                   2
                   2
                   2
                   2
                   2
                   2
                   2
                   2
                   2
                   2
                   2
                   2
                   2
                   2
                   2
                   2
                   2
                   2
                   2
                   2
                   2
                   2
                   2
                   2
                   2
                   2
                   2
                   2
                   2
                   2
                   2
                   2
                   2
                   2
                   2
                   2
                   2
                   2
                   2
                   2
                   2
                   2
                   2
                   2
                   2
                   2
                   2
                   2
                   2
                   2
                   2
                   2
                   2
                   2
                   2
                   2
                   2
                   2
                   2
                   2
                   2
                   2
                   2
                   2
                   2
                   2
                   2
                   2
                   2
                   2
                   2
                   2
                   2
                   2
                   2
                   2
                   2
                   2
                   2
                   2
                   2
                   2
                   2
                   2
                   2
                   2
                   2
                   2
                   2
                   2
                   2
                   2
                   2
                   2
                   2
                   2
                   2
                   2
                   2
                   2
                   2
                   2
                   2
                   2
                   2
                   2
                   2
                   2
                   2
                   2
                   2
                   2
                   2
                   2
                   2
                   2
                   2
                   2
                   2
                   2
                   2
                   2
                   2
                   2
                   2
                   2
                   2
                   2
                   2
                   2
                   2
                   2
                   2
                   2
                   2
                   2
                   2
                   2
                   2
                   2
                   2
                   2
                   2
                   2
                   2
                   2
                   2
                   2
                   2
                   2
                   2
                   2
                   2
                   2
                   2
                   2
                   2
                   2
                   2
                   2
                   2
                   2
                   2
                   2
                   2
                   2
                   2
                   2
                   2
                   2
                   2
                   2
                   2
                   2
                   2
                   2
                   2
                   2
                   2
                   2
                   2
                   2
                   2
                   2
                   2
                   2
                   2
                   2
                   2
                   2
                   2
                   2
                   2
                   2
                   2
                   2
                   2
                   2
                   2
                   2
                   2
                   2
                   2
                   2
                   2
                   2
                   2
                   2
                   2
                   2
                   2
                   2
                   2
                   2
                   2
                   2
                   2
                   2
                   2
                   2
                   2
                   2
                   2
                   2
                   2
                   2
                   2
                   2
                   2
                   2
                   2
                   2
                   2
                   2
                   2
                   2
                   2
                   2
                   2
                   2
                   2
                   2
                   2
                   2
                   2
                   2
                   2
                   2
                   2
                   2
                   2
                   2
                   2
                   2
                   2
                   2
                   2
                   2
                   2
                   2
                   2
                   2
                   2
                   2
                   2
                   2
                   2
                   2
                   2
                   2
                   2
                   2
                   2
                   2
                   2
                   2
                   2
                   2
                   2
                   2
                   2
                   2
                   2
                   2
                   2
                   2
                   2
                   2
                   2
                   2
                   2
                   2
                   2
                   2
                   2
                   2
                   2
                   2
                   2
                   2
                   2
                   2
                   2
                   2
                   2
                   2
                   2
                   2
                   2
                   2
                   2
                   2
                   2
                   2
                   2
                   2
                   2
                   2
                   2
                   2
                   2
                   2
                   2
                   2
                   2
                   2
                   2
                   2
                   2
                   2
                   2
                   2
                   2
                   2
                   2
                   2
                   2
                   2
                   2
                   2
                   2
                   2
                   2
                   2
                   2
                   2
                   2
                   2
                   2
                   2
                   2
                   2
                   2
                   2
                   2
                   2
                   2
                   2
                   2
                   2
                   2
                   2
                   2
                   2
                   2
                   2
                   2
                   2
                   2
                   2
                   2
                   2
                   2
                   2
                   2
                   2
                   2
                   2
                   2
                   2
                   2
                   2
                   2
                   2
                   2
                   2
                   2
                   2
                   2
                   2
                   2
                   2
                   2
                   2
                   2
                   2
                   2
                   2
                   2
                   2
                   2
                   2
                   2
                   2
                   2
                   2
                   2
                   2
                   2
                   2
                   2
                   2
                   2
                   2
                   2
                   2
                   2
                   2
                   2
                   2
                   2
                   2
                   2
                   2
                   2
                   2
                   2
                   2
                   2
                   2
                   2
                   2
                   2
                   2
                   2
                   2
                   2
                   2
                   2
                   2
                   2
                   2
                   2
                   2
                   2
                   2
                   2
                   2
                   2
                   2
                   2
                   2
                   2
                   2
                   2
                   2
                   2
                   2
                   2
                   2
                   2
                   2
                   2
                   2
                   2
                   2
                   2
                   2
                   2
                   2
                   2
                   2
                   2
                   2
                   2
                   2
                   2
                   2
                   2
                   2
                   2
                   2
                   2
                   2
                   2
                   2
                   2
                   2
                   2
                   2
                   2
                   2
                   2
                   2
                   2
                   2
                   2
                   2
                   2
                   2
                   2
                   2
                   2
                   2
                   2
                   2
                   2
                   2
                   2
                   2
                   2
                   2
                   2
                   2
                   2
                   2
                   2
                   2
                   2
                   2
                   2
                   2
                   2
                   2
                   2
                   2
                   2
                   2
                   2
                   2
                   2
                   2
                   2
                   2
                   2
                   2
                   2
                   2
                   2
                   2
                   2
                   2
                   2
                   2
                   2
                   2
                   2
                   2
                   2
                   2
                   2
                   2
                   2
                   2
                   2
                   2
                   2
                   2
                   2
                   2
                   2
                   2
                   2
                   2
                   2
                   2
                   2
                   2
                   2
                   2
                   2
                   2
                   2
                   2
                   2
                   2
                   2
                   2
                   2
                   2
                   2
                   2
                   2
                   2
                   2
                   2
                   2
                   2
                   2
                   2
                   2
                   2
                   2
                   2
                   2
                   2
                   2
                   2
                   2
                   2
                   2
                   2
                   2
                   2
                   2
                   2
                   2
                   2
                   2
                   2
                   2
                   2
                   2
                   2
                   2
                   2
                   2
                   2
                   2
                   2
                   2
                   2
                   2
                   2
                   2
                   2
                   2
                   2
                   2
                   2
                   2
                   2
                   2
                   2
                   2
                   2
                   2
                   2
                   2
                   2
                   2
                   2
                   2
                   2
                   2
                   2
                   2
                   2
                   2
                   2
                   2
                   2
                   2
                   2
                   2
                   2
                   2
                   2
                   2
                   2
                   2
                   2
                   2
                   2
                   2
                   2
                   2
                   2
                   2
                   2
                   2
                   2
                   2
                   2
                   2
                   2
                   2
                   2
                   2
                   2
                   2
                   2
                   2
                   2
                   2
                   2
                   2
                   2
                   2
                   2
                   2
                   2
                   2
                   2
                   2
                   2
                   2
                   2
                   2
                   2
                   2
                   2
                   2
                   2
                   2
                   2
                   2
                   2
                   2
                   2
                   2
                   2
                   2
                   2
                   2
                   2
                   2
                   2
                   2
                   2
                   2
                   2
                   2
                   2
                   2
                   2
                   2
                   2
                   2
                   2
                   2
                   2
                   2
                   2
                   2
                   2
                   2
                   2
                   2
                   2
                   2
                   2
                   2
                   2
                   2
                   2
                   2
                   2
                   2
                   2
                   2
                   2
                   2
                   2
                   2
                   2
                   2
                   2
                   2
                   2
                   2
                   2
                   2
                   2
                   2
                   2
                   2
                   2
                   2
                   2
                   2
                   2
                   2
                   2
                   2
                   2
                   2
                   2
                   2
                   2
                   2
                   2
                   2
                   2
                   2
                   2
                   2
                   2
                   2
                   2
                   2
                   2
                   2
                   2
                   2
                   2
                   2
                   2
                   2
                   2
                   2
                   2
                   2
                   2
                   2
                   2
                   2
                   2
                   2
                   2
                   2
                   2
                   2
                   2
                   2
                   2
                   2
                   2
                   2
                   2
                   2
                   2
                   2
                   2
                   2
                   2
                   2
                   2
                   2
                   2
                   2
                   2
                   2
                   2
                   2
                   2
                   2
                   2
                   2
                   2
                   2
                   2
                   2
                   2
                   2
                   2
                   2
                   2
                   2
                   2
                   2
                   2
                   2
                   2
                   2
                   2
                   2
                   2
                   2
                   2
                   2
                   2
                   2
                   2
                   2
                   2
                   2
                   2
                   2
                   2
                   2
                   2
                   2
                   2
                   2
                   2
                   2
                   2
                   2
                   2
                   2
                   2
                   2
                   2
                   2
                   2
                   2
                   2
                   2
                   2
                   2
                   2
                   2
                   2
                   2
                   2
                   2
                   2
                   2
                   2
                   2
                   2
                   2
                   2
                   2
                   2
                   2
                   2
                   2
                   2
                   2
                   2
                   2
                   2
                   2
                   2
                   2
                   2
                   2
                   2
                   2
                   2
                   2
                   2
                   2
                   2
                   2
                   2
                   2
                   2
                   2
                   2
                   2
                   2
                   2
                   2
                   2
                   2
                   2
                   2
                   2
                   2
                   2
                   2
                   2
                   2
                   2
                   2
                   2
                   2
                   2
                   2
                   2
                   2
                   2
                   2
                   2
                   2
                   2
                   2
                   2
                   2
                   2
                   2
                   2
                   2
                   2
                   2
                   2
                   2
                   2
                   2
                   2
                   2
                   2
                   2
                   2
                   2
                   2
                   2
                   2
                   2
                   2
                   2
                   2
                   2
                   2
                   2
                   2
                   2
                   2
                   2
                   2
                   2
                   2
                   2
                   2
                   2
                   2
                   2
                   2
                   2
                   2
                   2
                   2
                   2
                   2
                   2
                   2
                   2
                   2
                   2
                   2
                   2
                   2
                   2
                   2
                   2
                   2
                   2
                   2
                   2
                   2
                   2
                   2
                   2
                   2
                   2
                   2
                   2
                   2
                   2
                   2
                   2
                   2
                   2
                   2
                   2
                   2
                   2
                   2
                   2
                   2
                   2
                   2
                   2
                   2
                   2
                   2
                   2
                   2
                   2
                   2
                   2
                   2
                   2
                   2
                   2
                   2
                   2
                   2
                   2
                   2
                   2
                   2
                   2
                   2
                   2
                   2
                   2
                   2
                   2
                   2
                   2
                   2
                   2
                   2
                   2
                   2
                   2
                   2
                   2
                   2
                   2
                   2
                   2
                   2
                   2
                   2
                   2
                   2
                   2
                   2
                   2
                   2
                   2
                   2
  
SCALARS                       fixity_x  double 1
LOOKUP_TABLE default
                   0
                   0
                   0
                   0
                   0
                   0
                   0
                   0
                   0
                   0
                   0
                   0
                   0
                   0
                   0
                   0
                   0
                   0
                   0
                   0
                   0
                   0
                   0
                   0
                   0
                   0
                   0
                   0
                   0
                   0
                   0
                   0
                   0
                   0
                   0
                   0
                   0
                   0
                   0
                   0
                   0
                   0
                   0
                   0
                   0
                   0
                   0
                   0
                   0
                   0
                   0
                   0
                   0
                   0
                   0
                   0
                   0
                   0
                   0
                   0
                   0
                   0
                   0
                   0
                   0
                   0
                   0
                   0
                   0
                   0
                   0
                   0
                   0
                   0
                   0
                   0
                   0
                   0
                   0
                   0
                   0
                   0
                   0
                   0
                   0
                   0
                   0
                   0
                   0
                   0
                   0
                   0
                   0
                   0
                   0
                   0
                   0
                   0
                   0
                   0
                   0
                   0
                   0
                   0
                   0
                   0
                   0
                   0
                   0
                   0
                   0
                   0
                   0
                   0
                   0
                   0
                   0
                   0
                   0
                   0
                   0
                   0
                   0
                   0
                   0
                   0
                   0
                   0
                   0
                   0
                   0
                   0
                   0
                   0
                   0
                   0
                   0
                   0
                   0
                   0
                   0
                   0
                   0
                   0
                   0
                   0
                   0
                   0
                   0
                   0
                   0
                   0
                   0
                   0
                   0
                   0
                   0
                   0
                   0
                   0
                   0
                   0
                   0
                   0
                   0
                   0
                   0
                   0
                   0
                   0
                   0
                   0
                   0
                   0
                   0
                   0
                   0
                   0
                   0
                   0
                   0
                   0
                   0
                   0
                   0
                   0
                   0
                   0
                   0
                   0
                   0
                   0
                   0
                   0
                   0
                   0
                   0
                   0
                   0
                   0
                   0
                   0
                   0
                   0
                   0
                   0
                   0
                   0
                   0
                   0
                   0
                   0
                   0
                   0
                   0
                   0
                   0
                   0
                   0
                   0
                   0
                   0
                   0
                   0
                   0
                   0
                   0
                   0
                   0
                   0
                   0
                   0
                   0
                   0
                   0
                   0
                   0
                   0
                   0
                   0
                   0
                   0
                   0
                   0
                   0
                   0
                   0
                   0
                   0
                   0
                   0
                   0
                   0
                   0
                   0
                   0
                   0
                   0
                   0
                   0
                   0
                   0
                   0
                   0
                   0
                   0
                   0
                   0
                   0
                   0
                   0
                   0
                   0
                   0
                   0
                   0
                   0
                   0
                   0
                   0
                   0
                   0
                   0
                   0
                   0
                   0
                   0
                   0
                   0
                   0
                   0
                   0
                   0
                   0
                   0
                   0
                   0
                   0
                   0
                   0
                   0
                   0
                   0
                   0
                   0
                   0
                   0
                   0
                   0
                   0
                   0
                   0
                   0
                   0
                   0
                   0
                   0
                   0
                   0
                   0
                   0
                   0
                   0
                   0
                   0
                   0
                   0
                   0
                   0
                   0
                   0
                   0
                   0
                   0
                   0
                   0
                   0
                   0
                   0
                   0
                   0
                   0
                   0
                   0
                   0
                   0
                   0
                   0
                   0
                   0
                   0
                   0
                   0
                   0
                   0
                   0
                   0
                   0
                   0
                   0
                   0
                   0
                   0
                   0
                   0
                   0
                   0
                   0
                   0
                   0
                   0
                   0
                   0
                   0
                   0
                   0
                   0
                   0
                   0
                   0
                   0
                   0
                   0
                   0
                   0
                   0
                   0
                   0
                   0
                   0
                   0
                   0
                   0
                   0
                   0
                   0
                   0
                   0
                   0
                   0
                   0
                   0
                   0
                   0
                   0
                   0
                   0
                   0
                   0
                   0
                   0
                   0
                   0
                   0
                   0
                   0
                   0
                   0
                   0
                   0
                   0
                   0
                   0
                   0
                   0
                   0
                   0
                   0
                   0
                   0
                   0
                   0
                   0
                   0
                   0
                   0
                   0
                   0
                   0
                   0
                   0
                   0
                   0
                   0
                   0
                   0
                   0
                   0
                   0
                   0
                   0
                   0
                   0
                   0
                   0
                   0
                   0
                   0
                   0
                   0
                   0
                   0
                   0
                   0
                   0
                   0
                   0
                   0
                   0
                   0
                   0
                   0
                   0
                   0
                   0
                   0
                   0
                   0
                   0
                   0
                   0
                   0
                   0
                   0
                   0
                   0
                   0
                   0
                   0
                   0
                   0
                   0
                   0
                   0
                   0
                   0
                   0
                   0
                   0
                   0
                   0
                   0
                   0
                   0
                   0
                   0
                   0
                   0
                   0
                   0
                   0
                   0
                   0
                   0
                   0
                   0
                   0
                   0
                   0
                   0
                   0
                   0
                   0
                   0
                   0
                   0
                   0
                   0
                   0
                   0
                   0
                   0
                   0
                   0
                   0
                   0
                   0
                   0
                   0
                   0
                   0
                   0
                   0
                   0
                   0
                   0
                   0
                   0
                   0
                   0
                   0
                   0
                   0
                   0
                   0
                   0
                   0
                   0
                   0
                   0
                   0
                   0
                   0
                   0
                   0
                   0
                   0
                   0
                   0
                   0
                   0
                   0
                   0
                   0
                   0
                   0
                   0
                   0
                   0
                   0
                   0
                   0
                   0
                   0
                   0
                   0
                   0
                   0
                   0
                   0
                   0
                   0
                   0
                   0
                   0
                   0
                   0
                   0
                   0
                   0
                   0
                   0
                   0
                   0
                   0
                   0
                   0
                   0
                   0
                   0
                   0
                   0
                   0
                   0
                   0
                   0
                   0
                   0
                   0
                   0
                   0
                   0
                   0
                   0
                   0
                   0
                   0
                   0
                   0
                   0
                   0
                   0
                   0
                   0
                   0
                   0
                   0
                   0
                   0
                   0
                   0
                   0
                   0
                   0
                   0
                   0
                   0
                   0
                   0
                   0
                   0
                   0
                   0
                   0
                   0
                   0
                   0
                   0
                   0
                   0
                   0
                   0
                   0
                   0
                   0
                   0
                   0
                   0
                   0
                   0
                   0
                   0
                   0
                   0
                   0
                   0
                   0
                   0
                   0
                   0
                   0
                   0
                   0
                   0
                   0
                   0
                   0
                   0
                   0
                   0
                   0
                   0
                   0
                   0
                   0
                   0
                   0
                   0
                   0
                   0
                   0
                   0
                   0
                   0
                   0
                   0
                   0
                   0
                   0
                   0
                   0
                   0
                   0
                   0
                   0
                   0
                   0
                   0
                   0
                   0
                   0
                   0
                   0
                   0
                   0
                   0
                   0
                   0
                   0
                   0
                   0
                   0
                   0
                   0
                   0
                   0
                   0
                   0
                   0
                   0
                   0
                   0
                   0
                   0
                   0
                   0
                   0
                   0
                   0
                   0
                   0
                   0
                   0
                   0
                   0
                   0
                   0
                   0
                   0
                   0
                   0
                   0
                   0
                   0
                   0
                   0
                   0
                   0
                   0
                   0
                   0
                   0
                   0
                   0
                   0
                   0
                   0
                   0
                   0
                   0
                   0
                   0
                   0
                   0
                   0
                   0
                   0
                   0
                   0
                   0
                   0
                   0
                   0
                   0
                   0
                   0
                   0
                   0
                   0
                   0
                   0
                   0
                   0
                   0
                   0
                   0
                   0
                   0
                   0
                   0
                   0
                   0
                   0
                   0
                   0
                   0
                   0
                   0
                   0
                   0
                   0
                   0
                   0
                   0
                   0
                   0
                   0
                   0
                   0
                   0
                   0
                   0
                   0
                   0
                   0
                   0
                   0
                   0
                   0
                   0
                   0
                   0
                   0
                   0
                   0
                   0
                   0
                   0
                   0
                   0
                   0
                   0
                   0
                   0
                   0
                   0
                   0
                   0
                   0
                   0
                   0
                   0
                   0
                   0
                   0
                   0
                   0
                   0
                   0
                   0
                   0
                   0
                   0
                   0
                   0
                   0
                   0
                   0
                   0
                   0
                   0
                   0
                   0
                   0
                   0
                   0
                   0
                   0
                   0
                   0
                   0
                   0
                   0
                   0
                   0
                   0
                   0
                   0
                   0
                   0
                   0
                   0
                   0
                   0
                   0
                   0
                   0
                   0
                   0
                   0
                   0
                   0
                   0
                   0
                   0
                   0
                   0
                   0
                   0
                   0
                   0
                   0
                   0
                   0
                   0
                   0
                   0
                   0
                   0
                   0
                   0
                   0
                   0
                   0
                   0
                   0
                   0
                   0
                   0
                   0
                   0
                   0
                   0
                   0
                   0
                   0
                   0
                   0
                   0
                   0
                   0
                   0
                   0
                   0
                   0
                   0
                   0
                   0
                   0
                   0
                   0
                   0
                   0
                   0
                   0
                   0
                   0
                   0
                   0
                   0
                   0
                   0
                   0
                   0
                   0
                   0
                   0
                   0
                   0
                   0
                   0
                   0
                   0
                   0
                   0
                   0
                   0
                   0
                   0
                   0
                   0
                   0
                   0
                   0
                   0
                   0
                   0
                   0
                   0
                   0
                   0
                   0
                   0
                   0
                   0
                   0
                   0
                   0
                   0
                   0
                   0
                   0
                   0
                   0
                   0
                   0
                   0
                   0
                   0
                   0
                   0
                   0
                   0
                   0
                   0
                   0
                   0
                   0
                   0
                   0
                   0
                   0
                   0
                   0
                   0
                   0
                   0
                   0
                   0
                   0
                   0
                   0
                   0
                   0
                   0
                   0
                   0
                   0
                   0
                   0
                   0
                   0
                   0
                   0
                   0
                   0
                   0
                   0
                   0
                   0
                   0
                   0
                   0
                   0
                   0
                   0
                   0
                   0
                   0
                   0
                   0
                   0
                   0
                   0
                   0
                   0
                   0
                   0
                   0
                   0
                   0
                   0
                   0
                   0
                   0
                   0
                   0
                   0
                   0
                   0
                   0
                   0
                   0
                   0
                   0
                   0
                   0
                   0
                   0
                   0
                   0
                   0
                   0
                   0
                   0
                   0
                   0
                   0
                   0
                   0
                   0
                   0
                   0
                   0
                   0
                   0
                   0
                   0
                   0
                   0
                   0
                   0
                   0
                   0
                   0
                   0
                   0
                   0
                   0
                   0
                   0
                   0
                   0
                   0
                   0
                   0
                   0
                   0
                   0
                   0
                   0
                   0
                   0
                   0
                   0
                   0
                   0
                   0
                   0
                   0
                   0
                   0
                   0
                   0
                   0
                   0
                   0
                   0
                   0
                   0
                   0
                   0
                   0
                   0
                   0
                   0
                   0
                   0
                   0
                   0
                   0
                   0
                   0
                   0
                   0
                   0
                   0
                   0
                   0
                   0
                   0
                   0
                   0
                   0
                   0
                   0
                   0
                   0
                   0
                   0
                   0
                   0
                   0
                   0
                   0
                   0
                   0
                   0
                   0
                   0
                   0
                   0
                   0
                   0
                   0
                   0
                   0
                   0
                   0
                   0
                   0
                   0
                   0
                   0
                   0
                   0
                   0
                   0
                   0
                   0
                   0
                   0
                   0
                   0
                   0
                   0
                   0
                   0
                   0
                   0
                   0
                   0
                   0
                   0
                   0
                   0
                   0
                   0
                   0
                   0
                   0
                   0
                   0
                   0
                   0
                   0
                   0
                   0
                   0
                   0
                   0
                   0
                   0
                   0
                   0
                   0
                   0
                   0
                   0
                   0
                   0
                   0
                   0
                   0
                   0
                   0
                   0
                   0
                   0
                   0
                   0
                   0
                   0
                   0
                   0
                   0
                   0
                   0
                   0
                   0
                   0
                   0
                   0
                   0
                   0
                   0
                   0
                   0
                   0
                   0
                   0
                   0
                   0
                   0
                   0
                   0
                   0
                   0
                   0
                   0
                   0
                   0
                   0
                   0
                   0
                   0
                   0
                   0
                   0
                   0
                   0
                   0
                   0
                   0
                   0
                   0
                   0
                   0
                   0
                   0
                   0
                   0
                   0
                   0
                   0
                   0
                   0
                   0
                   0
                   0
                   0
                   0
                   0
                   0
                   0
                   0
                   0
                   0
                   0
                   0
                   0
                   0
                   0
                   0
                   0
                   0
                   0
                   0
                   0
                   0
                   0
                   0
                   0
                   0
                   0
                   0
                   0
                   0
                   0
                   0
                   0
                   0
                   0
                   0
                   0
                   0
                   0
                   0
                   0
                   0
                   0
                   0
                   0
                   0
                   0
                   0
                   0
                   0
                   0
                   0
                   0
                   0
                   0
                   0
                   0
                   0
                   0
                   0
                   0
                   0
                   0
                   0
                   0
                   0
                   0
                   0
                   0
                   0
                   0
                   0
                   0
                   0
                   0
                   0
                   0
                   0
                   0
                   0
                   0
                   0
                   0
                   0
                   0
                   0
                   0
                   0
                   0
                   0
                   0
                   0
                   0
                   0
                   0
                   0
                   0
                   0
                   0
                   0
                   0
                   0
                   0
                   0
                   0
                   0
                   0
                   0
                   0
                   0
                   0
                   0
                   0
                   0
                   0
                   0
                   0
                   0
                   0
                   0
                   0
                   0
                   0
                   0
                   0
                   0
                   0
                   0
                   0
                   0
                   0
                   0
                   0
                   0
                   0
                   0
                   0
                   0
                   0
                   0
                   0
                   0
                   0
                   0
                   0
                   0
                   0
                   0
                   0
                   0
                   0
                   0
                   0
                   0
                   0
                   0
                   0
                   0
                   0
                   0
                   0
                   0
                   0
                   0
                   0
                   0
                   0
                   0
                   0
                   0
                   0
                   0
                   0
                   0
                   0
                   0
                   0
                   0
                   0
                   0
                   0
                   0
                   0
                   0
                   0
                   0
                   0
                   0
                   0
                   0
                   0
                   0
                   0
                   0
                   0
                   0
                   0
                   0
                   0
                   0
                   0
                   0
                   0
                   0
                   0
                   0
                   0
                   0
                   0
                   0
                   0
                   0
                   0
                   0
                   0
                   0
                   0
                   0
                   0
                   0
                   0
                   0
                   0
                   0
                   0
                   0
                   0
                   0
                   0
                   0
                   0
                   0
                   0
                   0
                   0
                   0
                   0
                   0
                   0
                   0
                   0
                   0
                   0
                   0
                   0
                   0
                   0
                   0
                   0
                   0
                   0
                   0
                   0
                   0
                   0
                   0
                   0
                   0
                   0
                   0
                   0
                   0
                   0
                   0
                   0
                   0
                   0
                   0
                   0
                   0
                   0
                   0
                   0
                   0
                   0
                   0
                   0
                   0
                   0
                   0
                   0
                   0
                   0
                   0
                   0
                   0
                   0
                   0
                   0
                   0
                   0
                   0
                   0
                   0
                   0
                   0
                   0
                   0
                   0
                   0
                   0
                   0
                   0
                   0
                   0
                   0
                   0
                   0
                   0
                   0
                   0
                   0
                   0
                   0
                   0
                   0
                   0
                   0
                   0
                   0
                   0
                   0
                   0
                   0
                   0
                   0
                   0
                   0
                   0
                   0
                   0
                   0
                   0
                   0
                   0
                   0
                   0
                   0
                   0
                   0
                   0
                   0
                   0
                   0
                   0
                   0
                   0
                   0
                   0
                   0
                   0
                   0
                   0
                   0
                   0
                   0
                   0
                   0
                   0
                   0
                   0
                   0
                   0
                   0
                   0
                   0
                   0
                   0
                   0
                   0
                   0
                   0
                   0
                   0
                   0
                   0
                   0
                   0
                   0
                   0
                   0
                   0
                   0
                   0
                   0
                   0
                   0
                   0
                   0
                   0
                   0
                   0
                   0
                   0
                   0
                   0
                   0
                   0
                   0
                   0
                   0
                   0
                   0
                   0
                   0
                   0
                   0
                   0
                   0
                   0
                   0
                   0
                   0
                   0
                   0
                   0
                   0
                   0
                   0
                   0
                   0
                   0
                   0
                   0
                   0
                   0
                   0
                   0
                   0
                   0
                   0
                   0
                   0
                   0
                   0
                   0
                   0
                   0
                   0
                   0
                   0
                   0
                   0
                   0
                   0
                   0
                   0
                   0
                   0
                   0
                   0
                   0
                   0
                   0
                   0
                   0
                   0
                   0
                   0
                   0
                   0
                   0
                   0
                   0
                   0
                   0
                   0
                   0
                   0
                   0
                   0
                   0
                   0
                   0
                   0
                   0
                   0
                   0
                   0
                   0
                   0
                   0
                   0
                   0
                   0
                   0
                   0
                   0
                   0
                   0
                   0
                   0
                   0
                   0
                   0
                   0
                   0
                   0
                   0
                   0
                   0
                   0
                   0
                   0
                   0
                   0
                   0
                   0
                   0
                   0
                   0
                   0
                   0
                   0
                   0
                   0
                   0
                   0
                   0
                   0
                   0
                   0
                   0
                   0
                   0
                   0
                   0
                   0
                   0
                   0
                   0
                   0
                   0
                   0
                   0
                   0
                   0
                   0
                   0
                   0
                   0
                   0
                   0
                   0
                   0
                   0
                   0
                   0
                   0
                   0
                   0
                   0
                   0
                   0
                   0
                   0
                   0
                   0
                   0
                   0
                   0
                   0
                   0
                   0
                   0
                   0
                   0
                   0
                   0
                   0
                   0
                   0
                   0
                   0
                   0
                   0
                   0
                   0
                   0
                   0
                   0
                   0
                   0
                   0
                   0
                   0
                   0
                   0
                   0
                   0
                   0
                   0
                   0
                   0
                   0
                   0
                   0
                   0
                   0
                   0
                   0
                   0
                   0
                   0
                   0
                   0
                   0
                   0
                   0
                   0
                   0
                   0
                   0
                   0
                   0
                   0
                   0
                   0
                   0
                   0
                   0
                   0
  
SCALARS                       fixity_y  double 1
LOOKUP_TABLE default
                   0
                   0
                   0
                   0
                   0
                   0
                   0
                   0
                   0
                   0
                   0
                   0
                   0
                   0
                   0
                   0
                   0
                   0
                   0
                   0
                   0
                   0
                   0
                   0
                   0
                   0
                   0
                   0
                   0
                   0
                   0
                   0
                   0
                   0
                   0
                   0
                   0
                   0
                   0
                   0
                   0
                   0
                   0
                   0
                   0
                   0
                   0
                   0
                   0
                   0
                   0
                   0
                   0
                   0
                   0
                   0
                   0
                   0
                   0
                   0
                   0
                   0
                   0
                   0
                   0
                   0
                   0
                   0
                   0
                   0
                   0
                   0
                   0
                   0
                   0
                   0
                   0
                   0
                   0
                   0
                   0
                   0
                   0
                   0
                   0
                   0
                   0
                   0
                   0
                   0
                   0
                   0
                   0
                   0
                   0
                   0
                   0
                   0
                   0
                   0
                   0
                   0
                   0
                   0
                   0
                   0
                   0
                   0
                   0
                   0
                   0
                   0
                   0
                   0
                   0
                   0
                   0
                   0
                   0
                   0
                   0
                   0
                   0
                   0
                   0
                   0
                   0
                   0
                   0
                   0
                   0
                   0
                   0
                   0
                   0
                   0
                   0
                   0
                   0
                   0
                   0
                   0
                   0
                   0
                   0
                   0
                   0
                   0
                   0
                   0
                   0
                   0
                   0
                   0
                   0
                   0
                   0
                   0
                   0
                   0
                   0
                   0
                   0
                   0
                   0
                   0
                   0
                   0
                   0
                   0
                   0
                   0
                   0
                   0
                   0
                   0
                   0
                   0
                   0
                   0
                   0
                   0
                   0
                   0
                   0
                   0
                   0
                   0
                   0
                   0
                   0
                   0
                   0
                   0
                   0
                   0
                   0
                   0
                   0
                   0
                   0
                   0
                   0
                   0
                   0
                   0
                   0
                   0
                   0
                   0
                   0
                   0
                   0
                   0
                   0
                   0
                   0
                   0
                   0
                   0
                   0
                   0
                   0
                   0
                   0
                   0
                   0
                   0
                   0
                   0
                   0
                   0
                   0
                   0
                   0
                   0
                   0
                   0
                   0
                   0
                   0
                   0
                   0
                   0
                   0
                   0
                   0
                   0
                   0
                   0
                   0
                   0
                   0
                   0
                   0
                   0
                   0
                   0
                   0
                   0
                   0
                   0
                   0
                   0
                   0
                   0
                   0
                   0
                   0
                   0
                   0
                   0
                   0
                   0
                   0
                   0
                   0
                   0
                   0
                   0
                   0
                   0
                   0
                   0
                   0
                   0
                   0
                   0
                   0
                   0
                   0
                   0
                   0
                   0
                   0
                   0
                   0
                   0
                   0
                   0
                   0
                   0
                   0
                   0
                   0
                   0
                   0
                   0
                   0
                   0
                   0
                   0
                   0
                   0
                   0
                   0
                   0
                   0
                   0
                   0
                   0
                   0
                   0
                   0
                   0
                   0
                   0
                   0
                   0
                   0
                   0
                   0
                   0
                   0
                   0
                   0
                   0
                   0
                   0
                   0
                   0
                   0
                   0
                   0
                   0
                   0
                   0
                   0
                   0
                   0
                   0
                   0
                   0
                   0
                   0
                   0
                   0
                   0
                   0
                   0
                   0
                   0
                   0
                   0
                   0
                   0
                   0
                   0
                   0
                   0
                   0
                   0
                   0
                   0
                   0
                   0
                   0
                   0
                   0
                   0
                   0
                   0
                   0
                   0
                   0
                   0
                   0
                   0
                   0
                   0
                   0
                   0
                   0
                   0
                   0
                   0
                   0
                   0
                   0
                   0
                   0
                   0
                   0
                   0
                   0
                   0
                   0
                   0
                   0
                   0
                   0
                   0
                   0
                   0
                   0
                   0
                   0
                   0
                   0
                   0
                   0
                   0
                   0
                   0
                   0
                   0
                   0
                   0
                   0
                   0
                   0
                   0
                   0
                   0
                   0
                   0
                   0
                   0
                   0
                   0
                   0
                   0
                   0
                   0
                   0
                   0
                   0
                   0
                   0
                   0
                   0
                   0
                   0
                   0
                   0
                   0
                   0
                   0
                   0
                   0
                   0
                   0
                   0
                   0
                   0
                   0
                   0
                   0
                   0
                   0
                   0
                   0
                   0
                   0
                   0
                   0
                   0
                   0
                   0
                   0
                   0
                   0
                   0
                   0
                   0
                   0
                   0
                   0
                   0
                   0
                   0
                   0
                   0
                   0
                   0
                   0
                   0
                   0
                   0
                   0
                   0
                   0
                   0
                   0
                   0
                   0
                   0
                   0
                   0
                   0
                   0
                   0
                   0
                   0
                   0
                   0
                   0
                   0
                   0
                   0
                   0
                   0
                   0
                   0
                   0
                   0
                   0
                   0
                   0
                   0
                   0
                   0
                   0
                   0
                   0
                   0
                   0
                   0
                   0
                   0
                   0
                   0
                   0
                   0
                   0
                   0
                   0
                   0
                   0
                   0
                   0
                   0
                   0
                   0
                   0
                   0
                   0
                   0
                   0
                   0
                   0
                   0
                   0
                   0
                   0
                   0
                   0
                   0
                   0
                   0
                   0
                   0
                   0
                   0
                   0
                   0
                   0
                   0
                   0
                   0
                   0
                   0
                   0
                   0
                   0
                   0
                   0
                   0
                   0
                   0
                   0
                   0
                   0
                   0
                   0
                   0
                   0
                   0
                   0
                   0
                   0
                   0
                   0
                   0
                   0
                   0
                   0
                   0
                   0
                   0
                   0
                   0
                   0
                   0
                   0
                   0
                   0
                   0
                   0
                   0
                   0
                   0
                   0
                   0
                   0
                   0
                   0
                   0
                   0
                   0
                   0
                   0
                   0
                   0
                   0
                   0
                   0
                   0
                   0
                   0
                   0
                   0
                   0
                   0
                   0
                   0
                   0
                   0
                   0
                   0
                   0
                   0
                   0
                   0
                   0
                   0
                   0
                   0
                   0
                   0
                   0
                   0
                   0
                   0
                   0
                   0
                   0
                   0
                   0
                   0
                   0
                   0
                   0
                   0
                   0
                   0
                   0
                   0
                   0
                   0
                   0
                   0
                   0
                   0
                   0
                   0
                   0
                   0
                   0
                   0
                   0
                   0
                   0
                   0
                   0
                   0
                   0
                   0
                   0
                   0
                   0
                   0
                   0
                   0
                   0
                   0
                   0
                   0
                   0
                   0
                   0
                   0
                   0
                   0
                   0
                   0
                   0
                   0
                   0
                   0
                   0
                   0
                   0
                   0
                   0
                   0
                   0
                   0
                   0
                   0
                   0
                   0
                   0
                   0
                   0
                   0
                   0
                   0
                   0
                   0
                   0
                   0
                   0
                   0
                   0
                   0
                   0
                   0
                   0
                   0
                   0
                   0
                   0
                   0
                   0
                   0
                   0
                   0
                   0
                   0
                   0
                   0
                   0
                   0
                   0
                   0
                   0
                   0
                   0
                   0
                   0
                   0
                   0
                   0
                   0
                   0
                   0
                   0
                   0
                   0
                   0
                   0
                   0
                   0
                   0
                   0
                   0
                   0
                   0
                   0
                   0
                   0
                   0
                   0
                   0
                   0
                   0
                   0
                   0
                   0
                   0
                   0
                   0
                   0
                   0
                   0
                   0
                   0
                   0
                   0
                   0
                   0
                   0
                   0
                   0
                   0
                   0
                   0
                   0
                   0
                   0
                   0
                   0
                   0
                   0
                   0
                   0
                   0
                   0
                   0
                   0
                   0
                   0
                   0
                   0
                   0
                   0
                   0
                   0
                   0
                   0
                   0
                   0
                   0
                   0
                   0
                   0
                   0
                   0
                   0
                   0
                   0
                   0
                   0
                   0
                   0
                   0
                   0
                   0
                   0
                   0
                   0
                   0
                   0
                   0
                   0
                   0
                   0
                   0
                   0
                   0
                   0
                   0
                   0
                   0
                   0
                   0
                   0
                   0
                   0
                   0
                   0
                   0
                   0
                   0
                   0
                   0
                   0
                   0
                   0
                   0
                   0
                   0
                   0
                   0
                   0
                   0
                   0
                   0
                   0
                   0
                   0
                   0
                   0
                   0
                   0
                   0
                   0
                   0
                   0
                   0
                   0
                   0
                   0
                   0
                   0
                   0
                   0
                   0
                   0
                   0
                   0
                   0
                   0
                   0
                   0
                   0
                   0
                   0
                   0
                   0
                   0
                   0
                   0
                   0
                   0
                   0
                   0
                   0
                   0
                   0
                   0
                   0
                   0
                   0
                   0
                   0
                   0
                   0
                   0
                   0
                   0
                   0
                   0
                   0
                   0
                   0
                   0
                   0
                   0
                   0
                   0
                   0
                   0
                   0
                   0
                   0
                   0
                   0
                   0
                   0
                   0
                   0
                   0
                   0
                   0
                   0
                   0
                   0
                   0
                   0
                   0
                   0
                   0
                   0
                   0
                   0
                   0
                   0
                   0
                   0
                   0
                   0
                   0
                   0
                   0
                   0
                   0
                   0
                   0
                   0
                   0
                   0
                   0
                   0
                   0
                   0
                   0
                   0
                   0
                   0
                   0
                   0
                   0
                   0
                   0
                   0
                   0
                   0
                   0
                   0
                   0
                   0
                   0
                   0
                   0
                   0
                   0
                   0
                   0
                   0
                   0
                   0
                   0
                   0
                   0
                   0
                   0
                   0
                   0
                   0
                   0
                   0
                   0
                   0
                   0
                   0
                   0
                   0
                   0
                   0
                   0
                   0
                   0
                   0
                   0
                   0
                   0
                   0
                   0
                   0
                   0
                   0
                   0
                   0
                   0
                   0
                   0
                   0
                   0
                   0
                   0
                   0
                   0
                   0
                   0
                   0
                   0
                   0
                   0
                   0
                   0
                   0
                   0
                   0
                   0
                   0
                   0
                   0
                   0
                   0
                   0
                   0
                   0
                   0
                   0
                   0
                   0
                   0
                   0
                   0
                   0
                   0
                   0
                   0
                   0
                   0
                   0
                   0
                   0
                   0
                   0
                   0
                   0
                   0
                   0
                   0
                   0
                   0
                   0
                   0
                   0
                   0
                   0
                   0
                   0
                   0
                   0
                   0
                   0
                   0
                   0
                   0
                   0
                   0
                   0
                   0
                   0
                   0
                   0
                   0
                   0
                   0
                   0
                   0
                   0
                   0
                   0
                   0
                   0
                   0
                   0
                   0
                   0
                   0
                   0
                   0
                   0
                   0
                   0
                   0
                   0
                   0
                   0
                   0
                   0
                   0
                   0
                   0
                   0
                   0
                   0
                   0
                   0
                   0
                   0
                   0
                   0
                   0
                   0
                   0
                   0
                   0
                   0
                   0
                   0
                   0
                   0
                   0
                   0
                   0
                   0
                   0
                   0
                   0
                   0
                   0
                   0
                   0
                   0
                   0
                   0
                   0
                   0
                   0
                   0
                   0
                   0
                   0
                   0
                   0
                   0
                   0
                   0
                   0
                   0
                   0
                   0
                   0
                   0
                   0
                   0
                   0
                   0
                   0
                   0
                   0
                   0
                   0
                   0
                   0
                   0
                   0
                   0
                   0
                   0
                   0
                   0
                   0
                   0
                   0
                   0
                   0
                   0
                   0
                   0
                   0
                   0
                   0
                   0
                   0
                   0
                   0
                   0
                   0
                   0
                   0
                   0
                   0
                   0
                   0
                   0
                   0
                   0
                   0
                   0
                   0
                   0
                   0
                   0
                   0
                   0
                   0
                   0
                   0
                   0
                   0
                   0
                   0
                   0
                   0
                   0
                   0
                   0
                   0
                   0
                   0
                   0
                   0
                   0
                   0
                   0
                   0
                   0
                   0
                   0
                   0
                   0
                   0
                   0
                   0
                   0
                   0
                   0
                   0
                   0
                   0
                   0
                   0
                   0
                   0
                   0
                   0
                   0
                   0
                   0
                   0
                   0
                   0
                   0
                   0
                   0
                   0
                   0
                   0
                   0
                   0
                   0
                   0
                   0
                   0
                   0
                   0
                   0
                   0
                   0
                   0
                   0
                   0
                   0
                   0
                   0
                   0
                   0
                   0
                   0
                   0
                   0
                   0
                   0
                   0
                   0
                   0
                   0
                   0
                   0
                   0
                   0
                   0
                   0
                   0
                   0
                   0
                   0
                   0
                   0
                   0
                   0
                   0
                   0
                   0
                   0
                   0
                   0
                   0
                   0
                   0
                   0
                   0
                   0
                   0
                   0
                   0
                   0
                   0
                   0
                   0
                   0
                   0
                   0
                   0
                   0
                   0
                   0
                   0
                   0
                   0
                   0
                   0
                   0
                   0
                   0
                   0
                   0
                   0
                   0
                   0
                   0
                   0
                   0
                   0
                   0
                   0
                   0
                   0
                   0
                   0
                   0
                   0
                   0
                   0
                   0
                   0
                   0
                   0
                   0
                   0
                   0
                   0
                   0
                   0
                   0
                   0
                   0
                   0
                   0
                   0
                   0
                   0
                   0
                   0
                   0
                   0
                   0
                   0
                   0
                   0
                   0
                   0
                   0
                   0
                   0
                   0
                   0
                   0
                   0
                   0
                   0
                   0
                   0
                   0
                   0
                   0
                   0
                   0
                   0
                   0
                   0
                   0
                   0
                   0
                   0
                   0
                   0
                   0
                   0
                   0
                   0
                   0
                   0
                   0
                   0
                   0
                   0
                   0
                   0
                   0
                   0
                   0
                   0
                   0
                   0
                   0
                   0
                   0
                   0
                   0
                   0
                   0
                   0
                   0
                   0
                   0
                   0
                   0
                   0
                   0
                   0
                   0
                   0
                   0
                   0
                   0
                   0
                   0
                   0
                   0
                   0
                   0
                   0
                   0
                   0
                   0
                   0
                   0
                   0
                   0
                   0
                   0
                   0
                   0
                   0
                   0
                   0
                   0
                   0
                   0
                   0
                   0
                   0
                   0
                   0
                   0
                   0
                   0
                   0
                   0
                   0
                   0
                   0
                   0
                   0
                   0
                   0
                   0
                   0
                   0
                   0
                   0
                   0
                   0
                   0
                   0
                   0
                   0
                   0
                   0
                   0
                   0
                   0
                   0
                   0
                   0
                   0
                   0
                   0
                   0
                   0
                   0
                   0
                   0
                   0
                   0
                   0
                   0
                   0
                   0
                   0
                   0
                   0
                   0
                   0
                   0
                   0
                   0
                   0
                   0
                   0
                   0
                   0
                   0
                   0
                   0
                   0
                   0
                   0
                   0
                   0
                   0
                   0
                   0
                   0
                   0
                   0
                   0
                   0
                   0
                   0
                   0
                   0
                   0
                   0
                   0
                   0
                   0
                   0
                   0
                   0
                   0
                   0
                   0
                   0
                   0
                   0
                   0
                   0
                   0
                   0
                   0
                   0
                   0
                   0
                   0
                   0
                   0
                   0
                   0
                   0
                   0
                   0
                   0
                   0
                   0
                   0
                   0
                   0
                   0
                   0
                   0
                   0
                   0
                   0
                   0
                   0
                   0
                   0
                   0
                   0
                   0
                   0
                   0
                   0
                   0
                   0
                   0
                   0
                   0
                   0
                   0
                   0
                   0
                   0
                   0
                   0
                   0
                   0
                   0
                   0
                   0
                   0
                   0
                   0
                   0
                   0
                   0
                   0
                   0
                   0
                   0
                   0
                   0
                   0
                   0
                   0
                   0
                   0
                   0
                   0
                   0
                   0
                   0
                   0
                   0
                   0
                   0
                   0
                   0
                   0
                   0
                   0
                   0
                   0
                   0
                   0
                   0
                   0
                   0
                   0
                   0
                   0
                   0
                   0
                   0
                   0
                   0
                   0
                   0
                   0
                   0
                   0
                   0
                   0
                   0
                   0
                   0
                   0
                   0
                   0
                   0
                   0
                   0
                   0
                   0
                   0
                   0
                   0
                   0
                   0
                   0
                   0
                   0
                   0
                   0
                   0
                   0
                   0
                   0
                   0
                   0
                   0
                   0
                   0
                   0
                   0
                   0
                   0
                   0
                   0
                   0
                   0
                   0
                   0
                   0
                   0
                   0
                   0
                   0
                   0
                   0
                   0
                   0
                   0
                   0
                   0
                   0
                   0
                   0
                   0
                   0
                   0
                   0
                   0
                   0
                   0
                   0
                   0
                   0
                   0
                   0
                   0
                   0
                   0
                   0
                   0
                   0
                   0
                   0
                   0
                   0
                   0
                   0
                   0
                   0
                   0
                   0
                   0
                   0
                   0
                   0
                   0
                   0
                   0
                   0
                   0
                   0
                   0
                   0
                   0
                   0
                   0
                   0
                   0
                   0
                   0
                   0
                   0
                   0
                   0
                   0
                   0
                   0
                   0
                   0
                   0
                   0
                   0
                   0
                   0
                   0
                   0
                   0
                   0
                   0
                   0
                   0
                   0
                   0
                   0
                   0
                   0
                   0
                   0
                   0
                   0
                   0
                   0
                   0
                   0
                   0
                   0
                   0
                   0
                   0
                   0
                   0
                   0
                   0
                   0
                   0
                   0
                   0
                   0
                   0
                   0
                   0
                   0
                   0
                   0
                   0
                   0
                   0
                   0
                   0
                   0
                   0
                   0
                   0
                   0
                   0
                   0
                   0
                   0
                   0
                   0
                   0
                   0
                   0
                   0
                   0
                   0
                   0
                   0
                   0
                   0
                   0
                   0
                   0
                   0
                   0
                   0
                   0
                   0
                   0
                   0
                   0
                   0
                   0
                   0
                   0
                   0
                   0
                   0
                   0
                   0
                   0
                   0
                   0
                   0
                   0
                   0
  
SCALARS                       fixity_z  double 1
LOOKUP_TABLE default
                   0
                   0
                   0
                   0
                   1
                   1
                   1
                   1
                   0
                   0
                   1
                   1
                   0
                   0
                   1
                   1
                   0
                   0
                   1
                   1
                   0
                   0
                   0
                   1
                   1
                   1
                   0
                   0
                   1
                   1
                   0
                   0
                   0
                   1
                   1
                   1
                   0
                   0
                   1
                   1
                   0
                   0
                   1
                   1
                   0
                   0
                   1
                   1
                   0
                   1
                   0
                   1
                   0
                   1
                   0
                   1
                   0
                   0
                   1
                   1
                   0
                   0
                   1
                   1
                   0
                   1
                   0
                   1
                   0
                   0
                   1
                   1
                   0
                   1
                   0
                   1
                   0
                   1
                   0
                   1
                   0
                   0
                   1
                   1
                   0
                   1
                   0
                   1
                   0
                   1
                   0
                   0
                   1
                   1
                   0
                   1
                   0
                   1
                   0
                   1
                   0
                   0
                   1
                   1
                   0
                   0
                   1
                   1
                   0
                   1
                   0
                   1
                   0
                   1
                   0
                   1
                   0
                   1
                   0
                   1
                   0
                   1
                   0
                   1
                   0
                   1
                   0
                   1
                   0
                   1
                   0
                   1
                   0
                   1
                   0
                   1
                   0
                   1
                   0
                   1
                   0
                   1
                   0
                   1
                   0
                   1
                   0
                   1
                   0
                   1
                   0
                   1
                   0
                   1
                   0
                   1
                   0
                   0
                   0
                   0
                   0
                   0
                   0
                   0
                   0
                   0
                   0
                   0
                   0
                   0
                   0
                   0
                   0
                   0
                   0
                   0
                   0
                   0
                   0
                   0
                   0
                   0
                   0
                   0
                   0
                   0
                   0
                   0
                   0
                   0
                   0
                   0
                   0
                   0
                   0
                   0
                   0
                   0
                   0
                   0
                   0
                   0
                   0
                   0
                   0
                   0
                   0
                   0
                   0
                   0
                   0
                   0
                   0
                   0
                   0
                   0
                   0
                   0
                   0
                   0
                   0
                   0
                   0
                   0
                   0
                   0
                   0
                   0
                   0
                   0
                   0
                   0
                   0
                   0
                   0
                   0
                   0
                   0
                   0
                   0
                   0
                   0
                   0
                   0
                   0
                   0
                   0
                   0
                   0
                   0
                   0
                   0
                   0
                   0
                   0
                   0
                   0
                   0
                   0
                   0
                   0
                   0
                   0
                   0
                   0
                   0
                   0
                   0
                   0
                   0
                   0
                   0
                   0
                   0
                   0
                   0
                   0
                   0
                   0
                   0
                   0
                   0
                   0
                   0
                   0
                   0
                   0
                   0
                   0
                   0
                   0
                   0
                   0
                   0
                   0
                   0
                   0
                   0
                   0
                   0
                   0
                   0
                   0
                   0
                   0
                   0
                   0
                   0
                   0
                   0
                   0
                   0
                   0
                   0
                   0
                   0
                   0
                   0
                   0
                   0
                   0
                   0
                   0
                   0
                   0
                   0
                   0
                   0
                   0
                   0
                   0
                   0
                   0
                   0
                   0
                   0
                   0
                   0
                   0
                   0
                   0
                   0
                   0
                   0
                   0
                   0
                   0
                   0
                   0
                   0
                   0
                   0
                   0
                   0
                   0
                   0
                   0
                   0
                   0
                   0
                   0
                   0
                   0
                   0
                   0
                   0
                   0
                   0
                   0
                   0
                   0
                   0
                   0
                   0
                   0
                   0
                   0
                   0
                   0
                   0
                   0
                   0
                   0
                   0
                   0
                   0
                   0
                   0
                   0
                   0
                   0
                   0
                   0
                   0
                   0
                   0
                   0
                   0
                   0
                   0
                   0
                   0
                   0
                   0
                   0
                   0
                   0
                   0
                   0
                   0
                   0
                   0
                   0
                   0
                   0
                   0
                   0
                   0
                   0
                   0
                   0
                   0
                   0
                   0
                   0
                   0
                   0
                   0
                   0
                   0
                   0
                   0
                   0
                   0
                   0
                   0
                   0
                   0
                   0
                   0
                   0
                   0
                   0
                   0
                   0
                   0
                   0
                   0
                   0
                   0
                   0
                   0
                   0
                   0
                   0
                   0
                   0
                   0
                   0
                   0
                   0
                   0
                   0
                   0
                   0
                   0
                   0
                   0
                   0
                   0
                   0
                   0
                   0
                   0
                   0
                   0
                   0
                   0
                   0
                   0
                   0
                   0
                   0
                   0
                   0
                   0
                   0
                   0
                   0
                   0
                   0
                   0
                   0
                   0
                   0
                   0
                   0
                   0
                   0
                   0
                   0
                   0
                   0
                   0
                   0
                   0
                   0
                   0
                   0
                   0
                   0
                   0
                   0
                   0
                   0
                   0
                   0
                   0
                   0
                   0
                   0
                   0
                   0
                   0
                   0
                   0
                   0
                   0
                   0
                   0
                   0
                   0
                   0
                   0
                   0
                   0
                   0
                   0
                   0
                   0
                   0
                   0
                   0
                   0
                   0
                   0
                   0
                   0
                   0
                   0
                   0
                   0
                   0
                   0
                   0
                   0
                   0
                   0
                   0
                   0
                   0
                   0
                   0
                   0
                   0
                   0
                   0
                   0
                   0
                   0
                   0
                   0
                   0
                   0
                   0
                   0
                   0
                   0
                   0
                   0
                   0
                   0
                   0
                   0
                   0
                   0
                   0
                   0
                   0
                   0
                   0
                   0
                   0
                   0
                   0
                   0
                   0
                   0
                   0
                   0
                   0
                   0
                   0
                   0
                   0
                   0
                   0
                   0
                   0
                   0
                   0
                   0
                   0
                   0
                   0
                   0
                   0
                   0
                   0
                   0
                   0
                   0
                   0
                   0
                   0
                   0
                   0
                   0
                   0
                   0
                   0
                   0
                   0
                   0
                   0
                   0
                   0
                   0
                   0
                   0
                   0
                   0
                   0
                   0
                   0
                   0
                   0
                   0
                   0
                   0
                   0
                   0
                   0
                   0
                   0
                   0
                   0
                   0
                   0
                   0
                   0
                   0
                   0
                   0
                   0
                   0
                   0
                   0
                   0
                   0
                   0
                   0
                   0
                   0
                   0
                   0
                   0
                   0
                   0
                   0
                   0
                   0
                   0
                   0
                   0
                   0
                   0
                   0
                   0
                   0
                   0
                   0
                   0
                   0
                   0
                   0
                   0
                   0
                   0
                   0
                   0
                   0
                   0
                   0
                   0
                   0
                   0
                   0
                   0
                   0
                   0
                   0
                   0
                   0
                   0
                   0
                   0
                   0
                   0
                   0
                   0
                   0
                   0
                   0
                   0
                   0
                   0
                   0
                   0
                   0
                   0
                   0
                   0
                   0
                   0
                   0
                   0
                   0
                   0
                   0
                   0
                   0
                   0
                   0
                   0
                   0
                   0
                   0
                   0
                   0
                   0
                   0
                   0
                   0
                   0
                   0
                   0
                   0
                   0
                   0
                   0
                   0
                   0
                   0
                   0
                   0
                   0
                   0
                   0
                   0
                   0
                   0
                   0
                   0
                   0
                   0
                   0
                   0
                   0
                   0
                   0
                   0
                   0
                   0
                   0
                   0
                   0
                   0
                   0
                   0
                   0
                   0
                   0
                   0
                   0
                   0
                   0
                   0
                   0
                   0
                   0
                   0
                   0
                   0
                   0
                   0
                   0
                   0
                   0
                   0
                   0
                   0
                   0
                   0
                   0
                   0
                   0
                   0
                   0
                   0
                   0
                   0
                   0
                   0
                   0
                   0
                   0
                   0
                   0
                   0
                   0
                   0
                   0
                   0
                   0
                   0
                   0
                   0
                   0
                   0
                   0
                   0
                   0
                   0
                   0
                   0
                   0
                   0
                   0
                   0
                   0
                   0
                   0
                   0
                   0
                   0
                   0
                   0
                   0
                   0
                   0
                   0
                   0
                   0
                   0
                   0
                   0
                   0
                   0
                   0
                   0
                   0
                   0
                   0
                   0
                   0
                   0
                   0
                   0
                   0
                   0
                   0
                   0
                   0
                   0
                   0
                   0
                   0
                   0
                   0
                   0
                   0
                   0
                   0
                   0
                   0
                   0
                   0
                   0
                   0
                   0
                   0
                   0
                   0
                   0
                   0
                   0
                   0
                   0
                   0
                   0
                   0
                   0
                   0
                   0
                   0
                   0
                   0
                   0
                   0
                   0
                   0
                   0
                   0
                   0
                   0
                   0
                   0
                   0
                   0
                   0
                   0
                   0
                   0
                   0
                   0
                   0
                   0
                   0
                   0
                   0
                   0
                   0
                   0
                   0
                   0
                   0
                   0
                   0
                   0
                   0
                   0
                   0
                   0
                   0
                   0
                   0
                   0
                   0
                   0
                   0
                   0
                   0
                   0
                   0
                   0
                   0
                   0
                   0
                   0
                   0
                   0
                   0
                   0
                   0
                   0
                   0
                   0
                   0
                   0
                   0
                   0
                   0
                   0
                   0
                   0
                   0
                   0
                   0
                   0
                   0
                   0
                   0
                   0
                   0
                   0
                   0
                   0
                   0
                   0
                   0
                   0
                   0
                   0
                   0
                   0
                   0
                   0
                   0
                   0
                   0
                   0
                   0
                   0
                   0
                   0
                   0
                   0
                   0
                   0
                   0
                   0
                   0
                   0
                   0
                   0
                   0
                   0
                   0
                   0
                   0
                   0
                   0
                   0
                   0
                   0
                   0
                   0
                   0
                   0
                   0
                   0
                   0
                   0
                   0
                   0
                   0
                   0
                   0
                   0
                   0
                   0
                   0
                   0
                   0
                   0
                   0
                   0
                   0
                   0
                   0
                   0
                   0
                   0
                   0
                   0
                   0
                   0
                   0
                   0
                   0
                   0
                   0
                   0
                   0
                   0
                   0
                   0
                   0
                   0
                   0
                   0
                   0
                   0
                   0
                   0
                   0
                   0
                   0
                   0
                   0
                   0
                   0
                   0
                   0
                   0
                   0
                   0
                   0
                   0
                   0
                   0
                   0
                   0
                   0
                   0
                   0
                   0
                   0
                   0
                   0
                   0
                   0
                   0
                   0
                   0
                   0
                   0
                   0
                   0
                   0
                   0
                   0
                   0
                   0
                   0
                   0
                   0
                   0
                   0
                   0
                   0
                   0
                   0
                   0
                   0
                   0
                   0
                   0
                   0
                   0
                   0
                   0
                   0
                   0
                   0
                   0
                   0
                   0
                   0
                   0
                   0
                   0
                   0
                   0
                   0
                   0
                   0
                   0
                   0
                   0
                   0
                   0
                   0
                   0
                   0
                   0
                   0
                   0
                   0
                   0
                   0
                   0
                   0
                   0
                   0
                   0
                   0
                   0
                   0
                   0
                   0
                   0
                   0
                   0
                   0
                   0
                   0
                   0
                   0
                   0
                   0
                   0
                   0
                   0
                   0
                   0
                   0
                   0
                   0
                   0
                   0
                   0
                   0
                   0
                   0
                   0
                   0
                   0
                   0
                   0
                   0
                   0
                   0
                   0
                   0
                   0
                   0
                   0
                   0
                   0
                   0
                   0
                   0
                   0
                   0
                   0
                   0
                   0
                   0
                   0
                   0
                   0
                   0
                   0
                   0
                   0
                   0
                   0
                   0
                   0
                   0
                   0
                   0
                   0
                   0
                   0
                   0
                   0
                   0
                   0
                   0
                   0
                   0
                   0
                   0
                   0
                   0
                   0
                   0
                   0
                   0
                   0
                   0
                   0
                   0
                   0
                   0
                   0
                   0
                   0
                   0
                   0
                   0
                   0
                   0
                   0
                   0
                   0
                   0
                   0
                   0
                   0
                   0
                   0
                   0
                   0
                   0
                   0
                   0
                   0
                   0
                   0
                   0
                   0
                   0
                   0
                   0
                   0
                   0
                   0
                   0
                   0
                   0
                   0
                   0
                   0
                   0
                   0
                   0
                   0
                   0
                   0
                   0
                   0
                   0
                   0
                   0
                   0
                   0
                   0
                   0
                   0
                   0
                   0
                   0
                   0
                   0
                   0
                   0
                   0
                   0
                   0
                   0
                   0
                   0
                   0
                   0
                   0
                   0
                   0
                   0
                   0
                   0
                   0
                   0
                   0
                   0
                   0
                   0
                   0
                   0
                   0
                   0
                   0
                   0
                   0
                   0
                   0
                   0
                   0
                   0
                   0
                   0
                   0
                   0
                   0
                   0
                   0
                   0
                   0
                   0
                   0
                   0
                   0
                   0
                   0
                   0
                   0
                   0
                   0
                   0
                   0
                   0
                   0
                   0
                   0
                   0
                   0
                   0
                   0
                   0
                   0
                   0
                   0
                   0
                   0
                   0
                   0
                   0
                   0
                   0
                   0
                   0
                   0
                   0
                   0
                   0
                   0
                   0
                   0
                   0
                   0
                   0
                   0
                   0
                   0
                   0
                   0
                   0
                   0
                   0
                   0
                   0
                   0
                   0
                   0
                   0
                   0
                   0
                   0
                   0
                   0
                   0
                   0
                   0
                   0
                   0
                   0
                   0
                   0
                   0
                   0
                   0
                   0
                   0
                   0
                   0
                   0
                   0
                   0
                   0
                   0
                   0
                   0
                   0
                   0
                   0
                   0
                   0
                   0
                   0
                   0
                   0
                   0
                   0
                   0
                   0
                   0
                   0
                   0
                   0
                   0
                   0
                   0
                   0
                   0
                   0
                   0
                   0
                   0
                   0
                   0
                   0
                   0
                   0
                   0
                   0
                   0
                   0
                   0
                   0
                   0
                   0
                   0
                   0
                   0
                   0
                   0
                   0
                   0
                   0
                   0
                   0
                   0
                   0
                   0
                   0
                   0
                   0
                   0
                   0
                   0
                   0
                   0
                   0
                   0
                   0
                   0
                   0
                   0
                   0
                   0
                   0
                   0
                   0
                   0
                   0
                   0
                   0
                   0
                   0
                   0
                   0
                   0
                   0
                   0
                   0
                   0
                   0
                   0
                   0
                   0
                   0
                   0
                   0
                   0
                   0
                   0
                   0
                   0
                   0
                   0
                   0
                   0
                   0
                   0
                   0
                   0
                   0
                   0
                   0
                   0
                   0
                   0
                   0
                   0
                   0
                   0
                   0
                   0
                   0
                   0
                   0
                   0
                   0
                   0
                   0
                   0
                   0
                   0
                   0
                   0
                   0
                   0
                   0
                   0
                   0
                   0
                   0
                   0
                   0
                   0
                   0
                   0
                   0
                   0
                   0
                   0
                   0
                   0
                   0
                   0
                   0
                   0
                   0
                   0
                   0
                   0
                   0
                   0
                   0
                   0
                   0
                   0
                   0
                   0
                   0
                   0
                   0
                   0
                   0
                   0
                   0
                   0
                   0
                   0
                   0
                   0
                   0
                   0
                   0
                   0
                   0
                   0
                   0
                   0
                   0
                   0
                   0
                   0
                   0
                   0
                   0
                   0
                   0
                   0
                   0
                   0
                   0
                   0
                   0
                   0
                   0
                   0
                   0
                   0
                   0
                   0
                   0
                   0
                   0
                   0
                   0
                   0
                   0
                   0
                   0
                   0
                   0
                   0
                   0
                   0
                   0
                   0
                   0
                   0
                   0
                   0
                   0
                   0
                   0
                   0
                   0
                   0
                   0
                   0
                   0
                   0
                   0
                   0
                   0
                   0
                   0
                   0
                   0
                   0
                   0
                   0
                   0
                   0
                   0
                   0
                   0
                   0
                   0
                   0
                   0
                   0
                   0
                   0
                   0
                   0
                   0
                   0
                   0
                   0
                   0
                   0
                   0
                   0
                   0
                   0
                   0
                   0
                   0
                   0
                   0
                   0
                   0
                   0
                   0
                   0
                   0
                   0
                   0
                   0
                   0
                   0
                   0
                   0
                   0
                   0
                   0
                   0
                   0
                   0
                   0
                   0
                   0
                   0
                   0
                   0
                   0
                   0
                   0
                   0
                   0
                   0
                   0
                   0
                   0
                   0
                   0
                   0
                   0
                   0
                   0
                   0
                   0
                   0
                   0
                   0
                   0
                   0
                   0
                   0
                   0
                   0
                   0
                   0
                   0
                   0
                   0
                   0
                   0
                   0
                   0
                   0
                   0
                   0
                   0
                   0
                   0
                   0
                   0
                   0
                   0
                   0
                   0
                   0
                   0
                   0
                   0
                   0
                   0
                   0
                   0
                   0
                   0
                   0
                   0
                   0
                   0
                   0
                   0
                   0
                   0
                   0
                   0
                   0
                   0
                   0
                   0
                   0
                   0
                   0
                   0
                   0
                   0
                   0
                   0
                   0
                   0
                   0
                   0
                   0
                   0
                   0
                   0
                   0
                   0
                   0
                   0
                   0
                   0
                   0
                   0
                   0
                   0
                   0
                   0
                   0
                   0
                   0
                   0
                   0
                   0
                   0
                   0
                   0
                   0
                   0
                   0
                   0
                   0
                   0
                   0
                   0
                   0
                   0
                   0
                   0
                   0
                   0
                   0
                   0
                   0
                   0
                   0
                   0
                   0
                   0
                   0
                   0
                   0
                   0
                   0
                   0
                   0
                   0
                   0
                   0
                   0
                   0
                   0
                   0
                   0
                   0
                   0
                   0
                   0
                   0
                   0
                   0
                   0
                   0
                   0
                   0
                   0
                   0
                   0
                   0
                   0
                   0
                   0
                   0
                   0
                   0
                   0
                   0
                   0
                   0
                   0
                   0
                   0
                   0
                   0
                   0
                   0
                   0
                   0
                   0
                   0
                   0
                   0
                   0
                   0
                   0
                   0
                   0
                   0
                   0
                   0
                   0
                   0
                   0
                   0
                   0
                   0
  
SCALARS                         Ispace  double 1
LOOKUP_TABLE default
                  12
                  12
                  12
                  12
                  12
                  12
                  12
                  12
                  12
                  12
                  12
                  12
                  12
                  11
                  12
                  11
                  11
                  11
                  11
                  11
                  11
                  12
                  12
                  11
                  12
                  12
                  11
                  11
                  11
                  11
                  11
                  11
                  11
                  11
                  11
                  11
                  11
                  11
                  11
                  11
                  11
                  11
                  11
                  11
                  11
                  11
                  11
                  11
                  11
                  11
                  11
                  11
                  11
                  11
                  11
                  11
                  11
                  11
                  11
                  11
                  11
                  11
                  11
                  11
                  11
                  11
                  12
                  12
                  12
                  12
                  12
                  12
                  12
                  12
                  11
                  11
                  11
                  11
                  11
                  11
                  11
                  11
                  11
                  11
                  11
                  11
                  11
                  11
                  11
                  11
                  11
                  11
                  11
                  11
                  11
                  11
                  12
                  12
                  12
                  12
                  12
                  12
                  12
                  12
                  12
                  12
                  12
                  12
                  12
                  12
                  12
                  12
                  12
                  12
                  12
                  12
                  11
                  11
                  11
                  11
                  11
                  11
                  11
                  11
                  11
                  11
                  11
                  11
                  11
                  11
                  11
                  11
                  11
                  11
                  11
                  11
                  11
                  11
                  11
                  11
                  11
                  11
                  11
                  11
                  11
                  11
                  12
                  12
                  12
                  12
                  12
                  12
                  12
                  12
                  12
                  12
                  12
                  12
                  12
                  12
                  12
                  12
                  12
                  11
                  11
                  11
                  11
                  12
                  12
                  11
                  11
                  11
                  11
                  11
                  11
                  11
                  11
                  11
                  11
                  11
                  11
                  11
                  11
                  11
                  11
                  11
                  11
                  11
                  11
                  12
                  12
                  12
                  12
                  11
                  11
                  11
                  11
                  11
                  11
                  11
                  11
                  11
                  11
                  11
                  12
                  12
                  12
                  12
                  12
                  12
                  12
                  12
                  12
                  12
                  11
                  11
                  11
                  11
                  11
                  11
                  11
                  11
                  11
                  11
                  11
                  11
                  11
                  11
                  11
                  12
                  12
                  12
                  12
                  12
                  12
                  12
                  12
                  12
                  12
                  12
                  12
                  11
                  11
                  11
                  11
                  12
                  12
                  11
                  11
                  11
                  11
                  11
                  11
                  11
                  11
                  11
                  11
                  11
                  11
                  11
                  11
                  11
                  11
                  11
                  11
                  11
                  11
                  12
                  12
                  12
                  12
                  11
                  11
                  11
                  11
                  11
                  11
                  11
                  11
                  11
                  11
                  11
                  12
                  12
                  12
                  12
                  12
                  12
                  12
                  12
                  12
                  12
                  11
                  11
                  11
                  11
                  11
                  11
                  11
                  11
                  11
                  11
                  11
                  11
                  11
                  11
                  11
                  12
                  12
                  12
                  12
                  12
                  12
                  12
                  12
                  12
                  12
                  12
                  12
                  11
                  11
                  11
                  11
                  12
                  12
                  11
                  11
                  11
                  11
                  11
                  11
                  11
                  11
                  11
                  11
                  11
                  11
                  11
                  11
                  11
                  11
                  11
                  11
                  11
                  11
                  12
                  12
                  12
                  12
                  11
                  11
                  11
                  11
                  11
                  11
                  11
                  11
                  11
                  11
                  11
                  12
                  12
                  12
                  12
                  12
                  12
                  12
                  12
                  12
                  12
                  11
                  11
                  11
                  11
                  11
                  11
                  11
                  11
                  11
                  11
                  11
                  11
                  11
                  11
                  11
                  12
                  12
                  12
                  12
                  12
                  12
                  12
                  12
                  12
                  12
                  12
                  12
                  11
                  11
                  11
                  11
                  12
                  12
                  11
                  11
                  11
                  11
                  11
                  11
                  11
                  11
                  11
                  11
                  11
                  11
                  11
                  11
                  11
                  11
                  11
                  11
                  11
                  11
                  12
                  12
                  12
                  12
                  11
                  11
                  11
                  11
                  11
                  11
                  11
                  11
                  11
                  11
                  11
                  12
                  12
                  12
                  12
                  12
                  12
                  12
                  12
                  12
                  12
                  11
                  11
                  11
                  11
                  11
                  11
                  11
                  11
                  11
                  11
                  11
                  11
                  11
                  11
                  11
                  12
                  12
                  12
                  12
                  12
                  12
                  12
                  12
                  12
                  12
                  12
                  12
                  11
                  11
                  11
                  11
                  12
                  12
                  11
                  11
                  11
                  11
                  11
                  11
                  11
                  11
                  11
                  11
                  11
                  11
                  11
                  11
                  11
                  11
                  11
                  11
                  11
                  11
                  12
                  12
                  12
                  12
                  11
                  11
                  11
                  11
                  11
                  11
                  11
                  11
                  11
                  11
                  11
                  12
                  12
                  12
                  12
                  12
                  12
                  12
                  12
                  12
                  12
                  11
                  11
                  11
                  11
                  11
                  11
                  11
                  11
                  11
                  11
                  11
                  11
                  11
                  11
                  11
                  12
                  12
                  12
                  12
                  12
                  12
                  12
                  12
                  12
                  12
                  12
                  12
                  11
                  11
                  11
                  11
                  12
                  12
                  11
                  11
                  11
                  11
                  11
                  11
                  11
                  11
                  11
                  11
                  11
                  11
                  11
                  11
                  11
                  11
                  11
                  11
                  11
                  11
                  12
                  12
                  12
                  12
                  11
                  11
                  11
                  11
                  11
                  11
                  11
                  11
                  11
                  11
                  11
                  12
                  12
                  12
                  12
                  12
                  12
                  12
                  12
                  12
                  12
                  11
                  11
                  11
                  11
                  11
                  11
                  11
                  11
                  11
                  11
                  11
                  11
                  11
                  11
                  11
                  12
                  12
                  12
                  12
                  12
                  12
                  12
                  12
                  12
                  12
                  12
                  12
                  11
                  11
                  11
                  11
                  12
                  12
                  11
                  11
                  11
                  11
                  11
                  11
                  11
                  11
                  11
                  11
                  11
                  11
                  11
                  11
                  11
                  11
                  11
                  11
                  11
                  11
                  12
                  12
                  12
                  12
                  11
                  11
                  11
                  11
                  11
                  11
                  11
                  11
                  11
                  11
                  11
                  12
                  12
                  12
                  12
                  12
                  12
                  12
                  12
                  12
                  12
                  11
                  11
                  11
                  11
                  11
                  11
                  11
                  11
                  11
                  11
                  11
                  11
                  11
                  11
                  11
                  12
                  12
                  12
                  12
                  12
                  12
                  12
                  12
                  12
                  12
                  12
                  12
                  11
                  11
                  11
                  11
                  12
                  12
                  11
                  11
                  11
                  11
                  11
                  11
                  11
                  11
                  11
                  11
                  11
                  11
                  11
                  11
                  11
                  11
                  11
                  11
                  11
                  11
                  12
                  12
                  12
                  12
                  11
                  11
                  11
                  11
                  11
                  11
                  11
                  11
                  11
                  11
                  11
                  12
                  12
                  12
                  12
                  12
                  12
                  12
                  12
                  12
                  12
                  11
                  11
                  11
                  11
                  11
                  11
                  11
                  11
                  11
                  11
                  11
                  11
                  11
                  11
                  11
                  12
                  12
                  12
                  12
                  12
                  12
                  12
                  12
                  12
                  12
                  12
                  12
                  11
                  11
                  11
                  11
                  12
                  12
                  11
                  11
                  11
                  11
                  11
                  11
                  11
                  11
                  11
                  11
                  11
                  11
                  11
                  11
                  11
                  11
                  11
                  11
                  11
                  11
                  12
                  12
                  12
                  12
                  11
                  11
                  11
                  11
                  11
                  11
                  11
                  11
                  11
                  11
                  11
                  12
                  12
                  12
                  12
                  12
                  12
                  12
                  12
                  12
                  12
                  11
                  11
                  11
                  11
                  11
                  11
                  11
                  11
                  11
                  11
                  11
                  11
                  11
                  11
                  11
                  12
                  12
                  12
                  12
                  12
                  12
                  12
                  12
                  12
                  12
                  12
                  12
                  11
                  11
                  11
                  11
                  12
                  12
                  11
                  11
                  11
                  11
                  11
                  11
                  11
                  11
                  11
                  11
                  11
                  11
                  11
                  11
                  11
                  11
                  11
                  11
                  11
                  11
                  12
                  12
                  12
                  12
                  11
                  11
                  11
                  11
                  11
                  11
                  11
                  11
                  11
                  11
                  11
                  12
                  12
                  12
                  12
                  12
                  12
                  12
                  12
                  12
                  12
                  11
                  11
                  11
                  11
                  11
                  11
                  11
                  11
                  11
                  11
                  11
                  11
                  11
                  11
                  11
                  12
                  12
                  12
                  12
                  12
                  12
                  12
                  12
                  12
                  12
                  12
                  12
                  11
                  11
                  11
                  11
                  12
                  12
                  11
                  11
                  11
                  11
                  11
                  11
                  11
                  11
                  11
                  11
                  11
                  11
                  11
                  11
                  11
                  11
                  11
                  11
                  11
                  11
                  12
                  12
                  12
                  12
                  11
                  11
                  11
                  11
                  11
                  11
                  11
                  11
                  11
                  11
                  11
                  12
                  12
                  12
                  12
                  12
                  12
                  12
                  12
                  12
                  12
                  11
                  11
                  11
                  11
                  11
                  11
                  11
                  11
                  11
                  11
                  11
                  11
                  11
                  11
                  11
                  12
                  12
                  12
                  12
                  12
                  12
                  12
                  12
                  12
                  12
                  12
                  12
                  11
                  11
                  11
                  11
                  12
                  12
                  11
                  11
                  11
                  11
                  11
                  11
                  11
                  11
                  11
                  11
                  11
                  11
                  11
                  11
                  11
                  11
                  11
                  11
                  11
                  11
                  12
                  12
                  12
                  12
                  11
                  11
                  11
                  11
                  11
                  11
                  11
                  11
                  11
                  11
                  11
                  12
                  12
                  12
                  12
                  12
                  12
                  12
                  12
                  12
                  12
                  11
                  11
                  11
                  11
                  11
                  11
                  11
                  11
                  11
                  11
                  11
                  11
                  11
                  11
                  11
                  12
                  12
                  12
                  12
                  12
                  12
                  12
                  12
                  12
                  12
                  12
                  12
                  11
                  11
                  11
                  11
                  12
                  12
                  11
                  11
                  11
                  11
                  11
                  11
                  11
                  11
                  11
                  11
                  11
                  11
                  11
                  11
                  11
                  11
                  11
                  11
                  11
                  11
                  12
                  12
                  12
                  12
                  11
                  11
                  11
                  11
                  11
                  11
                  11
                  11
                  11
                  11
                  11
                  12
                  12
                  12
                  12
                  12
                  12
                  12
                  12
                  12
                  12
                  11
                  11
                  11
                  11
                  11
                  11
                  11
                  11
                  11
                  11
                  11
                  11
                  11
                  11
                  11
                  12
                  12
                  12
                  12
                  12
                  12
                  12
                  12
                  12
                  12
                  12
                  12
                  11
                  11
                  11
                  11
                  12
                  12
                  11
                  11
                  11
                  11
                  11
                  11
                  11
                  11
                  11
                  11
                  11
                  11
                  11
                  11
                  11
                  11
                  11
                  11
                  11
                  11
                  12
                  12
                  12
                  12
                  11
                  11
                  11
                  11
                  11
                  11
                  11
                  11
                  11
                  11
                  11
                  12
                  12
                  12
                  12
                  12
                  12
                  12
                  12
                  12
                  12
                  11
                  11
                  11
                  11
                  11
                  11
                  11
                  11
                  11
                  11
                  11
                  11
                  11
                  11
                  11
                  12
                  12
                  12
                  12
                  12
                  12
                  12
                  12
                  12
                  12
                  12
                  12
                  11
                  11
                  11
                  11
                  12
                  12
                  11
                  11
                  11
                  11
                  11
                  11
                  11
                  11
                  11
                  11
                  11
                  11
                  11
                  11
                  11
                  11
                  11
                  11
                  11
                  11
                  12
                  12
                  12
                  12
                  11
                  11
                  11
                  11
                  11
                  11
                  11
                  11
                  11
                  11
                  11
                  12
                  12
                  12
                  12
                  12
                  12
                  12
                  12
                  12
                  12
                  11
                  11
                  11
                  11
                  11
                  11
                  11
                  11
                  11
                  11
                  11
                  11
                  11
                  11
                  11
                  12
                  12
                  12
                  12
                  12
                  12
                  12
                  12
                  12
                  12
                  12
                  12
                  11
                  11
                  11
                  11
                  12
                  12
                  11
                  11
                  11
                  11
                  11
                  11
                  11
                  11
                  11
                  11
                  11
                  11
                  11
                  11
                  11
                  11
                  11
                  11
                  11
                  11
                  12
                  12
                  12
                  12
                  11
                  11
                  11
                  11
                  11
                  11
                  11
                  11
                  11
                  11
                  11
                  12
                  12
                  12
                  12
                  12
                  12
                  12
                  12
                  12
                  12
                  11
                  11
                  11
                  11
                  11
                  11
                  11
                  11
                  11
                  11
                  11
                  11
                  11
                  11
                  11
                  12
                  12
                  12
                  12
                  12
                  12
                  12
                  12
                  12
                  12
                  12
                  12
                  11
                  11
                  11
                  11
                  12
                  12
                  11
                  11
                  11
                  11
                  11
                  11
                  11
                  11
                  11
                  11
                  11
                  11
                  11
                  11
                  11
                  11
                  11
                  11
                  11
                  11
                  12
                  12
                  12
                  12
                  11
                  11
                  11
                  11
                  11
                  11
                  11
                  11
                  11
                  11
                  11
                  12
                  12
                  12
                  12
                  12
                  12
                  12
                  12
                  12
                  12
                  11
                  11
                  11
                  11
                  11
                  11
                  11
                  11
                  11
                  11
                  11
                  11
                  11
                  11
                  11
                  12
                  12
                  12
                  12
                  12
                  12
                  12
                  12
                  12
                  12
                  12
                  12
                  11
                  11
                  11
                  11
                  12
                  12
                  11
                  11
                  11
                  11
                  11
                  11
                  11
                  11
                  11
                  11
                  11
                  11
                  11
                  11
                  11
                  11
                  11
                  11
                  11
                  11
                  12
                  12
                  12
                  12
                  11
                  11
                  11
                  11
                  11
                  11
                  11
                  11
                  11
                  11
                  11
                  12
                  12
                  12
                  12
                  12
                  12
                  12
                  12
                  12
                  12
                  11
                  11
                  11
                  11
                  11
                  11
                  11
                  11
                  11
                  11
                  11
                  11
                  11
                  11
                  11
                  12
                  12
                  12
                  12
                  12
                  12
                  12
                  12
                  12
                  12
                  12
                  12
                  11
                  11
                  11
                  11
                  12
                  12
                  11
                  11
                  11
                  11
                  11
                  11
                  11
                  11
                  11
                  11
                  11
                  11
                  11
                  11
                  11
                  11
                  11
                  11
                  11
                  11
                  12
                  12
                  12
                  12
                  11
                  11
                  11
                  11
                  11
                  11
                  11
                  11
                  11
                  11
                  11
                  12
                  12
                  12
                  12
                  12
                  12
                  12
                  12
                  12
                  12
                  11
                  11
                  11
                  11
                  11
                  11
                  11
                  11
                  11
                  11
                  11
                  11
                  11
                  11
                  11
                  12
                  12
                  12
                  12
                  12
                  12
                  12
                  12
                  12
                  12
                  12
                  12
                  11
                  11
                  11
                  11
                  12
                  12
                  11
                  11
                  11
                  11
                  11
                  11
                  11
                  11
                  11
                  11
                  11
                  11
                  11
                  11
                  11
                  11
                  11
                  11
                  11
                  11
                  12
                  12
                  12
                  12
                  11
                  11
                  11
                  11
                  11
                  11
                  11
                  11
                  11
                  11
                  11
                  12
                  12
                  12
                  12
                  12
                  12
                  12
                  12
                  12
                  12
                  11
                  11
                  11
                  11
                  11
                  11
                  11
                  11
                  11
                  11
                  11
                  11
                  11
                  11
                  11
                  12
                  12
                  12
                  12
                  12
                  12
                  12
                  12
                  12
                  12
                  12
                  12
                  11
                  11
                  11
                  11
                  12
                  12
                  11
                  11
                  11
                  11
                  11
                  11
                  11
                  11
                  11
                  11
                  11
                  11
                  11
                  11
                  11
                  11
                  11
                  11
                  11
                  11
                  12
                  12
                  12
                  12
                  11
                  11
                  11
                  11
                  11
                  11
                  11
                  11
                  11
                  11
                  11
                  12
                  12
                  12
                  12
                  12
                  12
                  12
                  12
                  12
                  12
                  11
                  11
                  11
                  11
                  11
                  11
                  11
                  11
                  11
                  11
                  11
                  11
                  11
                  11
                  11
                  12
                  12
                  12
                  12
                  12
                  12
                  12
                  12
                  12
                  12
                  12
                  12
                  11
                  11
                  11
                  11
                  12
                  12
                  11
                  11
                  11
                  11
                  11
                  11
                  11
                  11
                  11
                  11
                  11
                  11
                  11
                  11
                  11
                  11
                  11
                  11
                  11
                  11
                  12
                  12
                  12
                  12
                  11
                  11
                  11
                  11
                  11
                  11
                  11
                  11
                  11
                  11
                  11
                  12
                  12
                  12
                  12
                  12
                  12
                  12
                  12
                  12
                  12
                  11
                  11
                  11
                  11
                  11
                  11
                  11
                  11
                  11
                  11
                  11
                  11
                  11
                  11
                  11
                  12
                  12
                  12
                  12
                  12
                  12
                  12
                  12
                  12
                  12
                  12
                  12
                  11
                  11
                  11
                  11
                  12
                  12
                  11
                  11
                  11
                  11
                  11
                  11
                  11
                  11
                  11
                  11
                  11
                  11
                  11
                  11
                  11
                  11
                  11
                  11
                  11
                  11
                  12
                  12
                  12
                  12
                  11
                  11
                  11
                  11
                  11
                  11
                  11
                  11
                  11
                  11
                  11
                  12
                  12
                  12
                  12
                  12
                  12
                  12
                  12
                  12
                  12
                  11
                  11
                  11
                  11
                  11
                  11
                  11
                  11
                  11
                  11
                  11
                  11
                  11
                  11
                  11
                  12
                  12
                  12
                  12
                  12
  
SCALARS                         Jspace  double 1
LOOKUP_TABLE default
                  11
                  12
                  11
                  11
                  11
                  12
                  11
                  11
                  11
                  11
                  11
                  11
                  12
                  12
                  12
                  12
                  11
                  12
                  11
                  12
                  12
                  12
                  12
                  12
                  12
                  12
                  12
                  12
                  12
                  12
                  11
                  11
                  11
                  11
                  11
                  11
                  11
                  11
                  11
                  11
                  11
                  11
                  11
                  11
                  11
                  11
                  11
                  11
                  11
                  11
                  11
                  11
                  12
                  12
                  12
                  12
                  12
                  11
                  12
                  11
                  11
                  11
                  11
                  11
                  11
                  11
                  11
                  11
                  11
                  12
                  11
                  12
                  12
                  12
                  12
                  12
                  12
                  12
                  12
                  12
                  12
                  12
                  12
                  12
                  11
                  11
                  11
                  11
                  11
                  11
                  11
                  11
                  11
                  11
                  11
                  11
                  11
                  11
                  11
                  11
                  11
                  11
                  11
                  11
                  11
                  11
                  11
                  11
                  12
                  12
                  12
                  12
                  12
                  12
                  12
                  12
                  12
                  12
                  12
                  12
                  12
                  12
                  12
                  12
                  12
                  12
                  12
                  12
                  11
                  11
                  11
                  11
                  11
                  11
                  11
                  11
                  11
                  11
                  11
                  11
                  11
                  11
                  11
                  11
                  11
                  11
                  11
                  11
                  11
                  11
                  11
                  11
                  11
                  11
                  11
                  11
                  11
                  12
                  11
                  11
                  11
                  11
                  12
                  12
                  11
                  12
                  12
                  12
                  12
                  12
                  12
                  11
                  11
                  11
                  11
                  11
                  11
                  11
                  11
                  11
                  11
                  11
                  12
                  12
                  12
                  11
                  11
                  11
                  11
                  11
                  11
                  12
                  12
                  12
                  12
                  12
                  12
                  12
                  11
                  11
                  11
                  11
                  11
                  11
                  11
                  11
                  11
                  11
                  11
                  11
                  12
                  12
                  12
                  12
                  12
                  12
                  12
                  12
                  12
                  12
                  11
                  11
                  11
                  11
                  11
                  11
                  11
                  11
                  11
                  11
                  11
                  11
                  11
                  11
                  11
                  12
                  11
                  11
                  11
                  11
                  12
                  12
                  11
                  12
                  12
                  12
                  12
                  12
                  12
                  11
                  11
                  11
                  11
                  11
                  11
                  11
                  11
                  11
                  11
                  11
                  12
                  12
                  12
                  11
                  11
                  11
                  11
                  11
                  11
                  12
                  12
                  12
                  12
                  12
                  12
                  12
                  11
                  11
                  11
                  11
                  11
                  11
                  11
                  11
                  11
                  11
                  11
                  11
                  12
                  12
                  12
                  12
                  12
                  12
                  12
                  12
                  12
                  12
                  11
                  11
                  11
                  11
                  11
                  11
                  11
                  11
                  11
                  11
                  11
                  11
                  11
                  11
                  11
                  12
                  11
                  11
                  11
                  11
                  12
                  12
                  11
                  12
                  12
                  12
                  12
                  12
                  12
                  11
                  11
                  11
                  11
                  11
                  11
                  11
                  11
                  11
                  11
                  11
                  12
                  12
                  12
                  11
                  11
                  11
                  11
                  11
                  11
                  12
                  12
                  12
                  12
                  12
                  12
                  12
                  11
                  11
                  11
                  11
                  11
                  11
                  11
                  11
                  11
                  11
                  11
                  11
                  12
                  12
                  12
                  12
                  12
                  12
                  12
                  12
                  12
                  12
                  11
                  11
                  11
                  11
                  11
                  11
                  11
                  11
                  11
                  11
                  11
                  11
                  11
                  11
                  11
                  12
                  11
                  11
                  11
                  11
                  12
                  12
                  11
                  12
                  12
                  12
                  12
                  12
                  12
                  11
                  11
                  11
                  11
                  11
                  11
                  11
                  11
                  11
                  11
                  11
                  12
                  12
                  12
                  11
                  11
                  11
                  11
                  11
                  11
                  12
                  12
                  12
                  12
                  12
                  12
                  12
                  11
                  11
                  11
                  11
                  11
                  11
                  11
                  11
                  11
                  11
                  11
                  11
                  12
                  12
                  12
                  12
                  12
                  12
                  12
                  12
                  12
                  12
                  11
                  11
                  11
                  11
                  11
                  11
                  11
                  11
                  11
                  11
                  11
                  11
                  11
                  11
                  11
                  12
                  11
                  11
                  11
                  11
                  12
                  12
                  11
                  12
                  12
                  12
                  12
                  12
                  12
                  11
                  11
                  11
                  11
                  11
                  11
                  11
                  11
                  11
                  11
                  11
                  12
                  12
                  12
                  11
                  11
                  11
                  11
                  11
                  11
                  12
                  12
                  12
                  12
                  12
                  12
                  12
                  11
                  11
                  11
                  11
                  11
                  11
                  11
                  11
                  11
                  11
                  11
                  11
                  12
                  12
                  12
                  12
                  12
                  12
                  12
                  12
                  12
                  12
                  11
                  11
                  11
                  11
                  11
                  11
                  11
                  11
                  11
                  11
                  11
                  11
                  11
                  11
                  11
                  12
                  11
                  11
                  11
                  11
                  12
                  12
                  11
                  12
                  12
                  12
                  12
                  12
                  12
                  11
                  11
                  11
                  11
                  11
                  11
                  11
                  11
                  11
                  11
                  11
                  12
                  12
                  12
                  11
                  11
                  11
                  11
                  11
                  11
                  12
                  12
                  12
                  12
                  12
                  12
                  12
                  11
                  11
                  11
                  11
                  11
                  11
                  11
                  11
                  11
                  11
                  11
                  11
                  12
                  12
                  12
                  12
                  12
                  12
                  12
                  12
                  12
                  12
                  11
                  11
                  11
                  11
                  11
                  11
                  11
                  11
                  11
                  11
                  11
                  11
                  11
                  11
                  11
                  12
                  11
                  11
                  11
                  11
                  12
                  12
                  11
                  12
                  12
                  12
                  12
                  12
                  12
                  11
                  11
                  11
                  11
                  11
                  11
                  11
                  11
                  11
                  11
                  11
                  12
                  12
                  12
                  11
                  11
                  11
                  11
                  11
                  11
                  12
                  12
                  12
                  12
                  12
                  12
                  12
                  11
                  11
                  11
                  11
                  11
                  11
                  11
                  11
                  11
                  11
                  11
                  11
                  12
                  12
                  12
                  12
                  12
                  12
                  12
                  12
                  12
                  12
                  11
                  11
                  11
                  11
                  11
                  11
                  11
                  11
                  11
                  11
                  11
                  11
                  11
                  11
                  11
                  12
                  11
                  11
                  11
                  11
                  12
                  12
                  11
                  12
                  12
                  12
                  12
                  12
                  12
                  11
                  11
                  11
                  11
                  11
                  11
                  11
                  11
                  11
                  11
                  11
                  12
                  12
                  12
                  11
                  11
                  11
                  11
                  11
                  11
                  12
                  12
                  12
                  12
                  12
                  12
                  12
                  11
                  11
                  11
                  11
                  11
                  11
                  11
                  11
                  11
                  11
                  11
                  11
                  12
                  12
                  12
                  12
                  12
                  12
                  12
                  12
                  12
                  12
                  11
                  11
                  11
                  11
                  11
                  11
                  11
                  11
                  11
                  11
                  11
                  11
                  11
                  11
                  11
                  12
                  11
                  11
                  11
                  11
                  12
                  12
                  11
                  12
                  12
                  12
                  12
                  12
                  12
                  11
                  11
                  11
                  11
                  11
                  11
                  11
                  11
                  11
                  11
                  11
                  12
                  12
                  12
                  11
                  11
                  11
                  11
                  11
                  11
                  12
                  12
                  12
                  12
                  12
                  12
                  12
                  11
                  11
                  11
                  11
                  11
                  11
                  11
                  11
                  11
                  11
                  11
                  11
                  12
                  12
                  12
                  12
                  12
                  12
                  12
                  12
                  12
                  12
                  11
                  11
                  11
                  11
                  11
                  11
                  11
                  11
                  11
                  11
                  11
                  11
                  11
                  11
                  11
                  12
                  11
                  11
                  11
                  11
                  12
                  12
                  11
                  12
                  12
                  12
                  12
                  12
                  12
                  11
                  11
                  11
                  11
                  11
                  11
                  11
                  11
                  11
                  11
                  11
                  12
                  12
                  12
                  11
                  11
                  11
                  11
                  11
                  11
                  12
                  12
                  12
                  12
                  12
                  12
                  12
                  11
                  11
                  11
                  11
                  11
                  11
                  11
                  11
                  11
                  11
                  11
                  11
                  12
                  12
                  12
                  12
                  12
                  12
                  12
                  12
                  12
                  12
                  11
                  11
                  11
                  11
                  11
                  11
                  11
                  11
                  11
                  11
                  11
                  11
                  11
                  11
                  11
                  12
                  11
                  11
                  11
                  11
                  12
                  12
                  11
                  12
                  12
                  12
                  12
                  12
                  12
                  11
                  11
                  11
                  11
                  11
                  11
                  11
                  11
                  11
                  11
                  11
                  12
                  12
                  12
                  11
                  11
                  11
                  11
                  11
                  11
                  12
                  12
                  12
                  12
                  12
                  12
                  12
                  11
                  11
                  11
                  11
                  11
                  11
                  11
                  11
                  11
                  11
                  11
                  11
                  12
                  12
                  12
                  12
                  12
                  12
                  12
                  12
                  12
                  12
                  11
                  11
                  11
                  11
                  11
                  11
                  11
                  11
                  11
                  11
                  11
                  11
                  11
                  11
                  11
                  12
                  11
                  11
                  11
                  11
                  12
                  12
                  11
                  12
                  12
                  12
                  12
                  12
                  12
                  11
                  11
                  11
                  11
                  11
                  11
                  11
                  11
                  11
                  11
                  11
                  12
                  12
                  12
                  11
                  11
                  11
                  11
                  11
                  11
                  12
                  12
                  12
                  12
                  12
                  12
                  12
                  11
                  11
                  11
                  11
                  11
                  11
                  11
                  11
                  11
                  11
                  11
                  11
                  12
                  12
                  12
                  12
                  12
                  12
                  12
                  12
                  12
                  12
                  11
                  11
                  11
                  11
                  11
                  11
                  11
                  11
                  11
                  11
                  11
                  11
                  11
                  11
                  11
                  12
                  11
                  11
                  11
                  11
                  12
                  12
                  11
                  12
                  12
                  12
                  12
                  12
                  12
                  11
                  11
                  11
                  11
                  11
                  11
                  11
                  11
                  11
                  11
                  11
                  12
                  12
                  12
                  11
                  11
                  11
                  11
                  11
                  11
                  12
                  12
                  12
                  12
                  12
                  12
                  12
                  11
                  11
                  11
                  11
                  11
                  11
                  11
                  11
                  11
                  11
                  11
                  11
                  12
                  12
                  12
                  12
                  12
                  12
                  12
                  12
                  12
                  12
                  11
                  11
                  11
                  11
                  11
                  11
                  11
                  11
                  11
                  11
                  11
                  11
                  11
                  11
                  11
                  12
                  11
                  11
                  11
                  11
                  12
                  12
                  11
                  12
                  12
                  12
                  12
                  12
                  12
                  11
                  11
                  11
                  11
                  11
                  11
                  11
                  11
                  11
                  11
                  11
                  12
                  12
                  12
                  11
                  11
                  11
                  11
                  11
                  11
                  12
                  12
                  12
                  12
                  12
                  12
                  12
                  11
                  11
                  11
                  11
                  11
                  11
                  11
                  11
                  11
                  11
                  11
                  11
                  12
                  12
                  12
                  12
                  12
                  12
                  12
                  12
                  12
                  12
                  11
                  11
                  11
                  11
                  11
                  11
                  11
                  11
                  11
                  11
                  11
                  11
                  11
                  11
                  11
                  12
                  11
                  11
                  11
                  11
                  12
                  12
                  11
                  12
                  12
                  12
                  12
                  12
                  12
                  11
                  11
                  11
                  11
                  11
                  11
                  11
                  11
                  11
                  11
                  11
                  12
                  12
                  12
                  11
                  11
                  11
                  11
                  11
                  11
                  12
                  12
                  12
                  12
                  12
                  12
                  12
                  11
                  11
                  11
                  11
                  11
                  11
                  11
                  11
                  11
                  11
                  11
                  11
                  12
                  12
                  12
                  12
                  12
                  12
                  12
                  12
                  12
                  12
                  11
                  11
                  11
                  11
                  11
                  11
                  11
                  11
                  11
                  11
                  11
                  11
                  11
                  11
                  11
                  12
                  11
                  11
                  11
                  11
                  12
                  12
                  11
                  12
                  12
                  12
                  12
                  12
                  12
                  11
                  11
                  11
                  11
                  11
                  11
                  11
                  11
                  11
                  11
                  11
                  12
                  12
                  12
                  11
                  11
                  11
                  11
                  11
                  11
                  12
                  12
                  12
                  12
                  12
                  12
                  12
                  11
                  11
                  11
                  11
                  11
                  11
                  11
                  11
                  11
                  11
                  11
                  11
                  12
                  12
                  12
                  12
                  12
                  12
                  12
                  12
                  12
                  12
                  11
                  11
                  11
                  11
                  11
                  11
                  11
                  11
                  11
                  11
                  11
                  11
                  11
                  11
                  11
                  12
                  11
                  11
                  11
                  11
                  12
                  12
                  11
                  12
                  12
                  12
                  12
                  12
                  12
                  11
                  11
                  11
                  11
                  11
                  11
                  11
                  11
                  11
                  11
                  11
                  12
                  12
                  12
                  11
                  11
                  11
                  11
                  11
                  11
                  12
                  12
                  12
                  12
                  12
                  12
                  12
                  11
                  11
                  11
                  11
                  11
                  11
                  11
                  11
                  11
                  11
                  11
                  11
                  12
                  12
                  12
                  12
                  12
                  12
                  12
                  12
                  12
                  12
                  11
                  11
                  11
                  11
                  11
                  11
                  11
                  11
                  11
                  11
                  11
                  11
                  11
                  11
                  11
                  12
                  11
                  11
                  11
                  11
                  12
                  12
                  11
                  12
                  12
                  12
                  12
                  12
                  12
                  11
                  11
                  11
                  11
                  11
                  11
                  11
                  11
                  11
                  11
                  11
                  12
                  12
                  12
                  11
                  11
                  11
                  11
                  11
                  11
                  12
                  12
                  12
                  12
                  12
                  12
                  12
                  11
                  11
                  11
                  11
                  11
                  11
                  11
                  11
                  11
                  11
                  11
                  11
                  12
                  12
                  12
                  12
                  12
                  12
                  12
                  12
                  12
                  12
                  11
                  11
                  11
                  11
                  11
                  11
                  11
                  11
                  11
                  11
                  11
                  11
                  11
                  11
                  11
                  12
                  11
                  11
                  11
                  11
                  12
                  12
                  11
                  12
                  12
                  12
                  12
                  12
                  12
                  11
                  11
                  11
                  11
                  11
                  11
                  11
                  11
                  11
                  11
                  11
                  12
                  12
                  12
                  11
                  11
                  11
                  11
                  11
                  11
                  12
                  12
                  12
                  12
                  12
                  12
                  12
                  11
                  11
                  11
                  11
                  11
                  11
                  11
                  11
                  11
                  11
                  11
                  11
                  12
                  12
                  12
                  12
                  12
                  12
                  12
                  12
                  12
                  12
                  11
                  11
                  11
                  11
                  11
                  11
                  11
                  11
                  11
                  11
                  11
                  11
                  11
                  11
                  11
                  12
                  11
                  11
                  11
                  11
                  12
                  12
                  11
                  12
                  12
                  12
                  12
                  12
                  12
                  11
                  11
                  11
                  11
                  11
                  11
                  11
                  11
                  11
                  11
                  11
                  12
                  12
                  12
                  11
                  11
                  11
                  11
                  11
                  11
                  12
                  12
                  12
                  12
                  12
                  12
                  12
                  11
                  11
                  11
                  11
                  11
                  11
                  11
                  11
                  11
                  11
                  11
                  11
                  12
                  12
                  12
                  12
                  12
                  12
                  12
                  12
                  12
                  12
                  11
                  11
                  11
                  11
                  11
                  11
                  11
                  11
                  11
                  11
                  11
                  11
                  11
                  11
                  11
                  12
                  11
                  11
                  11
                  11
                  12
                  12
                  11
                  12
                  12
                  12
                  12
                  12
                  12
                  11
                  11
                  11
                  11
                  11
                  11
                  11
                  11
                  11
                  11
                  11
                  12
                  12
                  12
                  11
                  11
                  11
                  11
                  11
                  11
                  12
                  12
                  12
                  12
                  12
                  12
                  12
                  11
                  11
                  11
                  11
                  11
                  11
                  11
                  11
                  11
                  11
                  11
                  11
                  12
                  12
                  12
                  12
                  12
                  12
                  12
                  12
                  12
                  12
                  11
                  11
                  11
                  11
                  11
                  11
                  11
                  11
                  11
                  11
                  11
                  11
                  11
                  11
                  11
                  12
                  11
                  11
                  11
                  11
                  12
                  12
                  11
                  12
                  12
                  12
                  12
                  12
                  12
                  11
                  11
                  11
                  11
                  11
                  11
                  11
                  11
                  11
                  11
                  11
                  12
                  12
                  12
                  11
                  11
                  11
                  11
                  11
                  11
                  12
                  12
                  12
                  12
                  12
                  12
                  12
                  11
                  11
                  11
                  11
                  11
                  11
                  11
                  11
                  11
                  11
                  11
                  11
                  12
                  12
                  12
                  12
                  12
                  12
                  12
                  12
                  12
                  12
                  11
                  11
                  11
                  11
                  11
                  11
                  11
                  11
                  11
                  11
                  11
                  11
                  11
                  11
                  11
                  12
                  11
                  11
                  11
                  11
                  12
                  12
                  11
                  12
                  12
                  12
                  12
                  12
                  12
                  11
                  11
                  11
                  11
                  11
                  11
                  11
                  11
                  11
                  11
                  11
                  12
                  12
                  12
                  11
                  11
                  11
                  11
                  11
                  11
                  12
                  12
                  12
                  12
                  12
                  12
                  12
                  11
                  11
                  11
                  11
                  11
                  11
                  11
                  11
                  11
                  11
                  11
                  11
                  12
                  12
                  12
                  12
                  12
                  12
                  12
                  12
                  12
                  12
                  11
                  11
                  11
                  11
                  11
                  11
                  11
                  11
                  11
                  11
                  11
                  11
                  11
                  11
  
SCALARS                         Kspace  double 1
LOOKUP_TABLE default
                  11
                  11
                  11
                  11
                  11
                  11
                  11
                  11
                  11
                  11
                  11
                  11
                  11
                  11
                  11
                  11
                  11
                  11
                  11
                  11
                  11
                  11
                  11
                  11
                  11
                  11
                  11
                  11
                  11
                  11
                  11
                  11
                  11
                  11
                  11
                  11
                  11
                  11
                  11
                  11
                  11
                  11
                  11
                  11
                  11
                  11
                  11
                  11
                  11
                  11
                  11
                  11
                  11
                  11
                  11
                  11
                  11
                  11
                  11
                  11
                  11
                  11
                  11
                  11
                  11
                  11
                  11
                  11
                  11
                  11
                  11
                  11
                  11
                  11
                  11
                  11
                  11
                  11
                  11
                  11
                  11
                  11
                  11
                  11
                  11
                  11
                  11
                  11
                  11
                  11
                  11
                  11
                  11
                  11
                  11
                  11
                  11
                  11
                  11
                  11
                  11
                  11
                  11
                  11
                  11
                  11
                  11
                  11
                  11
                  11
                  11
                  11
                  11
                  11
                  11
                  11
                  11
                  11
                  11
                  11
                  11
                  11
                  11
                  11
                  11
                  11
                  11
                  11
                  11
                  11
                  11
                  11
                  11
                  11
                  11
                  11
                  11
                  11
                  11
                  11
                  11
                  11
                  11
                  11
                  11
                  11
                  11
                  11
                  11
                  11
                  11
                  11
                  11
                  11
                  11
                  11
                  11
                  11
                  11
                  11
                  11
                  11
                  11
                  11
                  11
                  11
                  11
                  11
                  11
                  11
                  11
                  11
                  11
                  11
                  11
                  11
                  11
                  11
                  11
                  11
                  11
                  11
                  11
                  11
                  11
                  11
                  11
                  11
                  11
                  11
                  11
                  11
                  11
                  11
                  11
                  11
                  11
                  11
                  11
                  11
                  11
                  11
                  11
                  11
                  11
                  11
                  11
                  11
                  11
                  11
                  11
                  11
                  11
                  11
                  11
                  11
                  11
                  11
                  11
                  11
                  11
                  11
                  11
                  11
                  11
                  11
                  11
                  11
                  11
                  11
                  11
                  11
                  11
                  11
                  11
                  11
                  11
                  11
                  11
                  11
                  11
                  11
                  11
                  11
                  11
                  11
                  11
                  11
                  11
                  11
                  11
                  11
                  11
                  11
                  11
                  11
                  11
                  11
                  11
                  11
                  11
                  11
                  11
                  11
                  11
                  11
                  11
                  11
                  11
                  11
                  11
                  11
                  11
                  11
                  11
                  11
                  11
                  11
                  11
                  11
                  11
                  11
                  11
                  11
                  11
                  11
                  11
                  11
                  11
                  11
                  11
                  11
                  11
                  11
                  11
                  11
                  11
                  11
                  11
                  11
                  11
                  11
                  11
                  11
                  11
                  11
                  11
                  11
                  11
                  11
                  11
                  11
                  12
                  12
                  12
                  12
                  12
                  12
                  12
                  12
                  12
                  12
                  12
                  12
                  12
                  12
                  12
                  12
                  12
                  12
                  12
                  12
                  12
                  12
                  12
                  12
                  12
                  12
                  12
                  12
                  12
                  12
                  12
                  12
                  12
                  12
                  12
                  12
                  12
                  12
                  12
                  12
                  12
                  12
                  12
                  12
                  12
                  12
                  12
                  12
                  12
                  12
                  12
                  12
                  12
                  12
                  12
                  12
                  12
                  12
                  12
                  12
                  12
                  12
                  12
                  12
                  12
                  12
                  12
                  12
                  12
                  12
                  12
                  12
                  12
                  12
                  12
                  12
                  12
                  12
                  12
                  12
                  12
                  12
                  12
                  12
                  12
                  12
                  12
                  12
                  12
                  12
                  12
                  12
                  12
                  12
                  12
                  12
                  12
                  12
                  12
                  12
                  12
                  12
                  12
                  12
                  12
                  12
                  12
                  12
                  12
                  12
                  12
                  12
                  12
                  12
                  12
                  12
                  12
                  12
                  12
                  12
                  12
                  12
                  12
                  12
                  12
                  12
                  12
                  12
                  12
                  12
                  12
                  12
                  12
                  12
                  12
                  12
                  12
                  12
                  12
                  12
                  12
                  12
                  12
                  12
                  12
                  12
                  12
                  12
                  12
                  12
                  12
                  12
                  12
                  12
                  12
                  12
                  12
                  12
                  12
                  12
                  12
                  12
                  12
                  12
                  12
                  12
                  12
                  12
                  12
                  12
                  12
                  12
                  12
                  12
                  12
                  12
                  12
                  12
                  12
                  12
                  12
                  12
                  12
                  12
                  12
                  12
                  12
                  12
                  12
                  12
                  12
                  12
                  12
                  12
                  12
                  12
                  12
                  12
                  12
                  12
                  12
                  12
                  12
                  12
                  12
                  12
                  12
                  12
                  12
                  12
                  12
                  12
                  12
                  12
                  12
                  12
                  12
                  12
                  12
                  12
                  12
                  12
                  12
                  12
                  12
                  12
                  12
                  12
                  12
                  12
                  12
                  12
                  12
                  12
                  13
                  13
                  13
                  13
                  13
                  13
                  13
                  13
                  13
                  13
                  13
                  13
                  13
                  13
                  13
                  13
                  13
                  13
                  13
                  13
                  13
                  13
                  13
                  13
                  13
                  13
                  13
                  13
                  13
                  13
                  13
                  13
                  13
                  13
                  13
                  13
                  13
                  13
                  13
                  13
                  13
                  13
                  13
                  13
                  13
                  13
                  13
                  13
                  13
                  13
                  13
                  13
                  13
                  13
                  13
                  13
                  13
                  13
                  13
                  13
                  13
                  13
                  13
                  13
                  13
                  13
                  13
                  13
                  13
                  13
                  13
                  13
                  13
                  13
                  13
                  13
                  13
                  13
                  13
                  13
                  13
                  13
                  13
                  13
                  13
                  13
                  13
                  13
                  13
                  13
                  13
                  13
                  13
                  13
                  13
                  13
                  13
                  13
                  13
                  13
                  13
                  13
                  13
                  13
                  13
                  13
                  13
                  13
                  13
                  13
                  13
                  13
                  13
                  13
                  13
                  13
                  13
                  13
                  13
                  13
                  13
                  13
                  13
                  13
                  13
                  13
                  13
                  13
                  13
                  13
                  13
                  13
                  13
                  13
                  13
                  13
                  13
                  13
                  13
                  13
                  13
                  13
                  13
                  13
                  13
                  13
                  13
                  13
                  13
                  13
                  13
                  13
                  13
                  13
                  13
                  13
                  13
                  13
                  13
                  13
                  13
                  13
                  13
                  13
                  13
                  13
                  13
                  13
                  13
                  13
                  13
                  13
                  13
                  13
                  13
                  13
                  13
                  13
                  13
                  13
                  13
                  13
                  13
                  13
                  13
                  13
                  13
                  13
                  13
                  13
                  13
                  13
                  13
                  13
                  13
                  13
                  13
                  13
                  13
                  13
                  13
                  13
                  13
                  13
                  13
                  13
                  13
                  13
                  13
                  13
                  13
                  13
                  13
                  13
                  13
                  13
                  13
                  13
                  13
                  13
                  13
                  13
                  13
                  13
                  13
                  13
                  13
                  13
                  13
                  13
                  13
                  13
                  13
                  13
                  14
                  14
                  14
                  14
                  14
                  14
                  14
                  14
                  14
                  14
                  14
                  14
                  14
                  14
                  14
                  14
                  14
                  14
                  14
                  14
                  14
                  14
                  14
                  14
                  14
                  14
                  14
                  14
                  14
                  14
                  14
                  14
                  14
                  14
                  14
                  14
                  14
                  14
                  14
                  14
                  14
                  14
                  14
                  14
                  14
                  14
                  14
                  14
                  14
                  14
                  14
                  14
                  14
                  14
                  14
                  14
                  14
                  14
                  14
                  14
                  14
                  14
                  14
                  14
                  14
                  14
                  14
                  14
                  14
                  14
                  14
                  14
                  14
                  14
                  14
                  14
                  14
                  14
                  14
                  14
                  14
                  14
                  14
                  14
                  14
                  14
                  14
                  14
                  14
                  14
                  14
                  14
                  14
                  14
                  14
                  14
                  14
                  14
                  14
                  14
                  14
                  14
                  14
                  14
                  14
                  14
                  14
                  14
                  14
                  14
                  14
                  14
                  14
                  14
                  14
                  14
                  14
                  14
                  14
                  14
                  14
                  14
                  14
                  14
                  14
                  14
                  14
                  14
                  14
                  14
                  14
                  14
                  14
                  14
                  14
                  14
                  14
                  14
                  14
                  14
                  14
                  14
                  14
                  14
                  14
                  14
                  14
                  14
                  14
                  14
                  14
                  14
                  14
                  14
                  14
                  14
                  14
                  14
                  14
                  14
                  14
                  14
                  14
                  14
                  14
                  14
                  14
                  14
                  14
                  14
                  14
                  14
                  14
                  14
                  14
                  14
                  14
                  14
                  14
                  14
                  14
                  14
                  14
                  14
                  14
                  14
                  14
                  14
                  14
                  14
                  14
                  14
                  14
                  14
                  14
                  14
                  14
                  14
                  14
                  14
                  14
                  14
                  14
                  14
                  14
                  14
                  14
                  14
                  14
                  14
                  14
                  14
                  14
                  14
                  14
                  14
                  14
                  14
                  14
                  14
                  14
                  14
                  14
                  14
                  14
                  14
                  14
                  14
                  14
                  14
                  14
                  14
                  14
                  14
                  15
                  15
                  15
                  15
                  15
                  15
                  15
                  15
                  15
                  15
                  15
                  15
                  15
                  15
                  15
                  15
                  15
                  15
                  15
                  15
                  15
                  15
                  15
                  15
                  15
                  15
                  15
                  15
                  15
                  15
                  15
                  15
                  15
                  15
                  15
                  15
                  15
                  15
                  15
                  15
                  15
                  15
                  15
                  15
                  15
                  15
                  15
                  15
                  15
                  15
                  15
                  15
                  15
                  15
                  15
                  15
                  15
                  15
                  15
                  15
                  15
                  15
                  15
                  15
                  15
                  15
                  15
                  15
                  15
                  15
                  15
                  15
                  15
                  15
                  15
                  15
                  15
                  15
                  15
                  15
                  15
                  15
                  15
                  15
                  15
                  15
                  15
                  15
                  15
                  15
                  15
                  15
                  15
                  15
                  15
                  15
                  15
                  15
                  15
                  15
                  15
                  15
                  15
                  15
                  15
                  15
                  15
                  15
                  15
                  15
                  15
                  15
                  15
                  15
                  15
                  15
                  15
                  15
                  15
                  15
                  15
                  15
                  15
                  15
                  15
                  15
                  15
                  15
                  15
                  15
                  15
                  15
                  15
                  15
                  15
                  15
                  15
                  15
                  15
                  15
                  15
                  15
                  15
                  15
                  15
                  15
                  15
                  15
                  15
                  15
                  15
                  15
                  15
                  15
                  15
                  15
                  15
                  15
                  15
                  15
                  15
                  15
                  15
                  15
                  15
                  15
                  15
                  15
                  15
                  15
                  15
                  15
                  15
                  15
                  15
                  15
                  15
                  15
                  15
                  15
                  15
                  15
                  15
                  15
                  15
                  15
                  15
                  15
                  15
                  15
                  15
                  15
                  15
                  15
                  15
                  15
                  15
                  15
                  15
                  15
                  15
                  15
                  15
                  15
                  15
                  15
                  15
                  15
                  15
                  15
                  15
                  15
                  15
                  15
                  15
                  15
                  15
                  15
                  15
                  15
                  15
                  15
                  15
                  15
                  15
                  15
                  15
                  15
                  15
                  15
                  15
                  15
                  15
                  15
                  15
                  15
                  15
                  15
                  15
                  15
                  15
                  15
                  15
                  15
                  15
                  15
                  15
                  15
                  15
                  15
                  15
                  15
                  15
                  15
                  15
                  15
                  15
                  15
                  15
                  15
                  15
                  15
                  15
                  15
                  15
                  15
                  15
                  15
                  15
                  15
                  15
                  15
                  15
                  15
                  15
                  15
                  15
                  15
                  15
                  15
                  15
                  15
                  15
                  15
                  15
                  15
                  15
                  15
                  15
                  15
                  15
                  15
                  15
                  15
                  15
                  15
                  15
                  15
                  15
                  15
                  15
                  15
                  15
                  15
                  15
                  15
                  15
                  15
                  15
                  15
                  15
                  15
                  16
                  16
                  16
                  16
                  16
                  16
                  16
                  16
                  16
                  16
                  16
                  16
                  16
                  16
                  16
                  16
                  16
                  16
                  16
                  16
                  16
                  16
                  16
                  16
                  16
                  16
                  16
                  16
                  16
                  16
                  16
                  16
                  16
                  16
                  16
                  16
                  16
                  16
                  16
                  16
                  16
                  16
                  16
                  16
                  16
                  16
                  16
                  16
                  16
                  16
                  16
                  16
                  16
                  16
                  16
                  16
                  16
                  16
                  16
                  16
                  16
                  16
                  16
                  16
                  16
                  16
                  16
                  16
                  16
                  16
                  16
                  16
                  16
                  16
                  16
                  16
                  16
                  16
                  16
                  16
                  16
                  16
                  16
                  16
                  16
                  16
                  16
                  16
                  16
                  16
                  16
                  16
                  16
                  16
                  16
                  16
                  16
                  16
                  16
                  16
                  16
                  16
                  16
                  16
                  16
                  16
                  16
                  16
                  16
                  16
                  16
                  16
                  16
                  16
                  16
                  16
                  16
                  16
                  16
                  16
                  16
                  16
                  16
                  16
                  16
                  16
                  16
                  16
                  16
                  16
                  16
                  16
                  16
                  16
                  16
                  16
                  16
                  16
                  16
                  16
                  16
                  16
                  16
                  16
                  16
                  16
                  16
                  16
                  16
                  16
                  16
                  16
                  16
                  16
                  16
                  16
                  16
                  16
                  16
                  16
                  16
                  16
                  16
                  16
                  16
                  16
                  16
                  16
                  16
                  16
                  16
                  16
                  16
                  16
                  16
                  16
                  16
                  16
                  16
                  16
                  16
                  16
                  16
                  16
                  16
                  16
                  16
                  16
                  16
                  16
                  16
                  16
                  16
                  16
                  16
                  16
                  16
                  16
                  16
                  16
                  16
                  16
                  16
                  16
                  16
                  16
                  16
                  16
                  16
                  16
                  16
                  16
                  16
                  16
                  16
                  16
                  16
                  16
                  16
                  16
                  16
                  16
                  16
                  16
                  16
                  16
                  16
                  16
                  16
                  16
                  16
                  16
                  16
                  16
                  17
                  17
                  17
                  17
                  17
                  17
                  17
                  17
                  17
                  17
                  17
                  17
                  17
                  17
                  17
                  17
                  17
                  17
                  17
                  17
                  17
                  17
                  17
                  17
                  17
                  17
                  17
                  17
                  17
                  17
                  17
                  17
                  17
                  17
                  17
                  17
                  17
                  17
                  17
                  17
                  17
                  17
                  17
                  17
                  17
                  17
                  17
                  17
                  17
                  17
                  17
                  17
                  17
                  17
                  17
                  17
                  17
                  17
                  17
                  17
                  17
                  17
                  17
                  17
                  17
                  17
                  17
                  17
                  17
                  17
                  17
                  17
                  17
                  17
                  17
                  17
                  17
                  17
                  17
                  17
                  17
                  17
                  17
                  17
                  17
                  17
                  17
                  17
                  17
                  17
                  17
                  17
                  17
                  17
                  17
                  17
                  17
                  17
                  17
                  17
                  17
                  17
                  17
                  17
                  17
                  17
                  17
                  17
                  17
                  17
                  17
                  17
                  17
                  17
                  17
                  17
                  17
                  17
                  17
                  17
                  17
                  17
                  17
                  17
                  17
                  17
                  17
                  17
                  17
                  17
                  17
                  17
                  17
                  17
                  17
                  17
                  17
                  17
                  17
                  17
                  17
                  17
                  17
                  17
                  17
                  17
                  17
                  17
                  17
                  17
                  17
                  17
                  17
                  17
                  17
                  17
                  17
                  17
                  17
                  17
                  17
                  17
                  17
                  17
                  17
                  17
                  17
                  17
                  17
                  17
                  17
                  17
                  17
                  17
                  17
                  17
                  17
                  17
                  17
                  17
                  17
                  17
                  17
                  17
                  17
                  17
                  17
                  17
                  17
                  17
                  17
                  17
                  17
                  17
                  17
                  17
                  17
                  17
                  17
                  17
                  17
                  17
                  17
                  17
                  17
                  17
                  17
                  17
                  17
                  17
                  17
                  17
                  17
                  17
                  17
                  17
                  17
                  17
                  17
                  17
                  17
                  17
                  17
                  17
                  17
                  17
                  17
                  17
                  17
                  17
                  17
                  17
                  17
                  17
                  18
                  18
                  18
                  18
                  18
                  18
                  18
                  18
                  18
                  18
                  18
                  18
                  18
                  18
                  18
                  18
                  18
                  18
                  18
                  18
                  18
                  18
                  18
                  18
                  18
                  18
                  18
                  18
                  18
                  18
                  18
                  18
                  18
                  18
                  18
                  18
                  18
                  18
                  18
                  18
                  18
                  18
                  18
                  18
                  18
                  18
                  18
                  18
                  18
                  18
                  18
                  18
                  18
                  18
                  18
                  18
                  18
                  18
                  18
                  18
                  18
                  18
                  18
                  18
                  18
                  18
                  18
                  18
                  18
                  18
                  18
                  18
                  18
                  18
                  18
                  18
                  18
                  18
                  18
                  18
                  18
                  18
                  18
                  18
                  18
                  18
                  18
                  18
                  18
                  18
                  18
                  18
                  18
                  18
                  18
                  18
                  18
                  18
                  18
                  18
                  18
                  18
                  18
                  18
                  18
                  18
                  18
                  18
                  18
                  18
                  18
                  18
                  18
                  18
                  18
                  18
                  18
                  18
                  18
                  18
                  18
                  18
                  18
                  18
                  18
                  18
                  18
                  18
                  18
                  18
                  18
                  18
                  18
                  18
                  18
                  18
                  18
                  18
                  18
                  18
                  18
                  18
                  18
                  18
                  18
                  18
                  18
                  18
                  18
                  18
                  18
                  18
                  18
                  18
                  18
                  18
  
SCALARS                 displacement_x  double 1
LOOKUP_TABLE default
         0.00000E+00
         0.00000E+00
         0.00000E+00
         0.00000E+00
         0.00000E+00
         0.00000E+00
         0.00000E+00
         0.00000E+00
         0.00000E+00
         0.00000E+00
         0.00000E+00
         0.00000E+00
         0.00000E+00
         0.00000E+00
         0.00000E+00
         0.00000E+00
         0.00000E+00
         0.00000E+00
         0.00000E+00
         0.00000E+00
         0.00000E+00
         0.00000E+00
         0.00000E+00
         0.00000E+00
         0.00000E+00
         0.00000E+00
         0.00000E+00
         0.00000E+00
         0.00000E+00
         0.00000E+00
         0.00000E+00
         0.00000E+00
         0.00000E+00
         0.00000E+00
         0.00000E+00
         0.00000E+00
         0.00000E+00
         0.00000E+00
         0.00000E+00
         0.00000E+00
         0.00000E+00
         0.00000E+00
         0.00000E+00
         0.00000E+00
         0.00000E+00
         0.00000E+00
         0.00000E+00
         0.00000E+00
         0.00000E+00
         0.00000E+00
         0.00000E+00
         0.00000E+00
         0.00000E+00
         0.00000E+00
         0.00000E+00
         0.00000E+00
         0.00000E+00
         0.00000E+00
         0.00000E+00
         0.00000E+00
         0.00000E+00
         0.00000E+00
         0.00000E+00
         0.00000E+00
         0.00000E+00
         0.00000E+00
         0.00000E+00
         0.00000E+00
         0.00000E+00
         0.00000E+00
         0.00000E+00
         0.00000E+00
         0.00000E+00
         0.00000E+00
         0.00000E+00
         0.00000E+00
         0.00000E+00
         0.00000E+00
         0.00000E+00
         0.00000E+00
         0.00000E+00
         0.00000E+00
         0.00000E+00
         0.00000E+00
         0.00000E+00
         0.00000E+00
         0.00000E+00
         0.00000E+00
         0.00000E+00
         0.00000E+00
         0.00000E+00
         0.00000E+00
         0.00000E+00
         0.00000E+00
         0.00000E+00
         0.00000E+00
         0.00000E+00
         0.00000E+00
         0.00000E+00
         0.00000E+00
         0.00000E+00
         0.00000E+00
         0.00000E+00
         0.00000E+00
         0.00000E+00
         0.00000E+00
         0.00000E+00
         0.00000E+00
         0.00000E+00
         0.00000E+00
         0.00000E+00
         0.00000E+00
         0.00000E+00
         0.00000E+00
         0.00000E+00
         0.00000E+00
         0.00000E+00
         0.00000E+00
         0.00000E+00
         0.00000E+00
         0.00000E+00
         0.00000E+00
         0.00000E+00
         0.00000E+00
         0.00000E+00
         0.00000E+00
         0.00000E+00
         0.00000E+00
         0.00000E+00
         0.00000E+00
         0.00000E+00
         0.00000E+00
         0.00000E+00
         0.00000E+00
         0.00000E+00
         0.00000E+00
         0.00000E+00
         0.00000E+00
         0.00000E+00
         0.00000E+00
         0.00000E+00
         0.00000E+00
         0.00000E+00
         0.00000E+00
         0.00000E+00
         0.00000E+00
         0.00000E+00
         0.00000E+00
         0.00000E+00
         0.00000E+00
         0.00000E+00
         0.00000E+00
         0.00000E+00
         0.00000E+00
         0.00000E+00
         0.00000E+00
         0.00000E+00
         0.00000E+00
         0.00000E+00
         0.00000E+00
         0.00000E+00
         0.00000E+00
         0.00000E+00
         0.00000E+00
         0.00000E+00
         0.00000E+00
         0.00000E+00
         0.00000E+00
         0.00000E+00
         0.00000E+00
         0.00000E+00
         0.00000E+00
         0.00000E+00
         0.00000E+00
         0.00000E+00
         0.00000E+00
         0.00000E+00
         0.00000E+00
         0.00000E+00
         0.00000E+00
         0.00000E+00
         0.00000E+00
         0.00000E+00
         0.00000E+00
         0.00000E+00
         0.00000E+00
         0.00000E+00
         0.00000E+00
         0.00000E+00
         0.00000E+00
         0.00000E+00
         0.00000E+00
         0.00000E+00
         0.00000E+00
         0.00000E+00
         0.00000E+00
         0.00000E+00
         0.00000E+00
         0.00000E+00
         0.00000E+00
         0.00000E+00
         0.00000E+00
         0.00000E+00
         0.00000E+00
         0.00000E+00
         0.00000E+00
         0.00000E+00
         0.00000E+00
         0.00000E+00
         0.00000E+00
         0.00000E+00
         0.00000E+00
         0.00000E+00
         0.00000E+00
         0.00000E+00
         0.00000E+00
         0.00000E+00
         0.00000E+00
         0.00000E+00
         0.00000E+00
         0.00000E+00
         0.00000E+00
         0.00000E+00
         0.00000E+00
         0.00000E+00
         0.00000E+00
         0.00000E+00
         0.00000E+00
         0.00000E+00
         0.00000E+00
         0.00000E+00
         0.00000E+00
         0.00000E+00
         0.00000E+00
         0.00000E+00
         0.00000E+00
         0.00000E+00
         0.00000E+00
         0.00000E+00
         0.00000E+00
         0.00000E+00
         0.00000E+00
         0.00000E+00
         0.00000E+00
         0.00000E+00
         0.00000E+00
         0.00000E+00
         0.00000E+00
         0.00000E+00
         0.00000E+00
         0.00000E+00
         0.00000E+00
         0.00000E+00
         0.00000E+00
         0.00000E+00
         0.00000E+00
         0.00000E+00
         0.00000E+00
         0.00000E+00
         0.00000E+00
         0.00000E+00
         0.00000E+00
         0.00000E+00
         0.00000E+00
         0.00000E+00
         0.00000E+00
         0.00000E+00
         0.00000E+00
         0.00000E+00
         0.00000E+00
         0.00000E+00
         0.00000E+00
         0.00000E+00
         0.00000E+00
         0.00000E+00
         0.00000E+00
         0.00000E+00
         0.00000E+00
         0.00000E+00
         0.00000E+00
         0.00000E+00
         0.00000E+00
         0.00000E+00
         0.00000E+00
         0.00000E+00
         0.00000E+00
         0.00000E+00
         0.00000E+00
         0.00000E+00
         0.00000E+00
         0.00000E+00
         0.00000E+00
         0.00000E+00
         0.00000E+00
         0.00000E+00
         0.00000E+00
         0.00000E+00
         0.00000E+00
         0.00000E+00
         0.00000E+00
         0.00000E+00
         0.00000E+00
         0.00000E+00
         0.00000E+00
         0.00000E+00
         0.00000E+00
         0.00000E+00
         0.00000E+00
         0.00000E+00
         0.00000E+00
         0.00000E+00
         0.00000E+00
         0.00000E+00
         0.00000E+00
         0.00000E+00
         0.00000E+00
         0.00000E+00
         0.00000E+00
         0.00000E+00
         0.00000E+00
         0.00000E+00
         0.00000E+00
         0.00000E+00
         0.00000E+00
         0.00000E+00
         0.00000E+00
         0.00000E+00
         0.00000E+00
         0.00000E+00
         0.00000E+00
         0.00000E+00
         0.00000E+00
         0.00000E+00
         0.00000E+00
         0.00000E+00
         0.00000E+00
         0.00000E+00
         0.00000E+00
         0.00000E+00
         0.00000E+00
         0.00000E+00
         0.00000E+00
         0.00000E+00
         0.00000E+00
         0.00000E+00
         0.00000E+00
         0.00000E+00
         0.00000E+00
         0.00000E+00
         0.00000E+00
         0.00000E+00
         0.00000E+00
         0.00000E+00
         0.00000E+00
         0.00000E+00
         0.00000E+00
         0.00000E+00
         0.00000E+00
         0.00000E+00
         0.00000E+00
         0.00000E+00
         0.00000E+00
         0.00000E+00
         0.00000E+00
         0.00000E+00
         0.00000E+00
         0.00000E+00
         0.00000E+00
         0.00000E+00
         0.00000E+00
         0.00000E+00
         0.00000E+00
         0.00000E+00
         0.00000E+00
         0.00000E+00
         0.00000E+00
         0.00000E+00
         0.00000E+00
         0.00000E+00
         0.00000E+00
         0.00000E+00
         0.00000E+00
         0.00000E+00
         0.00000E+00
         0.00000E+00
         0.00000E+00
         0.00000E+00
         0.00000E+00
         0.00000E+00
         0.00000E+00
         0.00000E+00
         0.00000E+00
         0.00000E+00
         0.00000E+00
         0.00000E+00
         0.00000E+00
         0.00000E+00
         0.00000E+00
         0.00000E+00
         0.00000E+00
         0.00000E+00
         0.00000E+00
         0.00000E+00
         0.00000E+00
         0.00000E+00
         0.00000E+00
         0.00000E+00
         0.00000E+00
         0.00000E+00
         0.00000E+00
         0.00000E+00
         0.00000E+00
         0.00000E+00
         0.00000E+00
         0.00000E+00
         0.00000E+00
         0.00000E+00
         0.00000E+00
         0.00000E+00
         0.00000E+00
         0.00000E+00
         0.00000E+00
         0.00000E+00
         0.00000E+00
         0.00000E+00
         0.00000E+00
         0.00000E+00
         0.00000E+00
         0.00000E+00
         0.00000E+00
         0.00000E+00
         0.00000E+00
         0.00000E+00
         0.00000E+00
         0.00000E+00
         0.00000E+00
         0.00000E+00
         0.00000E+00
         0.00000E+00
         0.00000E+00
         0.00000E+00
         0.00000E+00
         0.00000E+00
         0.00000E+00
         0.00000E+00
         0.00000E+00
         0.00000E+00
         0.00000E+00
         0.00000E+00
         0.00000E+00
         0.00000E+00
         0.00000E+00
         0.00000E+00
         0.00000E+00
         0.00000E+00
         0.00000E+00
         0.00000E+00
         0.00000E+00
         0.00000E+00
         0.00000E+00
         0.00000E+00
         0.00000E+00
         0.00000E+00
         0.00000E+00
         0.00000E+00
         0.00000E+00
         0.00000E+00
         0.00000E+00
         0.00000E+00
         0.00000E+00
         0.00000E+00
         0.00000E+00
         0.00000E+00
         0.00000E+00
         0.00000E+00
         0.00000E+00
         0.00000E+00
         0.00000E+00
         0.00000E+00
         0.00000E+00
         0.00000E+00
         0.00000E+00
         0.00000E+00
         0.00000E+00
         0.00000E+00
         0.00000E+00
         0.00000E+00
         0.00000E+00
         0.00000E+00
         0.00000E+00
         0.00000E+00
         0.00000E+00
         0.00000E+00
         0.00000E+00
         0.00000E+00
         0.00000E+00
         0.00000E+00
         0.00000E+00
         0.00000E+00
         0.00000E+00
         0.00000E+00
         0.00000E+00
         0.00000E+00
         0.00000E+00
         0.00000E+00
         0.00000E+00
         0.00000E+00
         0.00000E+00
         0.00000E+00
         0.00000E+00
         0.00000E+00
         0.00000E+00
         0.00000E+00
         0.00000E+00
         0.00000E+00
         0.00000E+00
         0.00000E+00
         0.00000E+00
         0.00000E+00
         0.00000E+00
         0.00000E+00
         0.00000E+00
         0.00000E+00
         0.00000E+00
         0.00000E+00
         0.00000E+00
         0.00000E+00
         0.00000E+00
         0.00000E+00
         0.00000E+00
         0.00000E+00
         0.00000E+00
         0.00000E+00
         0.00000E+00
         0.00000E+00
         0.00000E+00
         0.00000E+00
         0.00000E+00
         0.00000E+00
         0.00000E+00
         0.00000E+00
         0.00000E+00
         0.00000E+00
         0.00000E+00
         0.00000E+00
         0.00000E+00
         0.00000E+00
         0.00000E+00
         0.00000E+00
         0.00000E+00
         0.00000E+00
         0.00000E+00
         0.00000E+00
         0.00000E+00
         0.00000E+00
         0.00000E+00
         0.00000E+00
         0.00000E+00
         0.00000E+00
         0.00000E+00
         0.00000E+00
         0.00000E+00
         0.00000E+00
         0.00000E+00
         0.00000E+00
         0.00000E+00
         0.00000E+00
         0.00000E+00
         0.00000E+00
         0.00000E+00
         0.00000E+00
         0.00000E+00
         0.00000E+00
         0.00000E+00
         0.00000E+00
         0.00000E+00
         0.00000E+00
         0.00000E+00
         0.00000E+00
         0.00000E+00
         0.00000E+00
         0.00000E+00
         0.00000E+00
         0.00000E+00
         0.00000E+00
         0.00000E+00
         0.00000E+00
         0.00000E+00
         0.00000E+00
         0.00000E+00
         0.00000E+00
         0.00000E+00
         0.00000E+00
         0.00000E+00
         0.00000E+00
         0.00000E+00
         0.00000E+00
         0.00000E+00
         0.00000E+00
         0.00000E+00
         0.00000E+00
         0.00000E+00
         0.00000E+00
         0.00000E+00
         0.00000E+00
         0.00000E+00
         0.00000E+00
         0.00000E+00
         0.00000E+00
         0.00000E+00
         0.00000E+00
         0.00000E+00
         0.00000E+00
         0.00000E+00
         0.00000E+00
         0.00000E+00
         0.00000E+00
         0.00000E+00
         0.00000E+00
         0.00000E+00
         0.00000E+00
         0.00000E+00
         0.00000E+00
         0.00000E+00
         0.00000E+00
         0.00000E+00
         0.00000E+00
         0.00000E+00
         0.00000E+00
         0.00000E+00
         0.00000E+00
         0.00000E+00
         0.00000E+00
         0.00000E+00
         0.00000E+00
         0.00000E+00
         0.00000E+00
         0.00000E+00
         0.00000E+00
         0.00000E+00
         0.00000E+00
         0.00000E+00
         0.00000E+00
         0.00000E+00
         0.00000E+00
         0.00000E+00
         0.00000E+00
         0.00000E+00
         0.00000E+00
         0.00000E+00
         0.00000E+00
         0.00000E+00
         0.00000E+00
         0.00000E+00
         0.00000E+00
         0.00000E+00
         0.00000E+00
         0.00000E+00
         0.00000E+00
         0.00000E+00
         0.00000E+00
         0.00000E+00
         0.00000E+00
         0.00000E+00
         0.00000E+00
         0.00000E+00
         0.00000E+00
         0.00000E+00
         0.00000E+00
         0.00000E+00
         0.00000E+00
         0.00000E+00
         0.00000E+00
         0.00000E+00
         0.00000E+00
         0.00000E+00
         0.00000E+00
         0.00000E+00
         0.00000E+00
         0.00000E+00
         0.00000E+00
         0.00000E+00
         0.00000E+00
         0.00000E+00
         0.00000E+00
         0.00000E+00
         0.00000E+00
         0.00000E+00
         0.00000E+00
         0.00000E+00
         0.00000E+00
         0.00000E+00
         0.00000E+00
         0.00000E+00
         0.00000E+00
         0.00000E+00
         0.00000E+00
         0.00000E+00
         0.00000E+00
         0.00000E+00
         0.00000E+00
         0.00000E+00
         0.00000E+00
         0.00000E+00
         0.00000E+00
         0.00000E+00
         0.00000E+00
         0.00000E+00
         0.00000E+00
         0.00000E+00
         0.00000E+00
         0.00000E+00
         0.00000E+00
         0.00000E+00
         0.00000E+00
         0.00000E+00
         0.00000E+00
         0.00000E+00
         0.00000E+00
         0.00000E+00
         0.00000E+00
         0.00000E+00
         0.00000E+00
         0.00000E+00
         0.00000E+00
         0.00000E+00
         0.00000E+00
         0.00000E+00
         0.00000E+00
         0.00000E+00
         0.00000E+00
         0.00000E+00
         0.00000E+00
         0.00000E+00
         0.00000E+00
         0.00000E+00
         0.00000E+00
         0.00000E+00
         0.00000E+00
         0.00000E+00
         0.00000E+00
         0.00000E+00
         0.00000E+00
         0.00000E+00
         0.00000E+00
         0.00000E+00
         0.00000E+00
         0.00000E+00
         0.00000E+00
         0.00000E+00
         0.00000E+00
         0.00000E+00
         0.00000E+00
         0.00000E+00
         0.00000E+00
         0.00000E+00
         0.00000E+00
         0.00000E+00
         0.00000E+00
         0.00000E+00
         0.00000E+00
         0.00000E+00
         0.00000E+00
         0.00000E+00
         0.00000E+00
         0.00000E+00
         0.00000E+00
         0.00000E+00
         0.00000E+00
         0.00000E+00
         0.00000E+00
         0.00000E+00
         0.00000E+00
         0.00000E+00
         0.00000E+00
         0.00000E+00
         0.00000E+00
         0.00000E+00
         0.00000E+00
         0.00000E+00
         0.00000E+00
         0.00000E+00
         0.00000E+00
         0.00000E+00
         0.00000E+00
         0.00000E+00
         0.00000E+00
         0.00000E+00
         0.00000E+00
         0.00000E+00
         0.00000E+00
         0.00000E+00
         0.00000E+00
         0.00000E+00
         0.00000E+00
         0.00000E+00
         0.00000E+00
         0.00000E+00
         0.00000E+00
         0.00000E+00
         0.00000E+00
         0.00000E+00
         0.00000E+00
         0.00000E+00
         0.00000E+00
         0.00000E+00
         0.00000E+00
         0.00000E+00
         0.00000E+00
         0.00000E+00
         0.00000E+00
         0.00000E+00
         0.00000E+00
         0.00000E+00
         0.00000E+00
         0.00000E+00
         0.00000E+00
         0.00000E+00
         0.00000E+00
         0.00000E+00
         0.00000E+00
         0.00000E+00
         0.00000E+00
         0.00000E+00
         0.00000E+00
         0.00000E+00
         0.00000E+00
         0.00000E+00
         0.00000E+00
         0.00000E+00
         0.00000E+00
         0.00000E+00
         0.00000E+00
         0.00000E+00
         0.00000E+00
         0.00000E+00
         0.00000E+00
         0.00000E+00
         0.00000E+00
         0.00000E+00
         0.00000E+00
         0.00000E+00
         0.00000E+00
         0.00000E+00
         0.00000E+00
         0.00000E+00
         0.00000E+00
         0.00000E+00
         0.00000E+00
         0.00000E+00
         0.00000E+00
         0.00000E+00
         0.00000E+00
         0.00000E+00
         0.00000E+00
         0.00000E+00
         0.00000E+00
         0.00000E+00
         0.00000E+00
         0.00000E+00
         0.00000E+00
         0.00000E+00
         0.00000E+00
         0.00000E+00
         0.00000E+00
         0.00000E+00
         0.00000E+00
         0.00000E+00
         0.00000E+00
         0.00000E+00
         0.00000E+00
         0.00000E+00
         0.00000E+00
         0.00000E+00
         0.00000E+00
         0.00000E+00
         0.00000E+00
         0.00000E+00
         0.00000E+00
         0.00000E+00
         0.00000E+00
         0.00000E+00
         0.00000E+00
         0.00000E+00
         0.00000E+00
         0.00000E+00
         0.00000E+00
         0.00000E+00
         0.00000E+00
         0.00000E+00
         0.00000E+00
         0.00000E+00
         0.00000E+00
         0.00000E+00
         0.00000E+00
         0.00000E+00
         0.00000E+00
         0.00000E+00
         0.00000E+00
         0.00000E+00
         0.00000E+00
         0.00000E+00
         0.00000E+00
         0.00000E+00
         0.00000E+00
         0.00000E+00
         0.00000E+00
         0.00000E+00
         0.00000E+00
         0.00000E+00
         0.00000E+00
         0.00000E+00
         0.00000E+00
         0.00000E+00
         0.00000E+00
         0.00000E+00
         0.00000E+00
         0.00000E+00
         0.00000E+00
         0.00000E+00
         0.00000E+00
         0.00000E+00
         0.00000E+00
         0.00000E+00
         0.00000E+00
         0.00000E+00
         0.00000E+00
         0.00000E+00
         0.00000E+00
         0.00000E+00
         0.00000E+00
         0.00000E+00
         0.00000E+00
         0.00000E+00
         0.00000E+00
         0.00000E+00
         0.00000E+00
         0.00000E+00
         0.00000E+00
         0.00000E+00
         0.00000E+00
         0.00000E+00
         0.00000E+00
         0.00000E+00
         0.00000E+00
         0.00000E+00
         0.00000E+00
         0.00000E+00
         0.00000E+00
         0.00000E+00
         0.00000E+00
         0.00000E+00
         0.00000E+00
         0.00000E+00
         0.00000E+00
         0.00000E+00
         0.00000E+00
         0.00000E+00
         0.00000E+00
         0.00000E+00
         0.00000E+00
         0.00000E+00
         0.00000E+00
         0.00000E+00
         0.00000E+00
         0.00000E+00
         0.00000E+00
         0.00000E+00
         0.00000E+00
         0.00000E+00
         0.00000E+00
         0.00000E+00
         0.00000E+00
         0.00000E+00
         0.00000E+00
         0.00000E+00
         0.00000E+00
         0.00000E+00
         0.00000E+00
         0.00000E+00
         0.00000E+00
         0.00000E+00
         0.00000E+00
         0.00000E+00
         0.00000E+00
         0.00000E+00
         0.00000E+00
         0.00000E+00
         0.00000E+00
         0.00000E+00
         0.00000E+00
         0.00000E+00
         0.00000E+00
         0.00000E+00
         0.00000E+00
         0.00000E+00
         0.00000E+00
         0.00000E+00
         0.00000E+00
         0.00000E+00
         0.00000E+00
         0.00000E+00
         0.00000E+00
         0.00000E+00
         0.00000E+00
         0.00000E+00
         0.00000E+00
         0.00000E+00
         0.00000E+00
         0.00000E+00
         0.00000E+00
         0.00000E+00
         0.00000E+00
         0.00000E+00
         0.00000E+00
         0.00000E+00
         0.00000E+00
         0.00000E+00
         0.00000E+00
         0.00000E+00
         0.00000E+00
         0.00000E+00
         0.00000E+00
         0.00000E+00
         0.00000E+00
         0.00000E+00
         0.00000E+00
         0.00000E+00
         0.00000E+00
         0.00000E+00
         0.00000E+00
         0.00000E+00
         0.00000E+00
         0.00000E+00
         0.00000E+00
         0.00000E+00
         0.00000E+00
         0.00000E+00
         0.00000E+00
         0.00000E+00
         0.00000E+00
         0.00000E+00
         0.00000E+00
         0.00000E+00
         0.00000E+00
         0.00000E+00
         0.00000E+00
         0.00000E+00
         0.00000E+00
         0.00000E+00
         0.00000E+00
         0.00000E+00
         0.00000E+00
         0.00000E+00
         0.00000E+00
         0.00000E+00
         0.00000E+00
         0.00000E+00
         0.00000E+00
         0.00000E+00
         0.00000E+00
         0.00000E+00
         0.00000E+00
         0.00000E+00
         0.00000E+00
         0.00000E+00
         0.00000E+00
         0.00000E+00
         0.00000E+00
         0.00000E+00
         0.00000E+00
         0.00000E+00
         0.00000E+00
         0.00000E+00
         0.00000E+00
         0.00000E+00
         0.00000E+00
         0.00000E+00
         0.00000E+00
         0.00000E+00
         0.00000E+00
         0.00000E+00
         0.00000E+00
         0.00000E+00
         0.00000E+00
         0.00000E+00
         0.00000E+00
         0.00000E+00
         0.00000E+00
         0.00000E+00
         0.00000E+00
         0.00000E+00
         0.00000E+00
         0.00000E+00
         0.00000E+00
         0.00000E+00
         0.00000E+00
         0.00000E+00
         0.00000E+00
         0.00000E+00
         0.00000E+00
         0.00000E+00
         0.00000E+00
         0.00000E+00
         0.00000E+00
         0.00000E+00
         0.00000E+00
         0.00000E+00
         0.00000E+00
         0.00000E+00
         0.00000E+00
         0.00000E+00
         0.00000E+00
         0.00000E+00
         0.00000E+00
         0.00000E+00
         0.00000E+00
         0.00000E+00
         0.00000E+00
         0.00000E+00
         0.00000E+00
         0.00000E+00
         0.00000E+00
         0.00000E+00
         0.00000E+00
         0.00000E+00
         0.00000E+00
         0.00000E+00
         0.00000E+00
         0.00000E+00
         0.00000E+00
         0.00000E+00
         0.00000E+00
         0.00000E+00
         0.00000E+00
         0.00000E+00
         0.00000E+00
         0.00000E+00
         0.00000E+00
         0.00000E+00
         0.00000E+00
         0.00000E+00
         0.00000E+00
         0.00000E+00
         0.00000E+00
         0.00000E+00
         0.00000E+00
         0.00000E+00
         0.00000E+00
         0.00000E+00
         0.00000E+00
         0.00000E+00
         0.00000E+00
         0.00000E+00
         0.00000E+00
         0.00000E+00
         0.00000E+00
         0.00000E+00
         0.00000E+00
         0.00000E+00
         0.00000E+00
         0.00000E+00
         0.00000E+00
         0.00000E+00
         0.00000E+00
         0.00000E+00
         0.00000E+00
         0.00000E+00
         0.00000E+00
         0.00000E+00
         0.00000E+00
         0.00000E+00
         0.00000E+00
         0.00000E+00
         0.00000E+00
         0.00000E+00
         0.00000E+00
         0.00000E+00
         0.00000E+00
         0.00000E+00
         0.00000E+00
         0.00000E+00
         0.00000E+00
         0.00000E+00
         0.00000E+00
         0.00000E+00
         0.00000E+00
         0.00000E+00
         0.00000E+00
         0.00000E+00
         0.00000E+00
         0.00000E+00
         0.00000E+00
         0.00000E+00
         0.00000E+00
         0.00000E+00
         0.00000E+00
         0.00000E+00
         0.00000E+00
         0.00000E+00
         0.00000E+00
         0.00000E+00
         0.00000E+00
         0.00000E+00
         0.00000E+00
         0.00000E+00
         0.00000E+00
         0.00000E+00
         0.00000E+00
         0.00000E+00
         0.00000E+00
         0.00000E+00
         0.00000E+00
         0.00000E+00
         0.00000E+00
         0.00000E+00
         0.00000E+00
         0.00000E+00
         0.00000E+00
         0.00000E+00
         0.00000E+00
         0.00000E+00
         0.00000E+00
         0.00000E+00
         0.00000E+00
         0.00000E+00
         0.00000E+00
         0.00000E+00
         0.00000E+00
         0.00000E+00
         0.00000E+00
         0.00000E+00
         0.00000E+00
         0.00000E+00
         0.00000E+00
         0.00000E+00
         0.00000E+00
         0.00000E+00
         0.00000E+00
         0.00000E+00
         0.00000E+00
         0.00000E+00
         0.00000E+00
         0.00000E+00
         0.00000E+00
         0.00000E+00
         0.00000E+00
         0.00000E+00
         0.00000E+00
         0.00000E+00
         0.00000E+00
         0.00000E+00
         0.00000E+00
         0.00000E+00
         0.00000E+00
         0.00000E+00
         0.00000E+00
         0.00000E+00
         0.00000E+00
         0.00000E+00
         0.00000E+00
         0.00000E+00
         0.00000E+00
         0.00000E+00
         0.00000E+00
         0.00000E+00
         0.00000E+00
         0.00000E+00
         0.00000E+00
         0.00000E+00
         0.00000E+00
         0.00000E+00
         0.00000E+00
         0.00000E+00
         0.00000E+00
         0.00000E+00
         0.00000E+00
         0.00000E+00
         0.00000E+00
         0.00000E+00
         0.00000E+00
         0.00000E+00
         0.00000E+00
         0.00000E+00
         0.00000E+00
         0.00000E+00
         0.00000E+00
         0.00000E+00
         0.00000E+00
         0.00000E+00
         0.00000E+00
         0.00000E+00
         0.00000E+00
         0.00000E+00
         0.00000E+00
         0.00000E+00
         0.00000E+00
         0.00000E+00
         0.00000E+00
         0.00000E+00
         0.00000E+00
         0.00000E+00
         0.00000E+00
         0.00000E+00
         0.00000E+00
         0.00000E+00
         0.00000E+00
         0.00000E+00
         0.00000E+00
         0.00000E+00
         0.00000E+00
         0.00000E+00
         0.00000E+00
         0.00000E+00
         0.00000E+00
         0.00000E+00
         0.00000E+00
         0.00000E+00
         0.00000E+00
         0.00000E+00
         0.00000E+00
         0.00000E+00
         0.00000E+00
         0.00000E+00
         0.00000E+00
         0.00000E+00
         0.00000E+00
         0.00000E+00
         0.00000E+00
         0.00000E+00
         0.00000E+00
         0.00000E+00
         0.00000E+00
         0.00000E+00
         0.00000E+00
         0.00000E+00
         0.00000E+00
         0.00000E+00
         0.00000E+00
         0.00000E+00
         0.00000E+00
         0.00000E+00
         0.00000E+00
         0.00000E+00
         0.00000E+00
         0.00000E+00
         0.00000E+00
         0.00000E+00
         0.00000E+00
         0.00000E+00
         0.00000E+00
         0.00000E+00
         0.00000E+00
         0.00000E+00
         0.00000E+00
         0.00000E+00
         0.00000E+00
         0.00000E+00
         0.00000E+00
         0.00000E+00
         0.00000E+00
         0.00000E+00
         0.00000E+00
         0.00000E+00
         0.00000E+00
         0.00000E+00
         0.00000E+00
         0.00000E+00
         0.00000E+00
         0.00000E+00
         0.00000E+00
         0.00000E+00
         0.00000E+00
         0.00000E+00
         0.00000E+00
         0.00000E+00
         0.00000E+00
         0.00000E+00
         0.00000E+00
         0.00000E+00
         0.00000E+00
         0.00000E+00
         0.00000E+00
         0.00000E+00
         0.00000E+00
         0.00000E+00
         0.00000E+00
         0.00000E+00
         0.00000E+00
         0.00000E+00
         0.00000E+00
         0.00000E+00
         0.00000E+00
         0.00000E+00
         0.00000E+00
         0.00000E+00
         0.00000E+00
         0.00000E+00
         0.00000E+00
         0.00000E+00
         0.00000E+00
         0.00000E+00
         0.00000E+00
         0.00000E+00
         0.00000E+00
         0.00000E+00
         0.00000E+00
         0.00000E+00
         0.00000E+00
         0.00000E+00
         0.00000E+00
         0.00000E+00
         0.00000E+00
         0.00000E+00
         0.00000E+00
         0.00000E+00
         0.00000E+00
         0.00000E+00
         0.00000E+00
         0.00000E+00
         0.00000E+00
         0.00000E+00
         0.00000E+00
         0.00000E+00
         0.00000E+00
         0.00000E+00
         0.00000E+00
         0.00000E+00
         0.00000E+00
         0.00000E+00
         0.00000E+00
         0.00000E+00
         0.00000E+00
         0.00000E+00
         0.00000E+00
         0.00000E+00
         0.00000E+00
         0.00000E+00
         0.00000E+00
         0.00000E+00
         0.00000E+00
         0.00000E+00
         0.00000E+00
         0.00000E+00
         0.00000E+00
         0.00000E+00
         0.00000E+00
         0.00000E+00
         0.00000E+00
         0.00000E+00
         0.00000E+00
         0.00000E+00
         0.00000E+00
         0.00000E+00
         0.00000E+00
         0.00000E+00
         0.00000E+00
         0.00000E+00
         0.00000E+00
         0.00000E+00
         0.00000E+00
         0.00000E+00
         0.00000E+00
         0.00000E+00
         0.00000E+00
         0.00000E+00
         0.00000E+00
         0.00000E+00
         0.00000E+00
         0.00000E+00
         0.00000E+00
         0.00000E+00
         0.00000E+00
         0.00000E+00
         0.00000E+00
         0.00000E+00
         0.00000E+00
         0.00000E+00
         0.00000E+00
         0.00000E+00
         0.00000E+00
         0.00000E+00
         0.00000E+00
         0.00000E+00
         0.00000E+00
         0.00000E+00
         0.00000E+00
         0.00000E+00
         0.00000E+00
         0.00000E+00
         0.00000E+00
         0.00000E+00
         0.00000E+00
         0.00000E+00
         0.00000E+00
         0.00000E+00
         0.00000E+00
         0.00000E+00
         0.00000E+00
         0.00000E+00
         0.00000E+00
         0.00000E+00
         0.00000E+00
         0.00000E+00
         0.00000E+00
         0.00000E+00
         0.00000E+00
         0.00000E+00
         0.00000E+00
         0.00000E+00
         0.00000E+00
         0.00000E+00
         0.00000E+00
         0.00000E+00
         0.00000E+00
         0.00000E+00
         0.00000E+00
         0.00000E+00
         0.00000E+00
         0.00000E+00
         0.00000E+00
         0.00000E+00
         0.00000E+00
         0.00000E+00
         0.00000E+00
         0.00000E+00
         0.00000E+00
         0.00000E+00
         0.00000E+00
         0.00000E+00
         0.00000E+00
         0.00000E+00
         0.00000E+00
         0.00000E+00
         0.00000E+00
         0.00000E+00
         0.00000E+00
         0.00000E+00
         0.00000E+00
         0.00000E+00
         0.00000E+00
         0.00000E+00
         0.00000E+00
         0.00000E+00
         0.00000E+00
         0.00000E+00
         0.00000E+00
         0.00000E+00
         0.00000E+00
         0.00000E+00
         0.00000E+00
         0.00000E+00
         0.00000E+00
         0.00000E+00
         0.00000E+00
         0.00000E+00
         0.00000E+00
         0.00000E+00
         0.00000E+00
         0.00000E+00
         0.00000E+00
         0.00000E+00
         0.00000E+00
         0.00000E+00
         0.00000E+00
         0.00000E+00
         0.00000E+00
         0.00000E+00
         0.00000E+00
         0.00000E+00
         0.00000E+00
         0.00000E+00
         0.00000E+00
         0.00000E+00
         0.00000E+00
         0.00000E+00
         0.00000E+00
         0.00000E+00
         0.00000E+00
         0.00000E+00
         0.00000E+00
         0.00000E+00
         0.00000E+00
         0.00000E+00
         0.00000E+00
         0.00000E+00
         0.00000E+00
         0.00000E+00
         0.00000E+00
         0.00000E+00
         0.00000E+00
         0.00000E+00
         0.00000E+00
         0.00000E+00
         0.00000E+00
         0.00000E+00
         0.00000E+00
         0.00000E+00
         0.00000E+00
         0.00000E+00
         0.00000E+00
         0.00000E+00
         0.00000E+00
         0.00000E+00
         0.00000E+00
         0.00000E+00
         0.00000E+00
         0.00000E+00
         0.00000E+00
         0.00000E+00
         0.00000E+00
         0.00000E+00
         0.00000E+00
         0.00000E+00
         0.00000E+00
         0.00000E+00
         0.00000E+00
         0.00000E+00
         0.00000E+00
         0.00000E+00
         0.00000E+00
         0.00000E+00
         0.00000E+00
         0.00000E+00
         0.00000E+00
         0.00000E+00
         0.00000E+00
         0.00000E+00
         0.00000E+00
         0.00000E+00
         0.00000E+00
         0.00000E+00
         0.00000E+00
         0.00000E+00
         0.00000E+00
         0.00000E+00
         0.00000E+00
         0.00000E+00
         0.00000E+00
         0.00000E+00
         0.00000E+00
         0.00000E+00
         0.00000E+00
         0.00000E+00
         0.00000E+00
         0.00000E+00
         0.00000E+00
         0.00000E+00
         0.00000E+00
         0.00000E+00
         0.00000E+00
         0.00000E+00
         0.00000E+00
         0.00000E+00
         0.00000E+00
         0.00000E+00
         0.00000E+00
         0.00000E+00
         0.00000E+00
         0.00000E+00
         0.00000E+00
         0.00000E+00
         0.00000E+00
         0.00000E+00
         0.00000E+00
         0.00000E+00
         0.00000E+00
         0.00000E+00
         0.00000E+00
         0.00000E+00
         0.00000E+00
         0.00000E+00
         0.00000E+00
         0.00000E+00
         0.00000E+00
         0.00000E+00
         0.00000E+00
         0.00000E+00
         0.00000E+00
         0.00000E+00
         0.00000E+00
         0.00000E+00
         0.00000E+00
         0.00000E+00
         0.00000E+00
         0.00000E+00
         0.00000E+00
         0.00000E+00
         0.00000E+00
         0.00000E+00
         0.00000E+00
         0.00000E+00
         0.00000E+00
         0.00000E+00
         0.00000E+00
         0.00000E+00
         0.00000E+00
         0.00000E+00
         0.00000E+00
         0.00000E+00
         0.00000E+00
         0.00000E+00
         0.00000E+00
         0.00000E+00
         0.00000E+00
         0.00000E+00
         0.00000E+00
         0.00000E+00
         0.00000E+00
         0.00000E+00
         0.00000E+00
         0.00000E+00
         0.00000E+00
         0.00000E+00
         0.00000E+00
         0.00000E+00
         0.00000E+00
         0.00000E+00
         0.00000E+00
         0.00000E+00
         0.00000E+00
         0.00000E+00
         0.00000E+00
         0.00000E+00
         0.00000E+00
         0.00000E+00
         0.00000E+00
         0.00000E+00
         0.00000E+00
         0.00000E+00
         0.00000E+00
         0.00000E+00
         0.00000E+00
         0.00000E+00
         0.00000E+00
         0.00000E+00
         0.00000E+00
         0.00000E+00
         0.00000E+00
         0.00000E+00
         0.00000E+00
         0.00000E+00
         0.00000E+00
         0.00000E+00
         0.00000E+00
         0.00000E+00
         0.00000E+00
         0.00000E+00
         0.00000E+00
         0.00000E+00
         0.00000E+00
         0.00000E+00
         0.00000E+00
         0.00000E+00
         0.00000E+00
         0.00000E+00
         0.00000E+00
         0.00000E+00
         0.00000E+00
         0.00000E+00
         0.00000E+00
         0.00000E+00
         0.00000E+00
         0.00000E+00
         0.00000E+00
         0.00000E+00
         0.00000E+00
         0.00000E+00
         0.00000E+00
         0.00000E+00
         0.00000E+00
         0.00000E+00
         0.00000E+00
         0.00000E+00
         0.00000E+00
         0.00000E+00
         0.00000E+00
         0.00000E+00
         0.00000E+00
         0.00000E+00
         0.00000E+00
         0.00000E+00
         0.00000E+00
         0.00000E+00
         0.00000E+00
         0.00000E+00
         0.00000E+00
         0.00000E+00
         0.00000E+00
         0.00000E+00
         0.00000E+00
         0.00000E+00
         0.00000E+00
         0.00000E+00
         0.00000E+00
         0.00000E+00
         0.00000E+00
         0.00000E+00
         0.00000E+00
         0.00000E+00
         0.00000E+00
         0.00000E+00
         0.00000E+00
         0.00000E+00
         0.00000E+00
         0.00000E+00
         0.00000E+00
         0.00000E+00
         0.00000E+00
         0.00000E+00
         0.00000E+00
         0.00000E+00
         0.00000E+00
         0.00000E+00
         0.00000E+00
         0.00000E+00
         0.00000E+00
         0.00000E+00
         0.00000E+00
         0.00000E+00
         0.00000E+00
         0.00000E+00
         0.00000E+00
         0.00000E+00
         0.00000E+00
         0.00000E+00
         0.00000E+00
         0.00000E+00
         0.00000E+00
         0.00000E+00
         0.00000E+00
         0.00000E+00
         0.00000E+00
         0.00000E+00
         0.00000E+00
         0.00000E+00
         0.00000E+00
         0.00000E+00
         0.00000E+00
         0.00000E+00
         0.00000E+00
         0.00000E+00
         0.00000E+00
         0.00000E+00
         0.00000E+00
         0.00000E+00
         0.00000E+00
         0.00000E+00
         0.00000E+00
         0.00000E+00
         0.00000E+00
         0.00000E+00
         0.00000E+00
         0.00000E+00
         0.00000E+00
         0.00000E+00
         0.00000E+00
         0.00000E+00
         0.00000E+00
         0.00000E+00
         0.00000E+00
         0.00000E+00
         0.00000E+00
         0.00000E+00
         0.00000E+00
         0.00000E+00
         0.00000E+00
         0.00000E+00
         0.00000E+00
         0.00000E+00
         0.00000E+00
         0.00000E+00
         0.00000E+00
         0.00000E+00
         0.00000E+00
         0.00000E+00
         0.00000E+00
         0.00000E+00
         0.00000E+00
         0.00000E+00
         0.00000E+00
         0.00000E+00
         0.00000E+00
         0.00000E+00
         0.00000E+00
         0.00000E+00
         0.00000E+00
         0.00000E+00
         0.00000E+00
         0.00000E+00
         0.00000E+00
         0.00000E+00
         0.00000E+00
         0.00000E+00
         0.00000E+00
         0.00000E+00
         0.00000E+00
         0.00000E+00
         0.00000E+00
         0.00000E+00
         0.00000E+00
         0.00000E+00
         0.00000E+00
         0.00000E+00
         0.00000E+00
         0.00000E+00
         0.00000E+00
         0.00000E+00
         0.00000E+00
         0.00000E+00
         0.00000E+00
         0.00000E+00
         0.00000E+00
         0.00000E+00
         0.00000E+00
         0.00000E+00
         0.00000E+00
         0.00000E+00
         0.00000E+00
         0.00000E+00
         0.00000E+00
         0.00000E+00
         0.00000E+00
         0.00000E+00
         0.00000E+00
         0.00000E+00
         0.00000E+00
         0.00000E+00
         0.00000E+00
         0.00000E+00
         0.00000E+00
         0.00000E+00
         0.00000E+00
         0.00000E+00
         0.00000E+00
         0.00000E+00
         0.00000E+00
         0.00000E+00
         0.00000E+00
         0.00000E+00
         0.00000E+00
         0.00000E+00
         0.00000E+00
         0.00000E+00
         0.00000E+00
         0.00000E+00
         0.00000E+00
         0.00000E+00
         0.00000E+00
         0.00000E+00
  
SCALARS                 displacement_y  double 1
LOOKUP_TABLE default
         0.00000E+00
         0.00000E+00
         0.00000E+00
         0.00000E+00
         0.00000E+00
         0.00000E+00
         0.00000E+00
         0.00000E+00
         0.00000E+00
         0.00000E+00
         0.00000E+00
         0.00000E+00
         0.00000E+00
         0.00000E+00
         0.00000E+00
         0.00000E+00
         0.00000E+00
         0.00000E+00
         0.00000E+00
         0.00000E+00
         0.00000E+00
         0.00000E+00
         0.00000E+00
         0.00000E+00
         0.00000E+00
         0.00000E+00
         0.00000E+00
         0.00000E+00
         0.00000E+00
         0.00000E+00
         0.00000E+00
         0.00000E+00
         0.00000E+00
         0.00000E+00
         0.00000E+00
         0.00000E+00
         0.00000E+00
         0.00000E+00
         0.00000E+00
         0.00000E+00
         0.00000E+00
         0.00000E+00
         0.00000E+00
         0.00000E+00
         0.00000E+00
         0.00000E+00
         0.00000E+00
         0.00000E+00
         0.00000E+00
         0.00000E+00
         0.00000E+00
         0.00000E+00
         0.00000E+00
         0.00000E+00
         0.00000E+00
         0.00000E+00
         0.00000E+00
         0.00000E+00
         0.00000E+00
         0.00000E+00
         0.00000E+00
         0.00000E+00
         0.00000E+00
         0.00000E+00
         0.00000E+00
         0.00000E+00
         0.00000E+00
         0.00000E+00
         0.00000E+00
         0.00000E+00
         0.00000E+00
         0.00000E+00
         0.00000E+00
         0.00000E+00
         0.00000E+00
         0.00000E+00
         0.00000E+00
         0.00000E+00
         0.00000E+00
         0.00000E+00
         0.00000E+00
         0.00000E+00
         0.00000E+00
         0.00000E+00
         0.00000E+00
         0.00000E+00
         0.00000E+00
         0.00000E+00
         0.00000E+00
         0.00000E+00
         0.00000E+00
         0.00000E+00
         0.00000E+00
         0.00000E+00
         0.00000E+00
         0.00000E+00
         0.00000E+00
         0.00000E+00
         0.00000E+00
         0.00000E+00
         0.00000E+00
         0.00000E+00
         0.00000E+00
         0.00000E+00
         0.00000E+00
         0.00000E+00
         0.00000E+00
         0.00000E+00
         0.00000E+00
         0.00000E+00
         0.00000E+00
         0.00000E+00
         0.00000E+00
         0.00000E+00
         0.00000E+00
         0.00000E+00
         0.00000E+00
         0.00000E+00
         0.00000E+00
         0.00000E+00
         0.00000E+00
         0.00000E+00
         0.00000E+00
         0.00000E+00
         0.00000E+00
         0.00000E+00
         0.00000E+00
         0.00000E+00
         0.00000E+00
         0.00000E+00
         0.00000E+00
         0.00000E+00
         0.00000E+00
         0.00000E+00
         0.00000E+00
         0.00000E+00
         0.00000E+00
         0.00000E+00
         0.00000E+00
         0.00000E+00
         0.00000E+00
         0.00000E+00
         0.00000E+00
         0.00000E+00
         0.00000E+00
         0.00000E+00
         0.00000E+00
         0.00000E+00
         0.00000E+00
         0.00000E+00
         0.00000E+00
         0.00000E+00
         0.00000E+00
         0.00000E+00
         0.00000E+00
         0.00000E+00
         0.00000E+00
         0.00000E+00
         0.00000E+00
         0.00000E+00
         0.00000E+00
         0.00000E+00
         0.00000E+00
         0.00000E+00
         0.00000E+00
         0.00000E+00
         0.00000E+00
         0.00000E+00
         0.00000E+00
         0.00000E+00
         0.00000E+00
         0.00000E+00
         0.00000E+00
         0.00000E+00
         0.00000E+00
         0.00000E+00
         0.00000E+00
         0.00000E+00
         0.00000E+00
         0.00000E+00
         0.00000E+00
         0.00000E+00
         0.00000E+00
         0.00000E+00
         0.00000E+00
         0.00000E+00
         0.00000E+00
         0.00000E+00
         0.00000E+00
         0.00000E+00
         0.00000E+00
         0.00000E+00
         0.00000E+00
         0.00000E+00
         0.00000E+00
         0.00000E+00
         0.00000E+00
         0.00000E+00
         0.00000E+00
         0.00000E+00
         0.00000E+00
         0.00000E+00
         0.00000E+00
         0.00000E+00
         0.00000E+00
         0.00000E+00
         0.00000E+00
         0.00000E+00
         0.00000E+00
         0.00000E+00
         0.00000E+00
         0.00000E+00
         0.00000E+00
         0.00000E+00
         0.00000E+00
         0.00000E+00
         0.00000E+00
         0.00000E+00
         0.00000E+00
         0.00000E+00
         0.00000E+00
         0.00000E+00
         0.00000E+00
         0.00000E+00
         0.00000E+00
         0.00000E+00
         0.00000E+00
         0.00000E+00
         0.00000E+00
         0.00000E+00
         0.00000E+00
         0.00000E+00
         0.00000E+00
         0.00000E+00
         0.00000E+00
         0.00000E+00
         0.00000E+00
         0.00000E+00
         0.00000E+00
         0.00000E+00
         0.00000E+00
         0.00000E+00
         0.00000E+00
         0.00000E+00
         0.00000E+00
         0.00000E+00
         0.00000E+00
         0.00000E+00
         0.00000E+00
         0.00000E+00
         0.00000E+00
         0.00000E+00
         0.00000E+00
         0.00000E+00
         0.00000E+00
         0.00000E+00
         0.00000E+00
         0.00000E+00
         0.00000E+00
         0.00000E+00
         0.00000E+00
         0.00000E+00
         0.00000E+00
         0.00000E+00
         0.00000E+00
         0.00000E+00
         0.00000E+00
         0.00000E+00
         0.00000E+00
         0.00000E+00
         0.00000E+00
         0.00000E+00
         0.00000E+00
         0.00000E+00
         0.00000E+00
         0.00000E+00
         0.00000E+00
         0.00000E+00
         0.00000E+00
         0.00000E+00
         0.00000E+00
         0.00000E+00
         0.00000E+00
         0.00000E+00
         0.00000E+00
         0.00000E+00
         0.00000E+00
         0.00000E+00
         0.00000E+00
         0.00000E+00
         0.00000E+00
         0.00000E+00
         0.00000E+00
         0.00000E+00
         0.00000E+00
         0.00000E+00
         0.00000E+00
         0.00000E+00
         0.00000E+00
         0.00000E+00
         0.00000E+00
         0.00000E+00
         0.00000E+00
         0.00000E+00
         0.00000E+00
         0.00000E+00
         0.00000E+00
         0.00000E+00
         0.00000E+00
         0.00000E+00
         0.00000E+00
         0.00000E+00
         0.00000E+00
         0.00000E+00
         0.00000E+00
         0.00000E+00
         0.00000E+00
         0.00000E+00
         0.00000E+00
         0.00000E+00
         0.00000E+00
         0.00000E+00
         0.00000E+00
         0.00000E+00
         0.00000E+00
         0.00000E+00
         0.00000E+00
         0.00000E+00
         0.00000E+00
         0.00000E+00
         0.00000E+00
         0.00000E+00
         0.00000E+00
         0.00000E+00
         0.00000E+00
         0.00000E+00
         0.00000E+00
         0.00000E+00
         0.00000E+00
         0.00000E+00
         0.00000E+00
         0.00000E+00
         0.00000E+00
         0.00000E+00
         0.00000E+00
         0.00000E+00
         0.00000E+00
         0.00000E+00
         0.00000E+00
         0.00000E+00
         0.00000E+00
         0.00000E+00
         0.00000E+00
         0.00000E+00
         0.00000E+00
         0.00000E+00
         0.00000E+00
         0.00000E+00
         0.00000E+00
         0.00000E+00
         0.00000E+00
         0.00000E+00
         0.00000E+00
         0.00000E+00
         0.00000E+00
         0.00000E+00
         0.00000E+00
         0.00000E+00
         0.00000E+00
         0.00000E+00
         0.00000E+00
         0.00000E+00
         0.00000E+00
         0.00000E+00
         0.00000E+00
         0.00000E+00
         0.00000E+00
         0.00000E+00
         0.00000E+00
         0.00000E+00
         0.00000E+00
         0.00000E+00
         0.00000E+00
         0.00000E+00
         0.00000E+00
         0.00000E+00
         0.00000E+00
         0.00000E+00
         0.00000E+00
         0.00000E+00
         0.00000E+00
         0.00000E+00
         0.00000E+00
         0.00000E+00
         0.00000E+00
         0.00000E+00
         0.00000E+00
         0.00000E+00
         0.00000E+00
         0.00000E+00
         0.00000E+00
         0.00000E+00
         0.00000E+00
         0.00000E+00
         0.00000E+00
         0.00000E+00
         0.00000E+00
         0.00000E+00
         0.00000E+00
         0.00000E+00
         0.00000E+00
         0.00000E+00
         0.00000E+00
         0.00000E+00
         0.00000E+00
         0.00000E+00
         0.00000E+00
         0.00000E+00
         0.00000E+00
         0.00000E+00
         0.00000E+00
         0.00000E+00
         0.00000E+00
         0.00000E+00
         0.00000E+00
         0.00000E+00
         0.00000E+00
         0.00000E+00
         0.00000E+00
         0.00000E+00
         0.00000E+00
         0.00000E+00
         0.00000E+00
         0.00000E+00
         0.00000E+00
         0.00000E+00
         0.00000E+00
         0.00000E+00
         0.00000E+00
         0.00000E+00
         0.00000E+00
         0.00000E+00
         0.00000E+00
         0.00000E+00
         0.00000E+00
         0.00000E+00
         0.00000E+00
         0.00000E+00
         0.00000E+00
         0.00000E+00
         0.00000E+00
         0.00000E+00
         0.00000E+00
         0.00000E+00
         0.00000E+00
         0.00000E+00
         0.00000E+00
         0.00000E+00
         0.00000E+00
         0.00000E+00
         0.00000E+00
         0.00000E+00
         0.00000E+00
         0.00000E+00
         0.00000E+00
         0.00000E+00
         0.00000E+00
         0.00000E+00
         0.00000E+00
         0.00000E+00
         0.00000E+00
         0.00000E+00
         0.00000E+00
         0.00000E+00
         0.00000E+00
         0.00000E+00
         0.00000E+00
         0.00000E+00
         0.00000E+00
         0.00000E+00
         0.00000E+00
         0.00000E+00
         0.00000E+00
         0.00000E+00
         0.00000E+00
         0.00000E+00
         0.00000E+00
         0.00000E+00
         0.00000E+00
         0.00000E+00
         0.00000E+00
         0.00000E+00
         0.00000E+00
         0.00000E+00
         0.00000E+00
         0.00000E+00
         0.00000E+00
         0.00000E+00
         0.00000E+00
         0.00000E+00
         0.00000E+00
         0.00000E+00
         0.00000E+00
         0.00000E+00
         0.00000E+00
         0.00000E+00
         0.00000E+00
         0.00000E+00
         0.00000E+00
         0.00000E+00
         0.00000E+00
         0.00000E+00
         0.00000E+00
         0.00000E+00
         0.00000E+00
         0.00000E+00
         0.00000E+00
         0.00000E+00
         0.00000E+00
         0.00000E+00
         0.00000E+00
         0.00000E+00
         0.00000E+00
         0.00000E+00
         0.00000E+00
         0.00000E+00
         0.00000E+00
         0.00000E+00
         0.00000E+00
         0.00000E+00
         0.00000E+00
         0.00000E+00
         0.00000E+00
         0.00000E+00
         0.00000E+00
         0.00000E+00
         0.00000E+00
         0.00000E+00
         0.00000E+00
         0.00000E+00
         0.00000E+00
         0.00000E+00
         0.00000E+00
         0.00000E+00
         0.00000E+00
         0.00000E+00
         0.00000E+00
         0.00000E+00
         0.00000E+00
         0.00000E+00
         0.00000E+00
         0.00000E+00
         0.00000E+00
         0.00000E+00
         0.00000E+00
         0.00000E+00
         0.00000E+00
         0.00000E+00
         0.00000E+00
         0.00000E+00
         0.00000E+00
         0.00000E+00
         0.00000E+00
         0.00000E+00
         0.00000E+00
         0.00000E+00
         0.00000E+00
         0.00000E+00
         0.00000E+00
         0.00000E+00
         0.00000E+00
         0.00000E+00
         0.00000E+00
         0.00000E+00
         0.00000E+00
         0.00000E+00
         0.00000E+00
         0.00000E+00
         0.00000E+00
         0.00000E+00
         0.00000E+00
         0.00000E+00
         0.00000E+00
         0.00000E+00
         0.00000E+00
         0.00000E+00
         0.00000E+00
         0.00000E+00
         0.00000E+00
         0.00000E+00
         0.00000E+00
         0.00000E+00
         0.00000E+00
         0.00000E+00
         0.00000E+00
         0.00000E+00
         0.00000E+00
         0.00000E+00
         0.00000E+00
         0.00000E+00
         0.00000E+00
         0.00000E+00
         0.00000E+00
         0.00000E+00
         0.00000E+00
         0.00000E+00
         0.00000E+00
         0.00000E+00
         0.00000E+00
         0.00000E+00
         0.00000E+00
         0.00000E+00
         0.00000E+00
         0.00000E+00
         0.00000E+00
         0.00000E+00
         0.00000E+00
         0.00000E+00
         0.00000E+00
         0.00000E+00
         0.00000E+00
         0.00000E+00
         0.00000E+00
         0.00000E+00
         0.00000E+00
         0.00000E+00
         0.00000E+00
         0.00000E+00
         0.00000E+00
         0.00000E+00
         0.00000E+00
         0.00000E+00
         0.00000E+00
         0.00000E+00
         0.00000E+00
         0.00000E+00
         0.00000E+00
         0.00000E+00
         0.00000E+00
         0.00000E+00
         0.00000E+00
         0.00000E+00
         0.00000E+00
         0.00000E+00
         0.00000E+00
         0.00000E+00
         0.00000E+00
         0.00000E+00
         0.00000E+00
         0.00000E+00
         0.00000E+00
         0.00000E+00
         0.00000E+00
         0.00000E+00
         0.00000E+00
         0.00000E+00
         0.00000E+00
         0.00000E+00
         0.00000E+00
         0.00000E+00
         0.00000E+00
         0.00000E+00
         0.00000E+00
         0.00000E+00
         0.00000E+00
         0.00000E+00
         0.00000E+00
         0.00000E+00
         0.00000E+00
         0.00000E+00
         0.00000E+00
         0.00000E+00
         0.00000E+00
         0.00000E+00
         0.00000E+00
         0.00000E+00
         0.00000E+00
         0.00000E+00
         0.00000E+00
         0.00000E+00
         0.00000E+00
         0.00000E+00
         0.00000E+00
         0.00000E+00
         0.00000E+00
         0.00000E+00
         0.00000E+00
         0.00000E+00
         0.00000E+00
         0.00000E+00
         0.00000E+00
         0.00000E+00
         0.00000E+00
         0.00000E+00
         0.00000E+00
         0.00000E+00
         0.00000E+00
         0.00000E+00
         0.00000E+00
         0.00000E+00
         0.00000E+00
         0.00000E+00
         0.00000E+00
         0.00000E+00
         0.00000E+00
         0.00000E+00
         0.00000E+00
         0.00000E+00
         0.00000E+00
         0.00000E+00
         0.00000E+00
         0.00000E+00
         0.00000E+00
         0.00000E+00
         0.00000E+00
         0.00000E+00
         0.00000E+00
         0.00000E+00
         0.00000E+00
         0.00000E+00
         0.00000E+00
         0.00000E+00
         0.00000E+00
         0.00000E+00
         0.00000E+00
         0.00000E+00
         0.00000E+00
         0.00000E+00
         0.00000E+00
         0.00000E+00
         0.00000E+00
         0.00000E+00
         0.00000E+00
         0.00000E+00
         0.00000E+00
         0.00000E+00
         0.00000E+00
         0.00000E+00
         0.00000E+00
         0.00000E+00
         0.00000E+00
         0.00000E+00
         0.00000E+00
         0.00000E+00
         0.00000E+00
         0.00000E+00
         0.00000E+00
         0.00000E+00
         0.00000E+00
         0.00000E+00
         0.00000E+00
         0.00000E+00
         0.00000E+00
         0.00000E+00
         0.00000E+00
         0.00000E+00
         0.00000E+00
         0.00000E+00
         0.00000E+00
         0.00000E+00
         0.00000E+00
         0.00000E+00
         0.00000E+00
         0.00000E+00
         0.00000E+00
         0.00000E+00
         0.00000E+00
         0.00000E+00
         0.00000E+00
         0.00000E+00
         0.00000E+00
         0.00000E+00
         0.00000E+00
         0.00000E+00
         0.00000E+00
         0.00000E+00
         0.00000E+00
         0.00000E+00
         0.00000E+00
         0.00000E+00
         0.00000E+00
         0.00000E+00
         0.00000E+00
         0.00000E+00
         0.00000E+00
         0.00000E+00
         0.00000E+00
         0.00000E+00
         0.00000E+00
         0.00000E+00
         0.00000E+00
         0.00000E+00
         0.00000E+00
         0.00000E+00
         0.00000E+00
         0.00000E+00
         0.00000E+00
         0.00000E+00
         0.00000E+00
         0.00000E+00
         0.00000E+00
         0.00000E+00
         0.00000E+00
         0.00000E+00
         0.00000E+00
         0.00000E+00
         0.00000E+00
         0.00000E+00
         0.00000E+00
         0.00000E+00
         0.00000E+00
         0.00000E+00
         0.00000E+00
         0.00000E+00
         0.00000E+00
         0.00000E+00
         0.00000E+00
         0.00000E+00
         0.00000E+00
         0.00000E+00
         0.00000E+00
         0.00000E+00
         0.00000E+00
         0.00000E+00
         0.00000E+00
         0.00000E+00
         0.00000E+00
         0.00000E+00
         0.00000E+00
         0.00000E+00
         0.00000E+00
         0.00000E+00
         0.00000E+00
         0.00000E+00
         0.00000E+00
         0.00000E+00
         0.00000E+00
         0.00000E+00
         0.00000E+00
         0.00000E+00
         0.00000E+00
         0.00000E+00
         0.00000E+00
         0.00000E+00
         0.00000E+00
         0.00000E+00
         0.00000E+00
         0.00000E+00
         0.00000E+00
         0.00000E+00
         0.00000E+00
         0.00000E+00
         0.00000E+00
         0.00000E+00
         0.00000E+00
         0.00000E+00
         0.00000E+00
         0.00000E+00
         0.00000E+00
         0.00000E+00
         0.00000E+00
         0.00000E+00
         0.00000E+00
         0.00000E+00
         0.00000E+00
         0.00000E+00
         0.00000E+00
         0.00000E+00
         0.00000E+00
         0.00000E+00
         0.00000E+00
         0.00000E+00
         0.00000E+00
         0.00000E+00
         0.00000E+00
         0.00000E+00
         0.00000E+00
         0.00000E+00
         0.00000E+00
         0.00000E+00
         0.00000E+00
         0.00000E+00
         0.00000E+00
         0.00000E+00
         0.00000E+00
         0.00000E+00
         0.00000E+00
         0.00000E+00
         0.00000E+00
         0.00000E+00
         0.00000E+00
         0.00000E+00
         0.00000E+00
         0.00000E+00
         0.00000E+00
         0.00000E+00
         0.00000E+00
         0.00000E+00
         0.00000E+00
         0.00000E+00
         0.00000E+00
         0.00000E+00
         0.00000E+00
         0.00000E+00
         0.00000E+00
         0.00000E+00
         0.00000E+00
         0.00000E+00
         0.00000E+00
         0.00000E+00
         0.00000E+00
         0.00000E+00
         0.00000E+00
         0.00000E+00
         0.00000E+00
         0.00000E+00
         0.00000E+00
         0.00000E+00
         0.00000E+00
         0.00000E+00
         0.00000E+00
         0.00000E+00
         0.00000E+00
         0.00000E+00
         0.00000E+00
         0.00000E+00
         0.00000E+00
         0.00000E+00
         0.00000E+00
         0.00000E+00
         0.00000E+00
         0.00000E+00
         0.00000E+00
         0.00000E+00
         0.00000E+00
         0.00000E+00
         0.00000E+00
         0.00000E+00
         0.00000E+00
         0.00000E+00
         0.00000E+00
         0.00000E+00
         0.00000E+00
         0.00000E+00
         0.00000E+00
         0.00000E+00
         0.00000E+00
         0.00000E+00
         0.00000E+00
         0.00000E+00
         0.00000E+00
         0.00000E+00
         0.00000E+00
         0.00000E+00
         0.00000E+00
         0.00000E+00
         0.00000E+00
         0.00000E+00
         0.00000E+00
         0.00000E+00
         0.00000E+00
         0.00000E+00
         0.00000E+00
         0.00000E+00
         0.00000E+00
         0.00000E+00
         0.00000E+00
         0.00000E+00
         0.00000E+00
         0.00000E+00
         0.00000E+00
         0.00000E+00
         0.00000E+00
         0.00000E+00
         0.00000E+00
         0.00000E+00
         0.00000E+00
         0.00000E+00
         0.00000E+00
         0.00000E+00
         0.00000E+00
         0.00000E+00
         0.00000E+00
         0.00000E+00
         0.00000E+00
         0.00000E+00
         0.00000E+00
         0.00000E+00
         0.00000E+00
         0.00000E+00
         0.00000E+00
         0.00000E+00
         0.00000E+00
         0.00000E+00
         0.00000E+00
         0.00000E+00
         0.00000E+00
         0.00000E+00
         0.00000E+00
         0.00000E+00
         0.00000E+00
         0.00000E+00
         0.00000E+00
         0.00000E+00
         0.00000E+00
         0.00000E+00
         0.00000E+00
         0.00000E+00
         0.00000E+00
         0.00000E+00
         0.00000E+00
         0.00000E+00
         0.00000E+00
         0.00000E+00
         0.00000E+00
         0.00000E+00
         0.00000E+00
         0.00000E+00
         0.00000E+00
         0.00000E+00
         0.00000E+00
         0.00000E+00
         0.00000E+00
         0.00000E+00
         0.00000E+00
         0.00000E+00
         0.00000E+00
         0.00000E+00
         0.00000E+00
         0.00000E+00
         0.00000E+00
         0.00000E+00
         0.00000E+00
         0.00000E+00
         0.00000E+00
         0.00000E+00
         0.00000E+00
         0.00000E+00
         0.00000E+00
         0.00000E+00
         0.00000E+00
         0.00000E+00
         0.00000E+00
         0.00000E+00
         0.00000E+00
         0.00000E+00
         0.00000E+00
         0.00000E+00
         0.00000E+00
         0.00000E+00
         0.00000E+00
         0.00000E+00
         0.00000E+00
         0.00000E+00
         0.00000E+00
         0.00000E+00
         0.00000E+00
         0.00000E+00
         0.00000E+00
         0.00000E+00
         0.00000E+00
         0.00000E+00
         0.00000E+00
         0.00000E+00
         0.00000E+00
         0.00000E+00
         0.00000E+00
         0.00000E+00
         0.00000E+00
         0.00000E+00
         0.00000E+00
         0.00000E+00
         0.00000E+00
         0.00000E+00
         0.00000E+00
         0.00000E+00
         0.00000E+00
         0.00000E+00
         0.00000E+00
         0.00000E+00
         0.00000E+00
         0.00000E+00
         0.00000E+00
         0.00000E+00
         0.00000E+00
         0.00000E+00
         0.00000E+00
         0.00000E+00
         0.00000E+00
         0.00000E+00
         0.00000E+00
         0.00000E+00
         0.00000E+00
         0.00000E+00
         0.00000E+00
         0.00000E+00
         0.00000E+00
         0.00000E+00
         0.00000E+00
         0.00000E+00
         0.00000E+00
         0.00000E+00
         0.00000E+00
         0.00000E+00
         0.00000E+00
         0.00000E+00
         0.00000E+00
         0.00000E+00
         0.00000E+00
         0.00000E+00
         0.00000E+00
         0.00000E+00
         0.00000E+00
         0.00000E+00
         0.00000E+00
         0.00000E+00
         0.00000E+00
         0.00000E+00
         0.00000E+00
         0.00000E+00
         0.00000E+00
         0.00000E+00
         0.00000E+00
         0.00000E+00
         0.00000E+00
         0.00000E+00
         0.00000E+00
         0.00000E+00
         0.00000E+00
         0.00000E+00
         0.00000E+00
         0.00000E+00
         0.00000E+00
         0.00000E+00
         0.00000E+00
         0.00000E+00
         0.00000E+00
         0.00000E+00
         0.00000E+00
         0.00000E+00
         0.00000E+00
         0.00000E+00
         0.00000E+00
         0.00000E+00
         0.00000E+00
         0.00000E+00
         0.00000E+00
         0.00000E+00
         0.00000E+00
         0.00000E+00
         0.00000E+00
         0.00000E+00
         0.00000E+00
         0.00000E+00
         0.00000E+00
         0.00000E+00
         0.00000E+00
         0.00000E+00
         0.00000E+00
         0.00000E+00
         0.00000E+00
         0.00000E+00
         0.00000E+00
         0.00000E+00
         0.00000E+00
         0.00000E+00
         0.00000E+00
         0.00000E+00
         0.00000E+00
         0.00000E+00
         0.00000E+00
         0.00000E+00
         0.00000E+00
         0.00000E+00
         0.00000E+00
         0.00000E+00
         0.00000E+00
         0.00000E+00
         0.00000E+00
         0.00000E+00
         0.00000E+00
         0.00000E+00
         0.00000E+00
         0.00000E+00
         0.00000E+00
         0.00000E+00
         0.00000E+00
         0.00000E+00
         0.00000E+00
         0.00000E+00
         0.00000E+00
         0.00000E+00
         0.00000E+00
         0.00000E+00
         0.00000E+00
         0.00000E+00
         0.00000E+00
         0.00000E+00
         0.00000E+00
         0.00000E+00
         0.00000E+00
         0.00000E+00
         0.00000E+00
         0.00000E+00
         0.00000E+00
         0.00000E+00
         0.00000E+00
         0.00000E+00
         0.00000E+00
         0.00000E+00
         0.00000E+00
         0.00000E+00
         0.00000E+00
         0.00000E+00
         0.00000E+00
         0.00000E+00
         0.00000E+00
         0.00000E+00
         0.00000E+00
         0.00000E+00
         0.00000E+00
         0.00000E+00
         0.00000E+00
         0.00000E+00
         0.00000E+00
         0.00000E+00
         0.00000E+00
         0.00000E+00
         0.00000E+00
         0.00000E+00
         0.00000E+00
         0.00000E+00
         0.00000E+00
         0.00000E+00
         0.00000E+00
         0.00000E+00
         0.00000E+00
         0.00000E+00
         0.00000E+00
         0.00000E+00
         0.00000E+00
         0.00000E+00
         0.00000E+00
         0.00000E+00
         0.00000E+00
         0.00000E+00
         0.00000E+00
         0.00000E+00
         0.00000E+00
         0.00000E+00
         0.00000E+00
         0.00000E+00
         0.00000E+00
         0.00000E+00
         0.00000E+00
         0.00000E+00
         0.00000E+00
         0.00000E+00
         0.00000E+00
         0.00000E+00
         0.00000E+00
         0.00000E+00
         0.00000E+00
         0.00000E+00
         0.00000E+00
         0.00000E+00
         0.00000E+00
         0.00000E+00
         0.00000E+00
         0.00000E+00
         0.00000E+00
         0.00000E+00
         0.00000E+00
         0.00000E+00
         0.00000E+00
         0.00000E+00
         0.00000E+00
         0.00000E+00
         0.00000E+00
         0.00000E+00
         0.00000E+00
         0.00000E+00
         0.00000E+00
         0.00000E+00
         0.00000E+00
         0.00000E+00
         0.00000E+00
         0.00000E+00
         0.00000E+00
         0.00000E+00
         0.00000E+00
         0.00000E+00
         0.00000E+00
         0.00000E+00
         0.00000E+00
         0.00000E+00
         0.00000E+00
         0.00000E+00
         0.00000E+00
         0.00000E+00
         0.00000E+00
         0.00000E+00
         0.00000E+00
         0.00000E+00
         0.00000E+00
         0.00000E+00
         0.00000E+00
         0.00000E+00
         0.00000E+00
         0.00000E+00
         0.00000E+00
         0.00000E+00
         0.00000E+00
         0.00000E+00
         0.00000E+00
         0.00000E+00
         0.00000E+00
         0.00000E+00
         0.00000E+00
         0.00000E+00
         0.00000E+00
         0.00000E+00
         0.00000E+00
         0.00000E+00
         0.00000E+00
         0.00000E+00
         0.00000E+00
         0.00000E+00
         0.00000E+00
         0.00000E+00
         0.00000E+00
         0.00000E+00
         0.00000E+00
         0.00000E+00
         0.00000E+00
         0.00000E+00
         0.00000E+00
         0.00000E+00
         0.00000E+00
         0.00000E+00
         0.00000E+00
         0.00000E+00
         0.00000E+00
         0.00000E+00
         0.00000E+00
         0.00000E+00
         0.00000E+00
         0.00000E+00
         0.00000E+00
         0.00000E+00
         0.00000E+00
         0.00000E+00
         0.00000E+00
         0.00000E+00
         0.00000E+00
         0.00000E+00
         0.00000E+00
         0.00000E+00
         0.00000E+00
         0.00000E+00
         0.00000E+00
         0.00000E+00
         0.00000E+00
         0.00000E+00
         0.00000E+00
         0.00000E+00
         0.00000E+00
         0.00000E+00
         0.00000E+00
         0.00000E+00
         0.00000E+00
         0.00000E+00
         0.00000E+00
         0.00000E+00
         0.00000E+00
         0.00000E+00
         0.00000E+00
         0.00000E+00
         0.00000E+00
         0.00000E+00
         0.00000E+00
         0.00000E+00
         0.00000E+00
         0.00000E+00
         0.00000E+00
         0.00000E+00
         0.00000E+00
         0.00000E+00
         0.00000E+00
         0.00000E+00
         0.00000E+00
         0.00000E+00
         0.00000E+00
         0.00000E+00
         0.00000E+00
         0.00000E+00
         0.00000E+00
         0.00000E+00
         0.00000E+00
         0.00000E+00
         0.00000E+00
         0.00000E+00
         0.00000E+00
         0.00000E+00
         0.00000E+00
         0.00000E+00
         0.00000E+00
         0.00000E+00
         0.00000E+00
         0.00000E+00
         0.00000E+00
         0.00000E+00
         0.00000E+00
         0.00000E+00
         0.00000E+00
         0.00000E+00
         0.00000E+00
         0.00000E+00
         0.00000E+00
         0.00000E+00
         0.00000E+00
         0.00000E+00
         0.00000E+00
         0.00000E+00
         0.00000E+00
         0.00000E+00
         0.00000E+00
         0.00000E+00
         0.00000E+00
         0.00000E+00
         0.00000E+00
         0.00000E+00
         0.00000E+00
         0.00000E+00
         0.00000E+00
         0.00000E+00
         0.00000E+00
         0.00000E+00
         0.00000E+00
         0.00000E+00
         0.00000E+00
         0.00000E+00
         0.00000E+00
         0.00000E+00
         0.00000E+00
         0.00000E+00
         0.00000E+00
         0.00000E+00
         0.00000E+00
         0.00000E+00
         0.00000E+00
         0.00000E+00
         0.00000E+00
         0.00000E+00
         0.00000E+00
         0.00000E+00
         0.00000E+00
         0.00000E+00
         0.00000E+00
         0.00000E+00
         0.00000E+00
         0.00000E+00
         0.00000E+00
         0.00000E+00
         0.00000E+00
         0.00000E+00
         0.00000E+00
         0.00000E+00
         0.00000E+00
         0.00000E+00
         0.00000E+00
         0.00000E+00
         0.00000E+00
         0.00000E+00
         0.00000E+00
         0.00000E+00
         0.00000E+00
         0.00000E+00
         0.00000E+00
         0.00000E+00
         0.00000E+00
         0.00000E+00
         0.00000E+00
         0.00000E+00
         0.00000E+00
         0.00000E+00
         0.00000E+00
         0.00000E+00
         0.00000E+00
         0.00000E+00
         0.00000E+00
         0.00000E+00
         0.00000E+00
         0.00000E+00
         0.00000E+00
         0.00000E+00
         0.00000E+00
         0.00000E+00
         0.00000E+00
         0.00000E+00
         0.00000E+00
         0.00000E+00
         0.00000E+00
         0.00000E+00
         0.00000E+00
         0.00000E+00
         0.00000E+00
         0.00000E+00
         0.00000E+00
         0.00000E+00
         0.00000E+00
         0.00000E+00
         0.00000E+00
         0.00000E+00
         0.00000E+00
         0.00000E+00
         0.00000E+00
         0.00000E+00
         0.00000E+00
         0.00000E+00
         0.00000E+00
         0.00000E+00
         0.00000E+00
         0.00000E+00
         0.00000E+00
         0.00000E+00
         0.00000E+00
         0.00000E+00
         0.00000E+00
         0.00000E+00
         0.00000E+00
         0.00000E+00
         0.00000E+00
         0.00000E+00
         0.00000E+00
         0.00000E+00
         0.00000E+00
         0.00000E+00
         0.00000E+00
         0.00000E+00
         0.00000E+00
         0.00000E+00
         0.00000E+00
         0.00000E+00
         0.00000E+00
         0.00000E+00
         0.00000E+00
         0.00000E+00
         0.00000E+00
         0.00000E+00
         0.00000E+00
         0.00000E+00
         0.00000E+00
         0.00000E+00
         0.00000E+00
         0.00000E+00
         0.00000E+00
         0.00000E+00
         0.00000E+00
         0.00000E+00
         0.00000E+00
         0.00000E+00
         0.00000E+00
         0.00000E+00
         0.00000E+00
         0.00000E+00
         0.00000E+00
         0.00000E+00
         0.00000E+00
         0.00000E+00
         0.00000E+00
         0.00000E+00
         0.00000E+00
         0.00000E+00
         0.00000E+00
         0.00000E+00
         0.00000E+00
         0.00000E+00
         0.00000E+00
         0.00000E+00
         0.00000E+00
         0.00000E+00
         0.00000E+00
         0.00000E+00
         0.00000E+00
         0.00000E+00
         0.00000E+00
         0.00000E+00
         0.00000E+00
         0.00000E+00
         0.00000E+00
         0.00000E+00
         0.00000E+00
         0.00000E+00
         0.00000E+00
         0.00000E+00
         0.00000E+00
         0.00000E+00
         0.00000E+00
         0.00000E+00
         0.00000E+00
         0.00000E+00
         0.00000E+00
         0.00000E+00
         0.00000E+00
         0.00000E+00
         0.00000E+00
         0.00000E+00
         0.00000E+00
         0.00000E+00
         0.00000E+00
         0.00000E+00
         0.00000E+00
         0.00000E+00
         0.00000E+00
         0.00000E+00
         0.00000E+00
         0.00000E+00
         0.00000E+00
         0.00000E+00
         0.00000E+00
         0.00000E+00
         0.00000E+00
         0.00000E+00
         0.00000E+00
         0.00000E+00
         0.00000E+00
         0.00000E+00
         0.00000E+00
         0.00000E+00
         0.00000E+00
         0.00000E+00
         0.00000E+00
         0.00000E+00
         0.00000E+00
         0.00000E+00
         0.00000E+00
         0.00000E+00
         0.00000E+00
         0.00000E+00
         0.00000E+00
         0.00000E+00
         0.00000E+00
         0.00000E+00
         0.00000E+00
         0.00000E+00
         0.00000E+00
         0.00000E+00
         0.00000E+00
         0.00000E+00
         0.00000E+00
         0.00000E+00
         0.00000E+00
         0.00000E+00
         0.00000E+00
         0.00000E+00
         0.00000E+00
         0.00000E+00
         0.00000E+00
         0.00000E+00
         0.00000E+00
         0.00000E+00
         0.00000E+00
         0.00000E+00
         0.00000E+00
         0.00000E+00
         0.00000E+00
         0.00000E+00
         0.00000E+00
         0.00000E+00
         0.00000E+00
         0.00000E+00
         0.00000E+00
         0.00000E+00
         0.00000E+00
         0.00000E+00
         0.00000E+00
         0.00000E+00
         0.00000E+00
         0.00000E+00
         0.00000E+00
         0.00000E+00
         0.00000E+00
         0.00000E+00
         0.00000E+00
         0.00000E+00
         0.00000E+00
         0.00000E+00
         0.00000E+00
         0.00000E+00
         0.00000E+00
         0.00000E+00
         0.00000E+00
         0.00000E+00
         0.00000E+00
         0.00000E+00
         0.00000E+00
         0.00000E+00
         0.00000E+00
         0.00000E+00
         0.00000E+00
         0.00000E+00
         0.00000E+00
         0.00000E+00
         0.00000E+00
         0.00000E+00
         0.00000E+00
         0.00000E+00
         0.00000E+00
         0.00000E+00
         0.00000E+00
         0.00000E+00
         0.00000E+00
         0.00000E+00
         0.00000E+00
         0.00000E+00
         0.00000E+00
         0.00000E+00
         0.00000E+00
         0.00000E+00
         0.00000E+00
         0.00000E+00
         0.00000E+00
         0.00000E+00
         0.00000E+00
         0.00000E+00
         0.00000E+00
         0.00000E+00
         0.00000E+00
         0.00000E+00
         0.00000E+00
         0.00000E+00
         0.00000E+00
         0.00000E+00
         0.00000E+00
         0.00000E+00
         0.00000E+00
         0.00000E+00
         0.00000E+00
         0.00000E+00
         0.00000E+00
         0.00000E+00
         0.00000E+00
         0.00000E+00
         0.00000E+00
         0.00000E+00
         0.00000E+00
         0.00000E+00
         0.00000E+00
         0.00000E+00
         0.00000E+00
         0.00000E+00
         0.00000E+00
         0.00000E+00
         0.00000E+00
         0.00000E+00
         0.00000E+00
         0.00000E+00
         0.00000E+00
         0.00000E+00
         0.00000E+00
         0.00000E+00
         0.00000E+00
         0.00000E+00
         0.00000E+00
         0.00000E+00
         0.00000E+00
         0.00000E+00
         0.00000E+00
         0.00000E+00
         0.00000E+00
         0.00000E+00
         0.00000E+00
         0.00000E+00
         0.00000E+00
         0.00000E+00
         0.00000E+00
         0.00000E+00
         0.00000E+00
         0.00000E+00
         0.00000E+00
         0.00000E+00
         0.00000E+00
         0.00000E+00
         0.00000E+00
         0.00000E+00
         0.00000E+00
         0.00000E+00
         0.00000E+00
         0.00000E+00
         0.00000E+00
         0.00000E+00
         0.00000E+00
         0.00000E+00
         0.00000E+00
         0.00000E+00
         0.00000E+00
         0.00000E+00
         0.00000E+00
         0.00000E+00
         0.00000E+00
         0.00000E+00
         0.00000E+00
         0.00000E+00
         0.00000E+00
         0.00000E+00
         0.00000E+00
         0.00000E+00
         0.00000E+00
         0.00000E+00
         0.00000E+00
         0.00000E+00
         0.00000E+00
         0.00000E+00
         0.00000E+00
         0.00000E+00
         0.00000E+00
         0.00000E+00
         0.00000E+00
         0.00000E+00
         0.00000E+00
         0.00000E+00
         0.00000E+00
         0.00000E+00
         0.00000E+00
         0.00000E+00
         0.00000E+00
         0.00000E+00
         0.00000E+00
         0.00000E+00
         0.00000E+00
         0.00000E+00
         0.00000E+00
         0.00000E+00
         0.00000E+00
         0.00000E+00
         0.00000E+00
         0.00000E+00
         0.00000E+00
         0.00000E+00
         0.00000E+00
         0.00000E+00
         0.00000E+00
         0.00000E+00
         0.00000E+00
         0.00000E+00
         0.00000E+00
         0.00000E+00
         0.00000E+00
         0.00000E+00
         0.00000E+00
         0.00000E+00
         0.00000E+00
         0.00000E+00
         0.00000E+00
         0.00000E+00
         0.00000E+00
         0.00000E+00
         0.00000E+00
         0.00000E+00
         0.00000E+00
         0.00000E+00
         0.00000E+00
         0.00000E+00
         0.00000E+00
         0.00000E+00
         0.00000E+00
         0.00000E+00
         0.00000E+00
         0.00000E+00
         0.00000E+00
         0.00000E+00
         0.00000E+00
         0.00000E+00
         0.00000E+00
         0.00000E+00
         0.00000E+00
         0.00000E+00
         0.00000E+00
         0.00000E+00
         0.00000E+00
         0.00000E+00
         0.00000E+00
         0.00000E+00
         0.00000E+00
         0.00000E+00
         0.00000E+00
         0.00000E+00
         0.00000E+00
         0.00000E+00
         0.00000E+00
         0.00000E+00
         0.00000E+00
         0.00000E+00
         0.00000E+00
         0.00000E+00
         0.00000E+00
         0.00000E+00
         0.00000E+00
         0.00000E+00
         0.00000E+00
         0.00000E+00
         0.00000E+00
         0.00000E+00
         0.00000E+00
         0.00000E+00
         0.00000E+00
         0.00000E+00
         0.00000E+00
         0.00000E+00
         0.00000E+00
         0.00000E+00
         0.00000E+00
         0.00000E+00
         0.00000E+00
         0.00000E+00
         0.00000E+00
         0.00000E+00
         0.00000E+00
         0.00000E+00
         0.00000E+00
         0.00000E+00
         0.00000E+00
         0.00000E+00
         0.00000E+00
         0.00000E+00
         0.00000E+00
         0.00000E+00
         0.00000E+00
         0.00000E+00
         0.00000E+00
         0.00000E+00
         0.00000E+00
         0.00000E+00
         0.00000E+00
         0.00000E+00
         0.00000E+00
         0.00000E+00
         0.00000E+00
         0.00000E+00
         0.00000E+00
         0.00000E+00
         0.00000E+00
         0.00000E+00
         0.00000E+00
         0.00000E+00
         0.00000E+00
         0.00000E+00
         0.00000E+00
         0.00000E+00
  
SCALARS                 displacement_z  double 1
LOOKUP_TABLE default
        -0.97430E-02
        -0.97275E-02
        -0.97251E-02
        -0.97539E-02
        -0.59873E-16
        -0.67137E-16
        -0.64286E-16
        -0.58403E-16
        -0.96961E-02
        -0.97305E-02
        -0.60374E-16
        -0.58427E-16
        -0.97107E-02
        -0.97326E-02
        -0.71735E-16
        -0.67449E-16
        -0.97443E-02
        -0.97485E-02
        -0.53007E-16
        -0.58790E-16
        -0.96989E-02
        -0.96857E-02
        -0.96920E-02
        -0.71096E-16
        -0.62090E-16
        -0.64116E-16
        -0.97261E-02
        -0.97173E-02
        -0.68206E-16
        -0.57521E-16
        -0.97566E-02
        -0.97641E-02
        -0.97514E-02
        -0.58207E-16
        -0.54113E-16
        -0.52612E-16
        -0.97257E-02
        -0.97571E-02
        -0.61580E-16
        -0.56192E-16
        -0.97165E-02
        -0.97430E-02
        -0.53222E-16
        -0.47117E-16
        -0.96921E-02
        -0.97045E-02
        -0.58324E-16
        -0.65169E-16
        -0.97664E-02
        -0.56977E-16
        -0.97217E-02
        -0.66952E-16
        -0.97547E-02
        -0.60167E-16
        -0.97643E-02
        -0.57713E-16
        -0.97380E-02
        -0.97589E-02
        -0.58804E-16
        -0.57270E-16
        -0.97496E-02
        -0.97215E-02
        -0.58968E-16
        -0.66662E-16
        -0.97478E-02
        -0.56901E-16
        -0.97362E-02
        -0.62101E-16
        -0.96526E-02
        -0.96864E-02
        -0.59776E-16
        -0.62634E-16
        -0.96990E-02
        -0.63159E-16
        -0.97353E-02
        -0.49900E-16
        -0.97319E-02
        -0.48436E-16
        -0.97001E-02
        -0.51071E-16
        -0.96639E-02
        -0.97093E-02
        -0.48659E-16
        -0.50730E-16
        -0.97461E-02
        -0.47248E-16
        -0.96952E-02
        -0.61959E-16
        -0.96820E-02
        -0.63414E-16
        -0.96491E-02
        -0.96939E-02
        -0.60898E-16
        -0.61609E-16
        -0.97244E-02
        -0.55959E-16
        -0.97200E-02
        -0.55161E-16
        -0.96957E-02
        -0.59051E-16
        -0.96608E-02
        -0.97015E-02
        -0.57908E-16
        -0.59608E-16
        -0.95598E-02
        -0.95758E-02
        -0.44959E-16
        -0.42287E-16
        -0.95740E-02
        -0.42930E-16
        -0.95624E-02
        -0.41163E-16
        -0.95634E-02
        -0.40590E-16
        -0.95619E-02
        -0.38358E-16
        -0.95712E-02
        -0.34077E-16
        -0.95752E-02
        -0.30684E-16
        -0.95728E-02
        -0.30471E-16
        -0.95708E-02
        -0.33044E-16
        -0.95567E-02
        -0.34728E-16
        -0.95748E-02
        -0.31711E-16
        -0.95812E-02
        -0.28584E-16
        -0.95795E-02
        -0.28551E-16
        -0.95723E-02
        -0.31913E-16
        -0.95651E-02
        -0.36388E-16
        -0.95613E-02
        -0.39092E-16
        -0.95726E-02
        -0.42219E-16
        -0.95618E-02
        -0.45231E-16
        -0.95781E-02
        -0.41435E-16
        -0.95726E-02
        -0.36350E-16
        -0.95673E-02
        -0.36237E-16
        -0.95765E-02
        -0.39648E-16
        -0.95635E-02
        -0.42268E-16
        -0.95765E-02
        -0.40112E-16
        -0.95768E-02
        -0.38779E-16
        -0.13733E-01
        -0.13730E-01
        -0.13729E-01
        -0.13734E-01
        -0.13725E-01
        -0.13730E-01
        -0.13727E-01
        -0.13730E-01
        -0.13733E-01
        -0.13734E-01
        -0.13726E-01
        -0.13724E-01
        -0.13724E-01
        -0.13730E-01
        -0.13728E-01
        -0.13734E-01
        -0.13736E-01
        -0.13734E-01
        -0.13730E-01
        -0.13735E-01
        -0.13728E-01
        -0.13733E-01
        -0.13724E-01
        -0.13727E-01
        -0.13736E-01
        -0.13729E-01
        -0.13734E-01
        -0.13735E-01
        -0.13731E-01
        -0.13735E-01
        -0.13733E-01
        -0.13729E-01
        -0.13733E-01
        -0.13731E-01
        -0.13719E-01
        -0.13723E-01
        -0.13725E-01
        -0.13732E-01
        -0.13731E-01
        -0.13726E-01
        -0.13721E-01
        -0.13727E-01
        -0.13733E-01
        -0.13725E-01
        -0.13723E-01
        -0.13719E-01
        -0.13724E-01
        -0.13729E-01
        -0.13729E-01
        -0.13725E-01
        -0.13720E-01
        -0.13726E-01
        -0.13709E-01
        -0.13712E-01
        -0.13712E-01
        -0.13710E-01
        -0.13710E-01
        -0.13710E-01
        -0.13712E-01
        -0.13712E-01
        -0.13711E-01
        -0.13711E-01
        -0.13708E-01
        -0.13711E-01
        -0.13713E-01
        -0.13713E-01
        -0.13712E-01
        -0.13711E-01
        -0.13710E-01
        -0.13712E-01
        -0.13710E-01
        -0.13712E-01
        -0.13712E-01
        -0.13711E-01
        -0.13712E-01
        -0.13710E-01
        -0.13712E-01
        -0.13713E-01
        -0.14059E-01
        -0.14059E-01
        -0.14059E-01
        -0.14059E-01
        -0.14059E-01
        -0.14059E-01
        -0.14059E-01
        -0.14059E-01
        -0.14059E-01
        -0.14059E-01
        -0.14059E-01
        -0.14059E-01
        -0.14059E-01
        -0.14059E-01
        -0.14059E-01
        -0.14059E-01
        -0.14059E-01
        -0.14059E-01
        -0.14059E-01
        -0.14059E-01
        -0.14059E-01
        -0.14059E-01
        -0.14059E-01
        -0.14059E-01
        -0.14059E-01
        -0.14059E-01
        -0.14059E-01
        -0.14059E-01
        -0.14059E-01
        -0.14059E-01
        -0.14059E-01
        -0.14059E-01
        -0.14059E-01
        -0.14059E-01
        -0.14059E-01
        -0.14059E-01
        -0.14059E-01
        -0.14059E-01
        -0.14059E-01
        -0.14059E-01
        -0.14059E-01
        -0.14059E-01
        -0.14059E-01
        -0.14059E-01
        -0.14059E-01
        -0.14059E-01
        -0.14059E-01
        -0.14059E-01
        -0.14059E-01
        -0.14059E-01
        -0.14059E-01
        -0.14059E-01
        -0.14059E-01
        -0.14059E-01
        -0.14059E-01
        -0.14059E-01
        -0.14059E-01
        -0.14059E-01
        -0.14059E-01
        -0.14059E-01
        -0.14059E-01
        -0.14059E-01
        -0.14059E-01
        -0.14059E-01
        -0.14059E-01
        -0.14059E-01
        -0.14059E-01
        -0.14059E-01
        -0.14059E-01
        -0.14059E-01
        -0.14059E-01
        -0.14059E-01
        -0.14059E-01
        -0.14059E-01
        -0.14059E-01
        -0.14059E-01
        -0.14059E-01
        -0.14059E-01
        -0.14059E-01
        -0.14059E-01
        -0.14059E-01
        -0.14059E-01
        -0.14059E-01
        -0.14059E-01
        -0.14059E-01
        -0.14059E-01
        -0.14059E-01
        -0.14059E-01
        -0.14059E-01
        -0.14059E-01
        -0.14059E-01
        -0.14059E-01
        -0.14059E-01
        -0.14059E-01
        -0.14059E-01
        -0.14059E-01
        -0.14059E-01
        -0.14059E-01
        -0.14059E-01
        -0.14059E-01
        -0.14059E-01
        -0.14059E-01
        -0.14059E-01
        -0.14059E-01
        -0.14059E-01
        -0.14059E-01
        -0.14059E-01
        -0.14059E-01
        -0.14059E-01
        -0.14059E-01
        -0.14059E-01
        -0.14059E-01
        -0.14059E-01
        -0.14059E-01
        -0.14059E-01
        -0.14059E-01
        -0.14059E-01
        -0.14059E-01
        -0.14059E-01
        -0.14059E-01
        -0.14059E-01
        -0.14059E-01
        -0.14059E-01
        -0.14059E-01
        -0.14059E-01
        -0.14059E-01
        -0.14059E-01
        -0.14059E-01
        -0.14059E-01
        -0.14059E-01
        -0.14059E-01
        -0.14059E-01
        -0.14059E-01
        -0.14059E-01
        -0.14059E-01
        -0.14059E-01
        -0.14059E-01
        -0.14059E-01
        -0.14059E-01
        -0.14059E-01
        -0.14059E-01
        -0.14059E-01
        -0.14059E-01
        -0.14059E-01
        -0.14059E-01
        -0.14059E-01
        -0.14059E-01
        -0.14059E-01
        -0.14059E-01
        -0.14059E-01
        -0.14059E-01
        -0.14059E-01
        -0.14059E-01
        -0.14059E-01
        -0.14059E-01
        -0.14059E-01
        -0.14059E-01
        -0.14059E-01
        -0.14059E-01
        -0.14059E-01
        -0.14059E-01
        -0.14059E-01
        -0.14059E-01
        -0.14059E-01
        -0.14059E-01
        -0.14059E-01
        -0.14059E-01
        -0.14059E-01
        -0.14059E-01
        -0.14059E-01
        -0.14059E-01
        -0.14059E-01
        -0.14059E-01
        -0.14059E-01
        -0.14059E-01
        -0.14059E-01
        -0.14059E-01
        -0.14059E-01
        -0.14059E-01
        -0.14059E-01
        -0.14059E-01
        -0.14059E-01
        -0.14059E-01
        -0.14059E-01
        -0.14059E-01
        -0.14059E-01
        -0.14059E-01
        -0.14059E-01
        -0.14059E-01
        -0.14059E-01
        -0.14059E-01
        -0.14059E-01
        -0.14059E-01
        -0.14059E-01
        -0.14059E-01
        -0.14059E-01
        -0.14059E-01
        -0.14059E-01
        -0.14059E-01
        -0.14059E-01
        -0.14059E-01
        -0.14059E-01
        -0.14059E-01
        -0.14059E-01
        -0.14059E-01
        -0.14059E-01
        -0.14059E-01
        -0.14059E-01
        -0.14059E-01
        -0.14059E-01
        -0.14059E-01
        -0.14059E-01
        -0.14059E-01
        -0.14059E-01
        -0.14059E-01
        -0.14059E-01
        -0.14059E-01
        -0.14059E-01
        -0.14059E-01
        -0.14059E-01
        -0.14059E-01
        -0.14059E-01
        -0.14059E-01
        -0.14059E-01
        -0.14059E-01
        -0.14059E-01
        -0.14059E-01
        -0.14059E-01
        -0.14059E-01
        -0.14059E-01
        -0.14059E-01
        -0.14059E-01
        -0.14059E-01
        -0.14059E-01
        -0.14059E-01
        -0.14059E-01
        -0.14059E-01
        -0.14059E-01
        -0.14059E-01
        -0.14059E-01
        -0.14059E-01
        -0.14059E-01
        -0.14059E-01
        -0.14059E-01
        -0.14059E-01
        -0.14059E-01
        -0.14059E-01
        -0.14059E-01
        -0.14059E-01
        -0.14059E-01
        -0.14059E-01
        -0.14059E-01
        -0.14059E-01
        -0.14059E-01
        -0.14059E-01
        -0.14059E-01
        -0.14059E-01
        -0.14059E-01
        -0.14059E-01
        -0.14059E-01
        -0.14059E-01
        -0.14059E-01
        -0.14059E-01
        -0.14059E-01
        -0.14059E-01
        -0.14059E-01
        -0.14059E-01
        -0.14059E-01
        -0.14059E-01
        -0.14059E-01
        -0.14059E-01
        -0.14059E-01
        -0.14059E-01
        -0.14059E-01
        -0.14059E-01
        -0.14059E-01
        -0.14059E-01
        -0.14059E-01
        -0.14059E-01
        -0.14059E-01
        -0.14059E-01
        -0.14059E-01
        -0.14059E-01
        -0.14059E-01
        -0.14059E-01
        -0.14059E-01
        -0.14059E-01
        -0.14059E-01
        -0.14059E-01
        -0.14059E-01
        -0.14059E-01
        -0.14059E-01
        -0.14059E-01
        -0.14059E-01
        -0.14059E-01
        -0.14059E-01
        -0.14059E-01
        -0.14059E-01
        -0.14059E-01
        -0.14059E-01
        -0.14059E-01
        -0.14059E-01
        -0.14059E-01
        -0.14059E-01
        -0.14059E-01
        -0.14059E-01
        -0.14059E-01
        -0.14059E-01
        -0.14059E-01
        -0.14059E-01
        -0.14059E-01
        -0.14059E-01
        -0.14059E-01
        -0.14059E-01
        -0.14059E-01
        -0.14059E-01
        -0.14059E-01
        -0.14059E-01
        -0.14059E-01
        -0.14059E-01
        -0.14059E-01
        -0.14059E-01
        -0.14059E-01
        -0.14059E-01
        -0.14059E-01
        -0.14059E-01
        -0.14059E-01
        -0.14059E-01
        -0.14059E-01
        -0.14059E-01
        -0.14059E-01
        -0.14059E-01
        -0.14059E-01
        -0.14059E-01
        -0.14059E-01
        -0.14059E-01
        -0.14059E-01
        -0.14059E-01
        -0.14059E-01
        -0.14059E-01
        -0.14059E-01
        -0.14059E-01
        -0.14059E-01
        -0.14059E-01
        -0.14059E-01
        -0.14059E-01
        -0.14059E-01
        -0.14059E-01
        -0.14059E-01
        -0.14059E-01
        -0.14059E-01
        -0.14059E-01
        -0.14059E-01
        -0.14059E-01
        -0.14059E-01
        -0.14059E-01
        -0.14059E-01
        -0.14059E-01
        -0.14059E-01
        -0.14059E-01
        -0.14059E-01
        -0.14059E-01
        -0.14059E-01
        -0.14059E-01
        -0.14059E-01
        -0.14059E-01
        -0.14059E-01
        -0.14059E-01
        -0.14059E-01
        -0.14059E-01
        -0.14059E-01
        -0.14059E-01
        -0.14059E-01
        -0.14059E-01
        -0.14059E-01
        -0.14059E-01
        -0.14059E-01
        -0.14059E-01
        -0.14059E-01
        -0.14059E-01
        -0.14059E-01
        -0.14059E-01
        -0.14059E-01
        -0.14059E-01
        -0.14059E-01
        -0.14059E-01
        -0.14059E-01
        -0.14059E-01
        -0.14059E-01
        -0.14059E-01
        -0.14059E-01
        -0.14059E-01
        -0.14059E-01
        -0.14059E-01
        -0.14059E-01
        -0.14059E-01
        -0.14059E-01
        -0.14059E-01
        -0.14059E-01
        -0.14059E-01
        -0.14059E-01
        -0.14059E-01
        -0.14059E-01
        -0.14059E-01
        -0.14059E-01
        -0.14059E-01
        -0.14059E-01
        -0.14059E-01
        -0.14059E-01
        -0.14059E-01
        -0.14059E-01
        -0.14059E-01
        -0.14059E-01
        -0.14059E-01
        -0.14059E-01
        -0.14059E-01
        -0.14059E-01
        -0.14059E-01
        -0.14059E-01
        -0.14059E-01
        -0.14059E-01
        -0.14059E-01
        -0.14059E-01
        -0.14059E-01
        -0.14059E-01
        -0.14059E-01
        -0.14059E-01
        -0.14059E-01
        -0.14059E-01
        -0.14059E-01
        -0.14059E-01
        -0.14059E-01
        -0.14059E-01
        -0.14059E-01
        -0.14059E-01
        -0.14059E-01
        -0.14059E-01
        -0.14059E-01
        -0.14059E-01
        -0.14059E-01
        -0.14059E-01
        -0.14059E-01
        -0.14059E-01
        -0.14059E-01
        -0.14059E-01
        -0.14059E-01
        -0.14059E-01
        -0.14059E-01
        -0.14059E-01
        -0.14059E-01
        -0.14059E-01
        -0.14059E-01
        -0.14059E-01
        -0.14059E-01
        -0.14059E-01
        -0.14059E-01
        -0.14059E-01
        -0.14059E-01
        -0.14059E-01
        -0.14059E-01
        -0.14059E-01
        -0.14059E-01
        -0.14059E-01
        -0.14059E-01
        -0.14059E-01
        -0.14059E-01
        -0.14059E-01
        -0.14059E-01
        -0.14059E-01
        -0.14059E-01
        -0.14059E-01
        -0.14059E-01
        -0.14059E-01
        -0.14059E-01
        -0.14059E-01
        -0.14059E-01
        -0.14059E-01
        -0.14059E-01
        -0.14059E-01
        -0.14059E-01
        -0.14059E-01
        -0.14059E-01
        -0.14059E-01
        -0.14059E-01
        -0.14059E-01
        -0.14059E-01
        -0.14059E-01
        -0.14059E-01
        -0.14059E-01
        -0.14059E-01
        -0.14059E-01
        -0.14059E-01
        -0.14059E-01
        -0.14059E-01
        -0.14059E-01
        -0.14059E-01
        -0.14059E-01
        -0.14059E-01
        -0.14059E-01
        -0.14059E-01
        -0.14059E-01
        -0.14059E-01
        -0.14059E-01
        -0.14059E-01
        -0.14059E-01
        -0.14059E-01
        -0.14059E-01
        -0.14059E-01
        -0.14059E-01
        -0.14059E-01
        -0.14059E-01
        -0.14059E-01
        -0.14059E-01
        -0.14059E-01
        -0.14059E-01
        -0.14059E-01
        -0.14059E-01
        -0.14059E-01
        -0.14059E-01
        -0.14059E-01
        -0.14059E-01
        -0.14059E-01
        -0.14059E-01
        -0.14059E-01
        -0.14059E-01
        -0.14059E-01
        -0.14059E-01
        -0.14059E-01
        -0.14059E-01
        -0.14059E-01
        -0.14059E-01
        -0.14059E-01
        -0.14059E-01
        -0.14059E-01
        -0.14059E-01
        -0.14059E-01
        -0.14059E-01
        -0.14059E-01
        -0.14059E-01
        -0.14059E-01
        -0.14059E-01
        -0.14059E-01
        -0.14059E-01
        -0.14059E-01
        -0.14059E-01
        -0.14059E-01
        -0.14059E-01
        -0.14059E-01
        -0.14059E-01
        -0.14059E-01
        -0.14059E-01
        -0.14059E-01
        -0.14059E-01
        -0.14059E-01
        -0.14059E-01
        -0.14059E-01
        -0.14059E-01
        -0.14059E-01
        -0.14059E-01
        -0.14059E-01
        -0.14059E-01
        -0.14059E-01
        -0.14059E-01
        -0.14059E-01
        -0.14059E-01
        -0.14059E-01
        -0.14059E-01
        -0.14059E-01
        -0.14059E-01
        -0.14059E-01
        -0.14059E-01
        -0.14059E-01
        -0.14059E-01
        -0.14059E-01
        -0.14059E-01
        -0.14059E-01
        -0.14059E-01
        -0.14059E-01
        -0.14059E-01
        -0.14059E-01
        -0.14059E-01
        -0.14059E-01
        -0.14059E-01
        -0.14059E-01
        -0.14059E-01
        -0.14059E-01
        -0.14059E-01
        -0.14059E-01
        -0.14059E-01
        -0.14059E-01
        -0.14059E-01
        -0.14059E-01
        -0.14059E-01
        -0.14059E-01
        -0.14059E-01
        -0.14059E-01
        -0.14059E-01
        -0.14059E-01
        -0.14059E-01
        -0.14059E-01
        -0.14059E-01
        -0.14059E-01
        -0.14059E-01
        -0.14059E-01
        -0.14059E-01
        -0.14059E-01
        -0.14059E-01
        -0.14059E-01
        -0.14059E-01
        -0.14059E-01
        -0.14059E-01
        -0.14059E-01
        -0.14059E-01
        -0.14059E-01
        -0.14059E-01
        -0.14059E-01
        -0.14059E-01
        -0.14059E-01
        -0.14059E-01
        -0.14059E-01
        -0.14059E-01
        -0.14059E-01
        -0.14059E-01
        -0.14059E-01
        -0.14059E-01
        -0.14059E-01
        -0.14059E-01
        -0.14059E-01
        -0.14059E-01
        -0.14059E-01
        -0.14059E-01
        -0.14059E-01
        -0.14059E-01
        -0.14059E-01
        -0.14059E-01
        -0.14059E-01
        -0.14059E-01
        -0.14059E-01
        -0.14059E-01
        -0.14059E-01
        -0.14059E-01
        -0.14059E-01
        -0.14059E-01
        -0.14059E-01
        -0.14059E-01
        -0.14059E-01
        -0.14059E-01
        -0.14059E-01
        -0.14059E-01
        -0.14059E-01
        -0.14059E-01
        -0.14059E-01
        -0.14059E-01
        -0.14059E-01
        -0.14059E-01
        -0.14059E-01
        -0.14059E-01
        -0.14059E-01
        -0.14059E-01
        -0.14059E-01
        -0.14059E-01
        -0.14059E-01
        -0.14059E-01
        -0.14059E-01
        -0.14059E-01
        -0.14059E-01
        -0.14059E-01
        -0.14059E-01
        -0.14059E-01
        -0.14059E-01
        -0.14059E-01
        -0.14059E-01
        -0.14059E-01
        -0.14059E-01
        -0.14059E-01
        -0.14059E-01
        -0.14059E-01
        -0.14059E-01
        -0.14059E-01
        -0.14059E-01
        -0.14059E-01
        -0.14059E-01
        -0.14059E-01
        -0.14059E-01
        -0.14059E-01
        -0.14059E-01
        -0.14059E-01
        -0.14059E-01
        -0.14059E-01
        -0.14059E-01
        -0.14059E-01
        -0.14059E-01
        -0.14059E-01
        -0.14059E-01
        -0.14059E-01
        -0.14059E-01
        -0.14059E-01
        -0.14059E-01
        -0.14059E-01
        -0.14059E-01
        -0.14059E-01
        -0.14059E-01
        -0.14059E-01
        -0.14059E-01
        -0.14059E-01
        -0.14059E-01
        -0.14059E-01
        -0.14059E-01
        -0.14059E-01
        -0.14059E-01
        -0.14059E-01
        -0.14059E-01
        -0.14059E-01
        -0.14059E-01
        -0.14059E-01
        -0.14059E-01
        -0.14059E-01
        -0.14059E-01
        -0.14059E-01
        -0.14059E-01
        -0.14059E-01
        -0.14059E-01
        -0.14059E-01
        -0.14059E-01
        -0.14059E-01
        -0.14059E-01
        -0.14059E-01
        -0.14059E-01
        -0.14059E-01
        -0.14059E-01
        -0.14059E-01
        -0.14059E-01
        -0.14059E-01
        -0.14059E-01
        -0.14059E-01
        -0.14059E-01
        -0.14059E-01
        -0.14059E-01
        -0.14059E-01
        -0.14059E-01
        -0.14059E-01
        -0.14059E-01
        -0.14059E-01
        -0.14059E-01
        -0.14059E-01
        -0.14059E-01
        -0.14059E-01
        -0.14059E-01
        -0.14059E-01
        -0.14059E-01
        -0.14059E-01
        -0.14059E-01
        -0.14059E-01
        -0.14059E-01
        -0.14059E-01
        -0.14059E-01
        -0.14059E-01
        -0.14059E-01
        -0.14059E-01
        -0.14059E-01
        -0.14059E-01
        -0.14059E-01
        -0.14059E-01
        -0.14059E-01
        -0.14059E-01
        -0.14059E-01
        -0.14059E-01
        -0.14059E-01
        -0.14059E-01
        -0.14059E-01
        -0.14059E-01
        -0.14059E-01
        -0.14059E-01
        -0.14059E-01
        -0.14059E-01
        -0.14059E-01
        -0.14059E-01
        -0.14059E-01
        -0.14059E-01
        -0.14059E-01
        -0.14059E-01
        -0.14059E-01
        -0.14059E-01
        -0.14059E-01
        -0.14059E-01
        -0.14059E-01
        -0.14059E-01
        -0.14059E-01
        -0.14059E-01
        -0.14059E-01
        -0.14059E-01
        -0.14059E-01
        -0.14059E-01
        -0.14059E-01
        -0.14059E-01
        -0.14059E-01
        -0.14059E-01
        -0.14059E-01
        -0.14059E-01
        -0.14059E-01
        -0.14059E-01
        -0.14059E-01
        -0.14059E-01
        -0.14059E-01
        -0.14059E-01
        -0.14059E-01
        -0.14059E-01
        -0.14059E-01
        -0.14059E-01
        -0.14059E-01
        -0.14059E-01
        -0.14059E-01
        -0.14059E-01
        -0.14059E-01
        -0.14059E-01
        -0.14059E-01
        -0.14059E-01
        -0.14059E-01
        -0.14059E-01
        -0.14059E-01
        -0.14059E-01
        -0.14059E-01
        -0.14059E-01
        -0.14059E-01
        -0.14059E-01
        -0.14059E-01
        -0.14059E-01
        -0.14059E-01
        -0.14059E-01
        -0.14059E-01
        -0.14059E-01
        -0.14059E-01
        -0.14059E-01
        -0.14059E-01
        -0.14059E-01
        -0.14059E-01
        -0.14059E-01
        -0.14059E-01
        -0.14059E-01
        -0.14059E-01
        -0.14059E-01
        -0.14059E-01
        -0.14059E-01
        -0.14059E-01
        -0.14059E-01
        -0.14059E-01
        -0.14059E-01
        -0.14059E-01
        -0.14059E-01
        -0.14059E-01
        -0.14059E-01
        -0.14059E-01
        -0.14059E-01
        -0.14059E-01
        -0.14059E-01
        -0.14059E-01
        -0.14059E-01
        -0.14059E-01
        -0.14059E-01
        -0.14059E-01
        -0.14059E-01
        -0.14059E-01
        -0.14059E-01
        -0.14059E-01
        -0.14059E-01
        -0.14059E-01
        -0.14059E-01
        -0.14059E-01
        -0.14059E-01
        -0.14059E-01
        -0.14059E-01
        -0.14059E-01
        -0.14059E-01
        -0.14059E-01
        -0.14059E-01
        -0.14059E-01
        -0.14059E-01
        -0.14059E-01
        -0.14059E-01
        -0.14059E-01
        -0.14059E-01
        -0.14059E-01
        -0.14059E-01
        -0.14059E-01
        -0.14059E-01
        -0.14059E-01
        -0.14059E-01
        -0.14059E-01
        -0.14059E-01
        -0.14059E-01
        -0.14059E-01
        -0.14059E-01
        -0.14059E-01
        -0.14059E-01
        -0.14059E-01
        -0.14059E-01
        -0.14059E-01
        -0.14059E-01
        -0.14059E-01
        -0.14059E-01
        -0.14059E-01
        -0.14059E-01
        -0.14059E-01
        -0.14059E-01
        -0.14059E-01
        -0.14059E-01
        -0.14059E-01
        -0.14059E-01
        -0.14059E-01
        -0.14059E-01
        -0.14059E-01
        -0.14059E-01
        -0.14059E-01
        -0.14059E-01
        -0.14059E-01
        -0.14059E-01
        -0.14059E-01
        -0.14059E-01
        -0.14059E-01
        -0.14059E-01
        -0.14059E-01
        -0.14059E-01
        -0.14059E-01
        -0.14059E-01
        -0.14059E-01
        -0.14059E-01
        -0.14059E-01
        -0.14059E-01
        -0.14059E-01
        -0.14059E-01
        -0.14059E-01
        -0.14059E-01
        -0.14059E-01
        -0.14059E-01
        -0.14059E-01
        -0.14059E-01
        -0.14059E-01
        -0.14059E-01
        -0.14059E-01
        -0.14059E-01
        -0.14059E-01
        -0.14059E-01
        -0.14059E-01
        -0.14059E-01
        -0.14059E-01
        -0.14059E-01
        -0.14059E-01
        -0.14059E-01
        -0.14059E-01
        -0.14059E-01
        -0.14059E-01
        -0.14059E-01
        -0.14059E-01
        -0.14059E-01
        -0.14059E-01
        -0.14059E-01
        -0.14059E-01
        -0.14059E-01
        -0.14059E-01
        -0.14059E-01
        -0.14059E-01
        -0.14059E-01
        -0.14059E-01
        -0.14059E-01
        -0.14059E-01
        -0.14059E-01
        -0.14059E-01
        -0.14059E-01
        -0.14059E-01
        -0.14059E-01
        -0.14059E-01
        -0.14059E-01
        -0.14059E-01
        -0.14059E-01
        -0.14059E-01
        -0.14059E-01
        -0.14059E-01
        -0.14059E-01
        -0.14059E-01
        -0.14059E-01
        -0.14059E-01
        -0.14059E-01
        -0.14059E-01
        -0.14059E-01
        -0.14059E-01
        -0.14059E-01
        -0.14059E-01
        -0.14059E-01
        -0.14059E-01
        -0.14059E-01
        -0.14059E-01
        -0.14059E-01
        -0.14059E-01
        -0.14059E-01
        -0.14059E-01
        -0.14059E-01
        -0.14059E-01
        -0.14059E-01
        -0.14059E-01
        -0.14059E-01
        -0.14059E-01
        -0.14059E-01
        -0.14059E-01
        -0.14059E-01
        -0.14059E-01
        -0.14059E-01
        -0.14059E-01
        -0.14059E-01
        -0.14059E-01
        -0.14059E-01
        -0.14059E-01
        -0.14059E-01
        -0.14059E-01
        -0.14059E-01
        -0.14059E-01
        -0.14059E-01
        -0.14059E-01
        -0.14059E-01
        -0.14059E-01
        -0.14059E-01
        -0.14059E-01
        -0.14059E-01
        -0.14059E-01
        -0.14059E-01
        -0.14059E-01
        -0.14059E-01
        -0.14059E-01
        -0.14059E-01
        -0.14059E-01
        -0.14059E-01
        -0.14059E-01
        -0.14059E-01
        -0.14059E-01
        -0.14059E-01
        -0.14059E-01
        -0.14059E-01
        -0.14059E-01
        -0.14059E-01
        -0.14059E-01
        -0.14059E-01
        -0.14059E-01
        -0.14059E-01
        -0.14059E-01
        -0.14059E-01
        -0.14059E-01
        -0.14059E-01
        -0.14059E-01
        -0.14059E-01
        -0.14059E-01
        -0.14059E-01
        -0.14059E-01
        -0.14059E-01
        -0.14059E-01
        -0.14059E-01
        -0.14059E-01
        -0.14059E-01
        -0.14059E-01
        -0.14059E-01
        -0.14059E-01
        -0.14059E-01
        -0.14059E-01
        -0.14059E-01
        -0.14059E-01
        -0.14059E-01
        -0.14059E-01
        -0.14059E-01
        -0.14059E-01
        -0.14059E-01
        -0.14059E-01
        -0.14059E-01
        -0.14059E-01
        -0.14059E-01
        -0.14059E-01
        -0.14059E-01
        -0.14059E-01
        -0.14059E-01
        -0.14059E-01
        -0.14059E-01
        -0.14059E-01
        -0.14059E-01
        -0.14059E-01
        -0.14059E-01
        -0.14059E-01
        -0.14059E-01
        -0.14059E-01
        -0.14059E-01
        -0.14059E-01
        -0.14059E-01
        -0.14059E-01
        -0.14059E-01
        -0.14059E-01
        -0.14059E-01
        -0.14059E-01
        -0.14059E-01
        -0.14059E-01
        -0.14059E-01
        -0.14059E-01
        -0.14059E-01
        -0.14059E-01
        -0.14059E-01
        -0.14059E-01
        -0.14059E-01
        -0.14059E-01
        -0.14059E-01
        -0.14059E-01
        -0.14059E-01
        -0.14059E-01
        -0.14059E-01
        -0.14059E-01
        -0.14059E-01
        -0.14059E-01
        -0.14059E-01
        -0.14059E-01
        -0.14059E-01
        -0.14059E-01
        -0.14059E-01
        -0.14059E-01
        -0.14059E-01
        -0.14059E-01
        -0.14059E-01
        -0.14059E-01
        -0.14059E-01
        -0.14059E-01
        -0.14059E-01
        -0.14059E-01
        -0.14059E-01
        -0.14059E-01
        -0.14059E-01
        -0.14059E-01
        -0.14059E-01
        -0.14059E-01
        -0.14059E-01
        -0.14059E-01
        -0.14059E-01
        -0.14059E-01
        -0.14059E-01
        -0.14059E-01
        -0.14059E-01
        -0.14059E-01
        -0.14059E-01
        -0.14059E-01
        -0.14059E-01
        -0.14059E-01
        -0.14059E-01
        -0.14059E-01
        -0.14059E-01
        -0.14059E-01
        -0.14059E-01
        -0.14059E-01
        -0.14059E-01
        -0.14059E-01
        -0.14059E-01
        -0.14059E-01
        -0.14059E-01
        -0.14059E-01
        -0.14059E-01
        -0.14059E-01
        -0.14059E-01
        -0.14059E-01
        -0.14059E-01
        -0.14059E-01
        -0.14059E-01
        -0.14059E-01
        -0.14059E-01
        -0.14059E-01
        -0.14059E-01
        -0.14059E-01
        -0.14059E-01
        -0.14059E-01
        -0.14059E-01
        -0.14059E-01
        -0.14059E-01
        -0.14059E-01
        -0.14059E-01
        -0.14059E-01
        -0.14059E-01
        -0.14059E-01
        -0.14059E-01
        -0.14059E-01
        -0.14059E-01
        -0.14059E-01
        -0.14059E-01
        -0.14059E-01
        -0.14059E-01
        -0.14059E-01
        -0.14059E-01
        -0.14059E-01
        -0.14059E-01
        -0.14059E-01
        -0.14059E-01
        -0.14059E-01
        -0.14059E-01
        -0.14059E-01
        -0.14059E-01
        -0.14059E-01
        -0.14059E-01
        -0.14059E-01
        -0.14059E-01
        -0.14059E-01
        -0.14059E-01
        -0.14059E-01
        -0.14059E-01
        -0.14059E-01
        -0.14059E-01
        -0.14059E-01
        -0.14059E-01
        -0.14059E-01
        -0.14059E-01
        -0.14059E-01
        -0.14059E-01
        -0.14059E-01
        -0.14059E-01
        -0.14059E-01
        -0.14059E-01
        -0.14059E-01
        -0.14059E-01
        -0.14059E-01
        -0.14059E-01
        -0.14059E-01
        -0.14059E-01
        -0.14059E-01
        -0.14059E-01
        -0.14059E-01
        -0.14059E-01
        -0.14059E-01
        -0.14059E-01
        -0.14059E-01
        -0.14059E-01
        -0.14059E-01
        -0.14059E-01
        -0.14059E-01
        -0.14059E-01
        -0.14059E-01
        -0.14059E-01
        -0.14059E-01
        -0.14059E-01
        -0.14059E-01
        -0.14059E-01
        -0.14059E-01
        -0.14059E-01
        -0.14059E-01
        -0.14059E-01
        -0.14059E-01
        -0.14059E-01
        -0.14059E-01
        -0.14059E-01
        -0.14059E-01
        -0.14059E-01
        -0.14059E-01
        -0.14059E-01
        -0.14059E-01
        -0.14059E-01
        -0.14059E-01
        -0.14059E-01
        -0.14059E-01
        -0.14059E-01
        -0.14059E-01
        -0.14059E-01
        -0.14059E-01
        -0.14059E-01
        -0.14059E-01
        -0.14059E-01
        -0.14059E-01
        -0.14059E-01
        -0.14059E-01
        -0.14059E-01
        -0.14059E-01
        -0.14059E-01
        -0.14059E-01
        -0.14059E-01
        -0.14059E-01
        -0.14059E-01
        -0.14059E-01
        -0.14059E-01
        -0.14059E-01
        -0.14059E-01
        -0.14059E-01
        -0.14059E-01
        -0.14059E-01
        -0.14059E-01
        -0.14059E-01
        -0.14059E-01
        -0.14059E-01
        -0.14059E-01
        -0.14059E-01
        -0.14059E-01
        -0.14059E-01
        -0.14059E-01
        -0.14059E-01
        -0.14059E-01
        -0.14059E-01
        -0.14059E-01
        -0.14059E-01
        -0.14059E-01
        -0.14059E-01
        -0.14059E-01
        -0.14059E-01
        -0.14059E-01
        -0.14059E-01
        -0.14059E-01
        -0.14059E-01
        -0.14059E-01
        -0.14059E-01
        -0.14059E-01
        -0.14059E-01
        -0.14059E-01
        -0.14059E-01
        -0.14059E-01
        -0.14059E-01
        -0.14059E-01
        -0.14059E-01
        -0.14059E-01
        -0.14059E-01
        -0.14059E-01
        -0.14059E-01
        -0.14059E-01
        -0.14059E-01
        -0.14059E-01
        -0.14059E-01
        -0.14059E-01
        -0.14059E-01
        -0.14059E-01
        -0.14059E-01
        -0.14059E-01
        -0.14059E-01
        -0.14059E-01
        -0.14059E-01
        -0.14059E-01
        -0.14059E-01
        -0.14059E-01
        -0.14059E-01
        -0.14059E-01
        -0.14059E-01
        -0.14059E-01
        -0.14059E-01
        -0.14059E-01
        -0.14059E-01
        -0.14059E-01
        -0.14059E-01
        -0.14059E-01
        -0.14059E-01
        -0.14059E-01
        -0.14059E-01
        -0.14059E-01
        -0.14059E-01
        -0.14059E-01
        -0.14059E-01
        -0.14059E-01
        -0.14059E-01
        -0.14059E-01
        -0.14059E-01
        -0.14059E-01
        -0.14059E-01
        -0.14059E-01
        -0.14059E-01
        -0.14059E-01
        -0.14059E-01
        -0.14059E-01
        -0.14059E-01
        -0.14059E-01
        -0.14059E-01
        -0.14059E-01
        -0.14059E-01
        -0.14059E-01
        -0.14059E-01
        -0.14059E-01
        -0.14059E-01
        -0.14059E-01
        -0.14059E-01
        -0.14059E-01
        -0.14059E-01
        -0.14059E-01
        -0.14059E-01
        -0.14059E-01
        -0.14059E-01
        -0.14059E-01
        -0.14059E-01
        -0.14059E-01
        -0.14059E-01
        -0.14059E-01
        -0.14059E-01
        -0.14059E-01
        -0.14059E-01
        -0.14059E-01
        -0.14059E-01
        -0.14059E-01
        -0.14059E-01
        -0.14059E-01
        -0.14059E-01
        -0.14059E-01
        -0.14059E-01
        -0.14059E-01
        -0.14059E-01
        -0.14059E-01
        -0.14059E-01
        -0.14059E-01
        -0.14059E-01
        -0.14059E-01
        -0.14059E-01
        -0.14059E-01
        -0.14059E-01
        -0.14059E-01
        -0.14059E-01
        -0.14059E-01
        -0.14059E-01
        -0.14059E-01
        -0.14059E-01
        -0.14059E-01
        -0.14059E-01
        -0.14059E-01
        -0.14059E-01
        -0.14059E-01
        -0.14059E-01
        -0.14059E-01
        -0.14059E-01
        -0.14059E-01
        -0.14059E-01
        -0.14059E-01
        -0.14059E-01
        -0.14059E-01
        -0.14059E-01
        -0.14059E-01
        -0.14059E-01
        -0.14059E-01
        -0.14059E-01
        -0.14059E-01
        -0.14059E-01
        -0.14059E-01
        -0.14059E-01
        -0.14059E-01
        -0.14059E-01
        -0.14059E-01
        -0.14059E-01
        -0.14059E-01
        -0.14059E-01
        -0.14059E-01
        -0.14059E-01
        -0.14059E-01
        -0.14059E-01
        -0.14059E-01
        -0.14059E-01
        -0.14059E-01
        -0.14059E-01
        -0.14059E-01
        -0.14059E-01
        -0.14059E-01
        -0.14059E-01
        -0.14059E-01
        -0.14059E-01
        -0.14059E-01
        -0.14059E-01
        -0.14059E-01
        -0.14059E-01
        -0.14059E-01
        -0.14059E-01
        -0.14059E-01
        -0.14059E-01
        -0.14059E-01
        -0.14059E-01
        -0.14059E-01
        -0.14059E-01
        -0.14059E-01
        -0.14059E-01
        -0.14059E-01
        -0.14059E-01
        -0.14059E-01
        -0.14059E-01
        -0.14059E-01
        -0.14059E-01
        -0.14059E-01
        -0.14059E-01
        -0.14059E-01
        -0.14059E-01
        -0.14059E-01
        -0.14059E-01
        -0.14059E-01
        -0.14059E-01
        -0.14059E-01
        -0.14059E-01
        -0.14059E-01
        -0.14059E-01
        -0.14059E-01
        -0.14059E-01
        -0.14059E-01
        -0.14059E-01
        -0.14059E-01
        -0.14059E-01
        -0.14059E-01
        -0.14059E-01
        -0.14059E-01
        -0.14059E-01
        -0.14059E-01
        -0.14059E-01
        -0.14059E-01
        -0.14059E-01
        -0.14059E-01
        -0.14059E-01
        -0.14059E-01
        -0.14059E-01
        -0.14059E-01
        -0.14059E-01
        -0.14059E-01
        -0.14059E-01
        -0.14059E-01
        -0.14059E-01
        -0.14059E-01
        -0.14059E-01
        -0.14059E-01
        -0.14059E-01
        -0.14059E-01
        -0.14059E-01
        -0.14059E-01
        -0.14059E-01
        -0.14059E-01
        -0.14059E-01
        -0.14059E-01
        -0.14059E-01
        -0.14059E-01
        -0.14059E-01
        -0.14059E-01
        -0.14059E-01
        -0.14059E-01
        -0.14059E-01
        -0.14059E-01
        -0.14059E-01
        -0.14059E-01
        -0.14059E-01
        -0.14059E-01
        -0.14059E-01
        -0.14059E-01
        -0.14059E-01
        -0.14059E-01
        -0.14059E-01
        -0.14059E-01
        -0.14059E-01
        -0.14059E-01
        -0.14059E-01
        -0.14059E-01
        -0.14059E-01
        -0.14059E-01
        -0.14059E-01
        -0.14059E-01
        -0.14059E-01
        -0.14059E-01
        -0.14059E-01
        -0.14059E-01
        -0.14059E-01
        -0.14059E-01
        -0.14059E-01
        -0.14059E-01
        -0.14059E-01
        -0.14059E-01
        -0.14059E-01
        -0.14059E-01
        -0.14059E-01
        -0.14059E-01
        -0.14059E-01
        -0.14059E-01
        -0.14059E-01
        -0.14059E-01
        -0.14059E-01
        -0.14059E-01
        -0.14059E-01
        -0.14059E-01
        -0.14059E-01
        -0.14059E-01
        -0.14059E-01
        -0.14059E-01
        -0.14059E-01
        -0.14059E-01
        -0.14059E-01
        -0.14059E-01
        -0.14059E-01
        -0.14059E-01
        -0.14059E-01
        -0.14059E-01
        -0.14059E-01
        -0.14059E-01
        -0.14059E-01
        -0.14059E-01
        -0.14059E-01
        -0.14059E-01
        -0.14059E-01
        -0.14059E-01
        -0.14059E-01
        -0.14059E-01
        -0.14059E-01
        -0.14059E-01
        -0.14059E-01
        -0.14059E-01
        -0.14059E-01
        -0.14059E-01
        -0.14059E-01
        -0.14059E-01
        -0.14059E-01
        -0.14059E-01
        -0.14059E-01
        -0.14059E-01
        -0.14059E-01
        -0.14059E-01
        -0.14059E-01
        -0.14059E-01
        -0.14059E-01
        -0.14059E-01
        -0.14059E-01
        -0.14059E-01
        -0.14059E-01
        -0.14059E-01
        -0.14059E-01
        -0.14059E-01
        -0.14059E-01
        -0.14059E-01
        -0.14059E-01
        -0.14059E-01
        -0.14059E-01
        -0.14059E-01
        -0.14059E-01
        -0.14059E-01
        -0.14059E-01
        -0.14059E-01
        -0.14059E-01
        -0.14059E-01
        -0.14059E-01
        -0.14059E-01
        -0.14059E-01
        -0.14059E-01
        -0.14059E-01
        -0.14059E-01
        -0.14059E-01
        -0.14059E-01
        -0.14059E-01
        -0.14059E-01
        -0.14059E-01
        -0.14059E-01
        -0.14059E-01
        -0.14059E-01
        -0.14059E-01
        -0.14059E-01
        -0.14059E-01
        -0.14059E-01
        -0.14059E-01
        -0.14059E-01
        -0.14059E-01
        -0.14059E-01
        -0.14059E-01
        -0.14059E-01
        -0.14059E-01
        -0.14059E-01
        -0.14059E-01
        -0.14059E-01
        -0.14059E-01
        -0.14059E-01
        -0.14059E-01
        -0.14059E-01
        -0.14059E-01
        -0.14059E-01
        -0.14059E-01
        -0.14059E-01
        -0.14059E-01
        -0.14059E-01
        -0.14059E-01
        -0.14059E-01
        -0.14059E-01
        -0.14059E-01
        -0.14059E-01
        -0.14059E-01
        -0.14059E-01
        -0.14059E-01
        -0.14059E-01
        -0.14059E-01
        -0.14059E-01
        -0.14059E-01
        -0.14059E-01
        -0.14059E-01
        -0.14059E-01
        -0.14059E-01
        -0.14059E-01
        -0.14059E-01
        -0.14059E-01
        -0.14059E-01
        -0.14059E-01
        -0.14059E-01
        -0.14059E-01
        -0.14059E-01
        -0.14059E-01
        -0.14059E-01
        -0.14059E-01
        -0.14059E-01
        -0.14059E-01
        -0.14059E-01
        -0.14059E-01
        -0.14059E-01
        -0.14059E-01
        -0.14059E-01
        -0.14059E-01
        -0.14059E-01
        -0.14059E-01
        -0.14059E-01
        -0.14059E-01
        -0.14059E-01
        -0.14059E-01
        -0.14059E-01
        -0.14059E-01
        -0.14059E-01
        -0.14059E-01
        -0.14059E-01
        -0.14059E-01
        -0.14059E-01
        -0.14059E-01
        -0.14059E-01
        -0.14059E-01
        -0.14059E-01
        -0.14059E-01
        -0.14059E-01
        -0.14059E-01
        -0.14059E-01
  
SCALARS                     velocity_x  double 1
LOOKUP_TABLE default
         0.00000E+00
         0.00000E+00
         0.00000E+00
         0.00000E+00
         0.00000E+00
         0.00000E+00
         0.00000E+00
         0.00000E+00
         0.00000E+00
         0.00000E+00
         0.00000E+00
         0.00000E+00
         0.00000E+00
         0.00000E+00
         0.00000E+00
         0.00000E+00
         0.00000E+00
         0.00000E+00
         0.00000E+00
         0.00000E+00
         0.00000E+00
         0.00000E+00
         0.00000E+00
         0.00000E+00
         0.00000E+00
         0.00000E+00
         0.00000E+00
         0.00000E+00
         0.00000E+00
         0.00000E+00
         0.00000E+00
         0.00000E+00
         0.00000E+00
         0.00000E+00
         0.00000E+00
         0.00000E+00
         0.00000E+00
         0.00000E+00
         0.00000E+00
         0.00000E+00
         0.00000E+00
         0.00000E+00
         0.00000E+00
         0.00000E+00
         0.00000E+00
         0.00000E+00
         0.00000E+00
         0.00000E+00
         0.00000E+00
         0.00000E+00
         0.00000E+00
         0.00000E+00
         0.00000E+00
         0.00000E+00
         0.00000E+00
         0.00000E+00
         0.00000E+00
         0.00000E+00
         0.00000E+00
         0.00000E+00
         0.00000E+00
         0.00000E+00
         0.00000E+00
         0.00000E+00
         0.00000E+00
         0.00000E+00
         0.00000E+00
         0.00000E+00
         0.00000E+00
         0.00000E+00
         0.00000E+00
         0.00000E+00
         0.00000E+00
         0.00000E+00
         0.00000E+00
         0.00000E+00
         0.00000E+00
         0.00000E+00
         0.00000E+00
         0.00000E+00
         0.00000E+00
         0.00000E+00
         0.00000E+00
         0.00000E+00
         0.00000E+00
         0.00000E+00
         0.00000E+00
         0.00000E+00
         0.00000E+00
         0.00000E+00
         0.00000E+00
         0.00000E+00
         0.00000E+00
         0.00000E+00
         0.00000E+00
         0.00000E+00
         0.00000E+00
         0.00000E+00
         0.00000E+00
         0.00000E+00
         0.00000E+00
         0.00000E+00
         0.00000E+00
         0.00000E+00
         0.00000E+00
         0.00000E+00
         0.00000E+00
         0.00000E+00
         0.00000E+00
         0.00000E+00
         0.00000E+00
         0.00000E+00
         0.00000E+00
         0.00000E+00
         0.00000E+00
         0.00000E+00
         0.00000E+00
         0.00000E+00
         0.00000E+00
         0.00000E+00
         0.00000E+00
         0.00000E+00
         0.00000E+00
         0.00000E+00
         0.00000E+00
         0.00000E+00
         0.00000E+00
         0.00000E+00
         0.00000E+00
         0.00000E+00
         0.00000E+00
         0.00000E+00
         0.00000E+00
         0.00000E+00
         0.00000E+00
         0.00000E+00
         0.00000E+00
         0.00000E+00
         0.00000E+00
         0.00000E+00
         0.00000E+00
         0.00000E+00
         0.00000E+00
         0.00000E+00
         0.00000E+00
         0.00000E+00
         0.00000E+00
         0.00000E+00
         0.00000E+00
         0.00000E+00
         0.00000E+00
         0.00000E+00
         0.00000E+00
         0.00000E+00
         0.00000E+00
         0.00000E+00
         0.00000E+00
         0.00000E+00
         0.00000E+00
         0.00000E+00
         0.00000E+00
         0.00000E+00
         0.00000E+00
         0.00000E+00
         0.00000E+00
         0.00000E+00
         0.00000E+00
         0.00000E+00
         0.00000E+00
         0.00000E+00
         0.00000E+00
         0.00000E+00
         0.00000E+00
         0.00000E+00
         0.00000E+00
         0.00000E+00
         0.00000E+00
         0.00000E+00
         0.00000E+00
         0.00000E+00
         0.00000E+00
         0.00000E+00
         0.00000E+00
         0.00000E+00
         0.00000E+00
         0.00000E+00
         0.00000E+00
         0.00000E+00
         0.00000E+00
         0.00000E+00
         0.00000E+00
         0.00000E+00
         0.00000E+00
         0.00000E+00
         0.00000E+00
         0.00000E+00
         0.00000E+00
         0.00000E+00
         0.00000E+00
         0.00000E+00
         0.00000E+00
         0.00000E+00
         0.00000E+00
         0.00000E+00
         0.00000E+00
         0.00000E+00
         0.00000E+00
         0.00000E+00
         0.00000E+00
         0.00000E+00
         0.00000E+00
         0.00000E+00
         0.00000E+00
         0.00000E+00
         0.00000E+00
         0.00000E+00
         0.00000E+00
         0.00000E+00
         0.00000E+00
         0.00000E+00
         0.00000E+00
         0.00000E+00
         0.00000E+00
         0.00000E+00
         0.00000E+00
         0.00000E+00
         0.00000E+00
         0.00000E+00
         0.00000E+00
         0.00000E+00
         0.00000E+00
         0.00000E+00
         0.00000E+00
         0.00000E+00
         0.00000E+00
         0.00000E+00
         0.00000E+00
         0.00000E+00
         0.00000E+00
         0.00000E+00
         0.00000E+00
         0.00000E+00
         0.00000E+00
         0.00000E+00
         0.00000E+00
         0.00000E+00
         0.00000E+00
         0.00000E+00
         0.00000E+00
         0.00000E+00
         0.00000E+00
         0.00000E+00
         0.00000E+00
         0.00000E+00
         0.00000E+00
         0.00000E+00
         0.00000E+00
         0.00000E+00
         0.00000E+00
         0.00000E+00
         0.00000E+00
         0.00000E+00
         0.00000E+00
         0.00000E+00
         0.00000E+00
         0.00000E+00
         0.00000E+00
         0.00000E+00
         0.00000E+00
         0.00000E+00
         0.00000E+00
         0.00000E+00
         0.00000E+00
         0.00000E+00
         0.00000E+00
         0.00000E+00
         0.00000E+00
         0.00000E+00
         0.00000E+00
         0.00000E+00
         0.00000E+00
         0.00000E+00
         0.00000E+00
         0.00000E+00
         0.00000E+00
         0.00000E+00
         0.00000E+00
         0.00000E+00
         0.00000E+00
         0.00000E+00
         0.00000E+00
         0.00000E+00
         0.00000E+00
         0.00000E+00
         0.00000E+00
         0.00000E+00
         0.00000E+00
         0.00000E+00
         0.00000E+00
         0.00000E+00
         0.00000E+00
         0.00000E+00
         0.00000E+00
         0.00000E+00
         0.00000E+00
         0.00000E+00
         0.00000E+00
         0.00000E+00
         0.00000E+00
         0.00000E+00
         0.00000E+00
         0.00000E+00
         0.00000E+00
         0.00000E+00
         0.00000E+00
         0.00000E+00
         0.00000E+00
         0.00000E+00
         0.00000E+00
         0.00000E+00
         0.00000E+00
         0.00000E+00
         0.00000E+00
         0.00000E+00
         0.00000E+00
         0.00000E+00
         0.00000E+00
         0.00000E+00
         0.00000E+00
         0.00000E+00
         0.00000E+00
         0.00000E+00
         0.00000E+00
         0.00000E+00
         0.00000E+00
         0.00000E+00
         0.00000E+00
         0.00000E+00
         0.00000E+00
         0.00000E+00
         0.00000E+00
         0.00000E+00
         0.00000E+00
         0.00000E+00
         0.00000E+00
         0.00000E+00
         0.00000E+00
         0.00000E+00
         0.00000E+00
         0.00000E+00
         0.00000E+00
         0.00000E+00
         0.00000E+00
         0.00000E+00
         0.00000E+00
         0.00000E+00
         0.00000E+00
         0.00000E+00
         0.00000E+00
         0.00000E+00
         0.00000E+00
         0.00000E+00
         0.00000E+00
         0.00000E+00
         0.00000E+00
         0.00000E+00
         0.00000E+00
         0.00000E+00
         0.00000E+00
         0.00000E+00
         0.00000E+00
         0.00000E+00
         0.00000E+00
         0.00000E+00
         0.00000E+00
         0.00000E+00
         0.00000E+00
         0.00000E+00
         0.00000E+00
         0.00000E+00
         0.00000E+00
         0.00000E+00
         0.00000E+00
         0.00000E+00
         0.00000E+00
         0.00000E+00
         0.00000E+00
         0.00000E+00
         0.00000E+00
         0.00000E+00
         0.00000E+00
         0.00000E+00
         0.00000E+00
         0.00000E+00
         0.00000E+00
         0.00000E+00
         0.00000E+00
         0.00000E+00
         0.00000E+00
         0.00000E+00
         0.00000E+00
         0.00000E+00
         0.00000E+00
         0.00000E+00
         0.00000E+00
         0.00000E+00
         0.00000E+00
         0.00000E+00
         0.00000E+00
         0.00000E+00
         0.00000E+00
         0.00000E+00
         0.00000E+00
         0.00000E+00
         0.00000E+00
         0.00000E+00
         0.00000E+00
         0.00000E+00
         0.00000E+00
         0.00000E+00
         0.00000E+00
         0.00000E+00
         0.00000E+00
         0.00000E+00
         0.00000E+00
         0.00000E+00
         0.00000E+00
         0.00000E+00
         0.00000E+00
         0.00000E+00
         0.00000E+00
         0.00000E+00
         0.00000E+00
         0.00000E+00
         0.00000E+00
         0.00000E+00
         0.00000E+00
         0.00000E+00
         0.00000E+00
         0.00000E+00
         0.00000E+00
         0.00000E+00
         0.00000E+00
         0.00000E+00
         0.00000E+00
         0.00000E+00
         0.00000E+00
         0.00000E+00
         0.00000E+00
         0.00000E+00
         0.00000E+00
         0.00000E+00
         0.00000E+00
         0.00000E+00
         0.00000E+00
         0.00000E+00
         0.00000E+00
         0.00000E+00
         0.00000E+00
         0.00000E+00
         0.00000E+00
         0.00000E+00
         0.00000E+00
         0.00000E+00
         0.00000E+00
         0.00000E+00
         0.00000E+00
         0.00000E+00
         0.00000E+00
         0.00000E+00
         0.00000E+00
         0.00000E+00
         0.00000E+00
         0.00000E+00
         0.00000E+00
         0.00000E+00
         0.00000E+00
         0.00000E+00
         0.00000E+00
         0.00000E+00
         0.00000E+00
         0.00000E+00
         0.00000E+00
         0.00000E+00
         0.00000E+00
         0.00000E+00
         0.00000E+00
         0.00000E+00
         0.00000E+00
         0.00000E+00
         0.00000E+00
         0.00000E+00
         0.00000E+00
         0.00000E+00
         0.00000E+00
         0.00000E+00
         0.00000E+00
         0.00000E+00
         0.00000E+00
         0.00000E+00
         0.00000E+00
         0.00000E+00
         0.00000E+00
         0.00000E+00
         0.00000E+00
         0.00000E+00
         0.00000E+00
         0.00000E+00
         0.00000E+00
         0.00000E+00
         0.00000E+00
         0.00000E+00
         0.00000E+00
         0.00000E+00
         0.00000E+00
         0.00000E+00
         0.00000E+00
         0.00000E+00
         0.00000E+00
         0.00000E+00
         0.00000E+00
         0.00000E+00
         0.00000E+00
         0.00000E+00
         0.00000E+00
         0.00000E+00
         0.00000E+00
         0.00000E+00
         0.00000E+00
         0.00000E+00
         0.00000E+00
         0.00000E+00
         0.00000E+00
         0.00000E+00
         0.00000E+00
         0.00000E+00
         0.00000E+00
         0.00000E+00
         0.00000E+00
         0.00000E+00
         0.00000E+00
         0.00000E+00
         0.00000E+00
         0.00000E+00
         0.00000E+00
         0.00000E+00
         0.00000E+00
         0.00000E+00
         0.00000E+00
         0.00000E+00
         0.00000E+00
         0.00000E+00
         0.00000E+00
         0.00000E+00
         0.00000E+00
         0.00000E+00
         0.00000E+00
         0.00000E+00
         0.00000E+00
         0.00000E+00
         0.00000E+00
         0.00000E+00
         0.00000E+00
         0.00000E+00
         0.00000E+00
         0.00000E+00
         0.00000E+00
         0.00000E+00
         0.00000E+00
         0.00000E+00
         0.00000E+00
         0.00000E+00
         0.00000E+00
         0.00000E+00
         0.00000E+00
         0.00000E+00
         0.00000E+00
         0.00000E+00
         0.00000E+00
         0.00000E+00
         0.00000E+00
         0.00000E+00
         0.00000E+00
         0.00000E+00
         0.00000E+00
         0.00000E+00
         0.00000E+00
         0.00000E+00
         0.00000E+00
         0.00000E+00
         0.00000E+00
         0.00000E+00
         0.00000E+00
         0.00000E+00
         0.00000E+00
         0.00000E+00
         0.00000E+00
         0.00000E+00
         0.00000E+00
         0.00000E+00
         0.00000E+00
         0.00000E+00
         0.00000E+00
         0.00000E+00
         0.00000E+00
         0.00000E+00
         0.00000E+00
         0.00000E+00
         0.00000E+00
         0.00000E+00
         0.00000E+00
         0.00000E+00
         0.00000E+00
         0.00000E+00
         0.00000E+00
         0.00000E+00
         0.00000E+00
         0.00000E+00
         0.00000E+00
         0.00000E+00
         0.00000E+00
         0.00000E+00
         0.00000E+00
         0.00000E+00
         0.00000E+00
         0.00000E+00
         0.00000E+00
         0.00000E+00
         0.00000E+00
         0.00000E+00
         0.00000E+00
         0.00000E+00
         0.00000E+00
         0.00000E+00
         0.00000E+00
         0.00000E+00
         0.00000E+00
         0.00000E+00
         0.00000E+00
         0.00000E+00
         0.00000E+00
         0.00000E+00
         0.00000E+00
         0.00000E+00
         0.00000E+00
         0.00000E+00
         0.00000E+00
         0.00000E+00
         0.00000E+00
         0.00000E+00
         0.00000E+00
         0.00000E+00
         0.00000E+00
         0.00000E+00
         0.00000E+00
         0.00000E+00
         0.00000E+00
         0.00000E+00
         0.00000E+00
         0.00000E+00
         0.00000E+00
         0.00000E+00
         0.00000E+00
         0.00000E+00
         0.00000E+00
         0.00000E+00
         0.00000E+00
         0.00000E+00
         0.00000E+00
         0.00000E+00
         0.00000E+00
         0.00000E+00
         0.00000E+00
         0.00000E+00
         0.00000E+00
         0.00000E+00
         0.00000E+00
         0.00000E+00
         0.00000E+00
         0.00000E+00
         0.00000E+00
         0.00000E+00
         0.00000E+00
         0.00000E+00
         0.00000E+00
         0.00000E+00
         0.00000E+00
         0.00000E+00
         0.00000E+00
         0.00000E+00
         0.00000E+00
         0.00000E+00
         0.00000E+00
         0.00000E+00
         0.00000E+00
         0.00000E+00
         0.00000E+00
         0.00000E+00
         0.00000E+00
         0.00000E+00
         0.00000E+00
         0.00000E+00
         0.00000E+00
         0.00000E+00
         0.00000E+00
         0.00000E+00
         0.00000E+00
         0.00000E+00
         0.00000E+00
         0.00000E+00
         0.00000E+00
         0.00000E+00
         0.00000E+00
         0.00000E+00
         0.00000E+00
         0.00000E+00
         0.00000E+00
         0.00000E+00
         0.00000E+00
         0.00000E+00
         0.00000E+00
         0.00000E+00
         0.00000E+00
         0.00000E+00
         0.00000E+00
         0.00000E+00
         0.00000E+00
         0.00000E+00
         0.00000E+00
         0.00000E+00
         0.00000E+00
         0.00000E+00
         0.00000E+00
         0.00000E+00
         0.00000E+00
         0.00000E+00
         0.00000E+00
         0.00000E+00
         0.00000E+00
         0.00000E+00
         0.00000E+00
         0.00000E+00
         0.00000E+00
         0.00000E+00
         0.00000E+00
         0.00000E+00
         0.00000E+00
         0.00000E+00
         0.00000E+00
         0.00000E+00
         0.00000E+00
         0.00000E+00
         0.00000E+00
         0.00000E+00
         0.00000E+00
         0.00000E+00
         0.00000E+00
         0.00000E+00
         0.00000E+00
         0.00000E+00
         0.00000E+00
         0.00000E+00
         0.00000E+00
         0.00000E+00
         0.00000E+00
         0.00000E+00
         0.00000E+00
         0.00000E+00
         0.00000E+00
         0.00000E+00
         0.00000E+00
         0.00000E+00
         0.00000E+00
         0.00000E+00
         0.00000E+00
         0.00000E+00
         0.00000E+00
         0.00000E+00
         0.00000E+00
         0.00000E+00
         0.00000E+00
         0.00000E+00
         0.00000E+00
         0.00000E+00
         0.00000E+00
         0.00000E+00
         0.00000E+00
         0.00000E+00
         0.00000E+00
         0.00000E+00
         0.00000E+00
         0.00000E+00
         0.00000E+00
         0.00000E+00
         0.00000E+00
         0.00000E+00
         0.00000E+00
         0.00000E+00
         0.00000E+00
         0.00000E+00
         0.00000E+00
         0.00000E+00
         0.00000E+00
         0.00000E+00
         0.00000E+00
         0.00000E+00
         0.00000E+00
         0.00000E+00
         0.00000E+00
         0.00000E+00
         0.00000E+00
         0.00000E+00
         0.00000E+00
         0.00000E+00
         0.00000E+00
         0.00000E+00
         0.00000E+00
         0.00000E+00
         0.00000E+00
         0.00000E+00
         0.00000E+00
         0.00000E+00
         0.00000E+00
         0.00000E+00
         0.00000E+00
         0.00000E+00
         0.00000E+00
         0.00000E+00
         0.00000E+00
         0.00000E+00
         0.00000E+00
         0.00000E+00
         0.00000E+00
         0.00000E+00
         0.00000E+00
         0.00000E+00
         0.00000E+00
         0.00000E+00
         0.00000E+00
         0.00000E+00
         0.00000E+00
         0.00000E+00
         0.00000E+00
         0.00000E+00
         0.00000E+00
         0.00000E+00
         0.00000E+00
         0.00000E+00
         0.00000E+00
         0.00000E+00
         0.00000E+00
         0.00000E+00
         0.00000E+00
         0.00000E+00
         0.00000E+00
         0.00000E+00
         0.00000E+00
         0.00000E+00
         0.00000E+00
         0.00000E+00
         0.00000E+00
         0.00000E+00
         0.00000E+00
         0.00000E+00
         0.00000E+00
         0.00000E+00
         0.00000E+00
         0.00000E+00
         0.00000E+00
         0.00000E+00
         0.00000E+00
         0.00000E+00
         0.00000E+00
         0.00000E+00
         0.00000E+00
         0.00000E+00
         0.00000E+00
         0.00000E+00
         0.00000E+00
         0.00000E+00
         0.00000E+00
         0.00000E+00
         0.00000E+00
         0.00000E+00
         0.00000E+00
         0.00000E+00
         0.00000E+00
         0.00000E+00
         0.00000E+00
         0.00000E+00
         0.00000E+00
         0.00000E+00
         0.00000E+00
         0.00000E+00
         0.00000E+00
         0.00000E+00
         0.00000E+00
         0.00000E+00
         0.00000E+00
         0.00000E+00
         0.00000E+00
         0.00000E+00
         0.00000E+00
         0.00000E+00
         0.00000E+00
         0.00000E+00
         0.00000E+00
         0.00000E+00
         0.00000E+00
         0.00000E+00
         0.00000E+00
         0.00000E+00
         0.00000E+00
         0.00000E+00
         0.00000E+00
         0.00000E+00
         0.00000E+00
         0.00000E+00
         0.00000E+00
         0.00000E+00
         0.00000E+00
         0.00000E+00
         0.00000E+00
         0.00000E+00
         0.00000E+00
         0.00000E+00
         0.00000E+00
         0.00000E+00
         0.00000E+00
         0.00000E+00
         0.00000E+00
         0.00000E+00
         0.00000E+00
         0.00000E+00
         0.00000E+00
         0.00000E+00
         0.00000E+00
         0.00000E+00
         0.00000E+00
         0.00000E+00
         0.00000E+00
         0.00000E+00
         0.00000E+00
         0.00000E+00
         0.00000E+00
         0.00000E+00
         0.00000E+00
         0.00000E+00
         0.00000E+00
         0.00000E+00
         0.00000E+00
         0.00000E+00
         0.00000E+00
         0.00000E+00
         0.00000E+00
         0.00000E+00
         0.00000E+00
         0.00000E+00
         0.00000E+00
         0.00000E+00
         0.00000E+00
         0.00000E+00
         0.00000E+00
         0.00000E+00
         0.00000E+00
         0.00000E+00
         0.00000E+00
         0.00000E+00
         0.00000E+00
         0.00000E+00
         0.00000E+00
         0.00000E+00
         0.00000E+00
         0.00000E+00
         0.00000E+00
         0.00000E+00
         0.00000E+00
         0.00000E+00
         0.00000E+00
         0.00000E+00
         0.00000E+00
         0.00000E+00
         0.00000E+00
         0.00000E+00
         0.00000E+00
         0.00000E+00
         0.00000E+00
         0.00000E+00
         0.00000E+00
         0.00000E+00
         0.00000E+00
         0.00000E+00
         0.00000E+00
         0.00000E+00
         0.00000E+00
         0.00000E+00
         0.00000E+00
         0.00000E+00
         0.00000E+00
         0.00000E+00
         0.00000E+00
         0.00000E+00
         0.00000E+00
         0.00000E+00
         0.00000E+00
         0.00000E+00
         0.00000E+00
         0.00000E+00
         0.00000E+00
         0.00000E+00
         0.00000E+00
         0.00000E+00
         0.00000E+00
         0.00000E+00
         0.00000E+00
         0.00000E+00
         0.00000E+00
         0.00000E+00
         0.00000E+00
         0.00000E+00
         0.00000E+00
         0.00000E+00
         0.00000E+00
         0.00000E+00
         0.00000E+00
         0.00000E+00
         0.00000E+00
         0.00000E+00
         0.00000E+00
         0.00000E+00
         0.00000E+00
         0.00000E+00
         0.00000E+00
         0.00000E+00
         0.00000E+00
         0.00000E+00
         0.00000E+00
         0.00000E+00
         0.00000E+00
         0.00000E+00
         0.00000E+00
         0.00000E+00
         0.00000E+00
         0.00000E+00
         0.00000E+00
         0.00000E+00
         0.00000E+00
         0.00000E+00
         0.00000E+00
         0.00000E+00
         0.00000E+00
         0.00000E+00
         0.00000E+00
         0.00000E+00
         0.00000E+00
         0.00000E+00
         0.00000E+00
         0.00000E+00
         0.00000E+00
         0.00000E+00
         0.00000E+00
         0.00000E+00
         0.00000E+00
         0.00000E+00
         0.00000E+00
         0.00000E+00
         0.00000E+00
         0.00000E+00
         0.00000E+00
         0.00000E+00
         0.00000E+00
         0.00000E+00
         0.00000E+00
         0.00000E+00
         0.00000E+00
         0.00000E+00
         0.00000E+00
         0.00000E+00
         0.00000E+00
         0.00000E+00
         0.00000E+00
         0.00000E+00
         0.00000E+00
         0.00000E+00
         0.00000E+00
         0.00000E+00
         0.00000E+00
         0.00000E+00
         0.00000E+00
         0.00000E+00
         0.00000E+00
         0.00000E+00
         0.00000E+00
         0.00000E+00
         0.00000E+00
         0.00000E+00
         0.00000E+00
         0.00000E+00
         0.00000E+00
         0.00000E+00
         0.00000E+00
         0.00000E+00
         0.00000E+00
         0.00000E+00
         0.00000E+00
         0.00000E+00
         0.00000E+00
         0.00000E+00
         0.00000E+00
         0.00000E+00
         0.00000E+00
         0.00000E+00
         0.00000E+00
         0.00000E+00
         0.00000E+00
         0.00000E+00
         0.00000E+00
         0.00000E+00
         0.00000E+00
         0.00000E+00
         0.00000E+00
         0.00000E+00
         0.00000E+00
         0.00000E+00
         0.00000E+00
         0.00000E+00
         0.00000E+00
         0.00000E+00
         0.00000E+00
         0.00000E+00
         0.00000E+00
         0.00000E+00
         0.00000E+00
         0.00000E+00
         0.00000E+00
         0.00000E+00
         0.00000E+00
         0.00000E+00
         0.00000E+00
         0.00000E+00
         0.00000E+00
         0.00000E+00
         0.00000E+00
         0.00000E+00
         0.00000E+00
         0.00000E+00
         0.00000E+00
         0.00000E+00
         0.00000E+00
         0.00000E+00
         0.00000E+00
         0.00000E+00
         0.00000E+00
         0.00000E+00
         0.00000E+00
         0.00000E+00
         0.00000E+00
         0.00000E+00
         0.00000E+00
         0.00000E+00
         0.00000E+00
         0.00000E+00
         0.00000E+00
         0.00000E+00
         0.00000E+00
         0.00000E+00
         0.00000E+00
         0.00000E+00
         0.00000E+00
         0.00000E+00
         0.00000E+00
         0.00000E+00
         0.00000E+00
         0.00000E+00
         0.00000E+00
         0.00000E+00
         0.00000E+00
         0.00000E+00
         0.00000E+00
         0.00000E+00
         0.00000E+00
         0.00000E+00
         0.00000E+00
         0.00000E+00
         0.00000E+00
         0.00000E+00
         0.00000E+00
         0.00000E+00
         0.00000E+00
         0.00000E+00
         0.00000E+00
         0.00000E+00
         0.00000E+00
         0.00000E+00
         0.00000E+00
         0.00000E+00
         0.00000E+00
         0.00000E+00
         0.00000E+00
         0.00000E+00
         0.00000E+00
         0.00000E+00
         0.00000E+00
         0.00000E+00
         0.00000E+00
         0.00000E+00
         0.00000E+00
         0.00000E+00
         0.00000E+00
         0.00000E+00
         0.00000E+00
         0.00000E+00
         0.00000E+00
         0.00000E+00
         0.00000E+00
         0.00000E+00
         0.00000E+00
         0.00000E+00
         0.00000E+00
         0.00000E+00
         0.00000E+00
         0.00000E+00
         0.00000E+00
         0.00000E+00
         0.00000E+00
         0.00000E+00
         0.00000E+00
         0.00000E+00
         0.00000E+00
         0.00000E+00
         0.00000E+00
         0.00000E+00
         0.00000E+00
         0.00000E+00
         0.00000E+00
         0.00000E+00
         0.00000E+00
         0.00000E+00
         0.00000E+00
         0.00000E+00
         0.00000E+00
         0.00000E+00
         0.00000E+00
         0.00000E+00
         0.00000E+00
         0.00000E+00
         0.00000E+00
         0.00000E+00
         0.00000E+00
         0.00000E+00
         0.00000E+00
         0.00000E+00
         0.00000E+00
         0.00000E+00
         0.00000E+00
         0.00000E+00
         0.00000E+00
         0.00000E+00
         0.00000E+00
         0.00000E+00
         0.00000E+00
         0.00000E+00
         0.00000E+00
         0.00000E+00
         0.00000E+00
         0.00000E+00
         0.00000E+00
         0.00000E+00
         0.00000E+00
         0.00000E+00
         0.00000E+00
         0.00000E+00
         0.00000E+00
         0.00000E+00
         0.00000E+00
         0.00000E+00
         0.00000E+00
         0.00000E+00
         0.00000E+00
         0.00000E+00
         0.00000E+00
         0.00000E+00
         0.00000E+00
         0.00000E+00
         0.00000E+00
         0.00000E+00
         0.00000E+00
         0.00000E+00
         0.00000E+00
         0.00000E+00
         0.00000E+00
         0.00000E+00
         0.00000E+00
         0.00000E+00
         0.00000E+00
         0.00000E+00
         0.00000E+00
         0.00000E+00
         0.00000E+00
         0.00000E+00
         0.00000E+00
         0.00000E+00
         0.00000E+00
         0.00000E+00
         0.00000E+00
         0.00000E+00
         0.00000E+00
         0.00000E+00
         0.00000E+00
         0.00000E+00
         0.00000E+00
         0.00000E+00
         0.00000E+00
         0.00000E+00
         0.00000E+00
         0.00000E+00
         0.00000E+00
         0.00000E+00
         0.00000E+00
         0.00000E+00
         0.00000E+00
         0.00000E+00
         0.00000E+00
         0.00000E+00
         0.00000E+00
         0.00000E+00
         0.00000E+00
         0.00000E+00
         0.00000E+00
         0.00000E+00
         0.00000E+00
         0.00000E+00
         0.00000E+00
         0.00000E+00
         0.00000E+00
         0.00000E+00
         0.00000E+00
         0.00000E+00
         0.00000E+00
         0.00000E+00
         0.00000E+00
         0.00000E+00
         0.00000E+00
         0.00000E+00
         0.00000E+00
         0.00000E+00
         0.00000E+00
         0.00000E+00
         0.00000E+00
         0.00000E+00
         0.00000E+00
         0.00000E+00
         0.00000E+00
         0.00000E+00
         0.00000E+00
         0.00000E+00
         0.00000E+00
         0.00000E+00
         0.00000E+00
         0.00000E+00
         0.00000E+00
         0.00000E+00
         0.00000E+00
         0.00000E+00
         0.00000E+00
         0.00000E+00
         0.00000E+00
         0.00000E+00
         0.00000E+00
         0.00000E+00
         0.00000E+00
         0.00000E+00
         0.00000E+00
         0.00000E+00
         0.00000E+00
         0.00000E+00
         0.00000E+00
         0.00000E+00
         0.00000E+00
         0.00000E+00
         0.00000E+00
         0.00000E+00
         0.00000E+00
         0.00000E+00
         0.00000E+00
         0.00000E+00
         0.00000E+00
         0.00000E+00
         0.00000E+00
         0.00000E+00
         0.00000E+00
         0.00000E+00
         0.00000E+00
         0.00000E+00
         0.00000E+00
         0.00000E+00
         0.00000E+00
         0.00000E+00
         0.00000E+00
         0.00000E+00
         0.00000E+00
         0.00000E+00
         0.00000E+00
         0.00000E+00
         0.00000E+00
         0.00000E+00
         0.00000E+00
         0.00000E+00
         0.00000E+00
         0.00000E+00
         0.00000E+00
         0.00000E+00
         0.00000E+00
         0.00000E+00
         0.00000E+00
         0.00000E+00
         0.00000E+00
         0.00000E+00
         0.00000E+00
         0.00000E+00
         0.00000E+00
         0.00000E+00
         0.00000E+00
         0.00000E+00
         0.00000E+00
         0.00000E+00
         0.00000E+00
         0.00000E+00
         0.00000E+00
         0.00000E+00
         0.00000E+00
         0.00000E+00
         0.00000E+00
         0.00000E+00
         0.00000E+00
         0.00000E+00
         0.00000E+00
         0.00000E+00
         0.00000E+00
         0.00000E+00
         0.00000E+00
         0.00000E+00
         0.00000E+00
         0.00000E+00
         0.00000E+00
         0.00000E+00
         0.00000E+00
         0.00000E+00
         0.00000E+00
         0.00000E+00
         0.00000E+00
         0.00000E+00
         0.00000E+00
         0.00000E+00
         0.00000E+00
         0.00000E+00
         0.00000E+00
         0.00000E+00
         0.00000E+00
         0.00000E+00
         0.00000E+00
         0.00000E+00
         0.00000E+00
         0.00000E+00
         0.00000E+00
         0.00000E+00
         0.00000E+00
         0.00000E+00
         0.00000E+00
         0.00000E+00
         0.00000E+00
         0.00000E+00
         0.00000E+00
         0.00000E+00
         0.00000E+00
         0.00000E+00
         0.00000E+00
         0.00000E+00
         0.00000E+00
         0.00000E+00
         0.00000E+00
         0.00000E+00
         0.00000E+00
         0.00000E+00
         0.00000E+00
         0.00000E+00
         0.00000E+00
         0.00000E+00
         0.00000E+00
         0.00000E+00
         0.00000E+00
         0.00000E+00
         0.00000E+00
         0.00000E+00
         0.00000E+00
         0.00000E+00
         0.00000E+00
         0.00000E+00
         0.00000E+00
         0.00000E+00
         0.00000E+00
         0.00000E+00
         0.00000E+00
         0.00000E+00
         0.00000E+00
         0.00000E+00
         0.00000E+00
         0.00000E+00
         0.00000E+00
         0.00000E+00
         0.00000E+00
         0.00000E+00
         0.00000E+00
         0.00000E+00
         0.00000E+00
         0.00000E+00
         0.00000E+00
         0.00000E+00
         0.00000E+00
         0.00000E+00
         0.00000E+00
         0.00000E+00
         0.00000E+00
         0.00000E+00
         0.00000E+00
         0.00000E+00
         0.00000E+00
         0.00000E+00
         0.00000E+00
         0.00000E+00
         0.00000E+00
         0.00000E+00
         0.00000E+00
         0.00000E+00
         0.00000E+00
         0.00000E+00
         0.00000E+00
         0.00000E+00
         0.00000E+00
         0.00000E+00
         0.00000E+00
         0.00000E+00
         0.00000E+00
         0.00000E+00
         0.00000E+00
         0.00000E+00
         0.00000E+00
         0.00000E+00
         0.00000E+00
         0.00000E+00
         0.00000E+00
         0.00000E+00
         0.00000E+00
         0.00000E+00
         0.00000E+00
         0.00000E+00
         0.00000E+00
         0.00000E+00
         0.00000E+00
         0.00000E+00
         0.00000E+00
         0.00000E+00
         0.00000E+00
         0.00000E+00
         0.00000E+00
         0.00000E+00
         0.00000E+00
         0.00000E+00
         0.00000E+00
         0.00000E+00
         0.00000E+00
         0.00000E+00
         0.00000E+00
         0.00000E+00
         0.00000E+00
         0.00000E+00
         0.00000E+00
         0.00000E+00
         0.00000E+00
         0.00000E+00
         0.00000E+00
         0.00000E+00
         0.00000E+00
         0.00000E+00
         0.00000E+00
         0.00000E+00
         0.00000E+00
         0.00000E+00
         0.00000E+00
         0.00000E+00
         0.00000E+00
         0.00000E+00
         0.00000E+00
         0.00000E+00
         0.00000E+00
         0.00000E+00
         0.00000E+00
         0.00000E+00
         0.00000E+00
         0.00000E+00
         0.00000E+00
         0.00000E+00
         0.00000E+00
         0.00000E+00
         0.00000E+00
         0.00000E+00
         0.00000E+00
         0.00000E+00
         0.00000E+00
         0.00000E+00
         0.00000E+00
         0.00000E+00
         0.00000E+00
         0.00000E+00
         0.00000E+00
         0.00000E+00
         0.00000E+00
         0.00000E+00
         0.00000E+00
         0.00000E+00
         0.00000E+00
         0.00000E+00
         0.00000E+00
         0.00000E+00
         0.00000E+00
         0.00000E+00
         0.00000E+00
         0.00000E+00
         0.00000E+00
         0.00000E+00
         0.00000E+00
         0.00000E+00
         0.00000E+00
         0.00000E+00
         0.00000E+00
         0.00000E+00
         0.00000E+00
         0.00000E+00
         0.00000E+00
         0.00000E+00
         0.00000E+00
         0.00000E+00
         0.00000E+00
         0.00000E+00
         0.00000E+00
         0.00000E+00
         0.00000E+00
         0.00000E+00
         0.00000E+00
         0.00000E+00
         0.00000E+00
         0.00000E+00
         0.00000E+00
         0.00000E+00
         0.00000E+00
         0.00000E+00
         0.00000E+00
         0.00000E+00
         0.00000E+00
         0.00000E+00
         0.00000E+00
         0.00000E+00
         0.00000E+00
         0.00000E+00
         0.00000E+00
         0.00000E+00
         0.00000E+00
         0.00000E+00
         0.00000E+00
         0.00000E+00
         0.00000E+00
         0.00000E+00
         0.00000E+00
         0.00000E+00
         0.00000E+00
         0.00000E+00
         0.00000E+00
         0.00000E+00
         0.00000E+00
         0.00000E+00
         0.00000E+00
         0.00000E+00
         0.00000E+00
         0.00000E+00
         0.00000E+00
         0.00000E+00
         0.00000E+00
         0.00000E+00
         0.00000E+00
         0.00000E+00
         0.00000E+00
         0.00000E+00
         0.00000E+00
         0.00000E+00
         0.00000E+00
         0.00000E+00
         0.00000E+00
         0.00000E+00
         0.00000E+00
         0.00000E+00
         0.00000E+00
         0.00000E+00
         0.00000E+00
         0.00000E+00
         0.00000E+00
         0.00000E+00
         0.00000E+00
         0.00000E+00
         0.00000E+00
         0.00000E+00
         0.00000E+00
         0.00000E+00
         0.00000E+00
         0.00000E+00
         0.00000E+00
         0.00000E+00
         0.00000E+00
         0.00000E+00
         0.00000E+00
         0.00000E+00
         0.00000E+00
         0.00000E+00
         0.00000E+00
         0.00000E+00
         0.00000E+00
         0.00000E+00
         0.00000E+00
         0.00000E+00
         0.00000E+00
         0.00000E+00
         0.00000E+00
         0.00000E+00
         0.00000E+00
         0.00000E+00
         0.00000E+00
         0.00000E+00
         0.00000E+00
         0.00000E+00
         0.00000E+00
         0.00000E+00
         0.00000E+00
         0.00000E+00
         0.00000E+00
         0.00000E+00
         0.00000E+00
         0.00000E+00
         0.00000E+00
         0.00000E+00
         0.00000E+00
         0.00000E+00
         0.00000E+00
         0.00000E+00
         0.00000E+00
         0.00000E+00
         0.00000E+00
         0.00000E+00
         0.00000E+00
         0.00000E+00
         0.00000E+00
         0.00000E+00
         0.00000E+00
         0.00000E+00
         0.00000E+00
         0.00000E+00
         0.00000E+00
         0.00000E+00
         0.00000E+00
         0.00000E+00
         0.00000E+00
         0.00000E+00
         0.00000E+00
         0.00000E+00
         0.00000E+00
         0.00000E+00
         0.00000E+00
         0.00000E+00
         0.00000E+00
         0.00000E+00
         0.00000E+00
         0.00000E+00
         0.00000E+00
         0.00000E+00
         0.00000E+00
         0.00000E+00
         0.00000E+00
         0.00000E+00
         0.00000E+00
         0.00000E+00
         0.00000E+00
         0.00000E+00
         0.00000E+00
         0.00000E+00
         0.00000E+00
         0.00000E+00
         0.00000E+00
         0.00000E+00
         0.00000E+00
         0.00000E+00
         0.00000E+00
         0.00000E+00
         0.00000E+00
         0.00000E+00
         0.00000E+00
         0.00000E+00
         0.00000E+00
         0.00000E+00
         0.00000E+00
         0.00000E+00
         0.00000E+00
         0.00000E+00
         0.00000E+00
         0.00000E+00
         0.00000E+00
         0.00000E+00
         0.00000E+00
         0.00000E+00
         0.00000E+00
         0.00000E+00
         0.00000E+00
         0.00000E+00
         0.00000E+00
         0.00000E+00
         0.00000E+00
         0.00000E+00
         0.00000E+00
         0.00000E+00
         0.00000E+00
         0.00000E+00
         0.00000E+00
         0.00000E+00
         0.00000E+00
         0.00000E+00
         0.00000E+00
         0.00000E+00
         0.00000E+00
         0.00000E+00
         0.00000E+00
         0.00000E+00
         0.00000E+00
         0.00000E+00
         0.00000E+00
         0.00000E+00
         0.00000E+00
         0.00000E+00
         0.00000E+00
         0.00000E+00
         0.00000E+00
         0.00000E+00
         0.00000E+00
         0.00000E+00
         0.00000E+00
         0.00000E+00
         0.00000E+00
         0.00000E+00
         0.00000E+00
         0.00000E+00
         0.00000E+00
         0.00000E+00
         0.00000E+00
         0.00000E+00
         0.00000E+00
         0.00000E+00
         0.00000E+00
         0.00000E+00
         0.00000E+00
         0.00000E+00
         0.00000E+00
         0.00000E+00
         0.00000E+00
         0.00000E+00
         0.00000E+00
         0.00000E+00
         0.00000E+00
         0.00000E+00
         0.00000E+00
         0.00000E+00
         0.00000E+00
         0.00000E+00
         0.00000E+00
         0.00000E+00
         0.00000E+00
         0.00000E+00
         0.00000E+00
         0.00000E+00
         0.00000E+00
         0.00000E+00
         0.00000E+00
         0.00000E+00
         0.00000E+00
         0.00000E+00
         0.00000E+00
         0.00000E+00
         0.00000E+00
         0.00000E+00
         0.00000E+00
         0.00000E+00
         0.00000E+00
         0.00000E+00
         0.00000E+00
         0.00000E+00
         0.00000E+00
         0.00000E+00
         0.00000E+00
         0.00000E+00
         0.00000E+00
         0.00000E+00
         0.00000E+00
         0.00000E+00
         0.00000E+00
         0.00000E+00
         0.00000E+00
         0.00000E+00
         0.00000E+00
         0.00000E+00
         0.00000E+00
         0.00000E+00
         0.00000E+00
         0.00000E+00
         0.00000E+00
         0.00000E+00
         0.00000E+00
         0.00000E+00
         0.00000E+00
         0.00000E+00
         0.00000E+00
         0.00000E+00
         0.00000E+00
         0.00000E+00
         0.00000E+00
         0.00000E+00
         0.00000E+00
         0.00000E+00
         0.00000E+00
         0.00000E+00
         0.00000E+00
         0.00000E+00
         0.00000E+00
         0.00000E+00
         0.00000E+00
         0.00000E+00
         0.00000E+00
         0.00000E+00
         0.00000E+00
         0.00000E+00
         0.00000E+00
         0.00000E+00
         0.00000E+00
         0.00000E+00
         0.00000E+00
         0.00000E+00
  
SCALARS                     velocity_y  double 1
LOOKUP_TABLE default
         0.00000E+00
         0.00000E+00
         0.00000E+00
         0.00000E+00
         0.00000E+00
         0.00000E+00
         0.00000E+00
         0.00000E+00
         0.00000E+00
         0.00000E+00
         0.00000E+00
         0.00000E+00
         0.00000E+00
         0.00000E+00
         0.00000E+00
         0.00000E+00
         0.00000E+00
         0.00000E+00
         0.00000E+00
         0.00000E+00
         0.00000E+00
         0.00000E+00
         0.00000E+00
         0.00000E+00
         0.00000E+00
         0.00000E+00
         0.00000E+00
         0.00000E+00
         0.00000E+00
         0.00000E+00
         0.00000E+00
         0.00000E+00
         0.00000E+00
         0.00000E+00
         0.00000E+00
         0.00000E+00
         0.00000E+00
         0.00000E+00
         0.00000E+00
         0.00000E+00
         0.00000E+00
         0.00000E+00
         0.00000E+00
         0.00000E+00
         0.00000E+00
         0.00000E+00
         0.00000E+00
         0.00000E+00
         0.00000E+00
         0.00000E+00
         0.00000E+00
         0.00000E+00
         0.00000E+00
         0.00000E+00
         0.00000E+00
         0.00000E+00
         0.00000E+00
         0.00000E+00
         0.00000E+00
         0.00000E+00
         0.00000E+00
         0.00000E+00
         0.00000E+00
         0.00000E+00
         0.00000E+00
         0.00000E+00
         0.00000E+00
         0.00000E+00
         0.00000E+00
         0.00000E+00
         0.00000E+00
         0.00000E+00
         0.00000E+00
         0.00000E+00
         0.00000E+00
         0.00000E+00
         0.00000E+00
         0.00000E+00
         0.00000E+00
         0.00000E+00
         0.00000E+00
         0.00000E+00
         0.00000E+00
         0.00000E+00
         0.00000E+00
         0.00000E+00
         0.00000E+00
         0.00000E+00
         0.00000E+00
         0.00000E+00
         0.00000E+00
         0.00000E+00
         0.00000E+00
         0.00000E+00
         0.00000E+00
         0.00000E+00
         0.00000E+00
         0.00000E+00
         0.00000E+00
         0.00000E+00
         0.00000E+00
         0.00000E+00
         0.00000E+00
         0.00000E+00
         0.00000E+00
         0.00000E+00
         0.00000E+00
         0.00000E+00
         0.00000E+00
         0.00000E+00
         0.00000E+00
         0.00000E+00
         0.00000E+00
         0.00000E+00
         0.00000E+00
         0.00000E+00
         0.00000E+00
         0.00000E+00
         0.00000E+00
         0.00000E+00
         0.00000E+00
         0.00000E+00
         0.00000E+00
         0.00000E+00
         0.00000E+00
         0.00000E+00
         0.00000E+00
         0.00000E+00
         0.00000E+00
         0.00000E+00
         0.00000E+00
         0.00000E+00
         0.00000E+00
         0.00000E+00
         0.00000E+00
         0.00000E+00
         0.00000E+00
         0.00000E+00
         0.00000E+00
         0.00000E+00
         0.00000E+00
         0.00000E+00
         0.00000E+00
         0.00000E+00
         0.00000E+00
         0.00000E+00
         0.00000E+00
         0.00000E+00
         0.00000E+00
         0.00000E+00
         0.00000E+00
         0.00000E+00
         0.00000E+00
         0.00000E+00
         0.00000E+00
         0.00000E+00
         0.00000E+00
         0.00000E+00
         0.00000E+00
         0.00000E+00
         0.00000E+00
         0.00000E+00
         0.00000E+00
         0.00000E+00
         0.00000E+00
         0.00000E+00
         0.00000E+00
         0.00000E+00
         0.00000E+00
         0.00000E+00
         0.00000E+00
         0.00000E+00
         0.00000E+00
         0.00000E+00
         0.00000E+00
         0.00000E+00
         0.00000E+00
         0.00000E+00
         0.00000E+00
         0.00000E+00
         0.00000E+00
         0.00000E+00
         0.00000E+00
         0.00000E+00
         0.00000E+00
         0.00000E+00
         0.00000E+00
         0.00000E+00
         0.00000E+00
         0.00000E+00
         0.00000E+00
         0.00000E+00
         0.00000E+00
         0.00000E+00
         0.00000E+00
         0.00000E+00
         0.00000E+00
         0.00000E+00
         0.00000E+00
         0.00000E+00
         0.00000E+00
         0.00000E+00
         0.00000E+00
         0.00000E+00
         0.00000E+00
         0.00000E+00
         0.00000E+00
         0.00000E+00
         0.00000E+00
         0.00000E+00
         0.00000E+00
         0.00000E+00
         0.00000E+00
         0.00000E+00
         0.00000E+00
         0.00000E+00
         0.00000E+00
         0.00000E+00
         0.00000E+00
         0.00000E+00
         0.00000E+00
         0.00000E+00
         0.00000E+00
         0.00000E+00
         0.00000E+00
         0.00000E+00
         0.00000E+00
         0.00000E+00
         0.00000E+00
         0.00000E+00
         0.00000E+00
         0.00000E+00
         0.00000E+00
         0.00000E+00
         0.00000E+00
         0.00000E+00
         0.00000E+00
         0.00000E+00
         0.00000E+00
         0.00000E+00
         0.00000E+00
         0.00000E+00
         0.00000E+00
         0.00000E+00
         0.00000E+00
         0.00000E+00
         0.00000E+00
         0.00000E+00
         0.00000E+00
         0.00000E+00
         0.00000E+00
         0.00000E+00
         0.00000E+00
         0.00000E+00
         0.00000E+00
         0.00000E+00
         0.00000E+00
         0.00000E+00
         0.00000E+00
         0.00000E+00
         0.00000E+00
         0.00000E+00
         0.00000E+00
         0.00000E+00
         0.00000E+00
         0.00000E+00
         0.00000E+00
         0.00000E+00
         0.00000E+00
         0.00000E+00
         0.00000E+00
         0.00000E+00
         0.00000E+00
         0.00000E+00
         0.00000E+00
         0.00000E+00
         0.00000E+00
         0.00000E+00
         0.00000E+00
         0.00000E+00
         0.00000E+00
         0.00000E+00
         0.00000E+00
         0.00000E+00
         0.00000E+00
         0.00000E+00
         0.00000E+00
         0.00000E+00
         0.00000E+00
         0.00000E+00
         0.00000E+00
         0.00000E+00
         0.00000E+00
         0.00000E+00
         0.00000E+00
         0.00000E+00
         0.00000E+00
         0.00000E+00
         0.00000E+00
         0.00000E+00
         0.00000E+00
         0.00000E+00
         0.00000E+00
         0.00000E+00
         0.00000E+00
         0.00000E+00
         0.00000E+00
         0.00000E+00
         0.00000E+00
         0.00000E+00
         0.00000E+00
         0.00000E+00
         0.00000E+00
         0.00000E+00
         0.00000E+00
         0.00000E+00
         0.00000E+00
         0.00000E+00
         0.00000E+00
         0.00000E+00
         0.00000E+00
         0.00000E+00
         0.00000E+00
         0.00000E+00
         0.00000E+00
         0.00000E+00
         0.00000E+00
         0.00000E+00
         0.00000E+00
         0.00000E+00
         0.00000E+00
         0.00000E+00
         0.00000E+00
         0.00000E+00
         0.00000E+00
         0.00000E+00
         0.00000E+00
         0.00000E+00
         0.00000E+00
         0.00000E+00
         0.00000E+00
         0.00000E+00
         0.00000E+00
         0.00000E+00
         0.00000E+00
         0.00000E+00
         0.00000E+00
         0.00000E+00
         0.00000E+00
         0.00000E+00
         0.00000E+00
         0.00000E+00
         0.00000E+00
         0.00000E+00
         0.00000E+00
         0.00000E+00
         0.00000E+00
         0.00000E+00
         0.00000E+00
         0.00000E+00
         0.00000E+00
         0.00000E+00
         0.00000E+00
         0.00000E+00
         0.00000E+00
         0.00000E+00
         0.00000E+00
         0.00000E+00
         0.00000E+00
         0.00000E+00
         0.00000E+00
         0.00000E+00
         0.00000E+00
         0.00000E+00
         0.00000E+00
         0.00000E+00
         0.00000E+00
         0.00000E+00
         0.00000E+00
         0.00000E+00
         0.00000E+00
         0.00000E+00
         0.00000E+00
         0.00000E+00
         0.00000E+00
         0.00000E+00
         0.00000E+00
         0.00000E+00
         0.00000E+00
         0.00000E+00
         0.00000E+00
         0.00000E+00
         0.00000E+00
         0.00000E+00
         0.00000E+00
         0.00000E+00
         0.00000E+00
         0.00000E+00
         0.00000E+00
         0.00000E+00
         0.00000E+00
         0.00000E+00
         0.00000E+00
         0.00000E+00
         0.00000E+00
         0.00000E+00
         0.00000E+00
         0.00000E+00
         0.00000E+00
         0.00000E+00
         0.00000E+00
         0.00000E+00
         0.00000E+00
         0.00000E+00
         0.00000E+00
         0.00000E+00
         0.00000E+00
         0.00000E+00
         0.00000E+00
         0.00000E+00
         0.00000E+00
         0.00000E+00
         0.00000E+00
         0.00000E+00
         0.00000E+00
         0.00000E+00
         0.00000E+00
         0.00000E+00
         0.00000E+00
         0.00000E+00
         0.00000E+00
         0.00000E+00
         0.00000E+00
         0.00000E+00
         0.00000E+00
         0.00000E+00
         0.00000E+00
         0.00000E+00
         0.00000E+00
         0.00000E+00
         0.00000E+00
         0.00000E+00
         0.00000E+00
         0.00000E+00
         0.00000E+00
         0.00000E+00
         0.00000E+00
         0.00000E+00
         0.00000E+00
         0.00000E+00
         0.00000E+00
         0.00000E+00
         0.00000E+00
         0.00000E+00
         0.00000E+00
         0.00000E+00
         0.00000E+00
         0.00000E+00
         0.00000E+00
         0.00000E+00
         0.00000E+00
         0.00000E+00
         0.00000E+00
         0.00000E+00
         0.00000E+00
         0.00000E+00
         0.00000E+00
         0.00000E+00
         0.00000E+00
         0.00000E+00
         0.00000E+00
         0.00000E+00
         0.00000E+00
         0.00000E+00
         0.00000E+00
         0.00000E+00
         0.00000E+00
         0.00000E+00
         0.00000E+00
         0.00000E+00
         0.00000E+00
         0.00000E+00
         0.00000E+00
         0.00000E+00
         0.00000E+00
         0.00000E+00
         0.00000E+00
         0.00000E+00
         0.00000E+00
         0.00000E+00
         0.00000E+00
         0.00000E+00
         0.00000E+00
         0.00000E+00
         0.00000E+00
         0.00000E+00
         0.00000E+00
         0.00000E+00
         0.00000E+00
         0.00000E+00
         0.00000E+00
         0.00000E+00
         0.00000E+00
         0.00000E+00
         0.00000E+00
         0.00000E+00
         0.00000E+00
         0.00000E+00
         0.00000E+00
         0.00000E+00
         0.00000E+00
         0.00000E+00
         0.00000E+00
         0.00000E+00
         0.00000E+00
         0.00000E+00
         0.00000E+00
         0.00000E+00
         0.00000E+00
         0.00000E+00
         0.00000E+00
         0.00000E+00
         0.00000E+00
         0.00000E+00
         0.00000E+00
         0.00000E+00
         0.00000E+00
         0.00000E+00
         0.00000E+00
         0.00000E+00
         0.00000E+00
         0.00000E+00
         0.00000E+00
         0.00000E+00
         0.00000E+00
         0.00000E+00
         0.00000E+00
         0.00000E+00
         0.00000E+00
         0.00000E+00
         0.00000E+00
         0.00000E+00
         0.00000E+00
         0.00000E+00
         0.00000E+00
         0.00000E+00
         0.00000E+00
         0.00000E+00
         0.00000E+00
         0.00000E+00
         0.00000E+00
         0.00000E+00
         0.00000E+00
         0.00000E+00
         0.00000E+00
         0.00000E+00
         0.00000E+00
         0.00000E+00
         0.00000E+00
         0.00000E+00
         0.00000E+00
         0.00000E+00
         0.00000E+00
         0.00000E+00
         0.00000E+00
         0.00000E+00
         0.00000E+00
         0.00000E+00
         0.00000E+00
         0.00000E+00
         0.00000E+00
         0.00000E+00
         0.00000E+00
         0.00000E+00
         0.00000E+00
         0.00000E+00
         0.00000E+00
         0.00000E+00
         0.00000E+00
         0.00000E+00
         0.00000E+00
         0.00000E+00
         0.00000E+00
         0.00000E+00
         0.00000E+00
         0.00000E+00
         0.00000E+00
         0.00000E+00
         0.00000E+00
         0.00000E+00
         0.00000E+00
         0.00000E+00
         0.00000E+00
         0.00000E+00
         0.00000E+00
         0.00000E+00
         0.00000E+00
         0.00000E+00
         0.00000E+00
         0.00000E+00
         0.00000E+00
         0.00000E+00
         0.00000E+00
         0.00000E+00
         0.00000E+00
         0.00000E+00
         0.00000E+00
         0.00000E+00
         0.00000E+00
         0.00000E+00
         0.00000E+00
         0.00000E+00
         0.00000E+00
         0.00000E+00
         0.00000E+00
         0.00000E+00
         0.00000E+00
         0.00000E+00
         0.00000E+00
         0.00000E+00
         0.00000E+00
         0.00000E+00
         0.00000E+00
         0.00000E+00
         0.00000E+00
         0.00000E+00
         0.00000E+00
         0.00000E+00
         0.00000E+00
         0.00000E+00
         0.00000E+00
         0.00000E+00
         0.00000E+00
         0.00000E+00
         0.00000E+00
         0.00000E+00
         0.00000E+00
         0.00000E+00
         0.00000E+00
         0.00000E+00
         0.00000E+00
         0.00000E+00
         0.00000E+00
         0.00000E+00
         0.00000E+00
         0.00000E+00
         0.00000E+00
         0.00000E+00
         0.00000E+00
         0.00000E+00
         0.00000E+00
         0.00000E+00
         0.00000E+00
         0.00000E+00
         0.00000E+00
         0.00000E+00
         0.00000E+00
         0.00000E+00
         0.00000E+00
         0.00000E+00
         0.00000E+00
         0.00000E+00
         0.00000E+00
         0.00000E+00
         0.00000E+00
         0.00000E+00
         0.00000E+00
         0.00000E+00
         0.00000E+00
         0.00000E+00
         0.00000E+00
         0.00000E+00
         0.00000E+00
         0.00000E+00
         0.00000E+00
         0.00000E+00
         0.00000E+00
         0.00000E+00
         0.00000E+00
         0.00000E+00
         0.00000E+00
         0.00000E+00
         0.00000E+00
         0.00000E+00
         0.00000E+00
         0.00000E+00
         0.00000E+00
         0.00000E+00
         0.00000E+00
         0.00000E+00
         0.00000E+00
         0.00000E+00
         0.00000E+00
         0.00000E+00
         0.00000E+00
         0.00000E+00
         0.00000E+00
         0.00000E+00
         0.00000E+00
         0.00000E+00
         0.00000E+00
         0.00000E+00
         0.00000E+00
         0.00000E+00
         0.00000E+00
         0.00000E+00
         0.00000E+00
         0.00000E+00
         0.00000E+00
         0.00000E+00
         0.00000E+00
         0.00000E+00
         0.00000E+00
         0.00000E+00
         0.00000E+00
         0.00000E+00
         0.00000E+00
         0.00000E+00
         0.00000E+00
         0.00000E+00
         0.00000E+00
         0.00000E+00
         0.00000E+00
         0.00000E+00
         0.00000E+00
         0.00000E+00
         0.00000E+00
         0.00000E+00
         0.00000E+00
         0.00000E+00
         0.00000E+00
         0.00000E+00
         0.00000E+00
         0.00000E+00
         0.00000E+00
         0.00000E+00
         0.00000E+00
         0.00000E+00
         0.00000E+00
         0.00000E+00
         0.00000E+00
         0.00000E+00
         0.00000E+00
         0.00000E+00
         0.00000E+00
         0.00000E+00
         0.00000E+00
         0.00000E+00
         0.00000E+00
         0.00000E+00
         0.00000E+00
         0.00000E+00
         0.00000E+00
         0.00000E+00
         0.00000E+00
         0.00000E+00
         0.00000E+00
         0.00000E+00
         0.00000E+00
         0.00000E+00
         0.00000E+00
         0.00000E+00
         0.00000E+00
         0.00000E+00
         0.00000E+00
         0.00000E+00
         0.00000E+00
         0.00000E+00
         0.00000E+00
         0.00000E+00
         0.00000E+00
         0.00000E+00
         0.00000E+00
         0.00000E+00
         0.00000E+00
         0.00000E+00
         0.00000E+00
         0.00000E+00
         0.00000E+00
         0.00000E+00
         0.00000E+00
         0.00000E+00
         0.00000E+00
         0.00000E+00
         0.00000E+00
         0.00000E+00
         0.00000E+00
         0.00000E+00
         0.00000E+00
         0.00000E+00
         0.00000E+00
         0.00000E+00
         0.00000E+00
         0.00000E+00
         0.00000E+00
         0.00000E+00
         0.00000E+00
         0.00000E+00
         0.00000E+00
         0.00000E+00
         0.00000E+00
         0.00000E+00
         0.00000E+00
         0.00000E+00
         0.00000E+00
         0.00000E+00
         0.00000E+00
         0.00000E+00
         0.00000E+00
         0.00000E+00
         0.00000E+00
         0.00000E+00
         0.00000E+00
         0.00000E+00
         0.00000E+00
         0.00000E+00
         0.00000E+00
         0.00000E+00
         0.00000E+00
         0.00000E+00
         0.00000E+00
         0.00000E+00
         0.00000E+00
         0.00000E+00
         0.00000E+00
         0.00000E+00
         0.00000E+00
         0.00000E+00
         0.00000E+00
         0.00000E+00
         0.00000E+00
         0.00000E+00
         0.00000E+00
         0.00000E+00
         0.00000E+00
         0.00000E+00
         0.00000E+00
         0.00000E+00
         0.00000E+00
         0.00000E+00
         0.00000E+00
         0.00000E+00
         0.00000E+00
         0.00000E+00
         0.00000E+00
         0.00000E+00
         0.00000E+00
         0.00000E+00
         0.00000E+00
         0.00000E+00
         0.00000E+00
         0.00000E+00
         0.00000E+00
         0.00000E+00
         0.00000E+00
         0.00000E+00
         0.00000E+00
         0.00000E+00
         0.00000E+00
         0.00000E+00
         0.00000E+00
         0.00000E+00
         0.00000E+00
         0.00000E+00
         0.00000E+00
         0.00000E+00
         0.00000E+00
         0.00000E+00
         0.00000E+00
         0.00000E+00
         0.00000E+00
         0.00000E+00
         0.00000E+00
         0.00000E+00
         0.00000E+00
         0.00000E+00
         0.00000E+00
         0.00000E+00
         0.00000E+00
         0.00000E+00
         0.00000E+00
         0.00000E+00
         0.00000E+00
         0.00000E+00
         0.00000E+00
         0.00000E+00
         0.00000E+00
         0.00000E+00
         0.00000E+00
         0.00000E+00
         0.00000E+00
         0.00000E+00
         0.00000E+00
         0.00000E+00
         0.00000E+00
         0.00000E+00
         0.00000E+00
         0.00000E+00
         0.00000E+00
         0.00000E+00
         0.00000E+00
         0.00000E+00
         0.00000E+00
         0.00000E+00
         0.00000E+00
         0.00000E+00
         0.00000E+00
         0.00000E+00
         0.00000E+00
         0.00000E+00
         0.00000E+00
         0.00000E+00
         0.00000E+00
         0.00000E+00
         0.00000E+00
         0.00000E+00
         0.00000E+00
         0.00000E+00
         0.00000E+00
         0.00000E+00
         0.00000E+00
         0.00000E+00
         0.00000E+00
         0.00000E+00
         0.00000E+00
         0.00000E+00
         0.00000E+00
         0.00000E+00
         0.00000E+00
         0.00000E+00
         0.00000E+00
         0.00000E+00
         0.00000E+00
         0.00000E+00
         0.00000E+00
         0.00000E+00
         0.00000E+00
         0.00000E+00
         0.00000E+00
         0.00000E+00
         0.00000E+00
         0.00000E+00
         0.00000E+00
         0.00000E+00
         0.00000E+00
         0.00000E+00
         0.00000E+00
         0.00000E+00
         0.00000E+00
         0.00000E+00
         0.00000E+00
         0.00000E+00
         0.00000E+00
         0.00000E+00
         0.00000E+00
         0.00000E+00
         0.00000E+00
         0.00000E+00
         0.00000E+00
         0.00000E+00
         0.00000E+00
         0.00000E+00
         0.00000E+00
         0.00000E+00
         0.00000E+00
         0.00000E+00
         0.00000E+00
         0.00000E+00
         0.00000E+00
         0.00000E+00
         0.00000E+00
         0.00000E+00
         0.00000E+00
         0.00000E+00
         0.00000E+00
         0.00000E+00
         0.00000E+00
         0.00000E+00
         0.00000E+00
         0.00000E+00
         0.00000E+00
         0.00000E+00
         0.00000E+00
         0.00000E+00
         0.00000E+00
         0.00000E+00
         0.00000E+00
         0.00000E+00
         0.00000E+00
         0.00000E+00
         0.00000E+00
         0.00000E+00
         0.00000E+00
         0.00000E+00
         0.00000E+00
         0.00000E+00
         0.00000E+00
         0.00000E+00
         0.00000E+00
         0.00000E+00
         0.00000E+00
         0.00000E+00
         0.00000E+00
         0.00000E+00
         0.00000E+00
         0.00000E+00
         0.00000E+00
         0.00000E+00
         0.00000E+00
         0.00000E+00
         0.00000E+00
         0.00000E+00
         0.00000E+00
         0.00000E+00
         0.00000E+00
         0.00000E+00
         0.00000E+00
         0.00000E+00
         0.00000E+00
         0.00000E+00
         0.00000E+00
         0.00000E+00
         0.00000E+00
         0.00000E+00
         0.00000E+00
         0.00000E+00
         0.00000E+00
         0.00000E+00
         0.00000E+00
         0.00000E+00
         0.00000E+00
         0.00000E+00
         0.00000E+00
         0.00000E+00
         0.00000E+00
         0.00000E+00
         0.00000E+00
         0.00000E+00
         0.00000E+00
         0.00000E+00
         0.00000E+00
         0.00000E+00
         0.00000E+00
         0.00000E+00
         0.00000E+00
         0.00000E+00
         0.00000E+00
         0.00000E+00
         0.00000E+00
         0.00000E+00
         0.00000E+00
         0.00000E+00
         0.00000E+00
         0.00000E+00
         0.00000E+00
         0.00000E+00
         0.00000E+00
         0.00000E+00
         0.00000E+00
         0.00000E+00
         0.00000E+00
         0.00000E+00
         0.00000E+00
         0.00000E+00
         0.00000E+00
         0.00000E+00
         0.00000E+00
         0.00000E+00
         0.00000E+00
         0.00000E+00
         0.00000E+00
         0.00000E+00
         0.00000E+00
         0.00000E+00
         0.00000E+00
         0.00000E+00
         0.00000E+00
         0.00000E+00
         0.00000E+00
         0.00000E+00
         0.00000E+00
         0.00000E+00
         0.00000E+00
         0.00000E+00
         0.00000E+00
         0.00000E+00
         0.00000E+00
         0.00000E+00
         0.00000E+00
         0.00000E+00
         0.00000E+00
         0.00000E+00
         0.00000E+00
         0.00000E+00
         0.00000E+00
         0.00000E+00
         0.00000E+00
         0.00000E+00
         0.00000E+00
         0.00000E+00
         0.00000E+00
         0.00000E+00
         0.00000E+00
         0.00000E+00
         0.00000E+00
         0.00000E+00
         0.00000E+00
         0.00000E+00
         0.00000E+00
         0.00000E+00
         0.00000E+00
         0.00000E+00
         0.00000E+00
         0.00000E+00
         0.00000E+00
         0.00000E+00
         0.00000E+00
         0.00000E+00
         0.00000E+00
         0.00000E+00
         0.00000E+00
         0.00000E+00
         0.00000E+00
         0.00000E+00
         0.00000E+00
         0.00000E+00
         0.00000E+00
         0.00000E+00
         0.00000E+00
         0.00000E+00
         0.00000E+00
         0.00000E+00
         0.00000E+00
         0.00000E+00
         0.00000E+00
         0.00000E+00
         0.00000E+00
         0.00000E+00
         0.00000E+00
         0.00000E+00
         0.00000E+00
         0.00000E+00
         0.00000E+00
         0.00000E+00
         0.00000E+00
         0.00000E+00
         0.00000E+00
         0.00000E+00
         0.00000E+00
         0.00000E+00
         0.00000E+00
         0.00000E+00
         0.00000E+00
         0.00000E+00
         0.00000E+00
         0.00000E+00
         0.00000E+00
         0.00000E+00
         0.00000E+00
         0.00000E+00
         0.00000E+00
         0.00000E+00
         0.00000E+00
         0.00000E+00
         0.00000E+00
         0.00000E+00
         0.00000E+00
         0.00000E+00
         0.00000E+00
         0.00000E+00
         0.00000E+00
         0.00000E+00
         0.00000E+00
         0.00000E+00
         0.00000E+00
         0.00000E+00
         0.00000E+00
         0.00000E+00
         0.00000E+00
         0.00000E+00
         0.00000E+00
         0.00000E+00
         0.00000E+00
         0.00000E+00
         0.00000E+00
         0.00000E+00
         0.00000E+00
         0.00000E+00
         0.00000E+00
         0.00000E+00
         0.00000E+00
         0.00000E+00
         0.00000E+00
         0.00000E+00
         0.00000E+00
         0.00000E+00
         0.00000E+00
         0.00000E+00
         0.00000E+00
         0.00000E+00
         0.00000E+00
         0.00000E+00
         0.00000E+00
         0.00000E+00
         0.00000E+00
         0.00000E+00
         0.00000E+00
         0.00000E+00
         0.00000E+00
         0.00000E+00
         0.00000E+00
         0.00000E+00
         0.00000E+00
         0.00000E+00
         0.00000E+00
         0.00000E+00
         0.00000E+00
         0.00000E+00
         0.00000E+00
         0.00000E+00
         0.00000E+00
         0.00000E+00
         0.00000E+00
         0.00000E+00
         0.00000E+00
         0.00000E+00
         0.00000E+00
         0.00000E+00
         0.00000E+00
         0.00000E+00
         0.00000E+00
         0.00000E+00
         0.00000E+00
         0.00000E+00
         0.00000E+00
         0.00000E+00
         0.00000E+00
         0.00000E+00
         0.00000E+00
         0.00000E+00
         0.00000E+00
         0.00000E+00
         0.00000E+00
         0.00000E+00
         0.00000E+00
         0.00000E+00
         0.00000E+00
         0.00000E+00
         0.00000E+00
         0.00000E+00
         0.00000E+00
         0.00000E+00
         0.00000E+00
         0.00000E+00
         0.00000E+00
         0.00000E+00
         0.00000E+00
         0.00000E+00
         0.00000E+00
         0.00000E+00
         0.00000E+00
         0.00000E+00
         0.00000E+00
         0.00000E+00
         0.00000E+00
         0.00000E+00
         0.00000E+00
         0.00000E+00
         0.00000E+00
         0.00000E+00
         0.00000E+00
         0.00000E+00
         0.00000E+00
         0.00000E+00
         0.00000E+00
         0.00000E+00
         0.00000E+00
         0.00000E+00
         0.00000E+00
         0.00000E+00
         0.00000E+00
         0.00000E+00
         0.00000E+00
         0.00000E+00
         0.00000E+00
         0.00000E+00
         0.00000E+00
         0.00000E+00
         0.00000E+00
         0.00000E+00
         0.00000E+00
         0.00000E+00
         0.00000E+00
         0.00000E+00
         0.00000E+00
         0.00000E+00
         0.00000E+00
         0.00000E+00
         0.00000E+00
         0.00000E+00
         0.00000E+00
         0.00000E+00
         0.00000E+00
         0.00000E+00
         0.00000E+00
         0.00000E+00
         0.00000E+00
         0.00000E+00
         0.00000E+00
         0.00000E+00
         0.00000E+00
         0.00000E+00
         0.00000E+00
         0.00000E+00
         0.00000E+00
         0.00000E+00
         0.00000E+00
         0.00000E+00
         0.00000E+00
         0.00000E+00
         0.00000E+00
         0.00000E+00
         0.00000E+00
         0.00000E+00
         0.00000E+00
         0.00000E+00
         0.00000E+00
         0.00000E+00
         0.00000E+00
         0.00000E+00
         0.00000E+00
         0.00000E+00
         0.00000E+00
         0.00000E+00
         0.00000E+00
         0.00000E+00
         0.00000E+00
         0.00000E+00
         0.00000E+00
         0.00000E+00
         0.00000E+00
         0.00000E+00
         0.00000E+00
         0.00000E+00
         0.00000E+00
         0.00000E+00
         0.00000E+00
         0.00000E+00
         0.00000E+00
         0.00000E+00
         0.00000E+00
         0.00000E+00
         0.00000E+00
         0.00000E+00
         0.00000E+00
         0.00000E+00
         0.00000E+00
         0.00000E+00
         0.00000E+00
         0.00000E+00
         0.00000E+00
         0.00000E+00
         0.00000E+00
         0.00000E+00
         0.00000E+00
         0.00000E+00
         0.00000E+00
         0.00000E+00
         0.00000E+00
         0.00000E+00
         0.00000E+00
         0.00000E+00
         0.00000E+00
         0.00000E+00
         0.00000E+00
         0.00000E+00
         0.00000E+00
         0.00000E+00
         0.00000E+00
         0.00000E+00
         0.00000E+00
         0.00000E+00
         0.00000E+00
         0.00000E+00
         0.00000E+00
         0.00000E+00
         0.00000E+00
         0.00000E+00
         0.00000E+00
         0.00000E+00
         0.00000E+00
         0.00000E+00
         0.00000E+00
         0.00000E+00
         0.00000E+00
         0.00000E+00
         0.00000E+00
         0.00000E+00
         0.00000E+00
         0.00000E+00
         0.00000E+00
         0.00000E+00
         0.00000E+00
         0.00000E+00
         0.00000E+00
         0.00000E+00
         0.00000E+00
         0.00000E+00
         0.00000E+00
         0.00000E+00
         0.00000E+00
         0.00000E+00
         0.00000E+00
         0.00000E+00
         0.00000E+00
         0.00000E+00
         0.00000E+00
         0.00000E+00
         0.00000E+00
         0.00000E+00
         0.00000E+00
         0.00000E+00
         0.00000E+00
         0.00000E+00
         0.00000E+00
         0.00000E+00
         0.00000E+00
         0.00000E+00
         0.00000E+00
         0.00000E+00
         0.00000E+00
         0.00000E+00
         0.00000E+00
         0.00000E+00
         0.00000E+00
         0.00000E+00
         0.00000E+00
         0.00000E+00
         0.00000E+00
         0.00000E+00
         0.00000E+00
         0.00000E+00
         0.00000E+00
         0.00000E+00
         0.00000E+00
         0.00000E+00
         0.00000E+00
         0.00000E+00
         0.00000E+00
         0.00000E+00
         0.00000E+00
         0.00000E+00
         0.00000E+00
         0.00000E+00
         0.00000E+00
         0.00000E+00
         0.00000E+00
         0.00000E+00
         0.00000E+00
         0.00000E+00
         0.00000E+00
         0.00000E+00
         0.00000E+00
         0.00000E+00
         0.00000E+00
         0.00000E+00
         0.00000E+00
         0.00000E+00
         0.00000E+00
         0.00000E+00
         0.00000E+00
         0.00000E+00
         0.00000E+00
         0.00000E+00
         0.00000E+00
         0.00000E+00
         0.00000E+00
         0.00000E+00
         0.00000E+00
         0.00000E+00
         0.00000E+00
         0.00000E+00
         0.00000E+00
         0.00000E+00
         0.00000E+00
         0.00000E+00
         0.00000E+00
         0.00000E+00
         0.00000E+00
         0.00000E+00
         0.00000E+00
         0.00000E+00
         0.00000E+00
         0.00000E+00
         0.00000E+00
         0.00000E+00
         0.00000E+00
         0.00000E+00
         0.00000E+00
         0.00000E+00
         0.00000E+00
         0.00000E+00
         0.00000E+00
         0.00000E+00
         0.00000E+00
         0.00000E+00
         0.00000E+00
         0.00000E+00
         0.00000E+00
         0.00000E+00
         0.00000E+00
         0.00000E+00
         0.00000E+00
         0.00000E+00
         0.00000E+00
         0.00000E+00
         0.00000E+00
         0.00000E+00
         0.00000E+00
         0.00000E+00
         0.00000E+00
         0.00000E+00
         0.00000E+00
         0.00000E+00
         0.00000E+00
         0.00000E+00
         0.00000E+00
         0.00000E+00
         0.00000E+00
         0.00000E+00
         0.00000E+00
         0.00000E+00
         0.00000E+00
         0.00000E+00
         0.00000E+00
         0.00000E+00
         0.00000E+00
         0.00000E+00
         0.00000E+00
         0.00000E+00
         0.00000E+00
         0.00000E+00
         0.00000E+00
         0.00000E+00
         0.00000E+00
         0.00000E+00
         0.00000E+00
         0.00000E+00
         0.00000E+00
         0.00000E+00
         0.00000E+00
         0.00000E+00
         0.00000E+00
         0.00000E+00
         0.00000E+00
         0.00000E+00
         0.00000E+00
         0.00000E+00
         0.00000E+00
         0.00000E+00
         0.00000E+00
         0.00000E+00
         0.00000E+00
         0.00000E+00
         0.00000E+00
         0.00000E+00
         0.00000E+00
         0.00000E+00
         0.00000E+00
         0.00000E+00
         0.00000E+00
         0.00000E+00
         0.00000E+00
         0.00000E+00
         0.00000E+00
         0.00000E+00
         0.00000E+00
         0.00000E+00
         0.00000E+00
         0.00000E+00
         0.00000E+00
         0.00000E+00
         0.00000E+00
         0.00000E+00
         0.00000E+00
         0.00000E+00
         0.00000E+00
         0.00000E+00
         0.00000E+00
         0.00000E+00
         0.00000E+00
         0.00000E+00
         0.00000E+00
         0.00000E+00
         0.00000E+00
         0.00000E+00
         0.00000E+00
         0.00000E+00
         0.00000E+00
         0.00000E+00
         0.00000E+00
         0.00000E+00
         0.00000E+00
         0.00000E+00
         0.00000E+00
         0.00000E+00
         0.00000E+00
         0.00000E+00
         0.00000E+00
         0.00000E+00
         0.00000E+00
         0.00000E+00
         0.00000E+00
         0.00000E+00
         0.00000E+00
         0.00000E+00
         0.00000E+00
         0.00000E+00
         0.00000E+00
         0.00000E+00
         0.00000E+00
         0.00000E+00
         0.00000E+00
         0.00000E+00
         0.00000E+00
         0.00000E+00
         0.00000E+00
         0.00000E+00
         0.00000E+00
         0.00000E+00
         0.00000E+00
         0.00000E+00
         0.00000E+00
         0.00000E+00
         0.00000E+00
         0.00000E+00
         0.00000E+00
         0.00000E+00
         0.00000E+00
         0.00000E+00
         0.00000E+00
         0.00000E+00
         0.00000E+00
         0.00000E+00
         0.00000E+00
         0.00000E+00
         0.00000E+00
         0.00000E+00
         0.00000E+00
         0.00000E+00
         0.00000E+00
         0.00000E+00
         0.00000E+00
         0.00000E+00
         0.00000E+00
         0.00000E+00
         0.00000E+00
         0.00000E+00
         0.00000E+00
         0.00000E+00
         0.00000E+00
         0.00000E+00
         0.00000E+00
         0.00000E+00
         0.00000E+00
         0.00000E+00
         0.00000E+00
         0.00000E+00
         0.00000E+00
         0.00000E+00
         0.00000E+00
         0.00000E+00
         0.00000E+00
         0.00000E+00
         0.00000E+00
         0.00000E+00
         0.00000E+00
         0.00000E+00
         0.00000E+00
         0.00000E+00
         0.00000E+00
         0.00000E+00
         0.00000E+00
         0.00000E+00
         0.00000E+00
         0.00000E+00
         0.00000E+00
         0.00000E+00
         0.00000E+00
         0.00000E+00
         0.00000E+00
         0.00000E+00
         0.00000E+00
         0.00000E+00
         0.00000E+00
         0.00000E+00
         0.00000E+00
         0.00000E+00
         0.00000E+00
         0.00000E+00
         0.00000E+00
         0.00000E+00
         0.00000E+00
         0.00000E+00
         0.00000E+00
         0.00000E+00
         0.00000E+00
         0.00000E+00
         0.00000E+00
         0.00000E+00
         0.00000E+00
         0.00000E+00
         0.00000E+00
         0.00000E+00
         0.00000E+00
         0.00000E+00
         0.00000E+00
         0.00000E+00
         0.00000E+00
         0.00000E+00
         0.00000E+00
         0.00000E+00
         0.00000E+00
         0.00000E+00
         0.00000E+00
         0.00000E+00
         0.00000E+00
         0.00000E+00
         0.00000E+00
         0.00000E+00
         0.00000E+00
         0.00000E+00
         0.00000E+00
         0.00000E+00
         0.00000E+00
         0.00000E+00
         0.00000E+00
         0.00000E+00
         0.00000E+00
         0.00000E+00
         0.00000E+00
         0.00000E+00
         0.00000E+00
         0.00000E+00
         0.00000E+00
         0.00000E+00
         0.00000E+00
         0.00000E+00
         0.00000E+00
         0.00000E+00
         0.00000E+00
         0.00000E+00
         0.00000E+00
         0.00000E+00
         0.00000E+00
         0.00000E+00
         0.00000E+00
         0.00000E+00
         0.00000E+00
         0.00000E+00
         0.00000E+00
         0.00000E+00
         0.00000E+00
         0.00000E+00
         0.00000E+00
         0.00000E+00
         0.00000E+00
         0.00000E+00
         0.00000E+00
         0.00000E+00
         0.00000E+00
         0.00000E+00
         0.00000E+00
         0.00000E+00
         0.00000E+00
         0.00000E+00
         0.00000E+00
         0.00000E+00
         0.00000E+00
         0.00000E+00
         0.00000E+00
         0.00000E+00
         0.00000E+00
         0.00000E+00
         0.00000E+00
         0.00000E+00
         0.00000E+00
         0.00000E+00
         0.00000E+00
         0.00000E+00
         0.00000E+00
         0.00000E+00
         0.00000E+00
         0.00000E+00
         0.00000E+00
         0.00000E+00
         0.00000E+00
         0.00000E+00
         0.00000E+00
         0.00000E+00
         0.00000E+00
         0.00000E+00
         0.00000E+00
         0.00000E+00
         0.00000E+00
         0.00000E+00
         0.00000E+00
         0.00000E+00
         0.00000E+00
         0.00000E+00
         0.00000E+00
         0.00000E+00
         0.00000E+00
         0.00000E+00
         0.00000E+00
         0.00000E+00
         0.00000E+00
         0.00000E+00
         0.00000E+00
         0.00000E+00
         0.00000E+00
         0.00000E+00
         0.00000E+00
         0.00000E+00
         0.00000E+00
         0.00000E+00
         0.00000E+00
         0.00000E+00
         0.00000E+00
         0.00000E+00
         0.00000E+00
         0.00000E+00
         0.00000E+00
         0.00000E+00
         0.00000E+00
         0.00000E+00
         0.00000E+00
         0.00000E+00
         0.00000E+00
         0.00000E+00
         0.00000E+00
         0.00000E+00
         0.00000E+00
         0.00000E+00
         0.00000E+00
         0.00000E+00
         0.00000E+00
         0.00000E+00
         0.00000E+00
         0.00000E+00
         0.00000E+00
         0.00000E+00
         0.00000E+00
         0.00000E+00
         0.00000E+00
         0.00000E+00
         0.00000E+00
         0.00000E+00
         0.00000E+00
         0.00000E+00
         0.00000E+00
         0.00000E+00
         0.00000E+00
         0.00000E+00
         0.00000E+00
         0.00000E+00
         0.00000E+00
         0.00000E+00
         0.00000E+00
         0.00000E+00
         0.00000E+00
         0.00000E+00
         0.00000E+00
         0.00000E+00
         0.00000E+00
         0.00000E+00
         0.00000E+00
         0.00000E+00
         0.00000E+00
         0.00000E+00
         0.00000E+00
         0.00000E+00
         0.00000E+00
         0.00000E+00
         0.00000E+00
         0.00000E+00
         0.00000E+00
         0.00000E+00
         0.00000E+00
         0.00000E+00
         0.00000E+00
         0.00000E+00
         0.00000E+00
         0.00000E+00
         0.00000E+00
         0.00000E+00
         0.00000E+00
         0.00000E+00
         0.00000E+00
         0.00000E+00
         0.00000E+00
         0.00000E+00
         0.00000E+00
         0.00000E+00
         0.00000E+00
         0.00000E+00
         0.00000E+00
         0.00000E+00
         0.00000E+00
         0.00000E+00
         0.00000E+00
         0.00000E+00
         0.00000E+00
         0.00000E+00
         0.00000E+00
         0.00000E+00
         0.00000E+00
         0.00000E+00
         0.00000E+00
         0.00000E+00
         0.00000E+00
         0.00000E+00
         0.00000E+00
         0.00000E+00
         0.00000E+00
         0.00000E+00
         0.00000E+00
         0.00000E+00
         0.00000E+00
         0.00000E+00
         0.00000E+00
         0.00000E+00
         0.00000E+00
         0.00000E+00
         0.00000E+00
         0.00000E+00
         0.00000E+00
         0.00000E+00
         0.00000E+00
         0.00000E+00
         0.00000E+00
         0.00000E+00
         0.00000E+00
         0.00000E+00
         0.00000E+00
         0.00000E+00
         0.00000E+00
         0.00000E+00
         0.00000E+00
         0.00000E+00
  
SCALARS                     velocity_z  double 1
LOOKUP_TABLE default
        -0.37300E+03
        -0.37300E+03
        -0.37300E+03
        -0.37300E+03
         0.00000E+00
         0.00000E+00
         0.00000E+00
         0.00000E+00
        -0.37300E+03
        -0.37300E+03
         0.00000E+00
         0.00000E+00
        -0.37300E+03
        -0.37300E+03
         0.00000E+00
         0.00000E+00
        -0.37300E+03
        -0.37300E+03
         0.00000E+00
         0.00000E+00
        -0.37300E+03
        -0.37300E+03
        -0.37300E+03
         0.00000E+00
         0.00000E+00
         0.00000E+00
        -0.37300E+03
        -0.37300E+03
         0.00000E+00
         0.00000E+00
        -0.37300E+03
        -0.37300E+03
        -0.37300E+03
         0.00000E+00
         0.00000E+00
         0.00000E+00
        -0.37300E+03
        -0.37300E+03
         0.00000E+00
         0.00000E+00
        -0.37300E+03
        -0.37300E+03
         0.00000E+00
         0.00000E+00
        -0.37300E+03
        -0.37300E+03
         0.00000E+00
         0.00000E+00
        -0.37300E+03
         0.00000E+00
        -0.37300E+03
         0.00000E+00
        -0.37300E+03
         0.00000E+00
        -0.37300E+03
         0.00000E+00
        -0.37300E+03
        -0.37300E+03
         0.00000E+00
         0.00000E+00
        -0.37300E+03
        -0.37300E+03
         0.00000E+00
         0.00000E+00
        -0.37300E+03
         0.00000E+00
        -0.37300E+03
         0.00000E+00
        -0.37300E+03
        -0.37300E+03
         0.00000E+00
         0.00000E+00
        -0.37300E+03
         0.00000E+00
        -0.37300E+03
         0.00000E+00
        -0.37300E+03
         0.00000E+00
        -0.37300E+03
         0.00000E+00
        -0.37300E+03
        -0.37300E+03
         0.00000E+00
         0.00000E+00
        -0.37300E+03
         0.00000E+00
        -0.37300E+03
         0.00000E+00
        -0.37300E+03
         0.00000E+00
        -0.37300E+03
        -0.37300E+03
         0.00000E+00
         0.00000E+00
        -0.37300E+03
         0.00000E+00
        -0.37300E+03
         0.00000E+00
        -0.37300E+03
         0.00000E+00
        -0.37300E+03
        -0.37300E+03
         0.00000E+00
         0.00000E+00
        -0.37300E+03
        -0.37300E+03
         0.00000E+00
         0.00000E+00
        -0.37300E+03
         0.00000E+00
        -0.37300E+03
         0.00000E+00
        -0.37300E+03
         0.00000E+00
        -0.37300E+03
         0.00000E+00
        -0.37300E+03
         0.00000E+00
        -0.37300E+03
         0.00000E+00
        -0.37300E+03
         0.00000E+00
        -0.37300E+03
         0.00000E+00
        -0.37300E+03
         0.00000E+00
        -0.37300E+03
         0.00000E+00
        -0.37300E+03
         0.00000E+00
        -0.37300E+03
         0.00000E+00
        -0.37300E+03
         0.00000E+00
        -0.37300E+03
         0.00000E+00
        -0.37300E+03
         0.00000E+00
        -0.37300E+03
         0.00000E+00
        -0.37300E+03
         0.00000E+00
        -0.37300E+03
         0.00000E+00
        -0.37300E+03
         0.00000E+00
        -0.37300E+03
         0.00000E+00
        -0.37300E+03
         0.00000E+00
        -0.37300E+03
         0.00000E+00
        -0.37300E+03
         0.00000E+00
        -0.37300E+03
         0.00000E+00
        -0.37300E+03
        -0.37300E+03
        -0.37300E+03
        -0.37300E+03
        -0.37300E+03
        -0.37300E+03
        -0.37300E+03
        -0.37300E+03
        -0.37300E+03
        -0.37300E+03
        -0.37300E+03
        -0.37300E+03
        -0.37300E+03
        -0.37300E+03
        -0.37300E+03
        -0.37300E+03
        -0.37300E+03
        -0.37300E+03
        -0.37300E+03
        -0.37300E+03
        -0.37300E+03
        -0.37300E+03
        -0.37300E+03
        -0.37300E+03
        -0.37300E+03
        -0.37300E+03
        -0.37300E+03
        -0.37300E+03
        -0.37300E+03
        -0.37300E+03
        -0.37300E+03
        -0.37300E+03
        -0.37300E+03
        -0.37300E+03
        -0.37300E+03
        -0.37300E+03
        -0.37300E+03
        -0.37300E+03
        -0.37300E+03
        -0.37300E+03
        -0.37300E+03
        -0.37300E+03
        -0.37300E+03
        -0.37300E+03
        -0.37300E+03
        -0.37300E+03
        -0.37300E+03
        -0.37300E+03
        -0.37300E+03
        -0.37300E+03
        -0.37300E+03
        -0.37300E+03
        -0.37300E+03
        -0.37300E+03
        -0.37300E+03
        -0.37300E+03
        -0.37300E+03
        -0.37300E+03
        -0.37300E+03
        -0.37300E+03
        -0.37300E+03
        -0.37300E+03
        -0.37300E+03
        -0.37300E+03
        -0.37300E+03
        -0.37300E+03
        -0.37300E+03
        -0.37300E+03
        -0.37300E+03
        -0.37300E+03
        -0.37300E+03
        -0.37300E+03
        -0.37300E+03
        -0.37300E+03
        -0.37300E+03
        -0.37300E+03
        -0.37300E+03
        -0.37300E+03
        -0.37300E+03
        -0.37300E+03
        -0.37300E+03
        -0.37300E+03
        -0.37300E+03
        -0.37300E+03
        -0.37300E+03
        -0.37300E+03
        -0.37300E+03
        -0.37300E+03
        -0.37300E+03
        -0.37300E+03
        -0.37300E+03
        -0.37300E+03
        -0.37300E+03
        -0.37300E+03
        -0.37300E+03
        -0.37300E+03
        -0.37300E+03
        -0.37300E+03
        -0.37300E+03
        -0.37300E+03
        -0.37300E+03
        -0.37300E+03
        -0.37300E+03
        -0.37300E+03
        -0.37300E+03
        -0.37300E+03
        -0.37300E+03
        -0.37300E+03
        -0.37300E+03
        -0.37300E+03
        -0.37300E+03
        -0.37300E+03
        -0.37300E+03
        -0.37300E+03
        -0.37300E+03
        -0.37300E+03
        -0.37300E+03
        -0.37300E+03
        -0.37300E+03
        -0.37300E+03
        -0.37300E+03
        -0.37300E+03
        -0.37300E+03
        -0.37300E+03
        -0.37300E+03
        -0.37300E+03
        -0.37300E+03
        -0.37300E+03
        -0.37300E+03
        -0.37300E+03
        -0.37300E+03
        -0.37300E+03
        -0.37300E+03
        -0.37300E+03
        -0.37300E+03
        -0.37300E+03
        -0.37300E+03
        -0.37300E+03
        -0.37300E+03
        -0.37300E+03
        -0.37300E+03
        -0.37300E+03
        -0.37300E+03
        -0.37300E+03
        -0.37300E+03
        -0.37300E+03
        -0.37300E+03
        -0.37300E+03
        -0.37300E+03
        -0.37300E+03
        -0.37300E+03
        -0.37300E+03
        -0.37300E+03
        -0.37300E+03
        -0.37300E+03
        -0.37300E+03
        -0.37300E+03
        -0.37300E+03
        -0.37300E+03
        -0.37300E+03
        -0.37300E+03
        -0.37300E+03
        -0.37300E+03
        -0.37300E+03
        -0.37300E+03
        -0.37300E+03
        -0.37300E+03
        -0.37300E+03
        -0.37300E+03
        -0.37300E+03
        -0.37300E+03
        -0.37300E+03
        -0.37300E+03
        -0.37300E+03
        -0.37300E+03
        -0.37300E+03
        -0.37300E+03
        -0.37300E+03
        -0.37300E+03
        -0.37300E+03
        -0.37300E+03
        -0.37300E+03
        -0.37300E+03
        -0.37300E+03
        -0.37300E+03
        -0.37300E+03
        -0.37300E+03
        -0.37300E+03
        -0.37300E+03
        -0.37300E+03
        -0.37300E+03
        -0.37300E+03
        -0.37300E+03
        -0.37300E+03
        -0.37300E+03
        -0.37300E+03
        -0.37300E+03
        -0.37300E+03
        -0.37300E+03
        -0.37300E+03
        -0.37300E+03
        -0.37300E+03
        -0.37300E+03
        -0.37300E+03
        -0.37300E+03
        -0.37300E+03
        -0.37300E+03
        -0.37300E+03
        -0.37300E+03
        -0.37300E+03
        -0.37300E+03
        -0.37300E+03
        -0.37300E+03
        -0.37300E+03
        -0.37300E+03
        -0.37300E+03
        -0.37300E+03
        -0.37300E+03
        -0.37300E+03
        -0.37300E+03
        -0.37300E+03
        -0.37300E+03
        -0.37300E+03
        -0.37300E+03
        -0.37300E+03
        -0.37300E+03
        -0.37300E+03
        -0.37300E+03
        -0.37300E+03
        -0.37300E+03
        -0.37300E+03
        -0.37300E+03
        -0.37300E+03
        -0.37300E+03
        -0.37300E+03
        -0.37300E+03
        -0.37300E+03
        -0.37300E+03
        -0.37300E+03
        -0.37300E+03
        -0.37300E+03
        -0.37300E+03
        -0.37300E+03
        -0.37300E+03
        -0.37300E+03
        -0.37300E+03
        -0.37300E+03
        -0.37300E+03
        -0.37300E+03
        -0.37300E+03
        -0.37300E+03
        -0.37300E+03
        -0.37300E+03
        -0.37300E+03
        -0.37300E+03
        -0.37300E+03
        -0.37300E+03
        -0.37300E+03
        -0.37300E+03
        -0.37300E+03
        -0.37300E+03
        -0.37300E+03
        -0.37300E+03
        -0.37300E+03
        -0.37300E+03
        -0.37300E+03
        -0.37300E+03
        -0.37300E+03
        -0.37300E+03
        -0.37300E+03
        -0.37300E+03
        -0.37300E+03
        -0.37300E+03
        -0.37300E+03
        -0.37300E+03
        -0.37300E+03
        -0.37300E+03
        -0.37300E+03
        -0.37300E+03
        -0.37300E+03
        -0.37300E+03
        -0.37300E+03
        -0.37300E+03
        -0.37300E+03
        -0.37300E+03
        -0.37300E+03
        -0.37300E+03
        -0.37300E+03
        -0.37300E+03
        -0.37300E+03
        -0.37300E+03
        -0.37300E+03
        -0.37300E+03
        -0.37300E+03
        -0.37300E+03
        -0.37300E+03
        -0.37300E+03
        -0.37300E+03
        -0.37300E+03
        -0.37300E+03
        -0.37300E+03
        -0.37300E+03
        -0.37300E+03
        -0.37300E+03
        -0.37300E+03
        -0.37300E+03
        -0.37300E+03
        -0.37300E+03
        -0.37300E+03
        -0.37300E+03
        -0.37300E+03
        -0.37300E+03
        -0.37300E+03
        -0.37300E+03
        -0.37300E+03
        -0.37300E+03
        -0.37300E+03
        -0.37300E+03
        -0.37300E+03
        -0.37300E+03
        -0.37300E+03
        -0.37300E+03
        -0.37300E+03
        -0.37300E+03
        -0.37300E+03
        -0.37300E+03
        -0.37300E+03
        -0.37300E+03
        -0.37300E+03
        -0.37300E+03
        -0.37300E+03
        -0.37300E+03
        -0.37300E+03
        -0.37300E+03
        -0.37300E+03
        -0.37300E+03
        -0.37300E+03
        -0.37300E+03
        -0.37300E+03
        -0.37300E+03
        -0.37300E+03
        -0.37300E+03
        -0.37300E+03
        -0.37300E+03
        -0.37300E+03
        -0.37300E+03
        -0.37300E+03
        -0.37300E+03
        -0.37300E+03
        -0.37300E+03
        -0.37300E+03
        -0.37300E+03
        -0.37300E+03
        -0.37300E+03
        -0.37300E+03
        -0.37300E+03
        -0.37300E+03
        -0.37300E+03
        -0.37300E+03
        -0.37300E+03
        -0.37300E+03
        -0.37300E+03
        -0.37300E+03
        -0.37300E+03
        -0.37300E+03
        -0.37300E+03
        -0.37300E+03
        -0.37300E+03
        -0.37300E+03
        -0.37300E+03
        -0.37300E+03
        -0.37300E+03
        -0.37300E+03
        -0.37300E+03
        -0.37300E+03
        -0.37300E+03
        -0.37300E+03
        -0.37300E+03
        -0.37300E+03
        -0.37300E+03
        -0.37300E+03
        -0.37300E+03
        -0.37300E+03
        -0.37300E+03
        -0.37300E+03
        -0.37300E+03
        -0.37300E+03
        -0.37300E+03
        -0.37300E+03
        -0.37300E+03
        -0.37300E+03
        -0.37300E+03
        -0.37300E+03
        -0.37300E+03
        -0.37300E+03
        -0.37300E+03
        -0.37300E+03
        -0.37300E+03
        -0.37300E+03
        -0.37300E+03
        -0.37300E+03
        -0.37300E+03
        -0.37300E+03
        -0.37300E+03
        -0.37300E+03
        -0.37300E+03
        -0.37300E+03
        -0.37300E+03
        -0.37300E+03
        -0.37300E+03
        -0.37300E+03
        -0.37300E+03
        -0.37300E+03
        -0.37300E+03
        -0.37300E+03
        -0.37300E+03
        -0.37300E+03
        -0.37300E+03
        -0.37300E+03
        -0.37300E+03
        -0.37300E+03
        -0.37300E+03
        -0.37300E+03
        -0.37300E+03
        -0.37300E+03
        -0.37300E+03
        -0.37300E+03
        -0.37300E+03
        -0.37300E+03
        -0.37300E+03
        -0.37300E+03
        -0.37300E+03
        -0.37300E+03
        -0.37300E+03
        -0.37300E+03
        -0.37300E+03
        -0.37300E+03
        -0.37300E+03
        -0.37300E+03
        -0.37300E+03
        -0.37300E+03
        -0.37300E+03
        -0.37300E+03
        -0.37300E+03
        -0.37300E+03
        -0.37300E+03
        -0.37300E+03
        -0.37300E+03
        -0.37300E+03
        -0.37300E+03
        -0.37300E+03
        -0.37300E+03
        -0.37300E+03
        -0.37300E+03
        -0.37300E+03
        -0.37300E+03
        -0.37300E+03
        -0.37300E+03
        -0.37300E+03
        -0.37300E+03
        -0.37300E+03
        -0.37300E+03
        -0.37300E+03
        -0.37300E+03
        -0.37300E+03
        -0.37300E+03
        -0.37300E+03
        -0.37300E+03
        -0.37300E+03
        -0.37300E+03
        -0.37300E+03
        -0.37300E+03
        -0.37300E+03
        -0.37300E+03
        -0.37300E+03
        -0.37300E+03
        -0.37300E+03
        -0.37300E+03
        -0.37300E+03
        -0.37300E+03
        -0.37300E+03
        -0.37300E+03
        -0.37300E+03
        -0.37300E+03
        -0.37300E+03
        -0.37300E+03
        -0.37300E+03
        -0.37300E+03
        -0.37300E+03
        -0.37300E+03
        -0.37300E+03
        -0.37300E+03
        -0.37300E+03
        -0.37300E+03
        -0.37300E+03
        -0.37300E+03
        -0.37300E+03
        -0.37300E+03
        -0.37300E+03
        -0.37300E+03
        -0.37300E+03
        -0.37300E+03
        -0.37300E+03
        -0.37300E+03
        -0.37300E+03
        -0.37300E+03
        -0.37300E+03
        -0.37300E+03
        -0.37300E+03
        -0.37300E+03
        -0.37300E+03
        -0.37300E+03
        -0.37300E+03
        -0.37300E+03
        -0.37300E+03
        -0.37300E+03
        -0.37300E+03
        -0.37300E+03
        -0.37300E+03
        -0.37300E+03
        -0.37300E+03
        -0.37300E+03
        -0.37300E+03
        -0.37300E+03
        -0.37300E+03
        -0.37300E+03
        -0.37300E+03
        -0.37300E+03
        -0.37300E+03
        -0.37300E+03
        -0.37300E+03
        -0.37300E+03
        -0.37300E+03
        -0.37300E+03
        -0.37300E+03
        -0.37300E+03
        -0.37300E+03
        -0.37300E+03
        -0.37300E+03
        -0.37300E+03
        -0.37300E+03
        -0.37300E+03
        -0.37300E+03
        -0.37300E+03
        -0.37300E+03
        -0.37300E+03
        -0.37300E+03
        -0.37300E+03
        -0.37300E+03
        -0.37300E+03
        -0.37300E+03
        -0.37300E+03
        -0.37300E+03
        -0.37300E+03
        -0.37300E+03
        -0.37300E+03
        -0.37300E+03
        -0.37300E+03
        -0.37300E+03
        -0.37300E+03
        -0.37300E+03
        -0.37300E+03
        -0.37300E+03
        -0.37300E+03
        -0.37300E+03
        -0.37300E+03
        -0.37300E+03
        -0.37300E+03
        -0.37300E+03
        -0.37300E+03
        -0.37300E+03
        -0.37300E+03
        -0.37300E+03
        -0.37300E+03
        -0.37300E+03
        -0.37300E+03
        -0.37300E+03
        -0.37300E+03
        -0.37300E+03
        -0.37300E+03
        -0.37300E+03
        -0.37300E+03
        -0.37300E+03
        -0.37300E+03
        -0.37300E+03
        -0.37300E+03
        -0.37300E+03
        -0.37300E+03
        -0.37300E+03
        -0.37300E+03
        -0.37300E+03
        -0.37300E+03
        -0.37300E+03
        -0.37300E+03
        -0.37300E+03
        -0.37300E+03
        -0.37300E+03
        -0.37300E+03
        -0.37300E+03
        -0.37300E+03
        -0.37300E+03
        -0.37300E+03
        -0.37300E+03
        -0.37300E+03
        -0.37300E+03
        -0.37300E+03
        -0.37300E+03
        -0.37300E+03
        -0.37300E+03
        -0.37300E+03
        -0.37300E+03
        -0.37300E+03
        -0.37300E+03
        -0.37300E+03
        -0.37300E+03
        -0.37300E+03
        -0.37300E+03
        -0.37300E+03
        -0.37300E+03
        -0.37300E+03
        -0.37300E+03
        -0.37300E+03
        -0.37300E+03
        -0.37300E+03
        -0.37300E+03
        -0.37300E+03
        -0.37300E+03
        -0.37300E+03
        -0.37300E+03
        -0.37300E+03
        -0.37300E+03
        -0.37300E+03
        -0.37300E+03
        -0.37300E+03
        -0.37300E+03
        -0.37300E+03
        -0.37300E+03
        -0.37300E+03
        -0.37300E+03
        -0.37300E+03
        -0.37300E+03
        -0.37300E+03
        -0.37300E+03
        -0.37300E+03
        -0.37300E+03
        -0.37300E+03
        -0.37300E+03
        -0.37300E+03
        -0.37300E+03
        -0.37300E+03
        -0.37300E+03
        -0.37300E+03
        -0.37300E+03
        -0.37300E+03
        -0.37300E+03
        -0.37300E+03
        -0.37300E+03
        -0.37300E+03
        -0.37300E+03
        -0.37300E+03
        -0.37300E+03
        -0.37300E+03
        -0.37300E+03
        -0.37300E+03
        -0.37300E+03
        -0.37300E+03
        -0.37300E+03
        -0.37300E+03
        -0.37300E+03
        -0.37300E+03
        -0.37300E+03
        -0.37300E+03
        -0.37300E+03
        -0.37300E+03
        -0.37300E+03
        -0.37300E+03
        -0.37300E+03
        -0.37300E+03
        -0.37300E+03
        -0.37300E+03
        -0.37300E+03
        -0.37300E+03
        -0.37300E+03
        -0.37300E+03
        -0.37300E+03
        -0.37300E+03
        -0.37300E+03
        -0.37300E+03
        -0.37300E+03
        -0.37300E+03
        -0.37300E+03
        -0.37300E+03
        -0.37300E+03
        -0.37300E+03
        -0.37300E+03
        -0.37300E+03
        -0.37300E+03
        -0.37300E+03
        -0.37300E+03
        -0.37300E+03
        -0.37300E+03
        -0.37300E+03
        -0.37300E+03
        -0.37300E+03
        -0.37300E+03
        -0.37300E+03
        -0.37300E+03
        -0.37300E+03
        -0.37300E+03
        -0.37300E+03
        -0.37300E+03
        -0.37300E+03
        -0.37300E+03
        -0.37300E+03
        -0.37300E+03
        -0.37300E+03
        -0.37300E+03
        -0.37300E+03
        -0.37300E+03
        -0.37300E+03
        -0.37300E+03
        -0.37300E+03
        -0.37300E+03
        -0.37300E+03
        -0.37300E+03
        -0.37300E+03
        -0.37300E+03
        -0.37300E+03
        -0.37300E+03
        -0.37300E+03
        -0.37300E+03
        -0.37300E+03
        -0.37300E+03
        -0.37300E+03
        -0.37300E+03
        -0.37300E+03
        -0.37300E+03
        -0.37300E+03
        -0.37300E+03
        -0.37300E+03
        -0.37300E+03
        -0.37300E+03
        -0.37300E+03
        -0.37300E+03
        -0.37300E+03
        -0.37300E+03
        -0.37300E+03
        -0.37300E+03
        -0.37300E+03
        -0.37300E+03
        -0.37300E+03
        -0.37300E+03
        -0.37300E+03
        -0.37300E+03
        -0.37300E+03
        -0.37300E+03
        -0.37300E+03
        -0.37300E+03
        -0.37300E+03
        -0.37300E+03
        -0.37300E+03
        -0.37300E+03
        -0.37300E+03
        -0.37300E+03
        -0.37300E+03
        -0.37300E+03
        -0.37300E+03
        -0.37300E+03
        -0.37300E+03
        -0.37300E+03
        -0.37300E+03
        -0.37300E+03
        -0.37300E+03
        -0.37300E+03
        -0.37300E+03
        -0.37300E+03
        -0.37300E+03
        -0.37300E+03
        -0.37300E+03
        -0.37300E+03
        -0.37300E+03
        -0.37300E+03
        -0.37300E+03
        -0.37300E+03
        -0.37300E+03
        -0.37300E+03
        -0.37300E+03
        -0.37300E+03
        -0.37300E+03
        -0.37300E+03
        -0.37300E+03
        -0.37300E+03
        -0.37300E+03
        -0.37300E+03
        -0.37300E+03
        -0.37300E+03
        -0.37300E+03
        -0.37300E+03
        -0.37300E+03
        -0.37300E+03
        -0.37300E+03
        -0.37300E+03
        -0.37300E+03
        -0.37300E+03
        -0.37300E+03
        -0.37300E+03
        -0.37300E+03
        -0.37300E+03
        -0.37300E+03
        -0.37300E+03
        -0.37300E+03
        -0.37300E+03
        -0.37300E+03
        -0.37300E+03
        -0.37300E+03
        -0.37300E+03
        -0.37300E+03
        -0.37300E+03
        -0.37300E+03
        -0.37300E+03
        -0.37300E+03
        -0.37300E+03
        -0.37300E+03
        -0.37300E+03
        -0.37300E+03
        -0.37300E+03
        -0.37300E+03
        -0.37300E+03
        -0.37300E+03
        -0.37300E+03
        -0.37300E+03
        -0.37300E+03
        -0.37300E+03
        -0.37300E+03
        -0.37300E+03
        -0.37300E+03
        -0.37300E+03
        -0.37300E+03
        -0.37300E+03
        -0.37300E+03
        -0.37300E+03
        -0.37300E+03
        -0.37300E+03
        -0.37300E+03
        -0.37300E+03
        -0.37300E+03
        -0.37300E+03
        -0.37300E+03
        -0.37300E+03
        -0.37300E+03
        -0.37300E+03
        -0.37300E+03
        -0.37300E+03
        -0.37300E+03
        -0.37300E+03
        -0.37300E+03
        -0.37300E+03
        -0.37300E+03
        -0.37300E+03
        -0.37300E+03
        -0.37300E+03
        -0.37300E+03
        -0.37300E+03
        -0.37300E+03
        -0.37300E+03
        -0.37300E+03
        -0.37300E+03
        -0.37300E+03
        -0.37300E+03
        -0.37300E+03
        -0.37300E+03
        -0.37300E+03
        -0.37300E+03
        -0.37300E+03
        -0.37300E+03
        -0.37300E+03
        -0.37300E+03
        -0.37300E+03
        -0.37300E+03
        -0.37300E+03
        -0.37300E+03
        -0.37300E+03
        -0.37300E+03
        -0.37300E+03
        -0.37300E+03
        -0.37300E+03
        -0.37300E+03
        -0.37300E+03
        -0.37300E+03
        -0.37300E+03
        -0.37300E+03
        -0.37300E+03
        -0.37300E+03
        -0.37300E+03
        -0.37300E+03
        -0.37300E+03
        -0.37300E+03
        -0.37300E+03
        -0.37300E+03
        -0.37300E+03
        -0.37300E+03
        -0.37300E+03
        -0.37300E+03
        -0.37300E+03
        -0.37300E+03
        -0.37300E+03
        -0.37300E+03
        -0.37300E+03
        -0.37300E+03
        -0.37300E+03
        -0.37300E+03
        -0.37300E+03
        -0.37300E+03
        -0.37300E+03
        -0.37300E+03
        -0.37300E+03
        -0.37300E+03
        -0.37300E+03
        -0.37300E+03
        -0.37300E+03
        -0.37300E+03
        -0.37300E+03
        -0.37300E+03
        -0.37300E+03
        -0.37300E+03
        -0.37300E+03
        -0.37300E+03
        -0.37300E+03
        -0.37300E+03
        -0.37300E+03
        -0.37300E+03
        -0.37300E+03
        -0.37300E+03
        -0.37300E+03
        -0.37300E+03
        -0.37300E+03
        -0.37300E+03
        -0.37300E+03
        -0.37300E+03
        -0.37300E+03
        -0.37300E+03
        -0.37300E+03
        -0.37300E+03
        -0.37300E+03
        -0.37300E+03
        -0.37300E+03
        -0.37300E+03
        -0.37300E+03
        -0.37300E+03
        -0.37300E+03
        -0.37300E+03
        -0.37300E+03
        -0.37300E+03
        -0.37300E+03
        -0.37300E+03
        -0.37300E+03
        -0.37300E+03
        -0.37300E+03
        -0.37300E+03
        -0.37300E+03
        -0.37300E+03
        -0.37300E+03
        -0.37300E+03
        -0.37300E+03
        -0.37300E+03
        -0.37300E+03
        -0.37300E+03
        -0.37300E+03
        -0.37300E+03
        -0.37300E+03
        -0.37300E+03
        -0.37300E+03
        -0.37300E+03
        -0.37300E+03
        -0.37300E+03
        -0.37300E+03
        -0.37300E+03
        -0.37300E+03
        -0.37300E+03
        -0.37300E+03
        -0.37300E+03
        -0.37300E+03
        -0.37300E+03
        -0.37300E+03
        -0.37300E+03
        -0.37300E+03
        -0.37300E+03
        -0.37300E+03
        -0.37300E+03
        -0.37300E+03
        -0.37300E+03
        -0.37300E+03
        -0.37300E+03
        -0.37300E+03
        -0.37300E+03
        -0.37300E+03
        -0.37300E+03
        -0.37300E+03
        -0.37300E+03
        -0.37300E+03
        -0.37300E+03
        -0.37300E+03
        -0.37300E+03
        -0.37300E+03
        -0.37300E+03
        -0.37300E+03
        -0.37300E+03
        -0.37300E+03
        -0.37300E+03
        -0.37300E+03
        -0.37300E+03
        -0.37300E+03
        -0.37300E+03
        -0.37300E+03
        -0.37300E+03
        -0.37300E+03
        -0.37300E+03
        -0.37300E+03
        -0.37300E+03
        -0.37300E+03
        -0.37300E+03
        -0.37300E+03
        -0.37300E+03
        -0.37300E+03
        -0.37300E+03
        -0.37300E+03
        -0.37300E+03
        -0.37300E+03
        -0.37300E+03
        -0.37300E+03
        -0.37300E+03
        -0.37300E+03
        -0.37300E+03
        -0.37300E+03
        -0.37300E+03
        -0.37300E+03
        -0.37300E+03
        -0.37300E+03
        -0.37300E+03
        -0.37300E+03
        -0.37300E+03
        -0.37300E+03
        -0.37300E+03
        -0.37300E+03
        -0.37300E+03
        -0.37300E+03
        -0.37300E+03
        -0.37300E+03
        -0.37300E+03
        -0.37300E+03
        -0.37300E+03
        -0.37300E+03
        -0.37300E+03
        -0.37300E+03
        -0.37300E+03
        -0.37300E+03
        -0.37300E+03
        -0.37300E+03
        -0.37300E+03
        -0.37300E+03
        -0.37300E+03
        -0.37300E+03
        -0.37300E+03
        -0.37300E+03
        -0.37300E+03
        -0.37300E+03
        -0.37300E+03
        -0.37300E+03
        -0.37300E+03
        -0.37300E+03
        -0.37300E+03
        -0.37300E+03
        -0.37300E+03
        -0.37300E+03
        -0.37300E+03
        -0.37300E+03
        -0.37300E+03
        -0.37300E+03
        -0.37300E+03
        -0.37300E+03
        -0.37300E+03
        -0.37300E+03
        -0.37300E+03
        -0.37300E+03
        -0.37300E+03
        -0.37300E+03
        -0.37300E+03
        -0.37300E+03
        -0.37300E+03
        -0.37300E+03
        -0.37300E+03
        -0.37300E+03
        -0.37300E+03
        -0.37300E+03
        -0.37300E+03
        -0.37300E+03
        -0.37300E+03
        -0.37300E+03
        -0.37300E+03
        -0.37300E+03
        -0.37300E+03
        -0.37300E+03
        -0.37300E+03
        -0.37300E+03
        -0.37300E+03
        -0.37300E+03
        -0.37300E+03
        -0.37300E+03
        -0.37300E+03
        -0.37300E+03
        -0.37300E+03
        -0.37300E+03
        -0.37300E+03
        -0.37300E+03
        -0.37300E+03
        -0.37300E+03
        -0.37300E+03
        -0.37300E+03
        -0.37300E+03
        -0.37300E+03
        -0.37300E+03
        -0.37300E+03
        -0.37300E+03
        -0.37300E+03
        -0.37300E+03
        -0.37300E+03
        -0.37300E+03
        -0.37300E+03
        -0.37300E+03
        -0.37300E+03
        -0.37300E+03
        -0.37300E+03
        -0.37300E+03
        -0.37300E+03
        -0.37300E+03
        -0.37300E+03
        -0.37300E+03
        -0.37300E+03
        -0.37300E+03
        -0.37300E+03
        -0.37300E+03
        -0.37300E+03
        -0.37300E+03
        -0.37300E+03
        -0.37300E+03
        -0.37300E+03
        -0.37300E+03
        -0.37300E+03
        -0.37300E+03
        -0.37300E+03
        -0.37300E+03
        -0.37300E+03
        -0.37300E+03
        -0.37300E+03
        -0.37300E+03
        -0.37300E+03
        -0.37300E+03
        -0.37300E+03
        -0.37300E+03
        -0.37300E+03
        -0.37300E+03
        -0.37300E+03
        -0.37300E+03
        -0.37300E+03
        -0.37300E+03
        -0.37300E+03
        -0.37300E+03
        -0.37300E+03
        -0.37300E+03
        -0.37300E+03
        -0.37300E+03
        -0.37300E+03
        -0.37300E+03
        -0.37300E+03
        -0.37300E+03
        -0.37300E+03
        -0.37300E+03
        -0.37300E+03
        -0.37300E+03
        -0.37300E+03
        -0.37300E+03
        -0.37300E+03
        -0.37300E+03
        -0.37300E+03
        -0.37300E+03
        -0.37300E+03
        -0.37300E+03
        -0.37300E+03
        -0.37300E+03
        -0.37300E+03
        -0.37300E+03
        -0.37300E+03
        -0.37300E+03
        -0.37300E+03
        -0.37300E+03
        -0.37300E+03
        -0.37300E+03
        -0.37300E+03
        -0.37300E+03
        -0.37300E+03
        -0.37300E+03
        -0.37300E+03
        -0.37300E+03
        -0.37300E+03
        -0.37300E+03
        -0.37300E+03
        -0.37300E+03
        -0.37300E+03
        -0.37300E+03
        -0.37300E+03
        -0.37300E+03
        -0.37300E+03
        -0.37300E+03
        -0.37300E+03
        -0.37300E+03
        -0.37300E+03
        -0.37300E+03
        -0.37300E+03
        -0.37300E+03
        -0.37300E+03
        -0.37300E+03
        -0.37300E+03
        -0.37300E+03
        -0.37300E+03
        -0.37300E+03
        -0.37300E+03
        -0.37300E+03
        -0.37300E+03
        -0.37300E+03
        -0.37300E+03
        -0.37300E+03
        -0.37300E+03
        -0.37300E+03
        -0.37300E+03
        -0.37300E+03
        -0.37300E+03
        -0.37300E+03
        -0.37300E+03
        -0.37300E+03
        -0.37300E+03
        -0.37300E+03
        -0.37300E+03
        -0.37300E+03
        -0.37300E+03
        -0.37300E+03
        -0.37300E+03
        -0.37300E+03
        -0.37300E+03
        -0.37300E+03
        -0.37300E+03
        -0.37300E+03
        -0.37300E+03
        -0.37300E+03
        -0.37300E+03
        -0.37300E+03
        -0.37300E+03
        -0.37300E+03
        -0.37300E+03
        -0.37300E+03
        -0.37300E+03
        -0.37300E+03
        -0.37300E+03
        -0.37300E+03
        -0.37300E+03
        -0.37300E+03
        -0.37300E+03
        -0.37300E+03
        -0.37300E+03
        -0.37300E+03
        -0.37300E+03
        -0.37300E+03
        -0.37300E+03
        -0.37300E+03
        -0.37300E+03
        -0.37300E+03
        -0.37300E+03
        -0.37300E+03
        -0.37300E+03
        -0.37300E+03
        -0.37300E+03
        -0.37300E+03
        -0.37300E+03
        -0.37300E+03
        -0.37300E+03
        -0.37300E+03
        -0.37300E+03
        -0.37300E+03
        -0.37300E+03
        -0.37300E+03
        -0.37300E+03
        -0.37300E+03
        -0.37300E+03
        -0.37300E+03
        -0.37300E+03
        -0.37300E+03
        -0.37300E+03
        -0.37300E+03
        -0.37300E+03
        -0.37300E+03
        -0.37300E+03
        -0.37300E+03
        -0.37300E+03
        -0.37300E+03
        -0.37300E+03
        -0.37300E+03
        -0.37300E+03
        -0.37300E+03
        -0.37300E+03
        -0.37300E+03
        -0.37300E+03
        -0.37300E+03
        -0.37300E+03
        -0.37300E+03
        -0.37300E+03
        -0.37300E+03
        -0.37300E+03
        -0.37300E+03
        -0.37300E+03
        -0.37300E+03
        -0.37300E+03
        -0.37300E+03
        -0.37300E+03
        -0.37300E+03
        -0.37300E+03
        -0.37300E+03
        -0.37300E+03
        -0.37300E+03
        -0.37300E+03
        -0.37300E+03
        -0.37300E+03
        -0.37300E+03
        -0.37300E+03
        -0.37300E+03
        -0.37300E+03
        -0.37300E+03
        -0.37300E+03
        -0.37300E+03
        -0.37300E+03
        -0.37300E+03
        -0.37300E+03
        -0.37300E+03
        -0.37300E+03
        -0.37300E+03
        -0.37300E+03
        -0.37300E+03
        -0.37300E+03
        -0.37300E+03
        -0.37300E+03
        -0.37300E+03
        -0.37300E+03
        -0.37300E+03
        -0.37300E+03
        -0.37300E+03
        -0.37300E+03
        -0.37300E+03
        -0.37300E+03
        -0.37300E+03
        -0.37300E+03
        -0.37300E+03
        -0.37300E+03
        -0.37300E+03
        -0.37300E+03
        -0.37300E+03
        -0.37300E+03
        -0.37300E+03
        -0.37300E+03
        -0.37300E+03
        -0.37300E+03
        -0.37300E+03
        -0.37300E+03
        -0.37300E+03
        -0.37300E+03
        -0.37300E+03
        -0.37300E+03
        -0.37300E+03
        -0.37300E+03
        -0.37300E+03
        -0.37300E+03
        -0.37300E+03
        -0.37300E+03
        -0.37300E+03
        -0.37300E+03
        -0.37300E+03
        -0.37300E+03
        -0.37300E+03
        -0.37300E+03
        -0.37300E+03
        -0.37300E+03
        -0.37300E+03
        -0.37300E+03
        -0.37300E+03
        -0.37300E+03
        -0.37300E+03
        -0.37300E+03
        -0.37300E+03
        -0.37300E+03
        -0.37300E+03
        -0.37300E+03
        -0.37300E+03
        -0.37300E+03
        -0.37300E+03
        -0.37300E+03
        -0.37300E+03
        -0.37300E+03
        -0.37300E+03
        -0.37300E+03
        -0.37300E+03
        -0.37300E+03
        -0.37300E+03
        -0.37300E+03
        -0.37300E+03
        -0.37300E+03
        -0.37300E+03
        -0.37300E+03
        -0.37300E+03
        -0.37300E+03
        -0.37300E+03
        -0.37300E+03
        -0.37300E+03
        -0.37300E+03
        -0.37300E+03
        -0.37300E+03
        -0.37300E+03
        -0.37300E+03
        -0.37300E+03
        -0.37300E+03
        -0.37300E+03
        -0.37300E+03
        -0.37300E+03
        -0.37300E+03
        -0.37300E+03
        -0.37300E+03
        -0.37300E+03
        -0.37300E+03
        -0.37300E+03
        -0.37300E+03
        -0.37300E+03
        -0.37300E+03
        -0.37300E+03
        -0.37300E+03
        -0.37300E+03
        -0.37300E+03
        -0.37300E+03
        -0.37300E+03
        -0.37300E+03
        -0.37300E+03
        -0.37300E+03
        -0.37300E+03
        -0.37300E+03
        -0.37300E+03
        -0.37300E+03
        -0.37300E+03
        -0.37300E+03
        -0.37300E+03
        -0.37300E+03
        -0.37300E+03
        -0.37300E+03
        -0.37300E+03
        -0.37300E+03
        -0.37300E+03
        -0.37300E+03
        -0.37300E+03
        -0.37300E+03
        -0.37300E+03
        -0.37300E+03
        -0.37300E+03
        -0.37300E+03
        -0.37300E+03
        -0.37300E+03
        -0.37300E+03
        -0.37300E+03
        -0.37300E+03
        -0.37300E+03
        -0.37300E+03
        -0.37300E+03
        -0.37300E+03
        -0.37300E+03
        -0.37300E+03
        -0.37300E+03
        -0.37300E+03
        -0.37300E+03
        -0.37300E+03
        -0.37300E+03
        -0.37300E+03
        -0.37300E+03
        -0.37300E+03
        -0.37300E+03
        -0.37300E+03
        -0.37300E+03
        -0.37300E+03
        -0.37300E+03
        -0.37300E+03
        -0.37300E+03
        -0.37300E+03
        -0.37300E+03
        -0.37300E+03
        -0.37300E+03
        -0.37300E+03
        -0.37300E+03
        -0.37300E+03
        -0.37300E+03
        -0.37300E+03
        -0.37300E+03
        -0.37300E+03
        -0.37300E+03
        -0.37300E+03
        -0.37300E+03
        -0.37300E+03
        -0.37300E+03
        -0.37300E+03
        -0.37300E+03
        -0.37300E+03
        -0.37300E+03
        -0.37300E+03
        -0.37300E+03
        -0.37300E+03
        -0.37300E+03
        -0.37300E+03
        -0.37300E+03
        -0.37300E+03
        -0.37300E+03
        -0.37300E+03
        -0.37300E+03
        -0.37300E+03
        -0.37300E+03
        -0.37300E+03
        -0.37300E+03
        -0.37300E+03
        -0.37300E+03
        -0.37300E+03
        -0.37300E+03
        -0.37300E+03
        -0.37300E+03
        -0.37300E+03
        -0.37300E+03
        -0.37300E+03
        -0.37300E+03
        -0.37300E+03
        -0.37300E+03
        -0.37300E+03
        -0.37300E+03
        -0.37300E+03
        -0.37300E+03
        -0.37300E+03
        -0.37300E+03
        -0.37300E+03
        -0.37300E+03
        -0.37300E+03
        -0.37300E+03
        -0.37300E+03
        -0.37300E+03
        -0.37300E+03
        -0.37300E+03
        -0.37300E+03
        -0.37300E+03
        -0.37300E+03
        -0.37300E+03
        -0.37300E+03
        -0.37300E+03
        -0.37300E+03
        -0.37300E+03
        -0.37300E+03
        -0.37300E+03
        -0.37300E+03
        -0.37300E+03
        -0.37300E+03
        -0.37300E+03
        -0.37300E+03
        -0.37300E+03
        -0.37300E+03
        -0.37300E+03
        -0.37300E+03
        -0.37300E+03
        -0.37300E+03
        -0.37300E+03
        -0.37300E+03
        -0.37300E+03
        -0.37300E+03
        -0.37300E+03
        -0.37300E+03
        -0.37300E+03
        -0.37300E+03
        -0.37300E+03
        -0.37300E+03
        -0.37300E+03
        -0.37300E+03
        -0.37300E+03
        -0.37300E+03
        -0.37300E+03
        -0.37300E+03
        -0.37300E+03
        -0.37300E+03
        -0.37300E+03
        -0.37300E+03
        -0.37300E+03
        -0.37300E+03
        -0.37300E+03
        -0.37300E+03
        -0.37300E+03
        -0.37300E+03
        -0.37300E+03
        -0.37300E+03
        -0.37300E+03
        -0.37300E+03
        -0.37300E+03
        -0.37300E+03
        -0.37300E+03
        -0.37300E+03
        -0.37300E+03
        -0.37300E+03
        -0.37300E+03
        -0.37300E+03
        -0.37300E+03
        -0.37300E+03
        -0.37300E+03
        -0.37300E+03
        -0.37300E+03
        -0.37300E+03
        -0.37300E+03
        -0.37300E+03
        -0.37300E+03
        -0.37300E+03
        -0.37300E+03
        -0.37300E+03
        -0.37300E+03
        -0.37300E+03
        -0.37300E+03
        -0.37300E+03
        -0.37300E+03
        -0.37300E+03
        -0.37300E+03
        -0.37300E+03
        -0.37300E+03
        -0.37300E+03
        -0.37300E+03
        -0.37300E+03
        -0.37300E+03
        -0.37300E+03
        -0.37300E+03
        -0.37300E+03
        -0.37300E+03
        -0.37300E+03
        -0.37300E+03
        -0.37300E+03
        -0.37300E+03
        -0.37300E+03
        -0.37300E+03
        -0.37300E+03
        -0.37300E+03
        -0.37300E+03
        -0.37300E+03
        -0.37300E+03
        -0.37300E+03
        -0.37300E+03
        -0.37300E+03
        -0.37300E+03
        -0.37300E+03
        -0.37300E+03
        -0.37300E+03
        -0.37300E+03
        -0.37300E+03
        -0.37300E+03
        -0.37300E+03
        -0.37300E+03
        -0.37300E+03
        -0.37300E+03
        -0.37300E+03
        -0.37300E+03
        -0.37300E+03
        -0.37300E+03
        -0.37300E+03
        -0.37300E+03
        -0.37300E+03
        -0.37300E+03
        -0.37300E+03
        -0.37300E+03
        -0.37300E+03
        -0.37300E+03
        -0.37300E+03
        -0.37300E+03
        -0.37300E+03
        -0.37300E+03
        -0.37300E+03
        -0.37300E+03
        -0.37300E+03
        -0.37300E+03
        -0.37300E+03
        -0.37300E+03
        -0.37300E+03
        -0.37300E+03
        -0.37300E+03
        -0.37300E+03
        -0.37300E+03
        -0.37300E+03
        -0.37300E+03
        -0.37300E+03
        -0.37300E+03
        -0.37300E+03
        -0.37300E+03
        -0.37300E+03
        -0.37300E+03
        -0.37300E+03
        -0.37300E+03
        -0.37300E+03
        -0.37300E+03
        -0.37300E+03
        -0.37300E+03
        -0.37300E+03
        -0.37300E+03
        -0.37300E+03
        -0.37300E+03
        -0.37300E+03
        -0.37300E+03
        -0.37300E+03
        -0.37300E+03
        -0.37300E+03
        -0.37300E+03
        -0.37300E+03
        -0.37300E+03
        -0.37300E+03
        -0.37300E+03
        -0.37300E+03
        -0.37300E+03
        -0.37300E+03
        -0.37300E+03
        -0.37300E+03
        -0.37300E+03
        -0.37300E+03
        -0.37300E+03
        -0.37300E+03
        -0.37300E+03
        -0.37300E+03
        -0.37300E+03
        -0.37300E+03
        -0.37300E+03
        -0.37300E+03
        -0.37300E+03
        -0.37300E+03
        -0.37300E+03
        -0.37300E+03
        -0.37300E+03
        -0.37300E+03
        -0.37300E+03
        -0.37300E+03
        -0.37300E+03
        -0.37300E+03
        -0.37300E+03
        -0.37300E+03
        -0.37300E+03
        -0.37300E+03
        -0.37300E+03
        -0.37300E+03
        -0.37300E+03
        -0.37300E+03
        -0.37300E+03
        -0.37300E+03
        -0.37300E+03
        -0.37300E+03
        -0.37300E+03
        -0.37300E+03
        -0.37300E+03
        -0.37300E+03
        -0.37300E+03
        -0.37300E+03
        -0.37300E+03
        -0.37300E+03
        -0.37300E+03
        -0.37300E+03
        -0.37300E+03
        -0.37300E+03
        -0.37300E+03
        -0.37300E+03
        -0.37300E+03
        -0.37300E+03
        -0.37300E+03
        -0.37300E+03
        -0.37300E+03
        -0.37300E+03
        -0.37300E+03
        -0.37300E+03
        -0.37300E+03
        -0.37300E+03
        -0.37300E+03
        -0.37300E+03
        -0.37300E+03
        -0.37300E+03
        -0.37300E+03
        -0.37300E+03
        -0.37300E+03
        -0.37300E+03
        -0.37300E+03
        -0.37300E+03
        -0.37300E+03
        -0.37300E+03
  
SCALARS                 acceleration_x  double 1
LOOKUP_TABLE default
         0.00000E+00
         0.00000E+00
         0.00000E+00
         0.00000E+00
         0.00000E+00
         0.00000E+00
         0.00000E+00
         0.00000E+00
         0.00000E+00
         0.00000E+00
         0.00000E+00
         0.00000E+00
         0.00000E+00
         0.00000E+00
         0.00000E+00
         0.00000E+00
         0.00000E+00
         0.00000E+00
         0.00000E+00
         0.00000E+00
         0.00000E+00
         0.00000E+00
         0.00000E+00
         0.00000E+00
         0.00000E+00
         0.00000E+00
         0.00000E+00
         0.00000E+00
         0.00000E+00
         0.00000E+00
         0.00000E+00
         0.00000E+00
         0.00000E+00
         0.00000E+00
         0.00000E+00
         0.00000E+00
         0.00000E+00
         0.00000E+00
         0.00000E+00
         0.00000E+00
         0.00000E+00
         0.00000E+00
         0.00000E+00
         0.00000E+00
         0.00000E+00
         0.00000E+00
         0.00000E+00
         0.00000E+00
         0.00000E+00
         0.00000E+00
         0.00000E+00
         0.00000E+00
         0.00000E+00
         0.00000E+00
         0.00000E+00
         0.00000E+00
         0.00000E+00
         0.00000E+00
         0.00000E+00
         0.00000E+00
         0.00000E+00
         0.00000E+00
         0.00000E+00
         0.00000E+00
         0.00000E+00
         0.00000E+00
         0.00000E+00
         0.00000E+00
         0.00000E+00
         0.00000E+00
         0.00000E+00
         0.00000E+00
         0.00000E+00
         0.00000E+00
         0.00000E+00
         0.00000E+00
         0.00000E+00
         0.00000E+00
         0.00000E+00
         0.00000E+00
         0.00000E+00
         0.00000E+00
         0.00000E+00
         0.00000E+00
         0.00000E+00
         0.00000E+00
         0.00000E+00
         0.00000E+00
         0.00000E+00
         0.00000E+00
         0.00000E+00
         0.00000E+00
         0.00000E+00
         0.00000E+00
         0.00000E+00
         0.00000E+00
         0.00000E+00
         0.00000E+00
         0.00000E+00
         0.00000E+00
         0.00000E+00
         0.00000E+00
         0.00000E+00
         0.00000E+00
         0.00000E+00
         0.00000E+00
         0.00000E+00
         0.00000E+00
         0.00000E+00
         0.00000E+00
         0.00000E+00
         0.00000E+00
         0.00000E+00
         0.00000E+00
         0.00000E+00
         0.00000E+00
         0.00000E+00
         0.00000E+00
         0.00000E+00
         0.00000E+00
         0.00000E+00
         0.00000E+00
         0.00000E+00
         0.00000E+00
         0.00000E+00
         0.00000E+00
         0.00000E+00
         0.00000E+00
         0.00000E+00
         0.00000E+00
         0.00000E+00
         0.00000E+00
         0.00000E+00
         0.00000E+00
         0.00000E+00
         0.00000E+00
         0.00000E+00
         0.00000E+00
         0.00000E+00
         0.00000E+00
         0.00000E+00
         0.00000E+00
         0.00000E+00
         0.00000E+00
         0.00000E+00
         0.00000E+00
         0.00000E+00
         0.00000E+00
         0.00000E+00
         0.00000E+00
         0.00000E+00
         0.00000E+00
         0.00000E+00
         0.00000E+00
         0.00000E+00
         0.00000E+00
         0.00000E+00
         0.00000E+00
         0.00000E+00
         0.00000E+00
         0.00000E+00
         0.00000E+00
         0.00000E+00
         0.00000E+00
         0.00000E+00
         0.00000E+00
         0.00000E+00
         0.00000E+00
         0.00000E+00
         0.00000E+00
         0.00000E+00
         0.00000E+00
         0.00000E+00
         0.00000E+00
         0.00000E+00
         0.00000E+00
         0.00000E+00
         0.00000E+00
         0.00000E+00
         0.00000E+00
         0.00000E+00
         0.00000E+00
         0.00000E+00
         0.00000E+00
         0.00000E+00
         0.00000E+00
         0.00000E+00
         0.00000E+00
         0.00000E+00
         0.00000E+00
         0.00000E+00
         0.00000E+00
         0.00000E+00
         0.00000E+00
         0.00000E+00
         0.00000E+00
         0.00000E+00
         0.00000E+00
         0.00000E+00
         0.00000E+00
         0.00000E+00
         0.00000E+00
         0.00000E+00
         0.00000E+00
         0.00000E+00
         0.00000E+00
         0.00000E+00
         0.00000E+00
         0.00000E+00
         0.00000E+00
         0.00000E+00
         0.00000E+00
         0.00000E+00
         0.00000E+00
         0.00000E+00
         0.00000E+00
         0.00000E+00
         0.00000E+00
         0.00000E+00
         0.00000E+00
         0.00000E+00
         0.00000E+00
         0.00000E+00
         0.00000E+00
         0.00000E+00
         0.00000E+00
         0.00000E+00
         0.00000E+00
         0.00000E+00
         0.00000E+00
         0.00000E+00
         0.00000E+00
         0.00000E+00
         0.00000E+00
         0.00000E+00
         0.00000E+00
         0.00000E+00
         0.00000E+00
         0.00000E+00
         0.00000E+00
         0.00000E+00
         0.00000E+00
         0.00000E+00
         0.00000E+00
         0.00000E+00
         0.00000E+00
         0.00000E+00
         0.00000E+00
         0.00000E+00
         0.00000E+00
         0.00000E+00
         0.00000E+00
         0.00000E+00
         0.00000E+00
         0.00000E+00
         0.00000E+00
         0.00000E+00
         0.00000E+00
         0.00000E+00
         0.00000E+00
         0.00000E+00
         0.00000E+00
         0.00000E+00
         0.00000E+00
         0.00000E+00
         0.00000E+00
         0.00000E+00
         0.00000E+00
         0.00000E+00
         0.00000E+00
         0.00000E+00
         0.00000E+00
         0.00000E+00
         0.00000E+00
         0.00000E+00
         0.00000E+00
         0.00000E+00
         0.00000E+00
         0.00000E+00
         0.00000E+00
         0.00000E+00
         0.00000E+00
         0.00000E+00
         0.00000E+00
         0.00000E+00
         0.00000E+00
         0.00000E+00
         0.00000E+00
         0.00000E+00
         0.00000E+00
         0.00000E+00
         0.00000E+00
         0.00000E+00
         0.00000E+00
         0.00000E+00
         0.00000E+00
         0.00000E+00
         0.00000E+00
         0.00000E+00
         0.00000E+00
         0.00000E+00
         0.00000E+00
         0.00000E+00
         0.00000E+00
         0.00000E+00
         0.00000E+00
         0.00000E+00
         0.00000E+00
         0.00000E+00
         0.00000E+00
         0.00000E+00
         0.00000E+00
         0.00000E+00
         0.00000E+00
         0.00000E+00
         0.00000E+00
         0.00000E+00
         0.00000E+00
         0.00000E+00
         0.00000E+00
         0.00000E+00
         0.00000E+00
         0.00000E+00
         0.00000E+00
         0.00000E+00
         0.00000E+00
         0.00000E+00
         0.00000E+00
         0.00000E+00
         0.00000E+00
         0.00000E+00
         0.00000E+00
         0.00000E+00
         0.00000E+00
         0.00000E+00
         0.00000E+00
         0.00000E+00
         0.00000E+00
         0.00000E+00
         0.00000E+00
         0.00000E+00
         0.00000E+00
         0.00000E+00
         0.00000E+00
         0.00000E+00
         0.00000E+00
         0.00000E+00
         0.00000E+00
         0.00000E+00
         0.00000E+00
         0.00000E+00
         0.00000E+00
         0.00000E+00
         0.00000E+00
         0.00000E+00
         0.00000E+00
         0.00000E+00
         0.00000E+00
         0.00000E+00
         0.00000E+00
         0.00000E+00
         0.00000E+00
         0.00000E+00
         0.00000E+00
         0.00000E+00
         0.00000E+00
         0.00000E+00
         0.00000E+00
         0.00000E+00
         0.00000E+00
         0.00000E+00
         0.00000E+00
         0.00000E+00
         0.00000E+00
         0.00000E+00
         0.00000E+00
         0.00000E+00
         0.00000E+00
         0.00000E+00
         0.00000E+00
         0.00000E+00
         0.00000E+00
         0.00000E+00
         0.00000E+00
         0.00000E+00
         0.00000E+00
         0.00000E+00
         0.00000E+00
         0.00000E+00
         0.00000E+00
         0.00000E+00
         0.00000E+00
         0.00000E+00
         0.00000E+00
         0.00000E+00
         0.00000E+00
         0.00000E+00
         0.00000E+00
         0.00000E+00
         0.00000E+00
         0.00000E+00
         0.00000E+00
         0.00000E+00
         0.00000E+00
         0.00000E+00
         0.00000E+00
         0.00000E+00
         0.00000E+00
         0.00000E+00
         0.00000E+00
         0.00000E+00
         0.00000E+00
         0.00000E+00
         0.00000E+00
         0.00000E+00
         0.00000E+00
         0.00000E+00
         0.00000E+00
         0.00000E+00
         0.00000E+00
         0.00000E+00
         0.00000E+00
         0.00000E+00
         0.00000E+00
         0.00000E+00
         0.00000E+00
         0.00000E+00
         0.00000E+00
         0.00000E+00
         0.00000E+00
         0.00000E+00
         0.00000E+00
         0.00000E+00
         0.00000E+00
         0.00000E+00
         0.00000E+00
         0.00000E+00
         0.00000E+00
         0.00000E+00
         0.00000E+00
         0.00000E+00
         0.00000E+00
         0.00000E+00
         0.00000E+00
         0.00000E+00
         0.00000E+00
         0.00000E+00
         0.00000E+00
         0.00000E+00
         0.00000E+00
         0.00000E+00
         0.00000E+00
         0.00000E+00
         0.00000E+00
         0.00000E+00
         0.00000E+00
         0.00000E+00
         0.00000E+00
         0.00000E+00
         0.00000E+00
         0.00000E+00
         0.00000E+00
         0.00000E+00
         0.00000E+00
         0.00000E+00
         0.00000E+00
         0.00000E+00
         0.00000E+00
         0.00000E+00
         0.00000E+00
         0.00000E+00
         0.00000E+00
         0.00000E+00
         0.00000E+00
         0.00000E+00
         0.00000E+00
         0.00000E+00
         0.00000E+00
         0.00000E+00
         0.00000E+00
         0.00000E+00
         0.00000E+00
         0.00000E+00
         0.00000E+00
         0.00000E+00
         0.00000E+00
         0.00000E+00
         0.00000E+00
         0.00000E+00
         0.00000E+00
         0.00000E+00
         0.00000E+00
         0.00000E+00
         0.00000E+00
         0.00000E+00
         0.00000E+00
         0.00000E+00
         0.00000E+00
         0.00000E+00
         0.00000E+00
         0.00000E+00
         0.00000E+00
         0.00000E+00
         0.00000E+00
         0.00000E+00
         0.00000E+00
         0.00000E+00
         0.00000E+00
         0.00000E+00
         0.00000E+00
         0.00000E+00
         0.00000E+00
         0.00000E+00
         0.00000E+00
         0.00000E+00
         0.00000E+00
         0.00000E+00
         0.00000E+00
         0.00000E+00
         0.00000E+00
         0.00000E+00
         0.00000E+00
         0.00000E+00
         0.00000E+00
         0.00000E+00
         0.00000E+00
         0.00000E+00
         0.00000E+00
         0.00000E+00
         0.00000E+00
         0.00000E+00
         0.00000E+00
         0.00000E+00
         0.00000E+00
         0.00000E+00
         0.00000E+00
         0.00000E+00
         0.00000E+00
         0.00000E+00
         0.00000E+00
         0.00000E+00
         0.00000E+00
         0.00000E+00
         0.00000E+00
         0.00000E+00
         0.00000E+00
         0.00000E+00
         0.00000E+00
         0.00000E+00
         0.00000E+00
         0.00000E+00
         0.00000E+00
         0.00000E+00
         0.00000E+00
         0.00000E+00
         0.00000E+00
         0.00000E+00
         0.00000E+00
         0.00000E+00
         0.00000E+00
         0.00000E+00
         0.00000E+00
         0.00000E+00
         0.00000E+00
         0.00000E+00
         0.00000E+00
         0.00000E+00
         0.00000E+00
         0.00000E+00
         0.00000E+00
         0.00000E+00
         0.00000E+00
         0.00000E+00
         0.00000E+00
         0.00000E+00
         0.00000E+00
         0.00000E+00
         0.00000E+00
         0.00000E+00
         0.00000E+00
         0.00000E+00
         0.00000E+00
         0.00000E+00
         0.00000E+00
         0.00000E+00
         0.00000E+00
         0.00000E+00
         0.00000E+00
         0.00000E+00
         0.00000E+00
         0.00000E+00
         0.00000E+00
         0.00000E+00
         0.00000E+00
         0.00000E+00
         0.00000E+00
         0.00000E+00
         0.00000E+00
         0.00000E+00
         0.00000E+00
         0.00000E+00
         0.00000E+00
         0.00000E+00
         0.00000E+00
         0.00000E+00
         0.00000E+00
         0.00000E+00
         0.00000E+00
         0.00000E+00
         0.00000E+00
         0.00000E+00
         0.00000E+00
         0.00000E+00
         0.00000E+00
         0.00000E+00
         0.00000E+00
         0.00000E+00
         0.00000E+00
         0.00000E+00
         0.00000E+00
         0.00000E+00
         0.00000E+00
         0.00000E+00
         0.00000E+00
         0.00000E+00
         0.00000E+00
         0.00000E+00
         0.00000E+00
         0.00000E+00
         0.00000E+00
         0.00000E+00
         0.00000E+00
         0.00000E+00
         0.00000E+00
         0.00000E+00
         0.00000E+00
         0.00000E+00
         0.00000E+00
         0.00000E+00
         0.00000E+00
         0.00000E+00
         0.00000E+00
         0.00000E+00
         0.00000E+00
         0.00000E+00
         0.00000E+00
         0.00000E+00
         0.00000E+00
         0.00000E+00
         0.00000E+00
         0.00000E+00
         0.00000E+00
         0.00000E+00
         0.00000E+00
         0.00000E+00
         0.00000E+00
         0.00000E+00
         0.00000E+00
         0.00000E+00
         0.00000E+00
         0.00000E+00
         0.00000E+00
         0.00000E+00
         0.00000E+00
         0.00000E+00
         0.00000E+00
         0.00000E+00
         0.00000E+00
         0.00000E+00
         0.00000E+00
         0.00000E+00
         0.00000E+00
         0.00000E+00
         0.00000E+00
         0.00000E+00
         0.00000E+00
         0.00000E+00
         0.00000E+00
         0.00000E+00
         0.00000E+00
         0.00000E+00
         0.00000E+00
         0.00000E+00
         0.00000E+00
         0.00000E+00
         0.00000E+00
         0.00000E+00
         0.00000E+00
         0.00000E+00
         0.00000E+00
         0.00000E+00
         0.00000E+00
         0.00000E+00
         0.00000E+00
         0.00000E+00
         0.00000E+00
         0.00000E+00
         0.00000E+00
         0.00000E+00
         0.00000E+00
         0.00000E+00
         0.00000E+00
         0.00000E+00
         0.00000E+00
         0.00000E+00
         0.00000E+00
         0.00000E+00
         0.00000E+00
         0.00000E+00
         0.00000E+00
         0.00000E+00
         0.00000E+00
         0.00000E+00
         0.00000E+00
         0.00000E+00
         0.00000E+00
         0.00000E+00
         0.00000E+00
         0.00000E+00
         0.00000E+00
         0.00000E+00
         0.00000E+00
         0.00000E+00
         0.00000E+00
         0.00000E+00
         0.00000E+00
         0.00000E+00
         0.00000E+00
         0.00000E+00
         0.00000E+00
         0.00000E+00
         0.00000E+00
         0.00000E+00
         0.00000E+00
         0.00000E+00
         0.00000E+00
         0.00000E+00
         0.00000E+00
         0.00000E+00
         0.00000E+00
         0.00000E+00
         0.00000E+00
         0.00000E+00
         0.00000E+00
         0.00000E+00
         0.00000E+00
         0.00000E+00
         0.00000E+00
         0.00000E+00
         0.00000E+00
         0.00000E+00
         0.00000E+00
         0.00000E+00
         0.00000E+00
         0.00000E+00
         0.00000E+00
         0.00000E+00
         0.00000E+00
         0.00000E+00
         0.00000E+00
         0.00000E+00
         0.00000E+00
         0.00000E+00
         0.00000E+00
         0.00000E+00
         0.00000E+00
         0.00000E+00
         0.00000E+00
         0.00000E+00
         0.00000E+00
         0.00000E+00
         0.00000E+00
         0.00000E+00
         0.00000E+00
         0.00000E+00
         0.00000E+00
         0.00000E+00
         0.00000E+00
         0.00000E+00
         0.00000E+00
         0.00000E+00
         0.00000E+00
         0.00000E+00
         0.00000E+00
         0.00000E+00
         0.00000E+00
         0.00000E+00
         0.00000E+00
         0.00000E+00
         0.00000E+00
         0.00000E+00
         0.00000E+00
         0.00000E+00
         0.00000E+00
         0.00000E+00
         0.00000E+00
         0.00000E+00
         0.00000E+00
         0.00000E+00
         0.00000E+00
         0.00000E+00
         0.00000E+00
         0.00000E+00
         0.00000E+00
         0.00000E+00
         0.00000E+00
         0.00000E+00
         0.00000E+00
         0.00000E+00
         0.00000E+00
         0.00000E+00
         0.00000E+00
         0.00000E+00
         0.00000E+00
         0.00000E+00
         0.00000E+00
         0.00000E+00
         0.00000E+00
         0.00000E+00
         0.00000E+00
         0.00000E+00
         0.00000E+00
         0.00000E+00
         0.00000E+00
         0.00000E+00
         0.00000E+00
         0.00000E+00
         0.00000E+00
         0.00000E+00
         0.00000E+00
         0.00000E+00
         0.00000E+00
         0.00000E+00
         0.00000E+00
         0.00000E+00
         0.00000E+00
         0.00000E+00
         0.00000E+00
         0.00000E+00
         0.00000E+00
         0.00000E+00
         0.00000E+00
         0.00000E+00
         0.00000E+00
         0.00000E+00
         0.00000E+00
         0.00000E+00
         0.00000E+00
         0.00000E+00
         0.00000E+00
         0.00000E+00
         0.00000E+00
         0.00000E+00
         0.00000E+00
         0.00000E+00
         0.00000E+00
         0.00000E+00
         0.00000E+00
         0.00000E+00
         0.00000E+00
         0.00000E+00
         0.00000E+00
         0.00000E+00
         0.00000E+00
         0.00000E+00
         0.00000E+00
         0.00000E+00
         0.00000E+00
         0.00000E+00
         0.00000E+00
         0.00000E+00
         0.00000E+00
         0.00000E+00
         0.00000E+00
         0.00000E+00
         0.00000E+00
         0.00000E+00
         0.00000E+00
         0.00000E+00
         0.00000E+00
         0.00000E+00
         0.00000E+00
         0.00000E+00
         0.00000E+00
         0.00000E+00
         0.00000E+00
         0.00000E+00
         0.00000E+00
         0.00000E+00
         0.00000E+00
         0.00000E+00
         0.00000E+00
         0.00000E+00
         0.00000E+00
         0.00000E+00
         0.00000E+00
         0.00000E+00
         0.00000E+00
         0.00000E+00
         0.00000E+00
         0.00000E+00
         0.00000E+00
         0.00000E+00
         0.00000E+00
         0.00000E+00
         0.00000E+00
         0.00000E+00
         0.00000E+00
         0.00000E+00
         0.00000E+00
         0.00000E+00
         0.00000E+00
         0.00000E+00
         0.00000E+00
         0.00000E+00
         0.00000E+00
         0.00000E+00
         0.00000E+00
         0.00000E+00
         0.00000E+00
         0.00000E+00
         0.00000E+00
         0.00000E+00
         0.00000E+00
         0.00000E+00
         0.00000E+00
         0.00000E+00
         0.00000E+00
         0.00000E+00
         0.00000E+00
         0.00000E+00
         0.00000E+00
         0.00000E+00
         0.00000E+00
         0.00000E+00
         0.00000E+00
         0.00000E+00
         0.00000E+00
         0.00000E+00
         0.00000E+00
         0.00000E+00
         0.00000E+00
         0.00000E+00
         0.00000E+00
         0.00000E+00
         0.00000E+00
         0.00000E+00
         0.00000E+00
         0.00000E+00
         0.00000E+00
         0.00000E+00
         0.00000E+00
         0.00000E+00
         0.00000E+00
         0.00000E+00
         0.00000E+00
         0.00000E+00
         0.00000E+00
         0.00000E+00
         0.00000E+00
         0.00000E+00
         0.00000E+00
         0.00000E+00
         0.00000E+00
         0.00000E+00
         0.00000E+00
         0.00000E+00
         0.00000E+00
         0.00000E+00
         0.00000E+00
         0.00000E+00
         0.00000E+00
         0.00000E+00
         0.00000E+00
         0.00000E+00
         0.00000E+00
         0.00000E+00
         0.00000E+00
         0.00000E+00
         0.00000E+00
         0.00000E+00
         0.00000E+00
         0.00000E+00
         0.00000E+00
         0.00000E+00
         0.00000E+00
         0.00000E+00
         0.00000E+00
         0.00000E+00
         0.00000E+00
         0.00000E+00
         0.00000E+00
         0.00000E+00
         0.00000E+00
         0.00000E+00
         0.00000E+00
         0.00000E+00
         0.00000E+00
         0.00000E+00
         0.00000E+00
         0.00000E+00
         0.00000E+00
         0.00000E+00
         0.00000E+00
         0.00000E+00
         0.00000E+00
         0.00000E+00
         0.00000E+00
         0.00000E+00
         0.00000E+00
         0.00000E+00
         0.00000E+00
         0.00000E+00
         0.00000E+00
         0.00000E+00
         0.00000E+00
         0.00000E+00
         0.00000E+00
         0.00000E+00
         0.00000E+00
         0.00000E+00
         0.00000E+00
         0.00000E+00
         0.00000E+00
         0.00000E+00
         0.00000E+00
         0.00000E+00
         0.00000E+00
         0.00000E+00
         0.00000E+00
         0.00000E+00
         0.00000E+00
         0.00000E+00
         0.00000E+00
         0.00000E+00
         0.00000E+00
         0.00000E+00
         0.00000E+00
         0.00000E+00
         0.00000E+00
         0.00000E+00
         0.00000E+00
         0.00000E+00
         0.00000E+00
         0.00000E+00
         0.00000E+00
         0.00000E+00
         0.00000E+00
         0.00000E+00
         0.00000E+00
         0.00000E+00
         0.00000E+00
         0.00000E+00
         0.00000E+00
         0.00000E+00
         0.00000E+00
         0.00000E+00
         0.00000E+00
         0.00000E+00
         0.00000E+00
         0.00000E+00
         0.00000E+00
         0.00000E+00
         0.00000E+00
         0.00000E+00
         0.00000E+00
         0.00000E+00
         0.00000E+00
         0.00000E+00
         0.00000E+00
         0.00000E+00
         0.00000E+00
         0.00000E+00
         0.00000E+00
         0.00000E+00
         0.00000E+00
         0.00000E+00
         0.00000E+00
         0.00000E+00
         0.00000E+00
         0.00000E+00
         0.00000E+00
         0.00000E+00
         0.00000E+00
         0.00000E+00
         0.00000E+00
         0.00000E+00
         0.00000E+00
         0.00000E+00
         0.00000E+00
         0.00000E+00
         0.00000E+00
         0.00000E+00
         0.00000E+00
         0.00000E+00
         0.00000E+00
         0.00000E+00
         0.00000E+00
         0.00000E+00
         0.00000E+00
         0.00000E+00
         0.00000E+00
         0.00000E+00
         0.00000E+00
         0.00000E+00
         0.00000E+00
         0.00000E+00
         0.00000E+00
         0.00000E+00
         0.00000E+00
         0.00000E+00
         0.00000E+00
         0.00000E+00
         0.00000E+00
         0.00000E+00
         0.00000E+00
         0.00000E+00
         0.00000E+00
         0.00000E+00
         0.00000E+00
         0.00000E+00
         0.00000E+00
         0.00000E+00
         0.00000E+00
         0.00000E+00
         0.00000E+00
         0.00000E+00
         0.00000E+00
         0.00000E+00
         0.00000E+00
         0.00000E+00
         0.00000E+00
         0.00000E+00
         0.00000E+00
         0.00000E+00
         0.00000E+00
         0.00000E+00
         0.00000E+00
         0.00000E+00
         0.00000E+00
         0.00000E+00
         0.00000E+00
         0.00000E+00
         0.00000E+00
         0.00000E+00
         0.00000E+00
         0.00000E+00
         0.00000E+00
         0.00000E+00
         0.00000E+00
         0.00000E+00
         0.00000E+00
         0.00000E+00
         0.00000E+00
         0.00000E+00
         0.00000E+00
         0.00000E+00
         0.00000E+00
         0.00000E+00
         0.00000E+00
         0.00000E+00
         0.00000E+00
         0.00000E+00
         0.00000E+00
         0.00000E+00
         0.00000E+00
         0.00000E+00
         0.00000E+00
         0.00000E+00
         0.00000E+00
         0.00000E+00
         0.00000E+00
         0.00000E+00
         0.00000E+00
         0.00000E+00
         0.00000E+00
         0.00000E+00
         0.00000E+00
         0.00000E+00
         0.00000E+00
         0.00000E+00
         0.00000E+00
         0.00000E+00
         0.00000E+00
         0.00000E+00
         0.00000E+00
         0.00000E+00
         0.00000E+00
         0.00000E+00
         0.00000E+00
         0.00000E+00
         0.00000E+00
         0.00000E+00
         0.00000E+00
         0.00000E+00
         0.00000E+00
         0.00000E+00
         0.00000E+00
         0.00000E+00
         0.00000E+00
         0.00000E+00
         0.00000E+00
         0.00000E+00
         0.00000E+00
         0.00000E+00
         0.00000E+00
         0.00000E+00
         0.00000E+00
         0.00000E+00
         0.00000E+00
         0.00000E+00
         0.00000E+00
         0.00000E+00
         0.00000E+00
         0.00000E+00
         0.00000E+00
         0.00000E+00
         0.00000E+00
         0.00000E+00
         0.00000E+00
         0.00000E+00
         0.00000E+00
         0.00000E+00
         0.00000E+00
         0.00000E+00
         0.00000E+00
         0.00000E+00
         0.00000E+00
         0.00000E+00
         0.00000E+00
         0.00000E+00
         0.00000E+00
         0.00000E+00
         0.00000E+00
         0.00000E+00
         0.00000E+00
         0.00000E+00
         0.00000E+00
         0.00000E+00
         0.00000E+00
         0.00000E+00
         0.00000E+00
         0.00000E+00
         0.00000E+00
         0.00000E+00
         0.00000E+00
         0.00000E+00
         0.00000E+00
         0.00000E+00
         0.00000E+00
         0.00000E+00
         0.00000E+00
         0.00000E+00
         0.00000E+00
         0.00000E+00
         0.00000E+00
         0.00000E+00
         0.00000E+00
         0.00000E+00
         0.00000E+00
         0.00000E+00
         0.00000E+00
         0.00000E+00
         0.00000E+00
         0.00000E+00
         0.00000E+00
         0.00000E+00
         0.00000E+00
         0.00000E+00
         0.00000E+00
         0.00000E+00
         0.00000E+00
         0.00000E+00
         0.00000E+00
         0.00000E+00
         0.00000E+00
         0.00000E+00
         0.00000E+00
         0.00000E+00
         0.00000E+00
         0.00000E+00
         0.00000E+00
         0.00000E+00
         0.00000E+00
         0.00000E+00
         0.00000E+00
         0.00000E+00
         0.00000E+00
         0.00000E+00
         0.00000E+00
         0.00000E+00
         0.00000E+00
         0.00000E+00
         0.00000E+00
         0.00000E+00
         0.00000E+00
         0.00000E+00
         0.00000E+00
         0.00000E+00
         0.00000E+00
         0.00000E+00
         0.00000E+00
         0.00000E+00
         0.00000E+00
         0.00000E+00
         0.00000E+00
         0.00000E+00
         0.00000E+00
         0.00000E+00
         0.00000E+00
         0.00000E+00
         0.00000E+00
         0.00000E+00
         0.00000E+00
         0.00000E+00
         0.00000E+00
         0.00000E+00
         0.00000E+00
         0.00000E+00
         0.00000E+00
         0.00000E+00
         0.00000E+00
         0.00000E+00
         0.00000E+00
         0.00000E+00
         0.00000E+00
         0.00000E+00
         0.00000E+00
         0.00000E+00
         0.00000E+00
         0.00000E+00
         0.00000E+00
         0.00000E+00
         0.00000E+00
         0.00000E+00
         0.00000E+00
         0.00000E+00
         0.00000E+00
         0.00000E+00
         0.00000E+00
         0.00000E+00
         0.00000E+00
         0.00000E+00
         0.00000E+00
         0.00000E+00
         0.00000E+00
         0.00000E+00
         0.00000E+00
         0.00000E+00
         0.00000E+00
         0.00000E+00
         0.00000E+00
         0.00000E+00
         0.00000E+00
         0.00000E+00
         0.00000E+00
         0.00000E+00
         0.00000E+00
         0.00000E+00
         0.00000E+00
         0.00000E+00
         0.00000E+00
         0.00000E+00
         0.00000E+00
         0.00000E+00
         0.00000E+00
         0.00000E+00
         0.00000E+00
         0.00000E+00
         0.00000E+00
         0.00000E+00
         0.00000E+00
         0.00000E+00
         0.00000E+00
         0.00000E+00
         0.00000E+00
         0.00000E+00
         0.00000E+00
         0.00000E+00
         0.00000E+00
         0.00000E+00
         0.00000E+00
         0.00000E+00
         0.00000E+00
         0.00000E+00
         0.00000E+00
         0.00000E+00
         0.00000E+00
         0.00000E+00
         0.00000E+00
         0.00000E+00
         0.00000E+00
         0.00000E+00
         0.00000E+00
         0.00000E+00
         0.00000E+00
         0.00000E+00
         0.00000E+00
         0.00000E+00
         0.00000E+00
         0.00000E+00
         0.00000E+00
         0.00000E+00
         0.00000E+00
         0.00000E+00
         0.00000E+00
         0.00000E+00
         0.00000E+00
         0.00000E+00
         0.00000E+00
         0.00000E+00
         0.00000E+00
         0.00000E+00
         0.00000E+00
         0.00000E+00
         0.00000E+00
         0.00000E+00
         0.00000E+00
         0.00000E+00
         0.00000E+00
         0.00000E+00
         0.00000E+00
         0.00000E+00
         0.00000E+00
         0.00000E+00
         0.00000E+00
         0.00000E+00
         0.00000E+00
         0.00000E+00
         0.00000E+00
         0.00000E+00
         0.00000E+00
         0.00000E+00
         0.00000E+00
         0.00000E+00
         0.00000E+00
         0.00000E+00
         0.00000E+00
         0.00000E+00
         0.00000E+00
         0.00000E+00
         0.00000E+00
         0.00000E+00
         0.00000E+00
         0.00000E+00
         0.00000E+00
         0.00000E+00
         0.00000E+00
         0.00000E+00
         0.00000E+00
         0.00000E+00
         0.00000E+00
         0.00000E+00
         0.00000E+00
         0.00000E+00
         0.00000E+00
         0.00000E+00
         0.00000E+00
         0.00000E+00
         0.00000E+00
         0.00000E+00
         0.00000E+00
         0.00000E+00
         0.00000E+00
         0.00000E+00
         0.00000E+00
         0.00000E+00
         0.00000E+00
         0.00000E+00
         0.00000E+00
         0.00000E+00
         0.00000E+00
         0.00000E+00
         0.00000E+00
         0.00000E+00
         0.00000E+00
         0.00000E+00
         0.00000E+00
         0.00000E+00
         0.00000E+00
         0.00000E+00
         0.00000E+00
         0.00000E+00
         0.00000E+00
         0.00000E+00
         0.00000E+00
         0.00000E+00
         0.00000E+00
         0.00000E+00
         0.00000E+00
         0.00000E+00
         0.00000E+00
         0.00000E+00
         0.00000E+00
         0.00000E+00
         0.00000E+00
         0.00000E+00
         0.00000E+00
         0.00000E+00
         0.00000E+00
         0.00000E+00
         0.00000E+00
         0.00000E+00
         0.00000E+00
         0.00000E+00
         0.00000E+00
         0.00000E+00
         0.00000E+00
         0.00000E+00
         0.00000E+00
         0.00000E+00
         0.00000E+00
         0.00000E+00
         0.00000E+00
         0.00000E+00
         0.00000E+00
         0.00000E+00
         0.00000E+00
         0.00000E+00
         0.00000E+00
         0.00000E+00
         0.00000E+00
         0.00000E+00
         0.00000E+00
         0.00000E+00
         0.00000E+00
         0.00000E+00
         0.00000E+00
         0.00000E+00
         0.00000E+00
         0.00000E+00
         0.00000E+00
         0.00000E+00
         0.00000E+00
         0.00000E+00
         0.00000E+00
         0.00000E+00
         0.00000E+00
         0.00000E+00
         0.00000E+00
         0.00000E+00
         0.00000E+00
         0.00000E+00
         0.00000E+00
         0.00000E+00
         0.00000E+00
         0.00000E+00
         0.00000E+00
         0.00000E+00
         0.00000E+00
         0.00000E+00
         0.00000E+00
         0.00000E+00
         0.00000E+00
         0.00000E+00
         0.00000E+00
         0.00000E+00
         0.00000E+00
         0.00000E+00
         0.00000E+00
         0.00000E+00
         0.00000E+00
         0.00000E+00
         0.00000E+00
         0.00000E+00
         0.00000E+00
         0.00000E+00
         0.00000E+00
         0.00000E+00
         0.00000E+00
         0.00000E+00
         0.00000E+00
         0.00000E+00
         0.00000E+00
         0.00000E+00
         0.00000E+00
         0.00000E+00
         0.00000E+00
         0.00000E+00
         0.00000E+00
         0.00000E+00
         0.00000E+00
         0.00000E+00
         0.00000E+00
         0.00000E+00
         0.00000E+00
         0.00000E+00
         0.00000E+00
         0.00000E+00
         0.00000E+00
         0.00000E+00
         0.00000E+00
         0.00000E+00
         0.00000E+00
         0.00000E+00
         0.00000E+00
         0.00000E+00
         0.00000E+00
         0.00000E+00
         0.00000E+00
         0.00000E+00
         0.00000E+00
         0.00000E+00
         0.00000E+00
         0.00000E+00
         0.00000E+00
         0.00000E+00
         0.00000E+00
         0.00000E+00
         0.00000E+00
         0.00000E+00
         0.00000E+00
         0.00000E+00
         0.00000E+00
         0.00000E+00
         0.00000E+00
         0.00000E+00
         0.00000E+00
         0.00000E+00
         0.00000E+00
         0.00000E+00
         0.00000E+00
         0.00000E+00
         0.00000E+00
         0.00000E+00
         0.00000E+00
         0.00000E+00
         0.00000E+00
         0.00000E+00
         0.00000E+00
         0.00000E+00
         0.00000E+00
         0.00000E+00
         0.00000E+00
         0.00000E+00
         0.00000E+00
         0.00000E+00
         0.00000E+00
         0.00000E+00
         0.00000E+00
         0.00000E+00
         0.00000E+00
         0.00000E+00
         0.00000E+00
         0.00000E+00
         0.00000E+00
         0.00000E+00
         0.00000E+00
         0.00000E+00
         0.00000E+00
         0.00000E+00
         0.00000E+00
         0.00000E+00
         0.00000E+00
         0.00000E+00
         0.00000E+00
         0.00000E+00
         0.00000E+00
         0.00000E+00
         0.00000E+00
         0.00000E+00
         0.00000E+00
         0.00000E+00
         0.00000E+00
         0.00000E+00
         0.00000E+00
         0.00000E+00
         0.00000E+00
         0.00000E+00
         0.00000E+00
         0.00000E+00
         0.00000E+00
         0.00000E+00
         0.00000E+00
         0.00000E+00
         0.00000E+00
         0.00000E+00
         0.00000E+00
         0.00000E+00
         0.00000E+00
         0.00000E+00
         0.00000E+00
         0.00000E+00
         0.00000E+00
         0.00000E+00
         0.00000E+00
         0.00000E+00
         0.00000E+00
         0.00000E+00
         0.00000E+00
         0.00000E+00
         0.00000E+00
         0.00000E+00
         0.00000E+00
         0.00000E+00
         0.00000E+00
         0.00000E+00
         0.00000E+00
         0.00000E+00
         0.00000E+00
         0.00000E+00
         0.00000E+00
         0.00000E+00
         0.00000E+00
         0.00000E+00
         0.00000E+00
         0.00000E+00
         0.00000E+00
         0.00000E+00
         0.00000E+00
         0.00000E+00
         0.00000E+00
         0.00000E+00
         0.00000E+00
         0.00000E+00
         0.00000E+00
         0.00000E+00
         0.00000E+00
         0.00000E+00
         0.00000E+00
         0.00000E+00
         0.00000E+00
         0.00000E+00
         0.00000E+00
         0.00000E+00
         0.00000E+00
         0.00000E+00
         0.00000E+00
         0.00000E+00
         0.00000E+00
         0.00000E+00
         0.00000E+00
         0.00000E+00
         0.00000E+00
         0.00000E+00
         0.00000E+00
         0.00000E+00
         0.00000E+00
         0.00000E+00
         0.00000E+00
         0.00000E+00
         0.00000E+00
         0.00000E+00
         0.00000E+00
         0.00000E+00
         0.00000E+00
         0.00000E+00
         0.00000E+00
         0.00000E+00
         0.00000E+00
         0.00000E+00
         0.00000E+00
         0.00000E+00
         0.00000E+00
         0.00000E+00
         0.00000E+00
         0.00000E+00
         0.00000E+00
         0.00000E+00
         0.00000E+00
         0.00000E+00
         0.00000E+00
         0.00000E+00
         0.00000E+00
         0.00000E+00
         0.00000E+00
         0.00000E+00
         0.00000E+00
         0.00000E+00
         0.00000E+00
         0.00000E+00
         0.00000E+00
         0.00000E+00
         0.00000E+00
         0.00000E+00
         0.00000E+00
         0.00000E+00
         0.00000E+00
         0.00000E+00
         0.00000E+00
         0.00000E+00
         0.00000E+00
         0.00000E+00
         0.00000E+00
         0.00000E+00
         0.00000E+00
         0.00000E+00
         0.00000E+00
         0.00000E+00
         0.00000E+00
         0.00000E+00
         0.00000E+00
         0.00000E+00
         0.00000E+00
         0.00000E+00
         0.00000E+00
         0.00000E+00
         0.00000E+00
         0.00000E+00
         0.00000E+00
         0.00000E+00
         0.00000E+00
         0.00000E+00
         0.00000E+00
         0.00000E+00
         0.00000E+00
         0.00000E+00
         0.00000E+00
         0.00000E+00
         0.00000E+00
         0.00000E+00
         0.00000E+00
         0.00000E+00
         0.00000E+00
         0.00000E+00
         0.00000E+00
         0.00000E+00
         0.00000E+00
         0.00000E+00
         0.00000E+00
         0.00000E+00
         0.00000E+00
         0.00000E+00
         0.00000E+00
         0.00000E+00
         0.00000E+00
         0.00000E+00
         0.00000E+00
         0.00000E+00
         0.00000E+00
         0.00000E+00
         0.00000E+00
         0.00000E+00
         0.00000E+00
         0.00000E+00
         0.00000E+00
         0.00000E+00
         0.00000E+00
         0.00000E+00
         0.00000E+00
         0.00000E+00
         0.00000E+00
         0.00000E+00
         0.00000E+00
         0.00000E+00
         0.00000E+00
         0.00000E+00
         0.00000E+00
         0.00000E+00
         0.00000E+00
         0.00000E+00
         0.00000E+00
         0.00000E+00
         0.00000E+00
         0.00000E+00
         0.00000E+00
         0.00000E+00
         0.00000E+00
         0.00000E+00
         0.00000E+00
         0.00000E+00
         0.00000E+00
         0.00000E+00
         0.00000E+00
         0.00000E+00
         0.00000E+00
         0.00000E+00
         0.00000E+00
         0.00000E+00
         0.00000E+00
         0.00000E+00
         0.00000E+00
         0.00000E+00
         0.00000E+00
         0.00000E+00
         0.00000E+00
         0.00000E+00
         0.00000E+00
         0.00000E+00
         0.00000E+00
         0.00000E+00
         0.00000E+00
         0.00000E+00
         0.00000E+00
         0.00000E+00
         0.00000E+00
         0.00000E+00
         0.00000E+00
         0.00000E+00
         0.00000E+00
         0.00000E+00
         0.00000E+00
         0.00000E+00
         0.00000E+00
         0.00000E+00
         0.00000E+00
         0.00000E+00
         0.00000E+00
         0.00000E+00
         0.00000E+00
         0.00000E+00
         0.00000E+00
         0.00000E+00
         0.00000E+00
         0.00000E+00
         0.00000E+00
         0.00000E+00
         0.00000E+00
         0.00000E+00
         0.00000E+00
         0.00000E+00
         0.00000E+00
         0.00000E+00
         0.00000E+00
         0.00000E+00
         0.00000E+00
         0.00000E+00
         0.00000E+00
         0.00000E+00
         0.00000E+00
         0.00000E+00
         0.00000E+00
         0.00000E+00
         0.00000E+00
         0.00000E+00
         0.00000E+00
         0.00000E+00
         0.00000E+00
         0.00000E+00
         0.00000E+00
         0.00000E+00
         0.00000E+00
         0.00000E+00
         0.00000E+00
         0.00000E+00
         0.00000E+00
         0.00000E+00
         0.00000E+00
         0.00000E+00
         0.00000E+00
         0.00000E+00
         0.00000E+00
         0.00000E+00
         0.00000E+00
         0.00000E+00
         0.00000E+00
         0.00000E+00
         0.00000E+00
         0.00000E+00
         0.00000E+00
  
SCALARS                 acceleration_y  double 1
LOOKUP_TABLE default
         0.00000E+00
         0.00000E+00
         0.00000E+00
         0.00000E+00
         0.00000E+00
         0.00000E+00
         0.00000E+00
         0.00000E+00
         0.00000E+00
         0.00000E+00
         0.00000E+00
         0.00000E+00
         0.00000E+00
         0.00000E+00
         0.00000E+00
         0.00000E+00
         0.00000E+00
         0.00000E+00
         0.00000E+00
         0.00000E+00
         0.00000E+00
         0.00000E+00
         0.00000E+00
         0.00000E+00
         0.00000E+00
         0.00000E+00
         0.00000E+00
         0.00000E+00
         0.00000E+00
         0.00000E+00
         0.00000E+00
         0.00000E+00
         0.00000E+00
         0.00000E+00
         0.00000E+00
         0.00000E+00
         0.00000E+00
         0.00000E+00
         0.00000E+00
         0.00000E+00
         0.00000E+00
         0.00000E+00
         0.00000E+00
         0.00000E+00
         0.00000E+00
         0.00000E+00
         0.00000E+00
         0.00000E+00
         0.00000E+00
         0.00000E+00
         0.00000E+00
         0.00000E+00
         0.00000E+00
         0.00000E+00
         0.00000E+00
         0.00000E+00
         0.00000E+00
         0.00000E+00
         0.00000E+00
         0.00000E+00
         0.00000E+00
         0.00000E+00
         0.00000E+00
         0.00000E+00
         0.00000E+00
         0.00000E+00
         0.00000E+00
         0.00000E+00
         0.00000E+00
         0.00000E+00
         0.00000E+00
         0.00000E+00
         0.00000E+00
         0.00000E+00
         0.00000E+00
         0.00000E+00
         0.00000E+00
         0.00000E+00
         0.00000E+00
         0.00000E+00
         0.00000E+00
         0.00000E+00
         0.00000E+00
         0.00000E+00
         0.00000E+00
         0.00000E+00
         0.00000E+00
         0.00000E+00
         0.00000E+00
         0.00000E+00
         0.00000E+00
         0.00000E+00
         0.00000E+00
         0.00000E+00
         0.00000E+00
         0.00000E+00
         0.00000E+00
         0.00000E+00
         0.00000E+00
         0.00000E+00
         0.00000E+00
         0.00000E+00
         0.00000E+00
         0.00000E+00
         0.00000E+00
         0.00000E+00
         0.00000E+00
         0.00000E+00
         0.00000E+00
         0.00000E+00
         0.00000E+00
         0.00000E+00
         0.00000E+00
         0.00000E+00
         0.00000E+00
         0.00000E+00
         0.00000E+00
         0.00000E+00
         0.00000E+00
         0.00000E+00
         0.00000E+00
         0.00000E+00
         0.00000E+00
         0.00000E+00
         0.00000E+00
         0.00000E+00
         0.00000E+00
         0.00000E+00
         0.00000E+00
         0.00000E+00
         0.00000E+00
         0.00000E+00
         0.00000E+00
         0.00000E+00
         0.00000E+00
         0.00000E+00
         0.00000E+00
         0.00000E+00
         0.00000E+00
         0.00000E+00
         0.00000E+00
         0.00000E+00
         0.00000E+00
         0.00000E+00
         0.00000E+00
         0.00000E+00
         0.00000E+00
         0.00000E+00
         0.00000E+00
         0.00000E+00
         0.00000E+00
         0.00000E+00
         0.00000E+00
         0.00000E+00
         0.00000E+00
         0.00000E+00
         0.00000E+00
         0.00000E+00
         0.00000E+00
         0.00000E+00
         0.00000E+00
         0.00000E+00
         0.00000E+00
         0.00000E+00
         0.00000E+00
         0.00000E+00
         0.00000E+00
         0.00000E+00
         0.00000E+00
         0.00000E+00
         0.00000E+00
         0.00000E+00
         0.00000E+00
         0.00000E+00
         0.00000E+00
         0.00000E+00
         0.00000E+00
         0.00000E+00
         0.00000E+00
         0.00000E+00
         0.00000E+00
         0.00000E+00
         0.00000E+00
         0.00000E+00
         0.00000E+00
         0.00000E+00
         0.00000E+00
         0.00000E+00
         0.00000E+00
         0.00000E+00
         0.00000E+00
         0.00000E+00
         0.00000E+00
         0.00000E+00
         0.00000E+00
         0.00000E+00
         0.00000E+00
         0.00000E+00
         0.00000E+00
         0.00000E+00
         0.00000E+00
         0.00000E+00
         0.00000E+00
         0.00000E+00
         0.00000E+00
         0.00000E+00
         0.00000E+00
         0.00000E+00
         0.00000E+00
         0.00000E+00
         0.00000E+00
         0.00000E+00
         0.00000E+00
         0.00000E+00
         0.00000E+00
         0.00000E+00
         0.00000E+00
         0.00000E+00
         0.00000E+00
         0.00000E+00
         0.00000E+00
         0.00000E+00
         0.00000E+00
         0.00000E+00
         0.00000E+00
         0.00000E+00
         0.00000E+00
         0.00000E+00
         0.00000E+00
         0.00000E+00
         0.00000E+00
         0.00000E+00
         0.00000E+00
         0.00000E+00
         0.00000E+00
         0.00000E+00
         0.00000E+00
         0.00000E+00
         0.00000E+00
         0.00000E+00
         0.00000E+00
         0.00000E+00
         0.00000E+00
         0.00000E+00
         0.00000E+00
         0.00000E+00
         0.00000E+00
         0.00000E+00
         0.00000E+00
         0.00000E+00
         0.00000E+00
         0.00000E+00
         0.00000E+00
         0.00000E+00
         0.00000E+00
         0.00000E+00
         0.00000E+00
         0.00000E+00
         0.00000E+00
         0.00000E+00
         0.00000E+00
         0.00000E+00
         0.00000E+00
         0.00000E+00
         0.00000E+00
         0.00000E+00
         0.00000E+00
         0.00000E+00
         0.00000E+00
         0.00000E+00
         0.00000E+00
         0.00000E+00
         0.00000E+00
         0.00000E+00
         0.00000E+00
         0.00000E+00
         0.00000E+00
         0.00000E+00
         0.00000E+00
         0.00000E+00
         0.00000E+00
         0.00000E+00
         0.00000E+00
         0.00000E+00
         0.00000E+00
         0.00000E+00
         0.00000E+00
         0.00000E+00
         0.00000E+00
         0.00000E+00
         0.00000E+00
         0.00000E+00
         0.00000E+00
         0.00000E+00
         0.00000E+00
         0.00000E+00
         0.00000E+00
         0.00000E+00
         0.00000E+00
         0.00000E+00
         0.00000E+00
         0.00000E+00
         0.00000E+00
         0.00000E+00
         0.00000E+00
         0.00000E+00
         0.00000E+00
         0.00000E+00
         0.00000E+00
         0.00000E+00
         0.00000E+00
         0.00000E+00
         0.00000E+00
         0.00000E+00
         0.00000E+00
         0.00000E+00
         0.00000E+00
         0.00000E+00
         0.00000E+00
         0.00000E+00
         0.00000E+00
         0.00000E+00
         0.00000E+00
         0.00000E+00
         0.00000E+00
         0.00000E+00
         0.00000E+00
         0.00000E+00
         0.00000E+00
         0.00000E+00
         0.00000E+00
         0.00000E+00
         0.00000E+00
         0.00000E+00
         0.00000E+00
         0.00000E+00
         0.00000E+00
         0.00000E+00
         0.00000E+00
         0.00000E+00
         0.00000E+00
         0.00000E+00
         0.00000E+00
         0.00000E+00
         0.00000E+00
         0.00000E+00
         0.00000E+00
         0.00000E+00
         0.00000E+00
         0.00000E+00
         0.00000E+00
         0.00000E+00
         0.00000E+00
         0.00000E+00
         0.00000E+00
         0.00000E+00
         0.00000E+00
         0.00000E+00
         0.00000E+00
         0.00000E+00
         0.00000E+00
         0.00000E+00
         0.00000E+00
         0.00000E+00
         0.00000E+00
         0.00000E+00
         0.00000E+00
         0.00000E+00
         0.00000E+00
         0.00000E+00
         0.00000E+00
         0.00000E+00
         0.00000E+00
         0.00000E+00
         0.00000E+00
         0.00000E+00
         0.00000E+00
         0.00000E+00
         0.00000E+00
         0.00000E+00
         0.00000E+00
         0.00000E+00
         0.00000E+00
         0.00000E+00
         0.00000E+00
         0.00000E+00
         0.00000E+00
         0.00000E+00
         0.00000E+00
         0.00000E+00
         0.00000E+00
         0.00000E+00
         0.00000E+00
         0.00000E+00
         0.00000E+00
         0.00000E+00
         0.00000E+00
         0.00000E+00
         0.00000E+00
         0.00000E+00
         0.00000E+00
         0.00000E+00
         0.00000E+00
         0.00000E+00
         0.00000E+00
         0.00000E+00
         0.00000E+00
         0.00000E+00
         0.00000E+00
         0.00000E+00
         0.00000E+00
         0.00000E+00
         0.00000E+00
         0.00000E+00
         0.00000E+00
         0.00000E+00
         0.00000E+00
         0.00000E+00
         0.00000E+00
         0.00000E+00
         0.00000E+00
         0.00000E+00
         0.00000E+00
         0.00000E+00
         0.00000E+00
         0.00000E+00
         0.00000E+00
         0.00000E+00
         0.00000E+00
         0.00000E+00
         0.00000E+00
         0.00000E+00
         0.00000E+00
         0.00000E+00
         0.00000E+00
         0.00000E+00
         0.00000E+00
         0.00000E+00
         0.00000E+00
         0.00000E+00
         0.00000E+00
         0.00000E+00
         0.00000E+00
         0.00000E+00
         0.00000E+00
         0.00000E+00
         0.00000E+00
         0.00000E+00
         0.00000E+00
         0.00000E+00
         0.00000E+00
         0.00000E+00
         0.00000E+00
         0.00000E+00
         0.00000E+00
         0.00000E+00
         0.00000E+00
         0.00000E+00
         0.00000E+00
         0.00000E+00
         0.00000E+00
         0.00000E+00
         0.00000E+00
         0.00000E+00
         0.00000E+00
         0.00000E+00
         0.00000E+00
         0.00000E+00
         0.00000E+00
         0.00000E+00
         0.00000E+00
         0.00000E+00
         0.00000E+00
         0.00000E+00
         0.00000E+00
         0.00000E+00
         0.00000E+00
         0.00000E+00
         0.00000E+00
         0.00000E+00
         0.00000E+00
         0.00000E+00
         0.00000E+00
         0.00000E+00
         0.00000E+00
         0.00000E+00
         0.00000E+00
         0.00000E+00
         0.00000E+00
         0.00000E+00
         0.00000E+00
         0.00000E+00
         0.00000E+00
         0.00000E+00
         0.00000E+00
         0.00000E+00
         0.00000E+00
         0.00000E+00
         0.00000E+00
         0.00000E+00
         0.00000E+00
         0.00000E+00
         0.00000E+00
         0.00000E+00
         0.00000E+00
         0.00000E+00
         0.00000E+00
         0.00000E+00
         0.00000E+00
         0.00000E+00
         0.00000E+00
         0.00000E+00
         0.00000E+00
         0.00000E+00
         0.00000E+00
         0.00000E+00
         0.00000E+00
         0.00000E+00
         0.00000E+00
         0.00000E+00
         0.00000E+00
         0.00000E+00
         0.00000E+00
         0.00000E+00
         0.00000E+00
         0.00000E+00
         0.00000E+00
         0.00000E+00
         0.00000E+00
         0.00000E+00
         0.00000E+00
         0.00000E+00
         0.00000E+00
         0.00000E+00
         0.00000E+00
         0.00000E+00
         0.00000E+00
         0.00000E+00
         0.00000E+00
         0.00000E+00
         0.00000E+00
         0.00000E+00
         0.00000E+00
         0.00000E+00
         0.00000E+00
         0.00000E+00
         0.00000E+00
         0.00000E+00
         0.00000E+00
         0.00000E+00
         0.00000E+00
         0.00000E+00
         0.00000E+00
         0.00000E+00
         0.00000E+00
         0.00000E+00
         0.00000E+00
         0.00000E+00
         0.00000E+00
         0.00000E+00
         0.00000E+00
         0.00000E+00
         0.00000E+00
         0.00000E+00
         0.00000E+00
         0.00000E+00
         0.00000E+00
         0.00000E+00
         0.00000E+00
         0.00000E+00
         0.00000E+00
         0.00000E+00
         0.00000E+00
         0.00000E+00
         0.00000E+00
         0.00000E+00
         0.00000E+00
         0.00000E+00
         0.00000E+00
         0.00000E+00
         0.00000E+00
         0.00000E+00
         0.00000E+00
         0.00000E+00
         0.00000E+00
         0.00000E+00
         0.00000E+00
         0.00000E+00
         0.00000E+00
         0.00000E+00
         0.00000E+00
         0.00000E+00
         0.00000E+00
         0.00000E+00
         0.00000E+00
         0.00000E+00
         0.00000E+00
         0.00000E+00
         0.00000E+00
         0.00000E+00
         0.00000E+00
         0.00000E+00
         0.00000E+00
         0.00000E+00
         0.00000E+00
         0.00000E+00
         0.00000E+00
         0.00000E+00
         0.00000E+00
         0.00000E+00
         0.00000E+00
         0.00000E+00
         0.00000E+00
         0.00000E+00
         0.00000E+00
         0.00000E+00
         0.00000E+00
         0.00000E+00
         0.00000E+00
         0.00000E+00
         0.00000E+00
         0.00000E+00
         0.00000E+00
         0.00000E+00
         0.00000E+00
         0.00000E+00
         0.00000E+00
         0.00000E+00
         0.00000E+00
         0.00000E+00
         0.00000E+00
         0.00000E+00
         0.00000E+00
         0.00000E+00
         0.00000E+00
         0.00000E+00
         0.00000E+00
         0.00000E+00
         0.00000E+00
         0.00000E+00
         0.00000E+00
         0.00000E+00
         0.00000E+00
         0.00000E+00
         0.00000E+00
         0.00000E+00
         0.00000E+00
         0.00000E+00
         0.00000E+00
         0.00000E+00
         0.00000E+00
         0.00000E+00
         0.00000E+00
         0.00000E+00
         0.00000E+00
         0.00000E+00
         0.00000E+00
         0.00000E+00
         0.00000E+00
         0.00000E+00
         0.00000E+00
         0.00000E+00
         0.00000E+00
         0.00000E+00
         0.00000E+00
         0.00000E+00
         0.00000E+00
         0.00000E+00
         0.00000E+00
         0.00000E+00
         0.00000E+00
         0.00000E+00
         0.00000E+00
         0.00000E+00
         0.00000E+00
         0.00000E+00
         0.00000E+00
         0.00000E+00
         0.00000E+00
         0.00000E+00
         0.00000E+00
         0.00000E+00
         0.00000E+00
         0.00000E+00
         0.00000E+00
         0.00000E+00
         0.00000E+00
         0.00000E+00
         0.00000E+00
         0.00000E+00
         0.00000E+00
         0.00000E+00
         0.00000E+00
         0.00000E+00
         0.00000E+00
         0.00000E+00
         0.00000E+00
         0.00000E+00
         0.00000E+00
         0.00000E+00
         0.00000E+00
         0.00000E+00
         0.00000E+00
         0.00000E+00
         0.00000E+00
         0.00000E+00
         0.00000E+00
         0.00000E+00
         0.00000E+00
         0.00000E+00
         0.00000E+00
         0.00000E+00
         0.00000E+00
         0.00000E+00
         0.00000E+00
         0.00000E+00
         0.00000E+00
         0.00000E+00
         0.00000E+00
         0.00000E+00
         0.00000E+00
         0.00000E+00
         0.00000E+00
         0.00000E+00
         0.00000E+00
         0.00000E+00
         0.00000E+00
         0.00000E+00
         0.00000E+00
         0.00000E+00
         0.00000E+00
         0.00000E+00
         0.00000E+00
         0.00000E+00
         0.00000E+00
         0.00000E+00
         0.00000E+00
         0.00000E+00
         0.00000E+00
         0.00000E+00
         0.00000E+00
         0.00000E+00
         0.00000E+00
         0.00000E+00
         0.00000E+00
         0.00000E+00
         0.00000E+00
         0.00000E+00
         0.00000E+00
         0.00000E+00
         0.00000E+00
         0.00000E+00
         0.00000E+00
         0.00000E+00
         0.00000E+00
         0.00000E+00
         0.00000E+00
         0.00000E+00
         0.00000E+00
         0.00000E+00
         0.00000E+00
         0.00000E+00
         0.00000E+00
         0.00000E+00
         0.00000E+00
         0.00000E+00
         0.00000E+00
         0.00000E+00
         0.00000E+00
         0.00000E+00
         0.00000E+00
         0.00000E+00
         0.00000E+00
         0.00000E+00
         0.00000E+00
         0.00000E+00
         0.00000E+00
         0.00000E+00
         0.00000E+00
         0.00000E+00
         0.00000E+00
         0.00000E+00
         0.00000E+00
         0.00000E+00
         0.00000E+00
         0.00000E+00
         0.00000E+00
         0.00000E+00
         0.00000E+00
         0.00000E+00
         0.00000E+00
         0.00000E+00
         0.00000E+00
         0.00000E+00
         0.00000E+00
         0.00000E+00
         0.00000E+00
         0.00000E+00
         0.00000E+00
         0.00000E+00
         0.00000E+00
         0.00000E+00
         0.00000E+00
         0.00000E+00
         0.00000E+00
         0.00000E+00
         0.00000E+00
         0.00000E+00
         0.00000E+00
         0.00000E+00
         0.00000E+00
         0.00000E+00
         0.00000E+00
         0.00000E+00
         0.00000E+00
         0.00000E+00
         0.00000E+00
         0.00000E+00
         0.00000E+00
         0.00000E+00
         0.00000E+00
         0.00000E+00
         0.00000E+00
         0.00000E+00
         0.00000E+00
         0.00000E+00
         0.00000E+00
         0.00000E+00
         0.00000E+00
         0.00000E+00
         0.00000E+00
         0.00000E+00
         0.00000E+00
         0.00000E+00
         0.00000E+00
         0.00000E+00
         0.00000E+00
         0.00000E+00
         0.00000E+00
         0.00000E+00
         0.00000E+00
         0.00000E+00
         0.00000E+00
         0.00000E+00
         0.00000E+00
         0.00000E+00
         0.00000E+00
         0.00000E+00
         0.00000E+00
         0.00000E+00
         0.00000E+00
         0.00000E+00
         0.00000E+00
         0.00000E+00
         0.00000E+00
         0.00000E+00
         0.00000E+00
         0.00000E+00
         0.00000E+00
         0.00000E+00
         0.00000E+00
         0.00000E+00
         0.00000E+00
         0.00000E+00
         0.00000E+00
         0.00000E+00
         0.00000E+00
         0.00000E+00
         0.00000E+00
         0.00000E+00
         0.00000E+00
         0.00000E+00
         0.00000E+00
         0.00000E+00
         0.00000E+00
         0.00000E+00
         0.00000E+00
         0.00000E+00
         0.00000E+00
         0.00000E+00
         0.00000E+00
         0.00000E+00
         0.00000E+00
         0.00000E+00
         0.00000E+00
         0.00000E+00
         0.00000E+00
         0.00000E+00
         0.00000E+00
         0.00000E+00
         0.00000E+00
         0.00000E+00
         0.00000E+00
         0.00000E+00
         0.00000E+00
         0.00000E+00
         0.00000E+00
         0.00000E+00
         0.00000E+00
         0.00000E+00
         0.00000E+00
         0.00000E+00
         0.00000E+00
         0.00000E+00
         0.00000E+00
         0.00000E+00
         0.00000E+00
         0.00000E+00
         0.00000E+00
         0.00000E+00
         0.00000E+00
         0.00000E+00
         0.00000E+00
         0.00000E+00
         0.00000E+00
         0.00000E+00
         0.00000E+00
         0.00000E+00
         0.00000E+00
         0.00000E+00
         0.00000E+00
         0.00000E+00
         0.00000E+00
         0.00000E+00
         0.00000E+00
         0.00000E+00
         0.00000E+00
         0.00000E+00
         0.00000E+00
         0.00000E+00
         0.00000E+00
         0.00000E+00
         0.00000E+00
         0.00000E+00
         0.00000E+00
         0.00000E+00
         0.00000E+00
         0.00000E+00
         0.00000E+00
         0.00000E+00
         0.00000E+00
         0.00000E+00
         0.00000E+00
         0.00000E+00
         0.00000E+00
         0.00000E+00
         0.00000E+00
         0.00000E+00
         0.00000E+00
         0.00000E+00
         0.00000E+00
         0.00000E+00
         0.00000E+00
         0.00000E+00
         0.00000E+00
         0.00000E+00
         0.00000E+00
         0.00000E+00
         0.00000E+00
         0.00000E+00
         0.00000E+00
         0.00000E+00
         0.00000E+00
         0.00000E+00
         0.00000E+00
         0.00000E+00
         0.00000E+00
         0.00000E+00
         0.00000E+00
         0.00000E+00
         0.00000E+00
         0.00000E+00
         0.00000E+00
         0.00000E+00
         0.00000E+00
         0.00000E+00
         0.00000E+00
         0.00000E+00
         0.00000E+00
         0.00000E+00
         0.00000E+00
         0.00000E+00
         0.00000E+00
         0.00000E+00
         0.00000E+00
         0.00000E+00
         0.00000E+00
         0.00000E+00
         0.00000E+00
         0.00000E+00
         0.00000E+00
         0.00000E+00
         0.00000E+00
         0.00000E+00
         0.00000E+00
         0.00000E+00
         0.00000E+00
         0.00000E+00
         0.00000E+00
         0.00000E+00
         0.00000E+00
         0.00000E+00
         0.00000E+00
         0.00000E+00
         0.00000E+00
         0.00000E+00
         0.00000E+00
         0.00000E+00
         0.00000E+00
         0.00000E+00
         0.00000E+00
         0.00000E+00
         0.00000E+00
         0.00000E+00
         0.00000E+00
         0.00000E+00
         0.00000E+00
         0.00000E+00
         0.00000E+00
         0.00000E+00
         0.00000E+00
         0.00000E+00
         0.00000E+00
         0.00000E+00
         0.00000E+00
         0.00000E+00
         0.00000E+00
         0.00000E+00
         0.00000E+00
         0.00000E+00
         0.00000E+00
         0.00000E+00
         0.00000E+00
         0.00000E+00
         0.00000E+00
         0.00000E+00
         0.00000E+00
         0.00000E+00
         0.00000E+00
         0.00000E+00
         0.00000E+00
         0.00000E+00
         0.00000E+00
         0.00000E+00
         0.00000E+00
         0.00000E+00
         0.00000E+00
         0.00000E+00
         0.00000E+00
         0.00000E+00
         0.00000E+00
         0.00000E+00
         0.00000E+00
         0.00000E+00
         0.00000E+00
         0.00000E+00
         0.00000E+00
         0.00000E+00
         0.00000E+00
         0.00000E+00
         0.00000E+00
         0.00000E+00
         0.00000E+00
         0.00000E+00
         0.00000E+00
         0.00000E+00
         0.00000E+00
         0.00000E+00
         0.00000E+00
         0.00000E+00
         0.00000E+00
         0.00000E+00
         0.00000E+00
         0.00000E+00
         0.00000E+00
         0.00000E+00
         0.00000E+00
         0.00000E+00
         0.00000E+00
         0.00000E+00
         0.00000E+00
         0.00000E+00
         0.00000E+00
         0.00000E+00
         0.00000E+00
         0.00000E+00
         0.00000E+00
         0.00000E+00
         0.00000E+00
         0.00000E+00
         0.00000E+00
         0.00000E+00
         0.00000E+00
         0.00000E+00
         0.00000E+00
         0.00000E+00
         0.00000E+00
         0.00000E+00
         0.00000E+00
         0.00000E+00
         0.00000E+00
         0.00000E+00
         0.00000E+00
         0.00000E+00
         0.00000E+00
         0.00000E+00
         0.00000E+00
         0.00000E+00
         0.00000E+00
         0.00000E+00
         0.00000E+00
         0.00000E+00
         0.00000E+00
         0.00000E+00
         0.00000E+00
         0.00000E+00
         0.00000E+00
         0.00000E+00
         0.00000E+00
         0.00000E+00
         0.00000E+00
         0.00000E+00
         0.00000E+00
         0.00000E+00
         0.00000E+00
         0.00000E+00
         0.00000E+00
         0.00000E+00
         0.00000E+00
         0.00000E+00
         0.00000E+00
         0.00000E+00
         0.00000E+00
         0.00000E+00
         0.00000E+00
         0.00000E+00
         0.00000E+00
         0.00000E+00
         0.00000E+00
         0.00000E+00
         0.00000E+00
         0.00000E+00
         0.00000E+00
         0.00000E+00
         0.00000E+00
         0.00000E+00
         0.00000E+00
         0.00000E+00
         0.00000E+00
         0.00000E+00
         0.00000E+00
         0.00000E+00
         0.00000E+00
         0.00000E+00
         0.00000E+00
         0.00000E+00
         0.00000E+00
         0.00000E+00
         0.00000E+00
         0.00000E+00
         0.00000E+00
         0.00000E+00
         0.00000E+00
         0.00000E+00
         0.00000E+00
         0.00000E+00
         0.00000E+00
         0.00000E+00
         0.00000E+00
         0.00000E+00
         0.00000E+00
         0.00000E+00
         0.00000E+00
         0.00000E+00
         0.00000E+00
         0.00000E+00
         0.00000E+00
         0.00000E+00
         0.00000E+00
         0.00000E+00
         0.00000E+00
         0.00000E+00
         0.00000E+00
         0.00000E+00
         0.00000E+00
         0.00000E+00
         0.00000E+00
         0.00000E+00
         0.00000E+00
         0.00000E+00
         0.00000E+00
         0.00000E+00
         0.00000E+00
         0.00000E+00
         0.00000E+00
         0.00000E+00
         0.00000E+00
         0.00000E+00
         0.00000E+00
         0.00000E+00
         0.00000E+00
         0.00000E+00
         0.00000E+00
         0.00000E+00
         0.00000E+00
         0.00000E+00
         0.00000E+00
         0.00000E+00
         0.00000E+00
         0.00000E+00
         0.00000E+00
         0.00000E+00
         0.00000E+00
         0.00000E+00
         0.00000E+00
         0.00000E+00
         0.00000E+00
         0.00000E+00
         0.00000E+00
         0.00000E+00
         0.00000E+00
         0.00000E+00
         0.00000E+00
         0.00000E+00
         0.00000E+00
         0.00000E+00
         0.00000E+00
         0.00000E+00
         0.00000E+00
         0.00000E+00
         0.00000E+00
         0.00000E+00
         0.00000E+00
         0.00000E+00
         0.00000E+00
         0.00000E+00
         0.00000E+00
         0.00000E+00
         0.00000E+00
         0.00000E+00
         0.00000E+00
         0.00000E+00
         0.00000E+00
         0.00000E+00
         0.00000E+00
         0.00000E+00
         0.00000E+00
         0.00000E+00
         0.00000E+00
         0.00000E+00
         0.00000E+00
         0.00000E+00
         0.00000E+00
         0.00000E+00
         0.00000E+00
         0.00000E+00
         0.00000E+00
         0.00000E+00
         0.00000E+00
         0.00000E+00
         0.00000E+00
         0.00000E+00
         0.00000E+00
         0.00000E+00
         0.00000E+00
         0.00000E+00
         0.00000E+00
         0.00000E+00
         0.00000E+00
         0.00000E+00
         0.00000E+00
         0.00000E+00
         0.00000E+00
         0.00000E+00
         0.00000E+00
         0.00000E+00
         0.00000E+00
         0.00000E+00
         0.00000E+00
         0.00000E+00
         0.00000E+00
         0.00000E+00
         0.00000E+00
         0.00000E+00
         0.00000E+00
         0.00000E+00
         0.00000E+00
         0.00000E+00
         0.00000E+00
         0.00000E+00
         0.00000E+00
         0.00000E+00
         0.00000E+00
         0.00000E+00
         0.00000E+00
         0.00000E+00
         0.00000E+00
         0.00000E+00
         0.00000E+00
         0.00000E+00
         0.00000E+00
         0.00000E+00
         0.00000E+00
         0.00000E+00
         0.00000E+00
         0.00000E+00
         0.00000E+00
         0.00000E+00
         0.00000E+00
         0.00000E+00
         0.00000E+00
         0.00000E+00
         0.00000E+00
         0.00000E+00
         0.00000E+00
         0.00000E+00
         0.00000E+00
         0.00000E+00
         0.00000E+00
         0.00000E+00
         0.00000E+00
         0.00000E+00
         0.00000E+00
         0.00000E+00
         0.00000E+00
         0.00000E+00
         0.00000E+00
         0.00000E+00
         0.00000E+00
         0.00000E+00
         0.00000E+00
         0.00000E+00
         0.00000E+00
         0.00000E+00
         0.00000E+00
         0.00000E+00
         0.00000E+00
         0.00000E+00
         0.00000E+00
         0.00000E+00
         0.00000E+00
         0.00000E+00
         0.00000E+00
         0.00000E+00
         0.00000E+00
         0.00000E+00
         0.00000E+00
         0.00000E+00
         0.00000E+00
         0.00000E+00
         0.00000E+00
         0.00000E+00
         0.00000E+00
         0.00000E+00
         0.00000E+00
         0.00000E+00
         0.00000E+00
         0.00000E+00
         0.00000E+00
         0.00000E+00
         0.00000E+00
         0.00000E+00
         0.00000E+00
         0.00000E+00
         0.00000E+00
         0.00000E+00
         0.00000E+00
         0.00000E+00
         0.00000E+00
         0.00000E+00
         0.00000E+00
         0.00000E+00
         0.00000E+00
         0.00000E+00
         0.00000E+00
         0.00000E+00
         0.00000E+00
         0.00000E+00
         0.00000E+00
         0.00000E+00
         0.00000E+00
         0.00000E+00
         0.00000E+00
         0.00000E+00
         0.00000E+00
         0.00000E+00
         0.00000E+00
         0.00000E+00
         0.00000E+00
         0.00000E+00
         0.00000E+00
         0.00000E+00
         0.00000E+00
         0.00000E+00
         0.00000E+00
         0.00000E+00
         0.00000E+00
         0.00000E+00
         0.00000E+00
         0.00000E+00
         0.00000E+00
         0.00000E+00
         0.00000E+00
         0.00000E+00
         0.00000E+00
         0.00000E+00
         0.00000E+00
         0.00000E+00
         0.00000E+00
         0.00000E+00
         0.00000E+00
         0.00000E+00
         0.00000E+00
         0.00000E+00
         0.00000E+00
         0.00000E+00
         0.00000E+00
         0.00000E+00
         0.00000E+00
         0.00000E+00
         0.00000E+00
         0.00000E+00
         0.00000E+00
         0.00000E+00
         0.00000E+00
         0.00000E+00
         0.00000E+00
         0.00000E+00
         0.00000E+00
         0.00000E+00
         0.00000E+00
         0.00000E+00
         0.00000E+00
         0.00000E+00
         0.00000E+00
         0.00000E+00
         0.00000E+00
         0.00000E+00
         0.00000E+00
         0.00000E+00
         0.00000E+00
         0.00000E+00
         0.00000E+00
         0.00000E+00
         0.00000E+00
         0.00000E+00
         0.00000E+00
         0.00000E+00
         0.00000E+00
         0.00000E+00
         0.00000E+00
         0.00000E+00
         0.00000E+00
         0.00000E+00
         0.00000E+00
         0.00000E+00
         0.00000E+00
         0.00000E+00
         0.00000E+00
         0.00000E+00
         0.00000E+00
         0.00000E+00
         0.00000E+00
         0.00000E+00
         0.00000E+00
         0.00000E+00
         0.00000E+00
         0.00000E+00
         0.00000E+00
         0.00000E+00
         0.00000E+00
         0.00000E+00
         0.00000E+00
         0.00000E+00
         0.00000E+00
         0.00000E+00
         0.00000E+00
         0.00000E+00
         0.00000E+00
         0.00000E+00
         0.00000E+00
         0.00000E+00
         0.00000E+00
         0.00000E+00
         0.00000E+00
         0.00000E+00
         0.00000E+00
         0.00000E+00
         0.00000E+00
         0.00000E+00
         0.00000E+00
         0.00000E+00
         0.00000E+00
         0.00000E+00
         0.00000E+00
         0.00000E+00
         0.00000E+00
         0.00000E+00
         0.00000E+00
         0.00000E+00
         0.00000E+00
         0.00000E+00
         0.00000E+00
         0.00000E+00
         0.00000E+00
         0.00000E+00
         0.00000E+00
         0.00000E+00
         0.00000E+00
         0.00000E+00
         0.00000E+00
         0.00000E+00
         0.00000E+00
         0.00000E+00
         0.00000E+00
         0.00000E+00
         0.00000E+00
         0.00000E+00
         0.00000E+00
         0.00000E+00
         0.00000E+00
         0.00000E+00
         0.00000E+00
         0.00000E+00
         0.00000E+00
         0.00000E+00
         0.00000E+00
         0.00000E+00
         0.00000E+00
         0.00000E+00
         0.00000E+00
         0.00000E+00
         0.00000E+00
         0.00000E+00
         0.00000E+00
         0.00000E+00
         0.00000E+00
         0.00000E+00
         0.00000E+00
         0.00000E+00
         0.00000E+00
         0.00000E+00
         0.00000E+00
         0.00000E+00
         0.00000E+00
         0.00000E+00
         0.00000E+00
         0.00000E+00
         0.00000E+00
         0.00000E+00
         0.00000E+00
         0.00000E+00
         0.00000E+00
         0.00000E+00
         0.00000E+00
         0.00000E+00
         0.00000E+00
         0.00000E+00
         0.00000E+00
         0.00000E+00
         0.00000E+00
         0.00000E+00
         0.00000E+00
         0.00000E+00
         0.00000E+00
         0.00000E+00
         0.00000E+00
         0.00000E+00
         0.00000E+00
         0.00000E+00
         0.00000E+00
         0.00000E+00
         0.00000E+00
         0.00000E+00
         0.00000E+00
         0.00000E+00
         0.00000E+00
         0.00000E+00
         0.00000E+00
         0.00000E+00
         0.00000E+00
         0.00000E+00
         0.00000E+00
         0.00000E+00
         0.00000E+00
         0.00000E+00
         0.00000E+00
         0.00000E+00
         0.00000E+00
         0.00000E+00
         0.00000E+00
         0.00000E+00
         0.00000E+00
         0.00000E+00
         0.00000E+00
         0.00000E+00
         0.00000E+00
         0.00000E+00
         0.00000E+00
         0.00000E+00
         0.00000E+00
         0.00000E+00
         0.00000E+00
         0.00000E+00
         0.00000E+00
         0.00000E+00
         0.00000E+00
         0.00000E+00
         0.00000E+00
         0.00000E+00
         0.00000E+00
         0.00000E+00
         0.00000E+00
         0.00000E+00
         0.00000E+00
         0.00000E+00
         0.00000E+00
         0.00000E+00
         0.00000E+00
         0.00000E+00
         0.00000E+00
         0.00000E+00
         0.00000E+00
         0.00000E+00
         0.00000E+00
         0.00000E+00
         0.00000E+00
         0.00000E+00
         0.00000E+00
         0.00000E+00
         0.00000E+00
         0.00000E+00
         0.00000E+00
         0.00000E+00
         0.00000E+00
         0.00000E+00
         0.00000E+00
         0.00000E+00
         0.00000E+00
         0.00000E+00
         0.00000E+00
         0.00000E+00
         0.00000E+00
         0.00000E+00
         0.00000E+00
         0.00000E+00
         0.00000E+00
         0.00000E+00
         0.00000E+00
         0.00000E+00
         0.00000E+00
         0.00000E+00
         0.00000E+00
         0.00000E+00
         0.00000E+00
         0.00000E+00
         0.00000E+00
         0.00000E+00
         0.00000E+00
         0.00000E+00
         0.00000E+00
         0.00000E+00
         0.00000E+00
         0.00000E+00
         0.00000E+00
         0.00000E+00
         0.00000E+00
         0.00000E+00
         0.00000E+00
         0.00000E+00
         0.00000E+00
         0.00000E+00
         0.00000E+00
         0.00000E+00
         0.00000E+00
         0.00000E+00
         0.00000E+00
         0.00000E+00
         0.00000E+00
         0.00000E+00
         0.00000E+00
         0.00000E+00
         0.00000E+00
         0.00000E+00
         0.00000E+00
         0.00000E+00
         0.00000E+00
         0.00000E+00
         0.00000E+00
         0.00000E+00
         0.00000E+00
         0.00000E+00
         0.00000E+00
         0.00000E+00
         0.00000E+00
         0.00000E+00
         0.00000E+00
         0.00000E+00
         0.00000E+00
         0.00000E+00
         0.00000E+00
         0.00000E+00
         0.00000E+00
         0.00000E+00
         0.00000E+00
         0.00000E+00
         0.00000E+00
         0.00000E+00
         0.00000E+00
         0.00000E+00
         0.00000E+00
         0.00000E+00
         0.00000E+00
         0.00000E+00
         0.00000E+00
         0.00000E+00
         0.00000E+00
         0.00000E+00
         0.00000E+00
         0.00000E+00
         0.00000E+00
         0.00000E+00
         0.00000E+00
         0.00000E+00
         0.00000E+00
         0.00000E+00
         0.00000E+00
         0.00000E+00
         0.00000E+00
         0.00000E+00
         0.00000E+00
         0.00000E+00
         0.00000E+00
         0.00000E+00
         0.00000E+00
         0.00000E+00
         0.00000E+00
         0.00000E+00
         0.00000E+00
         0.00000E+00
         0.00000E+00
         0.00000E+00
         0.00000E+00
         0.00000E+00
         0.00000E+00
         0.00000E+00
         0.00000E+00
         0.00000E+00
         0.00000E+00
         0.00000E+00
         0.00000E+00
         0.00000E+00
         0.00000E+00
         0.00000E+00
         0.00000E+00
         0.00000E+00
         0.00000E+00
         0.00000E+00
         0.00000E+00
         0.00000E+00
         0.00000E+00
         0.00000E+00
         0.00000E+00
         0.00000E+00
         0.00000E+00
         0.00000E+00
         0.00000E+00
         0.00000E+00
         0.00000E+00
         0.00000E+00
         0.00000E+00
         0.00000E+00
         0.00000E+00
         0.00000E+00
         0.00000E+00
         0.00000E+00
         0.00000E+00
         0.00000E+00
         0.00000E+00
         0.00000E+00
         0.00000E+00
         0.00000E+00
         0.00000E+00
         0.00000E+00
         0.00000E+00
         0.00000E+00
         0.00000E+00
         0.00000E+00
         0.00000E+00
         0.00000E+00
         0.00000E+00
         0.00000E+00
         0.00000E+00
         0.00000E+00
         0.00000E+00
         0.00000E+00
         0.00000E+00
         0.00000E+00
         0.00000E+00
         0.00000E+00
         0.00000E+00
         0.00000E+00
         0.00000E+00
         0.00000E+00
         0.00000E+00
         0.00000E+00
         0.00000E+00
         0.00000E+00
         0.00000E+00
         0.00000E+00
         0.00000E+00
         0.00000E+00
         0.00000E+00
         0.00000E+00
         0.00000E+00
         0.00000E+00
         0.00000E+00
         0.00000E+00
         0.00000E+00
         0.00000E+00
         0.00000E+00
         0.00000E+00
         0.00000E+00
         0.00000E+00
         0.00000E+00
         0.00000E+00
         0.00000E+00
         0.00000E+00
         0.00000E+00
         0.00000E+00
         0.00000E+00
         0.00000E+00
         0.00000E+00
         0.00000E+00
         0.00000E+00
         0.00000E+00
         0.00000E+00
         0.00000E+00
         0.00000E+00
         0.00000E+00
         0.00000E+00
         0.00000E+00
         0.00000E+00
         0.00000E+00
         0.00000E+00
         0.00000E+00
         0.00000E+00
         0.00000E+00
         0.00000E+00
         0.00000E+00
         0.00000E+00
         0.00000E+00
         0.00000E+00
         0.00000E+00
         0.00000E+00
         0.00000E+00
         0.00000E+00
         0.00000E+00
         0.00000E+00
         0.00000E+00
         0.00000E+00
         0.00000E+00
         0.00000E+00
         0.00000E+00
         0.00000E+00
         0.00000E+00
         0.00000E+00
         0.00000E+00
         0.00000E+00
         0.00000E+00
         0.00000E+00
         0.00000E+00
         0.00000E+00
         0.00000E+00
         0.00000E+00
         0.00000E+00
         0.00000E+00
         0.00000E+00
         0.00000E+00
         0.00000E+00
         0.00000E+00
         0.00000E+00
         0.00000E+00
         0.00000E+00
         0.00000E+00
         0.00000E+00
         0.00000E+00
         0.00000E+00
         0.00000E+00
         0.00000E+00
         0.00000E+00
         0.00000E+00
         0.00000E+00
         0.00000E+00
         0.00000E+00
         0.00000E+00
         0.00000E+00
         0.00000E+00
         0.00000E+00
         0.00000E+00
         0.00000E+00
         0.00000E+00
         0.00000E+00
         0.00000E+00
         0.00000E+00
         0.00000E+00
         0.00000E+00
         0.00000E+00
         0.00000E+00
         0.00000E+00
         0.00000E+00
         0.00000E+00
         0.00000E+00
         0.00000E+00
         0.00000E+00
         0.00000E+00
         0.00000E+00
         0.00000E+00
         0.00000E+00
         0.00000E+00
         0.00000E+00
         0.00000E+00
         0.00000E+00
         0.00000E+00
         0.00000E+00
         0.00000E+00
         0.00000E+00
         0.00000E+00
         0.00000E+00
         0.00000E+00
         0.00000E+00
         0.00000E+00
         0.00000E+00
         0.00000E+00
         0.00000E+00
         0.00000E+00
         0.00000E+00
         0.00000E+00
         0.00000E+00
         0.00000E+00
         0.00000E+00
         0.00000E+00
         0.00000E+00
         0.00000E+00
         0.00000E+00
         0.00000E+00
         0.00000E+00
         0.00000E+00
         0.00000E+00
         0.00000E+00
  
SCALARS                 acceleration_z  double 1
LOOKUP_TABLE default
         0.00000E+00
         0.00000E+00
         0.00000E+00
         0.00000E+00
         0.00000E+00
         0.00000E+00
         0.00000E+00
         0.00000E+00
         0.00000E+00
         0.00000E+00
         0.00000E+00
         0.00000E+00
         0.00000E+00
         0.00000E+00
         0.00000E+00
         0.00000E+00
         0.00000E+00
         0.00000E+00
         0.00000E+00
         0.00000E+00
         0.00000E+00
         0.00000E+00
         0.00000E+00
         0.00000E+00
         0.00000E+00
         0.00000E+00
         0.00000E+00
         0.00000E+00
         0.00000E+00
         0.00000E+00
         0.00000E+00
         0.00000E+00
         0.00000E+00
         0.00000E+00
         0.00000E+00
         0.00000E+00
         0.00000E+00
         0.00000E+00
         0.00000E+00
         0.00000E+00
         0.00000E+00
         0.00000E+00
         0.00000E+00
         0.00000E+00
         0.00000E+00
         0.00000E+00
         0.00000E+00
         0.00000E+00
         0.00000E+00
         0.00000E+00
         0.00000E+00
         0.00000E+00
         0.00000E+00
         0.00000E+00
         0.00000E+00
         0.00000E+00
         0.00000E+00
         0.00000E+00
         0.00000E+00
         0.00000E+00
         0.00000E+00
         0.00000E+00
         0.00000E+00
         0.00000E+00
         0.00000E+00
         0.00000E+00
         0.00000E+00
         0.00000E+00
         0.00000E+00
         0.00000E+00
         0.00000E+00
         0.00000E+00
         0.00000E+00
         0.00000E+00
         0.00000E+00
         0.00000E+00
         0.00000E+00
         0.00000E+00
         0.00000E+00
         0.00000E+00
         0.00000E+00
         0.00000E+00
         0.00000E+00
         0.00000E+00
         0.00000E+00
         0.00000E+00
         0.00000E+00
         0.00000E+00
         0.00000E+00
         0.00000E+00
         0.00000E+00
         0.00000E+00
         0.00000E+00
         0.00000E+00
         0.00000E+00
         0.00000E+00
         0.00000E+00
         0.00000E+00
         0.00000E+00
         0.00000E+00
         0.00000E+00
         0.00000E+00
         0.00000E+00
         0.00000E+00
         0.00000E+00
         0.00000E+00
         0.00000E+00
         0.00000E+00
         0.00000E+00
         0.00000E+00
         0.00000E+00
         0.00000E+00
         0.00000E+00
         0.00000E+00
         0.00000E+00
         0.00000E+00
         0.00000E+00
         0.00000E+00
         0.00000E+00
         0.00000E+00
         0.00000E+00
         0.00000E+00
         0.00000E+00
         0.00000E+00
         0.00000E+00
         0.00000E+00
         0.00000E+00
         0.00000E+00
         0.00000E+00
         0.00000E+00
         0.00000E+00
         0.00000E+00
         0.00000E+00
         0.00000E+00
         0.00000E+00
         0.00000E+00
         0.00000E+00
         0.00000E+00
         0.00000E+00
         0.00000E+00
         0.00000E+00
         0.00000E+00
         0.00000E+00
         0.00000E+00
         0.00000E+00
         0.00000E+00
         0.00000E+00
         0.00000E+00
         0.00000E+00
         0.00000E+00
         0.00000E+00
         0.00000E+00
         0.00000E+00
         0.00000E+00
         0.00000E+00
         0.00000E+00
         0.00000E+00
         0.00000E+00
         0.00000E+00
         0.00000E+00
         0.00000E+00
         0.00000E+00
         0.00000E+00
         0.00000E+00
         0.00000E+00
         0.00000E+00
         0.00000E+00
         0.00000E+00
         0.00000E+00
         0.00000E+00
         0.00000E+00
         0.00000E+00
         0.00000E+00
         0.00000E+00
         0.00000E+00
         0.00000E+00
         0.00000E+00
         0.00000E+00
         0.00000E+00
         0.00000E+00
         0.00000E+00
         0.00000E+00
         0.00000E+00
         0.00000E+00
         0.00000E+00
         0.00000E+00
         0.00000E+00
         0.00000E+00
         0.00000E+00
         0.00000E+00
         0.00000E+00
         0.00000E+00
         0.00000E+00
         0.00000E+00
         0.00000E+00
         0.00000E+00
         0.00000E+00
         0.00000E+00
         0.00000E+00
         0.00000E+00
         0.00000E+00
         0.00000E+00
         0.00000E+00
         0.00000E+00
         0.00000E+00
         0.00000E+00
         0.00000E+00
         0.00000E+00
         0.00000E+00
         0.00000E+00
         0.00000E+00
         0.00000E+00
         0.00000E+00
         0.00000E+00
         0.00000E+00
         0.00000E+00
         0.00000E+00
         0.00000E+00
         0.00000E+00
         0.00000E+00
         0.00000E+00
         0.00000E+00
         0.00000E+00
         0.00000E+00
         0.00000E+00
         0.00000E+00
         0.00000E+00
         0.00000E+00
         0.00000E+00
         0.00000E+00
         0.00000E+00
         0.00000E+00
         0.00000E+00
         0.00000E+00
         0.00000E+00
         0.00000E+00
         0.00000E+00
         0.00000E+00
         0.00000E+00
         0.00000E+00
         0.00000E+00
         0.00000E+00
         0.00000E+00
         0.00000E+00
         0.00000E+00
         0.00000E+00
         0.00000E+00
         0.00000E+00
         0.00000E+00
         0.00000E+00
         0.00000E+00
         0.00000E+00
         0.00000E+00
         0.00000E+00
         0.00000E+00
         0.00000E+00
         0.00000E+00
         0.00000E+00
         0.00000E+00
         0.00000E+00
         0.00000E+00
         0.00000E+00
         0.00000E+00
         0.00000E+00
         0.00000E+00
         0.00000E+00
         0.00000E+00
         0.00000E+00
         0.00000E+00
         0.00000E+00
         0.00000E+00
         0.00000E+00
         0.00000E+00
         0.00000E+00
         0.00000E+00
         0.00000E+00
         0.00000E+00
         0.00000E+00
         0.00000E+00
         0.00000E+00
         0.00000E+00
         0.00000E+00
         0.00000E+00
         0.00000E+00
         0.00000E+00
         0.00000E+00
         0.00000E+00
         0.00000E+00
         0.00000E+00
         0.00000E+00
         0.00000E+00
         0.00000E+00
         0.00000E+00
         0.00000E+00
         0.00000E+00
         0.00000E+00
         0.00000E+00
         0.00000E+00
         0.00000E+00
         0.00000E+00
         0.00000E+00
         0.00000E+00
         0.00000E+00
         0.00000E+00
         0.00000E+00
         0.00000E+00
         0.00000E+00
         0.00000E+00
         0.00000E+00
         0.00000E+00
         0.00000E+00
         0.00000E+00
         0.00000E+00
         0.00000E+00
         0.00000E+00
         0.00000E+00
         0.00000E+00
         0.00000E+00
         0.00000E+00
         0.00000E+00
         0.00000E+00
         0.00000E+00
         0.00000E+00
         0.00000E+00
         0.00000E+00
         0.00000E+00
         0.00000E+00
         0.00000E+00
         0.00000E+00
         0.00000E+00
         0.00000E+00
         0.00000E+00
         0.00000E+00
         0.00000E+00
         0.00000E+00
         0.00000E+00
         0.00000E+00
         0.00000E+00
         0.00000E+00
         0.00000E+00
         0.00000E+00
         0.00000E+00
         0.00000E+00
         0.00000E+00
         0.00000E+00
         0.00000E+00
         0.00000E+00
         0.00000E+00
         0.00000E+00
         0.00000E+00
         0.00000E+00
         0.00000E+00
         0.00000E+00
         0.00000E+00
         0.00000E+00
         0.00000E+00
         0.00000E+00
         0.00000E+00
         0.00000E+00
         0.00000E+00
         0.00000E+00
         0.00000E+00
         0.00000E+00
         0.00000E+00
         0.00000E+00
         0.00000E+00
         0.00000E+00
         0.00000E+00
         0.00000E+00
         0.00000E+00
         0.00000E+00
         0.00000E+00
         0.00000E+00
         0.00000E+00
         0.00000E+00
         0.00000E+00
         0.00000E+00
         0.00000E+00
         0.00000E+00
         0.00000E+00
         0.00000E+00
         0.00000E+00
         0.00000E+00
         0.00000E+00
         0.00000E+00
         0.00000E+00
         0.00000E+00
         0.00000E+00
         0.00000E+00
         0.00000E+00
         0.00000E+00
         0.00000E+00
         0.00000E+00
         0.00000E+00
         0.00000E+00
         0.00000E+00
         0.00000E+00
         0.00000E+00
         0.00000E+00
         0.00000E+00
         0.00000E+00
         0.00000E+00
         0.00000E+00
         0.00000E+00
         0.00000E+00
         0.00000E+00
         0.00000E+00
         0.00000E+00
         0.00000E+00
         0.00000E+00
         0.00000E+00
         0.00000E+00
         0.00000E+00
         0.00000E+00
         0.00000E+00
         0.00000E+00
         0.00000E+00
         0.00000E+00
         0.00000E+00
         0.00000E+00
         0.00000E+00
         0.00000E+00
         0.00000E+00
         0.00000E+00
         0.00000E+00
         0.00000E+00
         0.00000E+00
         0.00000E+00
         0.00000E+00
         0.00000E+00
         0.00000E+00
         0.00000E+00
         0.00000E+00
         0.00000E+00
         0.00000E+00
         0.00000E+00
         0.00000E+00
         0.00000E+00
         0.00000E+00
         0.00000E+00
         0.00000E+00
         0.00000E+00
         0.00000E+00
         0.00000E+00
         0.00000E+00
         0.00000E+00
         0.00000E+00
         0.00000E+00
         0.00000E+00
         0.00000E+00
         0.00000E+00
         0.00000E+00
         0.00000E+00
         0.00000E+00
         0.00000E+00
         0.00000E+00
         0.00000E+00
         0.00000E+00
         0.00000E+00
         0.00000E+00
         0.00000E+00
         0.00000E+00
         0.00000E+00
         0.00000E+00
         0.00000E+00
         0.00000E+00
         0.00000E+00
         0.00000E+00
         0.00000E+00
         0.00000E+00
         0.00000E+00
         0.00000E+00
         0.00000E+00
         0.00000E+00
         0.00000E+00
         0.00000E+00
         0.00000E+00
         0.00000E+00
         0.00000E+00
         0.00000E+00
         0.00000E+00
         0.00000E+00
         0.00000E+00
         0.00000E+00
         0.00000E+00
         0.00000E+00
         0.00000E+00
         0.00000E+00
         0.00000E+00
         0.00000E+00
         0.00000E+00
         0.00000E+00
         0.00000E+00
         0.00000E+00
         0.00000E+00
         0.00000E+00
         0.00000E+00
         0.00000E+00
         0.00000E+00
         0.00000E+00
         0.00000E+00
         0.00000E+00
         0.00000E+00
         0.00000E+00
         0.00000E+00
         0.00000E+00
         0.00000E+00
         0.00000E+00
         0.00000E+00
         0.00000E+00
         0.00000E+00
         0.00000E+00
         0.00000E+00
         0.00000E+00
         0.00000E+00
         0.00000E+00
         0.00000E+00
         0.00000E+00
         0.00000E+00
         0.00000E+00
         0.00000E+00
         0.00000E+00
         0.00000E+00
         0.00000E+00
         0.00000E+00
         0.00000E+00
         0.00000E+00
         0.00000E+00
         0.00000E+00
         0.00000E+00
         0.00000E+00
         0.00000E+00
         0.00000E+00
         0.00000E+00
         0.00000E+00
         0.00000E+00
         0.00000E+00
         0.00000E+00
         0.00000E+00
         0.00000E+00
         0.00000E+00
         0.00000E+00
         0.00000E+00
         0.00000E+00
         0.00000E+00
         0.00000E+00
         0.00000E+00
         0.00000E+00
         0.00000E+00
         0.00000E+00
         0.00000E+00
         0.00000E+00
         0.00000E+00
         0.00000E+00
         0.00000E+00
         0.00000E+00
         0.00000E+00
         0.00000E+00
         0.00000E+00
         0.00000E+00
         0.00000E+00
         0.00000E+00
         0.00000E+00
         0.00000E+00
         0.00000E+00
         0.00000E+00
         0.00000E+00
         0.00000E+00
         0.00000E+00
         0.00000E+00
         0.00000E+00
         0.00000E+00
         0.00000E+00
         0.00000E+00
         0.00000E+00
         0.00000E+00
         0.00000E+00
         0.00000E+00
         0.00000E+00
         0.00000E+00
         0.00000E+00
         0.00000E+00
         0.00000E+00
         0.00000E+00
         0.00000E+00
         0.00000E+00
         0.00000E+00
         0.00000E+00
         0.00000E+00
         0.00000E+00
         0.00000E+00
         0.00000E+00
         0.00000E+00
         0.00000E+00
         0.00000E+00
         0.00000E+00
         0.00000E+00
         0.00000E+00
         0.00000E+00
         0.00000E+00
         0.00000E+00
         0.00000E+00
         0.00000E+00
         0.00000E+00
         0.00000E+00
         0.00000E+00
         0.00000E+00
         0.00000E+00
         0.00000E+00
         0.00000E+00
         0.00000E+00
         0.00000E+00
         0.00000E+00
         0.00000E+00
         0.00000E+00
         0.00000E+00
         0.00000E+00
         0.00000E+00
         0.00000E+00
         0.00000E+00
         0.00000E+00
         0.00000E+00
         0.00000E+00
         0.00000E+00
         0.00000E+00
         0.00000E+00
         0.00000E+00
         0.00000E+00
         0.00000E+00
         0.00000E+00
         0.00000E+00
         0.00000E+00
         0.00000E+00
         0.00000E+00
         0.00000E+00
         0.00000E+00
         0.00000E+00
         0.00000E+00
         0.00000E+00
         0.00000E+00
         0.00000E+00
         0.00000E+00
         0.00000E+00
         0.00000E+00
         0.00000E+00
         0.00000E+00
         0.00000E+00
         0.00000E+00
         0.00000E+00
         0.00000E+00
         0.00000E+00
         0.00000E+00
         0.00000E+00
         0.00000E+00
         0.00000E+00
         0.00000E+00
         0.00000E+00
         0.00000E+00
         0.00000E+00
         0.00000E+00
         0.00000E+00
         0.00000E+00
         0.00000E+00
         0.00000E+00
         0.00000E+00
         0.00000E+00
         0.00000E+00
         0.00000E+00
         0.00000E+00
         0.00000E+00
         0.00000E+00
         0.00000E+00
         0.00000E+00
         0.00000E+00
         0.00000E+00
         0.00000E+00
         0.00000E+00
         0.00000E+00
         0.00000E+00
         0.00000E+00
         0.00000E+00
         0.00000E+00
         0.00000E+00
         0.00000E+00
         0.00000E+00
         0.00000E+00
         0.00000E+00
         0.00000E+00
         0.00000E+00
         0.00000E+00
         0.00000E+00
         0.00000E+00
         0.00000E+00
         0.00000E+00
         0.00000E+00
         0.00000E+00
         0.00000E+00
         0.00000E+00
         0.00000E+00
         0.00000E+00
         0.00000E+00
         0.00000E+00
         0.00000E+00
         0.00000E+00
         0.00000E+00
         0.00000E+00
         0.00000E+00
         0.00000E+00
         0.00000E+00
         0.00000E+00
         0.00000E+00
         0.00000E+00
         0.00000E+00
         0.00000E+00
         0.00000E+00
         0.00000E+00
         0.00000E+00
         0.00000E+00
         0.00000E+00
         0.00000E+00
         0.00000E+00
         0.00000E+00
         0.00000E+00
         0.00000E+00
         0.00000E+00
         0.00000E+00
         0.00000E+00
         0.00000E+00
         0.00000E+00
         0.00000E+00
         0.00000E+00
         0.00000E+00
         0.00000E+00
         0.00000E+00
         0.00000E+00
         0.00000E+00
         0.00000E+00
         0.00000E+00
         0.00000E+00
         0.00000E+00
         0.00000E+00
         0.00000E+00
         0.00000E+00
         0.00000E+00
         0.00000E+00
         0.00000E+00
         0.00000E+00
         0.00000E+00
         0.00000E+00
         0.00000E+00
         0.00000E+00
         0.00000E+00
         0.00000E+00
         0.00000E+00
         0.00000E+00
         0.00000E+00
         0.00000E+00
         0.00000E+00
         0.00000E+00
         0.00000E+00
         0.00000E+00
         0.00000E+00
         0.00000E+00
         0.00000E+00
         0.00000E+00
         0.00000E+00
         0.00000E+00
         0.00000E+00
         0.00000E+00
         0.00000E+00
         0.00000E+00
         0.00000E+00
         0.00000E+00
         0.00000E+00
         0.00000E+00
         0.00000E+00
         0.00000E+00
         0.00000E+00
         0.00000E+00
         0.00000E+00
         0.00000E+00
         0.00000E+00
         0.00000E+00
         0.00000E+00
         0.00000E+00
         0.00000E+00
         0.00000E+00
         0.00000E+00
         0.00000E+00
         0.00000E+00
         0.00000E+00
         0.00000E+00
         0.00000E+00
         0.00000E+00
         0.00000E+00
         0.00000E+00
         0.00000E+00
         0.00000E+00
         0.00000E+00
         0.00000E+00
         0.00000E+00
         0.00000E+00
         0.00000E+00
         0.00000E+00
         0.00000E+00
         0.00000E+00
         0.00000E+00
         0.00000E+00
         0.00000E+00
         0.00000E+00
         0.00000E+00
         0.00000E+00
         0.00000E+00
         0.00000E+00
         0.00000E+00
         0.00000E+00
         0.00000E+00
         0.00000E+00
         0.00000E+00
         0.00000E+00
         0.00000E+00
         0.00000E+00
         0.00000E+00
         0.00000E+00
         0.00000E+00
         0.00000E+00
         0.00000E+00
         0.00000E+00
         0.00000E+00
         0.00000E+00
         0.00000E+00
         0.00000E+00
         0.00000E+00
         0.00000E+00
         0.00000E+00
         0.00000E+00
         0.00000E+00
         0.00000E+00
         0.00000E+00
         0.00000E+00
         0.00000E+00
         0.00000E+00
         0.00000E+00
         0.00000E+00
         0.00000E+00
         0.00000E+00
         0.00000E+00
         0.00000E+00
         0.00000E+00
         0.00000E+00
         0.00000E+00
         0.00000E+00
         0.00000E+00
         0.00000E+00
         0.00000E+00
         0.00000E+00
         0.00000E+00
         0.00000E+00
         0.00000E+00
         0.00000E+00
         0.00000E+00
         0.00000E+00
         0.00000E+00
         0.00000E+00
         0.00000E+00
         0.00000E+00
         0.00000E+00
         0.00000E+00
         0.00000E+00
         0.00000E+00
         0.00000E+00
         0.00000E+00
         0.00000E+00
         0.00000E+00
         0.00000E+00
         0.00000E+00
         0.00000E+00
         0.00000E+00
         0.00000E+00
         0.00000E+00
         0.00000E+00
         0.00000E+00
         0.00000E+00
         0.00000E+00
         0.00000E+00
         0.00000E+00
         0.00000E+00
         0.00000E+00
         0.00000E+00
         0.00000E+00
         0.00000E+00
         0.00000E+00
         0.00000E+00
         0.00000E+00
         0.00000E+00
         0.00000E+00
         0.00000E+00
         0.00000E+00
         0.00000E+00
         0.00000E+00
         0.00000E+00
         0.00000E+00
         0.00000E+00
         0.00000E+00
         0.00000E+00
         0.00000E+00
         0.00000E+00
         0.00000E+00
         0.00000E+00
         0.00000E+00
         0.00000E+00
         0.00000E+00
         0.00000E+00
         0.00000E+00
         0.00000E+00
         0.00000E+00
         0.00000E+00
         0.00000E+00
         0.00000E+00
         0.00000E+00
         0.00000E+00
         0.00000E+00
         0.00000E+00
         0.00000E+00
         0.00000E+00
         0.00000E+00
         0.00000E+00
         0.00000E+00
         0.00000E+00
         0.00000E+00
         0.00000E+00
         0.00000E+00
         0.00000E+00
         0.00000E+00
         0.00000E+00
         0.00000E+00
         0.00000E+00
         0.00000E+00
         0.00000E+00
         0.00000E+00
         0.00000E+00
         0.00000E+00
         0.00000E+00
         0.00000E+00
         0.00000E+00
         0.00000E+00
         0.00000E+00
         0.00000E+00
         0.00000E+00
         0.00000E+00
         0.00000E+00
         0.00000E+00
         0.00000E+00
         0.00000E+00
         0.00000E+00
         0.00000E+00
         0.00000E+00
         0.00000E+00
         0.00000E+00
         0.00000E+00
         0.00000E+00
         0.00000E+00
         0.00000E+00
         0.00000E+00
         0.00000E+00
         0.00000E+00
         0.00000E+00
         0.00000E+00
         0.00000E+00
         0.00000E+00
         0.00000E+00
         0.00000E+00
         0.00000E+00
         0.00000E+00
         0.00000E+00
         0.00000E+00
         0.00000E+00
         0.00000E+00
         0.00000E+00
         0.00000E+00
         0.00000E+00
         0.00000E+00
         0.00000E+00
         0.00000E+00
         0.00000E+00
         0.00000E+00
         0.00000E+00
         0.00000E+00
         0.00000E+00
         0.00000E+00
         0.00000E+00
         0.00000E+00
         0.00000E+00
         0.00000E+00
         0.00000E+00
         0.00000E+00
         0.00000E+00
         0.00000E+00
         0.00000E+00
         0.00000E+00
         0.00000E+00
         0.00000E+00
         0.00000E+00
         0.00000E+00
         0.00000E+00
         0.00000E+00
         0.00000E+00
         0.00000E+00
         0.00000E+00
         0.00000E+00
         0.00000E+00
         0.00000E+00
         0.00000E+00
         0.00000E+00
         0.00000E+00
         0.00000E+00
         0.00000E+00
         0.00000E+00
         0.00000E+00
         0.00000E+00
         0.00000E+00
         0.00000E+00
         0.00000E+00
         0.00000E+00
         0.00000E+00
         0.00000E+00
         0.00000E+00
         0.00000E+00
         0.00000E+00
         0.00000E+00
         0.00000E+00
         0.00000E+00
         0.00000E+00
         0.00000E+00
         0.00000E+00
         0.00000E+00
         0.00000E+00
         0.00000E+00
         0.00000E+00
         0.00000E+00
         0.00000E+00
         0.00000E+00
         0.00000E+00
         0.00000E+00
         0.00000E+00
         0.00000E+00
         0.00000E+00
         0.00000E+00
         0.00000E+00
         0.00000E+00
         0.00000E+00
         0.00000E+00
         0.00000E+00
         0.00000E+00
         0.00000E+00
         0.00000E+00
         0.00000E+00
         0.00000E+00
         0.00000E+00
         0.00000E+00
         0.00000E+00
         0.00000E+00
         0.00000E+00
         0.00000E+00
         0.00000E+00
         0.00000E+00
         0.00000E+00
         0.00000E+00
         0.00000E+00
         0.00000E+00
         0.00000E+00
         0.00000E+00
         0.00000E+00
         0.00000E+00
         0.00000E+00
         0.00000E+00
         0.00000E+00
         0.00000E+00
         0.00000E+00
         0.00000E+00
         0.00000E+00
         0.00000E+00
         0.00000E+00
         0.00000E+00
         0.00000E+00
         0.00000E+00
         0.00000E+00
         0.00000E+00
         0.00000E+00
         0.00000E+00
         0.00000E+00
         0.00000E+00
         0.00000E+00
         0.00000E+00
         0.00000E+00
         0.00000E+00
         0.00000E+00
         0.00000E+00
         0.00000E+00
         0.00000E+00
         0.00000E+00
         0.00000E+00
         0.00000E+00
         0.00000E+00
         0.00000E+00
         0.00000E+00
         0.00000E+00
         0.00000E+00
         0.00000E+00
         0.00000E+00
         0.00000E+00
         0.00000E+00
         0.00000E+00
         0.00000E+00
         0.00000E+00
         0.00000E+00
         0.00000E+00
         0.00000E+00
         0.00000E+00
         0.00000E+00
         0.00000E+00
         0.00000E+00
         0.00000E+00
         0.00000E+00
         0.00000E+00
         0.00000E+00
         0.00000E+00
         0.00000E+00
         0.00000E+00
         0.00000E+00
         0.00000E+00
         0.00000E+00
         0.00000E+00
         0.00000E+00
         0.00000E+00
         0.00000E+00
         0.00000E+00
         0.00000E+00
         0.00000E+00
         0.00000E+00
         0.00000E+00
         0.00000E+00
         0.00000E+00
         0.00000E+00
         0.00000E+00
         0.00000E+00
         0.00000E+00
         0.00000E+00
         0.00000E+00
         0.00000E+00
         0.00000E+00
         0.00000E+00
         0.00000E+00
         0.00000E+00
         0.00000E+00
         0.00000E+00
         0.00000E+00
         0.00000E+00
         0.00000E+00
         0.00000E+00
         0.00000E+00
         0.00000E+00
         0.00000E+00
         0.00000E+00
         0.00000E+00
         0.00000E+00
         0.00000E+00
         0.00000E+00
         0.00000E+00
         0.00000E+00
         0.00000E+00
         0.00000E+00
         0.00000E+00
         0.00000E+00
         0.00000E+00
         0.00000E+00
         0.00000E+00
         0.00000E+00
         0.00000E+00
         0.00000E+00
         0.00000E+00
         0.00000E+00
         0.00000E+00
         0.00000E+00
         0.00000E+00
         0.00000E+00
         0.00000E+00
         0.00000E+00
         0.00000E+00
         0.00000E+00
         0.00000E+00
         0.00000E+00
         0.00000E+00
         0.00000E+00
         0.00000E+00
         0.00000E+00
         0.00000E+00
         0.00000E+00
         0.00000E+00
         0.00000E+00
         0.00000E+00
         0.00000E+00
         0.00000E+00
         0.00000E+00
         0.00000E+00
         0.00000E+00
         0.00000E+00
         0.00000E+00
         0.00000E+00
         0.00000E+00
         0.00000E+00
         0.00000E+00
         0.00000E+00
         0.00000E+00
         0.00000E+00
         0.00000E+00
         0.00000E+00
         0.00000E+00
         0.00000E+00
         0.00000E+00
         0.00000E+00
         0.00000E+00
         0.00000E+00
         0.00000E+00
         0.00000E+00
         0.00000E+00
         0.00000E+00
         0.00000E+00
         0.00000E+00
         0.00000E+00
         0.00000E+00
         0.00000E+00
         0.00000E+00
         0.00000E+00
         0.00000E+00
         0.00000E+00
         0.00000E+00
         0.00000E+00
         0.00000E+00
         0.00000E+00
         0.00000E+00
         0.00000E+00
         0.00000E+00
         0.00000E+00
         0.00000E+00
         0.00000E+00
         0.00000E+00
         0.00000E+00
         0.00000E+00
         0.00000E+00
         0.00000E+00
         0.00000E+00
         0.00000E+00
         0.00000E+00
         0.00000E+00
         0.00000E+00
         0.00000E+00
         0.00000E+00
         0.00000E+00
         0.00000E+00
         0.00000E+00
         0.00000E+00
         0.00000E+00
         0.00000E+00
         0.00000E+00
         0.00000E+00
         0.00000E+00
         0.00000E+00
         0.00000E+00
         0.00000E+00
         0.00000E+00
         0.00000E+00
         0.00000E+00
         0.00000E+00
         0.00000E+00
         0.00000E+00
         0.00000E+00
         0.00000E+00
         0.00000E+00
         0.00000E+00
         0.00000E+00
         0.00000E+00
         0.00000E+00
         0.00000E+00
         0.00000E+00
         0.00000E+00
         0.00000E+00
         0.00000E+00
         0.00000E+00
         0.00000E+00
         0.00000E+00
         0.00000E+00
         0.00000E+00
         0.00000E+00
         0.00000E+00
         0.00000E+00
         0.00000E+00
         0.00000E+00
         0.00000E+00
         0.00000E+00
         0.00000E+00
         0.00000E+00
         0.00000E+00
         0.00000E+00
         0.00000E+00
         0.00000E+00
         0.00000E+00
         0.00000E+00
         0.00000E+00
         0.00000E+00
         0.00000E+00
         0.00000E+00
         0.00000E+00
         0.00000E+00
         0.00000E+00
         0.00000E+00
         0.00000E+00
         0.00000E+00
         0.00000E+00
         0.00000E+00
         0.00000E+00
         0.00000E+00
         0.00000E+00
         0.00000E+00
         0.00000E+00
         0.00000E+00
         0.00000E+00
         0.00000E+00
         0.00000E+00
         0.00000E+00
         0.00000E+00
         0.00000E+00
         0.00000E+00
         0.00000E+00
         0.00000E+00
         0.00000E+00
         0.00000E+00
         0.00000E+00
         0.00000E+00
         0.00000E+00
         0.00000E+00
         0.00000E+00
         0.00000E+00
         0.00000E+00
         0.00000E+00
         0.00000E+00
         0.00000E+00
         0.00000E+00
         0.00000E+00
         0.00000E+00
         0.00000E+00
         0.00000E+00
         0.00000E+00
         0.00000E+00
         0.00000E+00
         0.00000E+00
         0.00000E+00
         0.00000E+00
         0.00000E+00
         0.00000E+00
         0.00000E+00
         0.00000E+00
         0.00000E+00
         0.00000E+00
         0.00000E+00
         0.00000E+00
         0.00000E+00
         0.00000E+00
         0.00000E+00
         0.00000E+00
         0.00000E+00
         0.00000E+00
         0.00000E+00
         0.00000E+00
         0.00000E+00
         0.00000E+00
         0.00000E+00
         0.00000E+00
         0.00000E+00
         0.00000E+00
         0.00000E+00
         0.00000E+00
         0.00000E+00
         0.00000E+00
         0.00000E+00
         0.00000E+00
         0.00000E+00
         0.00000E+00
         0.00000E+00
         0.00000E+00
         0.00000E+00
         0.00000E+00
         0.00000E+00
         0.00000E+00
         0.00000E+00
         0.00000E+00
         0.00000E+00
         0.00000E+00
         0.00000E+00
         0.00000E+00
         0.00000E+00
         0.00000E+00
         0.00000E+00
         0.00000E+00
         0.00000E+00
         0.00000E+00
         0.00000E+00
         0.00000E+00
         0.00000E+00
         0.00000E+00
         0.00000E+00
         0.00000E+00
         0.00000E+00
         0.00000E+00
         0.00000E+00
         0.00000E+00
         0.00000E+00
         0.00000E+00
         0.00000E+00
         0.00000E+00
         0.00000E+00
         0.00000E+00
         0.00000E+00
         0.00000E+00
         0.00000E+00
         0.00000E+00
         0.00000E+00
         0.00000E+00
         0.00000E+00
         0.00000E+00
         0.00000E+00
         0.00000E+00
         0.00000E+00
         0.00000E+00
         0.00000E+00
         0.00000E+00
         0.00000E+00
         0.00000E+00
         0.00000E+00
         0.00000E+00
         0.00000E+00
         0.00000E+00
         0.00000E+00
         0.00000E+00
         0.00000E+00
         0.00000E+00
         0.00000E+00
         0.00000E+00
         0.00000E+00
         0.00000E+00
         0.00000E+00
         0.00000E+00
         0.00000E+00
         0.00000E+00
         0.00000E+00
         0.00000E+00
         0.00000E+00
         0.00000E+00
         0.00000E+00
         0.00000E+00
         0.00000E+00
         0.00000E+00
         0.00000E+00
         0.00000E+00
         0.00000E+00
         0.00000E+00
         0.00000E+00
         0.00000E+00
         0.00000E+00
         0.00000E+00
         0.00000E+00
         0.00000E+00
         0.00000E+00
         0.00000E+00
         0.00000E+00
         0.00000E+00
         0.00000E+00
         0.00000E+00
         0.00000E+00
         0.00000E+00
         0.00000E+00
         0.00000E+00
         0.00000E+00
         0.00000E+00
         0.00000E+00
         0.00000E+00
         0.00000E+00
         0.00000E+00
         0.00000E+00
         0.00000E+00
         0.00000E+00
         0.00000E+00
         0.00000E+00
         0.00000E+00
         0.00000E+00
         0.00000E+00
         0.00000E+00
         0.00000E+00
         0.00000E+00
         0.00000E+00
         0.00000E+00
         0.00000E+00
         0.00000E+00
         0.00000E+00
         0.00000E+00
         0.00000E+00
         0.00000E+00
         0.00000E+00
         0.00000E+00
         0.00000E+00
         0.00000E+00
         0.00000E+00
         0.00000E+00
         0.00000E+00
         0.00000E+00
         0.00000E+00
         0.00000E+00
         0.00000E+00
         0.00000E+00
         0.00000E+00
         0.00000E+00
         0.00000E+00
         0.00000E+00
         0.00000E+00
         0.00000E+00
         0.00000E+00
         0.00000E+00
         0.00000E+00
         0.00000E+00
         0.00000E+00
         0.00000E+00
         0.00000E+00
         0.00000E+00
         0.00000E+00
         0.00000E+00
         0.00000E+00
         0.00000E+00
         0.00000E+00
         0.00000E+00
         0.00000E+00
         0.00000E+00
         0.00000E+00
         0.00000E+00
         0.00000E+00
         0.00000E+00
         0.00000E+00
         0.00000E+00
         0.00000E+00
         0.00000E+00
         0.00000E+00
         0.00000E+00
         0.00000E+00
         0.00000E+00
         0.00000E+00
         0.00000E+00
         0.00000E+00
         0.00000E+00
         0.00000E+00
         0.00000E+00
         0.00000E+00
         0.00000E+00
         0.00000E+00
         0.00000E+00
         0.00000E+00
         0.00000E+00
         0.00000E+00
         0.00000E+00
         0.00000E+00
         0.00000E+00
         0.00000E+00
         0.00000E+00
         0.00000E+00
         0.00000E+00
         0.00000E+00
         0.00000E+00
         0.00000E+00
         0.00000E+00
         0.00000E+00
         0.00000E+00
         0.00000E+00
         0.00000E+00
         0.00000E+00
         0.00000E+00
         0.00000E+00
         0.00000E+00
         0.00000E+00
         0.00000E+00
         0.00000E+00
         0.00000E+00
         0.00000E+00
         0.00000E+00
         0.00000E+00
         0.00000E+00
         0.00000E+00
         0.00000E+00
         0.00000E+00
         0.00000E+00
         0.00000E+00
         0.00000E+00
         0.00000E+00
         0.00000E+00
         0.00000E+00
         0.00000E+00
         0.00000E+00
         0.00000E+00
         0.00000E+00
         0.00000E+00
         0.00000E+00
         0.00000E+00
         0.00000E+00
         0.00000E+00
         0.00000E+00
         0.00000E+00
         0.00000E+00
         0.00000E+00
         0.00000E+00
         0.00000E+00
         0.00000E+00
         0.00000E+00
         0.00000E+00
         0.00000E+00
         0.00000E+00
         0.00000E+00
         0.00000E+00
         0.00000E+00
         0.00000E+00
         0.00000E+00
         0.00000E+00
         0.00000E+00
         0.00000E+00
         0.00000E+00
         0.00000E+00
         0.00000E+00
         0.00000E+00
         0.00000E+00
         0.00000E+00
         0.00000E+00
         0.00000E+00
         0.00000E+00
         0.00000E+00
         0.00000E+00
         0.00000E+00
         0.00000E+00
         0.00000E+00
         0.00000E+00
         0.00000E+00
         0.00000E+00
         0.00000E+00
         0.00000E+00
         0.00000E+00
         0.00000E+00
         0.00000E+00
         0.00000E+00
         0.00000E+00
         0.00000E+00
         0.00000E+00
         0.00000E+00
         0.00000E+00
         0.00000E+00
         0.00000E+00
         0.00000E+00
         0.00000E+00
         0.00000E+00
         0.00000E+00
         0.00000E+00
         0.00000E+00
         0.00000E+00
         0.00000E+00
         0.00000E+00
         0.00000E+00
         0.00000E+00
         0.00000E+00
         0.00000E+00
         0.00000E+00
         0.00000E+00
         0.00000E+00
         0.00000E+00
         0.00000E+00
         0.00000E+00
         0.00000E+00
         0.00000E+00
         0.00000E+00
         0.00000E+00
         0.00000E+00
         0.00000E+00
         0.00000E+00
         0.00000E+00
         0.00000E+00
         0.00000E+00
         0.00000E+00
         0.00000E+00
         0.00000E+00
         0.00000E+00
         0.00000E+00
         0.00000E+00
         0.00000E+00
         0.00000E+00
         0.00000E+00
         0.00000E+00
         0.00000E+00
         0.00000E+00
         0.00000E+00
         0.00000E+00
         0.00000E+00
         0.00000E+00
         0.00000E+00
         0.00000E+00
         0.00000E+00
         0.00000E+00
         0.00000E+00
         0.00000E+00
         0.00000E+00
         0.00000E+00
         0.00000E+00
         0.00000E+00
         0.00000E+00
         0.00000E+00
         0.00000E+00
         0.00000E+00
         0.00000E+00
         0.00000E+00
         0.00000E+00
         0.00000E+00
         0.00000E+00
         0.00000E+00
         0.00000E+00
         0.00000E+00
         0.00000E+00
         0.00000E+00
         0.00000E+00
         0.00000E+00
         0.00000E+00
         0.00000E+00
         0.00000E+00
         0.00000E+00
         0.00000E+00
         0.00000E+00
         0.00000E+00
         0.00000E+00
         0.00000E+00
         0.00000E+00
         0.00000E+00
         0.00000E+00
         0.00000E+00
         0.00000E+00
         0.00000E+00
         0.00000E+00
         0.00000E+00
         0.00000E+00
         0.00000E+00
         0.00000E+00
         0.00000E+00
         0.00000E+00
         0.00000E+00
         0.00000E+00
         0.00000E+00
         0.00000E+00
         0.00000E+00
         0.00000E+00
         0.00000E+00
         0.00000E+00
         0.00000E+00
         0.00000E+00
         0.00000E+00
         0.00000E+00
         0.00000E+00
         0.00000E+00
         0.00000E+00
         0.00000E+00
         0.00000E+00
         0.00000E+00
         0.00000E+00
         0.00000E+00
         0.00000E+00
         0.00000E+00
         0.00000E+00
         0.00000E+00
         0.00000E+00
         0.00000E+00
         0.00000E+00
         0.00000E+00
         0.00000E+00
         0.00000E+00
         0.00000E+00
         0.00000E+00
         0.00000E+00
         0.00000E+00
         0.00000E+00
         0.00000E+00
         0.00000E+00
         0.00000E+00
         0.00000E+00
         0.00000E+00
         0.00000E+00
         0.00000E+00
         0.00000E+00
         0.00000E+00
         0.00000E+00
         0.00000E+00
         0.00000E+00
         0.00000E+00
         0.00000E+00
         0.00000E+00
         0.00000E+00
         0.00000E+00
         0.00000E+00
         0.00000E+00
         0.00000E+00
         0.00000E+00
         0.00000E+00
         0.00000E+00
         0.00000E+00
         0.00000E+00
         0.00000E+00
         0.00000E+00
         0.00000E+00
         0.00000E+00
         0.00000E+00
         0.00000E+00
         0.00000E+00
         0.00000E+00
         0.00000E+00
         0.00000E+00
         0.00000E+00
         0.00000E+00
         0.00000E+00
         0.00000E+00
         0.00000E+00
         0.00000E+00
         0.00000E+00
         0.00000E+00
         0.00000E+00
         0.00000E+00
         0.00000E+00
         0.00000E+00
         0.00000E+00
         0.00000E+00
         0.00000E+00
         0.00000E+00
         0.00000E+00
         0.00000E+00
         0.00000E+00
         0.00000E+00
         0.00000E+00
         0.00000E+00
         0.00000E+00
         0.00000E+00
         0.00000E+00
         0.00000E+00
         0.00000E+00
         0.00000E+00
         0.00000E+00
         0.00000E+00
         0.00000E+00
         0.00000E+00
         0.00000E+00
         0.00000E+00
         0.00000E+00
         0.00000E+00
         0.00000E+00
         0.00000E+00
         0.00000E+00
         0.00000E+00
         0.00000E+00
         0.00000E+00
         0.00000E+00
         0.00000E+00
         0.00000E+00
         0.00000E+00
         0.00000E+00
         0.00000E+00
         0.00000E+00
         0.00000E+00
         0.00000E+00
         0.00000E+00
         0.00000E+00
         0.00000E+00
         0.00000E+00
         0.00000E+00
         0.00000E+00
         0.00000E+00
         0.00000E+00
         0.00000E+00
         0.00000E+00
         0.00000E+00
         0.00000E+00
         0.00000E+00
         0.00000E+00
         0.00000E+00
         0.00000E+00
         0.00000E+00
         0.00000E+00
         0.00000E+00
         0.00000E+00
         0.00000E+00
         0.00000E+00
         0.00000E+00
         0.00000E+00
         0.00000E+00
         0.00000E+00
         0.00000E+00
         0.00000E+00
         0.00000E+00
         0.00000E+00
         0.00000E+00
         0.00000E+00
         0.00000E+00
         0.00000E+00
         0.00000E+00
         0.00000E+00
         0.00000E+00
         0.00000E+00
         0.00000E+00
         0.00000E+00
         0.00000E+00
         0.00000E+00
         0.00000E+00
         0.00000E+00
         0.00000E+00
         0.00000E+00
         0.00000E+00
         0.00000E+00
         0.00000E+00
         0.00000E+00
         0.00000E+00
         0.00000E+00
         0.00000E+00
         0.00000E+00
         0.00000E+00
         0.00000E+00
         0.00000E+00
         0.00000E+00
         0.00000E+00
         0.00000E+00
         0.00000E+00
         0.00000E+00
         0.00000E+00
         0.00000E+00
         0.00000E+00
         0.00000E+00
         0.00000E+00
         0.00000E+00
         0.00000E+00
         0.00000E+00
         0.00000E+00
         0.00000E+00
         0.00000E+00
         0.00000E+00
         0.00000E+00
         0.00000E+00
  
SCALARS                         fint_x  double 1
LOOKUP_TABLE default
         0.00000E+00
         0.00000E+00
         0.00000E+00
         0.00000E+00
         0.00000E+00
         0.00000E+00
         0.00000E+00
         0.00000E+00
         0.00000E+00
         0.00000E+00
         0.00000E+00
         0.00000E+00
         0.00000E+00
         0.00000E+00
         0.00000E+00
         0.00000E+00
         0.00000E+00
         0.00000E+00
         0.00000E+00
         0.00000E+00
         0.00000E+00
         0.00000E+00
         0.00000E+00
         0.00000E+00
         0.00000E+00
         0.00000E+00
         0.00000E+00
         0.00000E+00
         0.00000E+00
         0.00000E+00
         0.00000E+00
         0.00000E+00
         0.00000E+00
         0.00000E+00
         0.00000E+00
         0.00000E+00
         0.00000E+00
         0.00000E+00
         0.00000E+00
         0.00000E+00
         0.00000E+00
         0.00000E+00
         0.00000E+00
         0.00000E+00
         0.00000E+00
         0.00000E+00
         0.00000E+00
         0.00000E+00
         0.00000E+00
         0.00000E+00
         0.00000E+00
         0.00000E+00
         0.00000E+00
         0.00000E+00
         0.00000E+00
         0.00000E+00
         0.00000E+00
         0.00000E+00
         0.00000E+00
         0.00000E+00
         0.00000E+00
         0.00000E+00
         0.00000E+00
         0.00000E+00
         0.00000E+00
         0.00000E+00
         0.00000E+00
         0.00000E+00
         0.00000E+00
         0.00000E+00
         0.00000E+00
         0.00000E+00
         0.00000E+00
         0.00000E+00
         0.00000E+00
         0.00000E+00
         0.00000E+00
         0.00000E+00
         0.00000E+00
         0.00000E+00
         0.00000E+00
         0.00000E+00
         0.00000E+00
         0.00000E+00
         0.00000E+00
         0.00000E+00
         0.00000E+00
         0.00000E+00
         0.00000E+00
         0.00000E+00
         0.00000E+00
         0.00000E+00
         0.00000E+00
         0.00000E+00
         0.00000E+00
         0.00000E+00
         0.00000E+00
         0.00000E+00
         0.00000E+00
         0.00000E+00
         0.00000E+00
         0.00000E+00
         0.00000E+00
         0.00000E+00
         0.00000E+00
         0.00000E+00
         0.00000E+00
         0.00000E+00
         0.00000E+00
         0.00000E+00
         0.00000E+00
         0.00000E+00
         0.00000E+00
         0.00000E+00
         0.00000E+00
         0.00000E+00
         0.00000E+00
         0.00000E+00
         0.00000E+00
         0.00000E+00
         0.00000E+00
         0.00000E+00
         0.00000E+00
         0.00000E+00
         0.00000E+00
         0.00000E+00
         0.00000E+00
         0.00000E+00
         0.00000E+00
         0.00000E+00
         0.00000E+00
         0.00000E+00
         0.00000E+00
         0.00000E+00
         0.00000E+00
         0.00000E+00
         0.00000E+00
         0.00000E+00
         0.00000E+00
         0.00000E+00
         0.00000E+00
         0.00000E+00
         0.00000E+00
         0.00000E+00
         0.00000E+00
         0.00000E+00
         0.00000E+00
         0.00000E+00
         0.00000E+00
         0.00000E+00
         0.00000E+00
         0.00000E+00
         0.00000E+00
         0.00000E+00
         0.00000E+00
         0.00000E+00
         0.00000E+00
         0.00000E+00
         0.00000E+00
         0.00000E+00
         0.00000E+00
         0.00000E+00
         0.00000E+00
         0.00000E+00
         0.00000E+00
         0.00000E+00
         0.00000E+00
         0.00000E+00
         0.00000E+00
         0.00000E+00
         0.00000E+00
         0.00000E+00
         0.00000E+00
         0.00000E+00
         0.00000E+00
         0.00000E+00
         0.00000E+00
         0.00000E+00
         0.00000E+00
         0.00000E+00
         0.00000E+00
         0.00000E+00
         0.00000E+00
         0.00000E+00
         0.00000E+00
         0.00000E+00
         0.00000E+00
         0.00000E+00
         0.00000E+00
         0.00000E+00
         0.00000E+00
         0.00000E+00
         0.00000E+00
         0.00000E+00
         0.00000E+00
         0.00000E+00
         0.00000E+00
         0.00000E+00
         0.00000E+00
         0.00000E+00
         0.00000E+00
         0.00000E+00
         0.00000E+00
         0.00000E+00
         0.00000E+00
         0.00000E+00
         0.00000E+00
         0.00000E+00
         0.00000E+00
         0.00000E+00
         0.00000E+00
         0.00000E+00
         0.00000E+00
         0.00000E+00
         0.00000E+00
         0.00000E+00
         0.00000E+00
         0.00000E+00
         0.00000E+00
         0.00000E+00
         0.00000E+00
         0.00000E+00
         0.00000E+00
         0.00000E+00
         0.00000E+00
         0.00000E+00
         0.00000E+00
         0.00000E+00
         0.00000E+00
         0.00000E+00
         0.00000E+00
         0.00000E+00
         0.00000E+00
         0.00000E+00
         0.00000E+00
         0.00000E+00
         0.00000E+00
         0.00000E+00
         0.00000E+00
         0.00000E+00
         0.00000E+00
         0.00000E+00
         0.00000E+00
         0.00000E+00
         0.00000E+00
         0.00000E+00
         0.00000E+00
         0.00000E+00
         0.00000E+00
         0.00000E+00
         0.00000E+00
         0.00000E+00
         0.00000E+00
         0.00000E+00
         0.00000E+00
         0.00000E+00
         0.00000E+00
         0.00000E+00
         0.00000E+00
         0.00000E+00
         0.00000E+00
         0.00000E+00
         0.00000E+00
         0.00000E+00
         0.00000E+00
         0.00000E+00
         0.00000E+00
         0.00000E+00
         0.00000E+00
         0.00000E+00
         0.00000E+00
         0.00000E+00
         0.00000E+00
         0.00000E+00
         0.00000E+00
         0.00000E+00
         0.00000E+00
         0.00000E+00
         0.00000E+00
         0.00000E+00
         0.00000E+00
         0.00000E+00
         0.00000E+00
         0.00000E+00
         0.00000E+00
         0.00000E+00
         0.00000E+00
         0.00000E+00
         0.00000E+00
         0.00000E+00
         0.00000E+00
         0.00000E+00
         0.00000E+00
         0.00000E+00
         0.00000E+00
         0.00000E+00
         0.00000E+00
         0.00000E+00
         0.00000E+00
         0.00000E+00
         0.00000E+00
         0.00000E+00
         0.00000E+00
         0.00000E+00
         0.00000E+00
         0.00000E+00
         0.00000E+00
         0.00000E+00
         0.00000E+00
         0.00000E+00
         0.00000E+00
         0.00000E+00
         0.00000E+00
         0.00000E+00
         0.00000E+00
         0.00000E+00
         0.00000E+00
         0.00000E+00
         0.00000E+00
         0.00000E+00
         0.00000E+00
         0.00000E+00
         0.00000E+00
         0.00000E+00
         0.00000E+00
         0.00000E+00
         0.00000E+00
         0.00000E+00
         0.00000E+00
         0.00000E+00
         0.00000E+00
         0.00000E+00
         0.00000E+00
         0.00000E+00
         0.00000E+00
         0.00000E+00
         0.00000E+00
         0.00000E+00
         0.00000E+00
         0.00000E+00
         0.00000E+00
         0.00000E+00
         0.00000E+00
         0.00000E+00
         0.00000E+00
         0.00000E+00
         0.00000E+00
         0.00000E+00
         0.00000E+00
         0.00000E+00
         0.00000E+00
         0.00000E+00
         0.00000E+00
         0.00000E+00
         0.00000E+00
         0.00000E+00
         0.00000E+00
         0.00000E+00
         0.00000E+00
         0.00000E+00
         0.00000E+00
         0.00000E+00
         0.00000E+00
         0.00000E+00
         0.00000E+00
         0.00000E+00
         0.00000E+00
         0.00000E+00
         0.00000E+00
         0.00000E+00
         0.00000E+00
         0.00000E+00
         0.00000E+00
         0.00000E+00
         0.00000E+00
         0.00000E+00
         0.00000E+00
         0.00000E+00
         0.00000E+00
         0.00000E+00
         0.00000E+00
         0.00000E+00
         0.00000E+00
         0.00000E+00
         0.00000E+00
         0.00000E+00
         0.00000E+00
         0.00000E+00
         0.00000E+00
         0.00000E+00
         0.00000E+00
         0.00000E+00
         0.00000E+00
         0.00000E+00
         0.00000E+00
         0.00000E+00
         0.00000E+00
         0.00000E+00
         0.00000E+00
         0.00000E+00
         0.00000E+00
         0.00000E+00
         0.00000E+00
         0.00000E+00
         0.00000E+00
         0.00000E+00
         0.00000E+00
         0.00000E+00
         0.00000E+00
         0.00000E+00
         0.00000E+00
         0.00000E+00
         0.00000E+00
         0.00000E+00
         0.00000E+00
         0.00000E+00
         0.00000E+00
         0.00000E+00
         0.00000E+00
         0.00000E+00
         0.00000E+00
         0.00000E+00
         0.00000E+00
         0.00000E+00
         0.00000E+00
         0.00000E+00
         0.00000E+00
         0.00000E+00
         0.00000E+00
         0.00000E+00
         0.00000E+00
         0.00000E+00
         0.00000E+00
         0.00000E+00
         0.00000E+00
         0.00000E+00
         0.00000E+00
         0.00000E+00
         0.00000E+00
         0.00000E+00
         0.00000E+00
         0.00000E+00
         0.00000E+00
         0.00000E+00
         0.00000E+00
         0.00000E+00
         0.00000E+00
         0.00000E+00
         0.00000E+00
         0.00000E+00
         0.00000E+00
         0.00000E+00
         0.00000E+00
         0.00000E+00
         0.00000E+00
         0.00000E+00
         0.00000E+00
         0.00000E+00
         0.00000E+00
         0.00000E+00
         0.00000E+00
         0.00000E+00
         0.00000E+00
         0.00000E+00
         0.00000E+00
         0.00000E+00
         0.00000E+00
         0.00000E+00
         0.00000E+00
         0.00000E+00
         0.00000E+00
         0.00000E+00
         0.00000E+00
         0.00000E+00
         0.00000E+00
         0.00000E+00
         0.00000E+00
         0.00000E+00
         0.00000E+00
         0.00000E+00
         0.00000E+00
         0.00000E+00
         0.00000E+00
         0.00000E+00
         0.00000E+00
         0.00000E+00
         0.00000E+00
         0.00000E+00
         0.00000E+00
         0.00000E+00
         0.00000E+00
         0.00000E+00
         0.00000E+00
         0.00000E+00
         0.00000E+00
         0.00000E+00
         0.00000E+00
         0.00000E+00
         0.00000E+00
         0.00000E+00
         0.00000E+00
         0.00000E+00
         0.00000E+00
         0.00000E+00
         0.00000E+00
         0.00000E+00
         0.00000E+00
         0.00000E+00
         0.00000E+00
         0.00000E+00
         0.00000E+00
         0.00000E+00
         0.00000E+00
         0.00000E+00
         0.00000E+00
         0.00000E+00
         0.00000E+00
         0.00000E+00
         0.00000E+00
         0.00000E+00
         0.00000E+00
         0.00000E+00
         0.00000E+00
         0.00000E+00
         0.00000E+00
         0.00000E+00
         0.00000E+00
         0.00000E+00
         0.00000E+00
         0.00000E+00
         0.00000E+00
         0.00000E+00
         0.00000E+00
         0.00000E+00
         0.00000E+00
         0.00000E+00
         0.00000E+00
         0.00000E+00
         0.00000E+00
         0.00000E+00
         0.00000E+00
         0.00000E+00
         0.00000E+00
         0.00000E+00
         0.00000E+00
         0.00000E+00
         0.00000E+00
         0.00000E+00
         0.00000E+00
         0.00000E+00
         0.00000E+00
         0.00000E+00
         0.00000E+00
         0.00000E+00
         0.00000E+00
         0.00000E+00
         0.00000E+00
         0.00000E+00
         0.00000E+00
         0.00000E+00
         0.00000E+00
         0.00000E+00
         0.00000E+00
         0.00000E+00
         0.00000E+00
         0.00000E+00
         0.00000E+00
         0.00000E+00
         0.00000E+00
         0.00000E+00
         0.00000E+00
         0.00000E+00
         0.00000E+00
         0.00000E+00
         0.00000E+00
         0.00000E+00
         0.00000E+00
         0.00000E+00
         0.00000E+00
         0.00000E+00
         0.00000E+00
         0.00000E+00
         0.00000E+00
         0.00000E+00
         0.00000E+00
         0.00000E+00
         0.00000E+00
         0.00000E+00
         0.00000E+00
         0.00000E+00
         0.00000E+00
         0.00000E+00
         0.00000E+00
         0.00000E+00
         0.00000E+00
         0.00000E+00
         0.00000E+00
         0.00000E+00
         0.00000E+00
         0.00000E+00
         0.00000E+00
         0.00000E+00
         0.00000E+00
         0.00000E+00
         0.00000E+00
         0.00000E+00
         0.00000E+00
         0.00000E+00
         0.00000E+00
         0.00000E+00
         0.00000E+00
         0.00000E+00
         0.00000E+00
         0.00000E+00
         0.00000E+00
         0.00000E+00
         0.00000E+00
         0.00000E+00
         0.00000E+00
         0.00000E+00
         0.00000E+00
         0.00000E+00
         0.00000E+00
         0.00000E+00
         0.00000E+00
         0.00000E+00
         0.00000E+00
         0.00000E+00
         0.00000E+00
         0.00000E+00
         0.00000E+00
         0.00000E+00
         0.00000E+00
         0.00000E+00
         0.00000E+00
         0.00000E+00
         0.00000E+00
         0.00000E+00
         0.00000E+00
         0.00000E+00
         0.00000E+00
         0.00000E+00
         0.00000E+00
         0.00000E+00
         0.00000E+00
         0.00000E+00
         0.00000E+00
         0.00000E+00
         0.00000E+00
         0.00000E+00
         0.00000E+00
         0.00000E+00
         0.00000E+00
         0.00000E+00
         0.00000E+00
         0.00000E+00
         0.00000E+00
         0.00000E+00
         0.00000E+00
         0.00000E+00
         0.00000E+00
         0.00000E+00
         0.00000E+00
         0.00000E+00
         0.00000E+00
         0.00000E+00
         0.00000E+00
         0.00000E+00
         0.00000E+00
         0.00000E+00
         0.00000E+00
         0.00000E+00
         0.00000E+00
         0.00000E+00
         0.00000E+00
         0.00000E+00
         0.00000E+00
         0.00000E+00
         0.00000E+00
         0.00000E+00
         0.00000E+00
         0.00000E+00
         0.00000E+00
         0.00000E+00
         0.00000E+00
         0.00000E+00
         0.00000E+00
         0.00000E+00
         0.00000E+00
         0.00000E+00
         0.00000E+00
         0.00000E+00
         0.00000E+00
         0.00000E+00
         0.00000E+00
         0.00000E+00
         0.00000E+00
         0.00000E+00
         0.00000E+00
         0.00000E+00
         0.00000E+00
         0.00000E+00
         0.00000E+00
         0.00000E+00
         0.00000E+00
         0.00000E+00
         0.00000E+00
         0.00000E+00
         0.00000E+00
         0.00000E+00
         0.00000E+00
         0.00000E+00
         0.00000E+00
         0.00000E+00
         0.00000E+00
         0.00000E+00
         0.00000E+00
         0.00000E+00
         0.00000E+00
         0.00000E+00
         0.00000E+00
         0.00000E+00
         0.00000E+00
         0.00000E+00
         0.00000E+00
         0.00000E+00
         0.00000E+00
         0.00000E+00
         0.00000E+00
         0.00000E+00
         0.00000E+00
         0.00000E+00
         0.00000E+00
         0.00000E+00
         0.00000E+00
         0.00000E+00
         0.00000E+00
         0.00000E+00
         0.00000E+00
         0.00000E+00
         0.00000E+00
         0.00000E+00
         0.00000E+00
         0.00000E+00
         0.00000E+00
         0.00000E+00
         0.00000E+00
         0.00000E+00
         0.00000E+00
         0.00000E+00
         0.00000E+00
         0.00000E+00
         0.00000E+00
         0.00000E+00
         0.00000E+00
         0.00000E+00
         0.00000E+00
         0.00000E+00
         0.00000E+00
         0.00000E+00
         0.00000E+00
         0.00000E+00
         0.00000E+00
         0.00000E+00
         0.00000E+00
         0.00000E+00
         0.00000E+00
         0.00000E+00
         0.00000E+00
         0.00000E+00
         0.00000E+00
         0.00000E+00
         0.00000E+00
         0.00000E+00
         0.00000E+00
         0.00000E+00
         0.00000E+00
         0.00000E+00
         0.00000E+00
         0.00000E+00
         0.00000E+00
         0.00000E+00
         0.00000E+00
         0.00000E+00
         0.00000E+00
         0.00000E+00
         0.00000E+00
         0.00000E+00
         0.00000E+00
         0.00000E+00
         0.00000E+00
         0.00000E+00
         0.00000E+00
         0.00000E+00
         0.00000E+00
         0.00000E+00
         0.00000E+00
         0.00000E+00
         0.00000E+00
         0.00000E+00
         0.00000E+00
         0.00000E+00
         0.00000E+00
         0.00000E+00
         0.00000E+00
         0.00000E+00
         0.00000E+00
         0.00000E+00
         0.00000E+00
         0.00000E+00
         0.00000E+00
         0.00000E+00
         0.00000E+00
         0.00000E+00
         0.00000E+00
         0.00000E+00
         0.00000E+00
         0.00000E+00
         0.00000E+00
         0.00000E+00
         0.00000E+00
         0.00000E+00
         0.00000E+00
         0.00000E+00
         0.00000E+00
         0.00000E+00
         0.00000E+00
         0.00000E+00
         0.00000E+00
         0.00000E+00
         0.00000E+00
         0.00000E+00
         0.00000E+00
         0.00000E+00
         0.00000E+00
         0.00000E+00
         0.00000E+00
         0.00000E+00
         0.00000E+00
         0.00000E+00
         0.00000E+00
         0.00000E+00
         0.00000E+00
         0.00000E+00
         0.00000E+00
         0.00000E+00
         0.00000E+00
         0.00000E+00
         0.00000E+00
         0.00000E+00
         0.00000E+00
         0.00000E+00
         0.00000E+00
         0.00000E+00
         0.00000E+00
         0.00000E+00
         0.00000E+00
         0.00000E+00
         0.00000E+00
         0.00000E+00
         0.00000E+00
         0.00000E+00
         0.00000E+00
         0.00000E+00
         0.00000E+00
         0.00000E+00
         0.00000E+00
         0.00000E+00
         0.00000E+00
         0.00000E+00
         0.00000E+00
         0.00000E+00
         0.00000E+00
         0.00000E+00
         0.00000E+00
         0.00000E+00
         0.00000E+00
         0.00000E+00
         0.00000E+00
         0.00000E+00
         0.00000E+00
         0.00000E+00
         0.00000E+00
         0.00000E+00
         0.00000E+00
         0.00000E+00
         0.00000E+00
         0.00000E+00
         0.00000E+00
         0.00000E+00
         0.00000E+00
         0.00000E+00
         0.00000E+00
         0.00000E+00
         0.00000E+00
         0.00000E+00
         0.00000E+00
         0.00000E+00
         0.00000E+00
         0.00000E+00
         0.00000E+00
         0.00000E+00
         0.00000E+00
         0.00000E+00
         0.00000E+00
         0.00000E+00
         0.00000E+00
         0.00000E+00
         0.00000E+00
         0.00000E+00
         0.00000E+00
         0.00000E+00
         0.00000E+00
         0.00000E+00
         0.00000E+00
         0.00000E+00
         0.00000E+00
         0.00000E+00
         0.00000E+00
         0.00000E+00
         0.00000E+00
         0.00000E+00
         0.00000E+00
         0.00000E+00
         0.00000E+00
         0.00000E+00
         0.00000E+00
         0.00000E+00
         0.00000E+00
         0.00000E+00
         0.00000E+00
         0.00000E+00
         0.00000E+00
         0.00000E+00
         0.00000E+00
         0.00000E+00
         0.00000E+00
         0.00000E+00
         0.00000E+00
         0.00000E+00
         0.00000E+00
         0.00000E+00
         0.00000E+00
         0.00000E+00
         0.00000E+00
         0.00000E+00
         0.00000E+00
         0.00000E+00
         0.00000E+00
         0.00000E+00
         0.00000E+00
         0.00000E+00
         0.00000E+00
         0.00000E+00
         0.00000E+00
         0.00000E+00
         0.00000E+00
         0.00000E+00
         0.00000E+00
         0.00000E+00
         0.00000E+00
         0.00000E+00
         0.00000E+00
         0.00000E+00
         0.00000E+00
         0.00000E+00
         0.00000E+00
         0.00000E+00
         0.00000E+00
         0.00000E+00
         0.00000E+00
         0.00000E+00
         0.00000E+00
         0.00000E+00
         0.00000E+00
         0.00000E+00
         0.00000E+00
         0.00000E+00
         0.00000E+00
         0.00000E+00
         0.00000E+00
         0.00000E+00
         0.00000E+00
         0.00000E+00
         0.00000E+00
         0.00000E+00
         0.00000E+00
         0.00000E+00
         0.00000E+00
         0.00000E+00
         0.00000E+00
         0.00000E+00
         0.00000E+00
         0.00000E+00
         0.00000E+00
         0.00000E+00
         0.00000E+00
         0.00000E+00
         0.00000E+00
         0.00000E+00
         0.00000E+00
         0.00000E+00
         0.00000E+00
         0.00000E+00
         0.00000E+00
         0.00000E+00
         0.00000E+00
         0.00000E+00
         0.00000E+00
         0.00000E+00
         0.00000E+00
         0.00000E+00
         0.00000E+00
         0.00000E+00
         0.00000E+00
         0.00000E+00
         0.00000E+00
         0.00000E+00
         0.00000E+00
         0.00000E+00
         0.00000E+00
         0.00000E+00
         0.00000E+00
         0.00000E+00
         0.00000E+00
         0.00000E+00
         0.00000E+00
         0.00000E+00
         0.00000E+00
         0.00000E+00
         0.00000E+00
         0.00000E+00
         0.00000E+00
         0.00000E+00
         0.00000E+00
         0.00000E+00
         0.00000E+00
         0.00000E+00
         0.00000E+00
         0.00000E+00
         0.00000E+00
         0.00000E+00
         0.00000E+00
         0.00000E+00
         0.00000E+00
         0.00000E+00
         0.00000E+00
         0.00000E+00
         0.00000E+00
         0.00000E+00
         0.00000E+00
         0.00000E+00
         0.00000E+00
         0.00000E+00
         0.00000E+00
         0.00000E+00
         0.00000E+00
         0.00000E+00
         0.00000E+00
         0.00000E+00
         0.00000E+00
         0.00000E+00
         0.00000E+00
         0.00000E+00
         0.00000E+00
         0.00000E+00
         0.00000E+00
         0.00000E+00
         0.00000E+00
         0.00000E+00
         0.00000E+00
         0.00000E+00
         0.00000E+00
         0.00000E+00
         0.00000E+00
         0.00000E+00
         0.00000E+00
         0.00000E+00
         0.00000E+00
         0.00000E+00
         0.00000E+00
         0.00000E+00
         0.00000E+00
         0.00000E+00
         0.00000E+00
         0.00000E+00
         0.00000E+00
         0.00000E+00
         0.00000E+00
         0.00000E+00
         0.00000E+00
         0.00000E+00
         0.00000E+00
         0.00000E+00
         0.00000E+00
         0.00000E+00
         0.00000E+00
         0.00000E+00
         0.00000E+00
         0.00000E+00
         0.00000E+00
         0.00000E+00
         0.00000E+00
         0.00000E+00
         0.00000E+00
         0.00000E+00
         0.00000E+00
         0.00000E+00
         0.00000E+00
         0.00000E+00
         0.00000E+00
         0.00000E+00
         0.00000E+00
         0.00000E+00
         0.00000E+00
         0.00000E+00
         0.00000E+00
         0.00000E+00
         0.00000E+00
         0.00000E+00
         0.00000E+00
         0.00000E+00
         0.00000E+00
         0.00000E+00
         0.00000E+00
         0.00000E+00
         0.00000E+00
         0.00000E+00
         0.00000E+00
         0.00000E+00
         0.00000E+00
         0.00000E+00
         0.00000E+00
         0.00000E+00
         0.00000E+00
         0.00000E+00
         0.00000E+00
         0.00000E+00
         0.00000E+00
         0.00000E+00
         0.00000E+00
         0.00000E+00
         0.00000E+00
         0.00000E+00
         0.00000E+00
         0.00000E+00
         0.00000E+00
         0.00000E+00
         0.00000E+00
         0.00000E+00
         0.00000E+00
         0.00000E+00
         0.00000E+00
         0.00000E+00
         0.00000E+00
         0.00000E+00
         0.00000E+00
         0.00000E+00
         0.00000E+00
         0.00000E+00
         0.00000E+00
         0.00000E+00
         0.00000E+00
         0.00000E+00
         0.00000E+00
         0.00000E+00
         0.00000E+00
         0.00000E+00
         0.00000E+00
         0.00000E+00
         0.00000E+00
         0.00000E+00
         0.00000E+00
         0.00000E+00
         0.00000E+00
         0.00000E+00
         0.00000E+00
         0.00000E+00
         0.00000E+00
         0.00000E+00
         0.00000E+00
         0.00000E+00
         0.00000E+00
         0.00000E+00
         0.00000E+00
         0.00000E+00
         0.00000E+00
         0.00000E+00
         0.00000E+00
         0.00000E+00
         0.00000E+00
         0.00000E+00
         0.00000E+00
         0.00000E+00
         0.00000E+00
         0.00000E+00
         0.00000E+00
         0.00000E+00
         0.00000E+00
         0.00000E+00
         0.00000E+00
         0.00000E+00
         0.00000E+00
         0.00000E+00
         0.00000E+00
         0.00000E+00
         0.00000E+00
         0.00000E+00
         0.00000E+00
         0.00000E+00
         0.00000E+00
         0.00000E+00
         0.00000E+00
         0.00000E+00
         0.00000E+00
         0.00000E+00
         0.00000E+00
         0.00000E+00
         0.00000E+00
         0.00000E+00
         0.00000E+00
         0.00000E+00
         0.00000E+00
         0.00000E+00
         0.00000E+00
         0.00000E+00
         0.00000E+00
         0.00000E+00
         0.00000E+00
         0.00000E+00
         0.00000E+00
         0.00000E+00
         0.00000E+00
         0.00000E+00
         0.00000E+00
         0.00000E+00
         0.00000E+00
         0.00000E+00
         0.00000E+00
         0.00000E+00
         0.00000E+00
         0.00000E+00
         0.00000E+00
         0.00000E+00
         0.00000E+00
         0.00000E+00
         0.00000E+00
         0.00000E+00
         0.00000E+00
         0.00000E+00
         0.00000E+00
         0.00000E+00
         0.00000E+00
         0.00000E+00
         0.00000E+00
         0.00000E+00
         0.00000E+00
         0.00000E+00
         0.00000E+00
         0.00000E+00
         0.00000E+00
         0.00000E+00
         0.00000E+00
         0.00000E+00
         0.00000E+00
         0.00000E+00
         0.00000E+00
         0.00000E+00
         0.00000E+00
         0.00000E+00
         0.00000E+00
         0.00000E+00
         0.00000E+00
         0.00000E+00
         0.00000E+00
         0.00000E+00
         0.00000E+00
         0.00000E+00
         0.00000E+00
         0.00000E+00
         0.00000E+00
         0.00000E+00
         0.00000E+00
         0.00000E+00
         0.00000E+00
         0.00000E+00
         0.00000E+00
         0.00000E+00
         0.00000E+00
         0.00000E+00
         0.00000E+00
         0.00000E+00
         0.00000E+00
         0.00000E+00
         0.00000E+00
         0.00000E+00
         0.00000E+00
         0.00000E+00
         0.00000E+00
         0.00000E+00
         0.00000E+00
         0.00000E+00
         0.00000E+00
         0.00000E+00
         0.00000E+00
         0.00000E+00
         0.00000E+00
         0.00000E+00
         0.00000E+00
         0.00000E+00
         0.00000E+00
         0.00000E+00
         0.00000E+00
         0.00000E+00
         0.00000E+00
         0.00000E+00
         0.00000E+00
         0.00000E+00
         0.00000E+00
         0.00000E+00
         0.00000E+00
         0.00000E+00
         0.00000E+00
         0.00000E+00
         0.00000E+00
         0.00000E+00
         0.00000E+00
         0.00000E+00
         0.00000E+00
         0.00000E+00
         0.00000E+00
         0.00000E+00
         0.00000E+00
         0.00000E+00
         0.00000E+00
         0.00000E+00
         0.00000E+00
         0.00000E+00
         0.00000E+00
         0.00000E+00
         0.00000E+00
         0.00000E+00
         0.00000E+00
         0.00000E+00
         0.00000E+00
         0.00000E+00
         0.00000E+00
         0.00000E+00
         0.00000E+00
         0.00000E+00
         0.00000E+00
         0.00000E+00
         0.00000E+00
         0.00000E+00
         0.00000E+00
         0.00000E+00
         0.00000E+00
         0.00000E+00
         0.00000E+00
         0.00000E+00
         0.00000E+00
         0.00000E+00
         0.00000E+00
         0.00000E+00
         0.00000E+00
         0.00000E+00
         0.00000E+00
         0.00000E+00
         0.00000E+00
         0.00000E+00
         0.00000E+00
         0.00000E+00
         0.00000E+00
         0.00000E+00
         0.00000E+00
         0.00000E+00
         0.00000E+00
         0.00000E+00
         0.00000E+00
         0.00000E+00
         0.00000E+00
         0.00000E+00
         0.00000E+00
         0.00000E+00
         0.00000E+00
         0.00000E+00
         0.00000E+00
         0.00000E+00
         0.00000E+00
         0.00000E+00
         0.00000E+00
         0.00000E+00
         0.00000E+00
         0.00000E+00
         0.00000E+00
         0.00000E+00
         0.00000E+00
         0.00000E+00
         0.00000E+00
         0.00000E+00
         0.00000E+00
         0.00000E+00
         0.00000E+00
         0.00000E+00
         0.00000E+00
         0.00000E+00
         0.00000E+00
         0.00000E+00
         0.00000E+00
         0.00000E+00
         0.00000E+00
         0.00000E+00
         0.00000E+00
         0.00000E+00
         0.00000E+00
         0.00000E+00
         0.00000E+00
         0.00000E+00
         0.00000E+00
         0.00000E+00
         0.00000E+00
         0.00000E+00
         0.00000E+00
         0.00000E+00
         0.00000E+00
         0.00000E+00
         0.00000E+00
         0.00000E+00
         0.00000E+00
         0.00000E+00
         0.00000E+00
         0.00000E+00
         0.00000E+00
         0.00000E+00
         0.00000E+00
         0.00000E+00
         0.00000E+00
         0.00000E+00
         0.00000E+00
         0.00000E+00
         0.00000E+00
         0.00000E+00
         0.00000E+00
         0.00000E+00
         0.00000E+00
         0.00000E+00
         0.00000E+00
         0.00000E+00
         0.00000E+00
         0.00000E+00
         0.00000E+00
         0.00000E+00
         0.00000E+00
         0.00000E+00
         0.00000E+00
         0.00000E+00
         0.00000E+00
         0.00000E+00
         0.00000E+00
         0.00000E+00
         0.00000E+00
         0.00000E+00
         0.00000E+00
         0.00000E+00
         0.00000E+00
         0.00000E+00
         0.00000E+00
         0.00000E+00
         0.00000E+00
         0.00000E+00
         0.00000E+00
         0.00000E+00
         0.00000E+00
         0.00000E+00
         0.00000E+00
         0.00000E+00
         0.00000E+00
         0.00000E+00
         0.00000E+00
         0.00000E+00
         0.00000E+00
         0.00000E+00
         0.00000E+00
         0.00000E+00
         0.00000E+00
         0.00000E+00
         0.00000E+00
         0.00000E+00
         0.00000E+00
         0.00000E+00
         0.00000E+00
         0.00000E+00
         0.00000E+00
         0.00000E+00
         0.00000E+00
         0.00000E+00
         0.00000E+00
         0.00000E+00
         0.00000E+00
         0.00000E+00
         0.00000E+00
         0.00000E+00
         0.00000E+00
         0.00000E+00
         0.00000E+00
         0.00000E+00
         0.00000E+00
         0.00000E+00
         0.00000E+00
         0.00000E+00
         0.00000E+00
         0.00000E+00
         0.00000E+00
         0.00000E+00
         0.00000E+00
         0.00000E+00
         0.00000E+00
         0.00000E+00
         0.00000E+00
         0.00000E+00
         0.00000E+00
         0.00000E+00
         0.00000E+00
         0.00000E+00
         0.00000E+00
         0.00000E+00
         0.00000E+00
         0.00000E+00
         0.00000E+00
         0.00000E+00
         0.00000E+00
         0.00000E+00
         0.00000E+00
         0.00000E+00
         0.00000E+00
         0.00000E+00
         0.00000E+00
         0.00000E+00
         0.00000E+00
         0.00000E+00
         0.00000E+00
         0.00000E+00
         0.00000E+00
         0.00000E+00
         0.00000E+00
         0.00000E+00
         0.00000E+00
         0.00000E+00
         0.00000E+00
         0.00000E+00
         0.00000E+00
         0.00000E+00
         0.00000E+00
         0.00000E+00
         0.00000E+00
         0.00000E+00
         0.00000E+00
         0.00000E+00
         0.00000E+00
         0.00000E+00
         0.00000E+00
         0.00000E+00
         0.00000E+00
         0.00000E+00
         0.00000E+00
         0.00000E+00
         0.00000E+00
         0.00000E+00
         0.00000E+00
         0.00000E+00
         0.00000E+00
         0.00000E+00
         0.00000E+00
         0.00000E+00
         0.00000E+00
         0.00000E+00
         0.00000E+00
         0.00000E+00
         0.00000E+00
         0.00000E+00
         0.00000E+00
         0.00000E+00
         0.00000E+00
         0.00000E+00
         0.00000E+00
         0.00000E+00
         0.00000E+00
         0.00000E+00
         0.00000E+00
         0.00000E+00
         0.00000E+00
         0.00000E+00
         0.00000E+00
         0.00000E+00
         0.00000E+00
         0.00000E+00
         0.00000E+00
         0.00000E+00
         0.00000E+00
         0.00000E+00
         0.00000E+00
         0.00000E+00
         0.00000E+00
         0.00000E+00
         0.00000E+00
         0.00000E+00
         0.00000E+00
         0.00000E+00
         0.00000E+00
         0.00000E+00
         0.00000E+00
         0.00000E+00
         0.00000E+00
         0.00000E+00
         0.00000E+00
         0.00000E+00
         0.00000E+00
         0.00000E+00
         0.00000E+00
         0.00000E+00
         0.00000E+00
         0.00000E+00
         0.00000E+00
         0.00000E+00
         0.00000E+00
         0.00000E+00
         0.00000E+00
         0.00000E+00
         0.00000E+00
         0.00000E+00
         0.00000E+00
         0.00000E+00
         0.00000E+00
         0.00000E+00
         0.00000E+00
         0.00000E+00
         0.00000E+00
         0.00000E+00
         0.00000E+00
         0.00000E+00
         0.00000E+00
         0.00000E+00
         0.00000E+00
         0.00000E+00
         0.00000E+00
         0.00000E+00
         0.00000E+00
         0.00000E+00
         0.00000E+00
         0.00000E+00
         0.00000E+00
         0.00000E+00
         0.00000E+00
         0.00000E+00
         0.00000E+00
         0.00000E+00
         0.00000E+00
         0.00000E+00
         0.00000E+00
         0.00000E+00
         0.00000E+00
         0.00000E+00
         0.00000E+00
         0.00000E+00
         0.00000E+00
         0.00000E+00
         0.00000E+00
         0.00000E+00
         0.00000E+00
         0.00000E+00
         0.00000E+00
         0.00000E+00
         0.00000E+00
         0.00000E+00
         0.00000E+00
         0.00000E+00
         0.00000E+00
         0.00000E+00
         0.00000E+00
         0.00000E+00
         0.00000E+00
         0.00000E+00
         0.00000E+00
         0.00000E+00
         0.00000E+00
         0.00000E+00
         0.00000E+00
         0.00000E+00
         0.00000E+00
         0.00000E+00
         0.00000E+00
         0.00000E+00
         0.00000E+00
         0.00000E+00
         0.00000E+00
         0.00000E+00
         0.00000E+00
         0.00000E+00
         0.00000E+00
         0.00000E+00
         0.00000E+00
         0.00000E+00
         0.00000E+00
         0.00000E+00
         0.00000E+00
         0.00000E+00
         0.00000E+00
         0.00000E+00
         0.00000E+00
         0.00000E+00
         0.00000E+00
         0.00000E+00
         0.00000E+00
         0.00000E+00
         0.00000E+00
         0.00000E+00
         0.00000E+00
         0.00000E+00
         0.00000E+00
         0.00000E+00
         0.00000E+00
         0.00000E+00
         0.00000E+00
         0.00000E+00
         0.00000E+00
         0.00000E+00
         0.00000E+00
         0.00000E+00
         0.00000E+00
         0.00000E+00
         0.00000E+00
         0.00000E+00
         0.00000E+00
         0.00000E+00
         0.00000E+00
         0.00000E+00
         0.00000E+00
         0.00000E+00
         0.00000E+00
         0.00000E+00
         0.00000E+00
         0.00000E+00
         0.00000E+00
         0.00000E+00
         0.00000E+00
         0.00000E+00
         0.00000E+00
         0.00000E+00
         0.00000E+00
         0.00000E+00
         0.00000E+00
         0.00000E+00
         0.00000E+00
         0.00000E+00
         0.00000E+00
         0.00000E+00
         0.00000E+00
         0.00000E+00
         0.00000E+00
         0.00000E+00
         0.00000E+00
         0.00000E+00
         0.00000E+00
         0.00000E+00
         0.00000E+00
         0.00000E+00
         0.00000E+00
         0.00000E+00
         0.00000E+00
         0.00000E+00
         0.00000E+00
         0.00000E+00
         0.00000E+00
         0.00000E+00
         0.00000E+00
         0.00000E+00
         0.00000E+00
         0.00000E+00
         0.00000E+00
         0.00000E+00
         0.00000E+00
         0.00000E+00
         0.00000E+00
         0.00000E+00
         0.00000E+00
         0.00000E+00
         0.00000E+00
         0.00000E+00
         0.00000E+00
         0.00000E+00
         0.00000E+00
         0.00000E+00
         0.00000E+00
         0.00000E+00
         0.00000E+00
         0.00000E+00
         0.00000E+00
         0.00000E+00
         0.00000E+00
         0.00000E+00
         0.00000E+00
         0.00000E+00
         0.00000E+00
         0.00000E+00
         0.00000E+00
         0.00000E+00
         0.00000E+00
         0.00000E+00
         0.00000E+00
         0.00000E+00
         0.00000E+00
         0.00000E+00
         0.00000E+00
         0.00000E+00
         0.00000E+00
         0.00000E+00
         0.00000E+00
         0.00000E+00
         0.00000E+00
         0.00000E+00
         0.00000E+00
         0.00000E+00
         0.00000E+00
         0.00000E+00
         0.00000E+00
         0.00000E+00
         0.00000E+00
         0.00000E+00
         0.00000E+00
         0.00000E+00
         0.00000E+00
         0.00000E+00
         0.00000E+00
         0.00000E+00
         0.00000E+00
         0.00000E+00
         0.00000E+00
         0.00000E+00
         0.00000E+00
         0.00000E+00
         0.00000E+00
         0.00000E+00
         0.00000E+00
         0.00000E+00
         0.00000E+00
         0.00000E+00
         0.00000E+00
         0.00000E+00
         0.00000E+00
         0.00000E+00
         0.00000E+00
         0.00000E+00
         0.00000E+00
         0.00000E+00
         0.00000E+00
         0.00000E+00
         0.00000E+00
         0.00000E+00
         0.00000E+00
         0.00000E+00
         0.00000E+00
         0.00000E+00
         0.00000E+00
         0.00000E+00
         0.00000E+00
         0.00000E+00
         0.00000E+00
         0.00000E+00
         0.00000E+00
         0.00000E+00
         0.00000E+00
         0.00000E+00
         0.00000E+00
         0.00000E+00
         0.00000E+00
         0.00000E+00
         0.00000E+00
         0.00000E+00
         0.00000E+00
         0.00000E+00
         0.00000E+00
         0.00000E+00
         0.00000E+00
         0.00000E+00
         0.00000E+00
         0.00000E+00
         0.00000E+00
         0.00000E+00
         0.00000E+00
         0.00000E+00
         0.00000E+00
         0.00000E+00
         0.00000E+00
         0.00000E+00
         0.00000E+00
         0.00000E+00
         0.00000E+00
         0.00000E+00
         0.00000E+00
         0.00000E+00
         0.00000E+00
         0.00000E+00
         0.00000E+00
         0.00000E+00
         0.00000E+00
         0.00000E+00
         0.00000E+00
         0.00000E+00
         0.00000E+00
         0.00000E+00
         0.00000E+00
         0.00000E+00
         0.00000E+00
         0.00000E+00
         0.00000E+00
         0.00000E+00
         0.00000E+00
         0.00000E+00
         0.00000E+00
         0.00000E+00
         0.00000E+00
         0.00000E+00
         0.00000E+00
         0.00000E+00
         0.00000E+00
         0.00000E+00
         0.00000E+00
         0.00000E+00
         0.00000E+00
         0.00000E+00
         0.00000E+00
         0.00000E+00
         0.00000E+00
         0.00000E+00
         0.00000E+00
         0.00000E+00
         0.00000E+00
         0.00000E+00
         0.00000E+00
         0.00000E+00
         0.00000E+00
         0.00000E+00
         0.00000E+00
         0.00000E+00
         0.00000E+00
         0.00000E+00
         0.00000E+00
         0.00000E+00
         0.00000E+00
         0.00000E+00
  
SCALARS                         fint_y  double 1
LOOKUP_TABLE default
         0.00000E+00
         0.00000E+00
         0.00000E+00
         0.00000E+00
         0.00000E+00
         0.00000E+00
         0.00000E+00
         0.00000E+00
         0.00000E+00
         0.00000E+00
         0.00000E+00
         0.00000E+00
         0.00000E+00
         0.00000E+00
         0.00000E+00
         0.00000E+00
         0.00000E+00
         0.00000E+00
         0.00000E+00
         0.00000E+00
         0.00000E+00
         0.00000E+00
         0.00000E+00
         0.00000E+00
         0.00000E+00
         0.00000E+00
         0.00000E+00
         0.00000E+00
         0.00000E+00
         0.00000E+00
         0.00000E+00
         0.00000E+00
         0.00000E+00
         0.00000E+00
         0.00000E+00
         0.00000E+00
         0.00000E+00
         0.00000E+00
         0.00000E+00
         0.00000E+00
         0.00000E+00
         0.00000E+00
         0.00000E+00
         0.00000E+00
         0.00000E+00
         0.00000E+00
         0.00000E+00
         0.00000E+00
         0.00000E+00
         0.00000E+00
         0.00000E+00
         0.00000E+00
         0.00000E+00
         0.00000E+00
         0.00000E+00
         0.00000E+00
         0.00000E+00
         0.00000E+00
         0.00000E+00
         0.00000E+00
         0.00000E+00
         0.00000E+00
         0.00000E+00
         0.00000E+00
         0.00000E+00
         0.00000E+00
         0.00000E+00
         0.00000E+00
         0.00000E+00
         0.00000E+00
         0.00000E+00
         0.00000E+00
         0.00000E+00
         0.00000E+00
         0.00000E+00
         0.00000E+00
         0.00000E+00
         0.00000E+00
         0.00000E+00
         0.00000E+00
         0.00000E+00
         0.00000E+00
         0.00000E+00
         0.00000E+00
         0.00000E+00
         0.00000E+00
         0.00000E+00
         0.00000E+00
         0.00000E+00
         0.00000E+00
         0.00000E+00
         0.00000E+00
         0.00000E+00
         0.00000E+00
         0.00000E+00
         0.00000E+00
         0.00000E+00
         0.00000E+00
         0.00000E+00
         0.00000E+00
         0.00000E+00
         0.00000E+00
         0.00000E+00
         0.00000E+00
         0.00000E+00
         0.00000E+00
         0.00000E+00
         0.00000E+00
         0.00000E+00
         0.00000E+00
         0.00000E+00
         0.00000E+00
         0.00000E+00
         0.00000E+00
         0.00000E+00
         0.00000E+00
         0.00000E+00
         0.00000E+00
         0.00000E+00
         0.00000E+00
         0.00000E+00
         0.00000E+00
         0.00000E+00
         0.00000E+00
         0.00000E+00
         0.00000E+00
         0.00000E+00
         0.00000E+00
         0.00000E+00
         0.00000E+00
         0.00000E+00
         0.00000E+00
         0.00000E+00
         0.00000E+00
         0.00000E+00
         0.00000E+00
         0.00000E+00
         0.00000E+00
         0.00000E+00
         0.00000E+00
         0.00000E+00
         0.00000E+00
         0.00000E+00
         0.00000E+00
         0.00000E+00
         0.00000E+00
         0.00000E+00
         0.00000E+00
         0.00000E+00
         0.00000E+00
         0.00000E+00
         0.00000E+00
         0.00000E+00
         0.00000E+00
         0.00000E+00
         0.00000E+00
         0.00000E+00
         0.00000E+00
         0.00000E+00
         0.00000E+00
         0.00000E+00
         0.00000E+00
         0.00000E+00
         0.00000E+00
         0.00000E+00
         0.00000E+00
         0.00000E+00
         0.00000E+00
         0.00000E+00
         0.00000E+00
         0.00000E+00
         0.00000E+00
         0.00000E+00
         0.00000E+00
         0.00000E+00
         0.00000E+00
         0.00000E+00
         0.00000E+00
         0.00000E+00
         0.00000E+00
         0.00000E+00
         0.00000E+00
         0.00000E+00
         0.00000E+00
         0.00000E+00
         0.00000E+00
         0.00000E+00
         0.00000E+00
         0.00000E+00
         0.00000E+00
         0.00000E+00
         0.00000E+00
         0.00000E+00
         0.00000E+00
         0.00000E+00
         0.00000E+00
         0.00000E+00
         0.00000E+00
         0.00000E+00
         0.00000E+00
         0.00000E+00
         0.00000E+00
         0.00000E+00
         0.00000E+00
         0.00000E+00
         0.00000E+00
         0.00000E+00
         0.00000E+00
         0.00000E+00
         0.00000E+00
         0.00000E+00
         0.00000E+00
         0.00000E+00
         0.00000E+00
         0.00000E+00
         0.00000E+00
         0.00000E+00
         0.00000E+00
         0.00000E+00
         0.00000E+00
         0.00000E+00
         0.00000E+00
         0.00000E+00
         0.00000E+00
         0.00000E+00
         0.00000E+00
         0.00000E+00
         0.00000E+00
         0.00000E+00
         0.00000E+00
         0.00000E+00
         0.00000E+00
         0.00000E+00
         0.00000E+00
         0.00000E+00
         0.00000E+00
         0.00000E+00
         0.00000E+00
         0.00000E+00
         0.00000E+00
         0.00000E+00
         0.00000E+00
         0.00000E+00
         0.00000E+00
         0.00000E+00
         0.00000E+00
         0.00000E+00
         0.00000E+00
         0.00000E+00
         0.00000E+00
         0.00000E+00
         0.00000E+00
         0.00000E+00
         0.00000E+00
         0.00000E+00
         0.00000E+00
         0.00000E+00
         0.00000E+00
         0.00000E+00
         0.00000E+00
         0.00000E+00
         0.00000E+00
         0.00000E+00
         0.00000E+00
         0.00000E+00
         0.00000E+00
         0.00000E+00
         0.00000E+00
         0.00000E+00
         0.00000E+00
         0.00000E+00
         0.00000E+00
         0.00000E+00
         0.00000E+00
         0.00000E+00
         0.00000E+00
         0.00000E+00
         0.00000E+00
         0.00000E+00
         0.00000E+00
         0.00000E+00
         0.00000E+00
         0.00000E+00
         0.00000E+00
         0.00000E+00
         0.00000E+00
         0.00000E+00
         0.00000E+00
         0.00000E+00
         0.00000E+00
         0.00000E+00
         0.00000E+00
         0.00000E+00
         0.00000E+00
         0.00000E+00
         0.00000E+00
         0.00000E+00
         0.00000E+00
         0.00000E+00
         0.00000E+00
         0.00000E+00
         0.00000E+00
         0.00000E+00
         0.00000E+00
         0.00000E+00
         0.00000E+00
         0.00000E+00
         0.00000E+00
         0.00000E+00
         0.00000E+00
         0.00000E+00
         0.00000E+00
         0.00000E+00
         0.00000E+00
         0.00000E+00
         0.00000E+00
         0.00000E+00
         0.00000E+00
         0.00000E+00
         0.00000E+00
         0.00000E+00
         0.00000E+00
         0.00000E+00
         0.00000E+00
         0.00000E+00
         0.00000E+00
         0.00000E+00
         0.00000E+00
         0.00000E+00
         0.00000E+00
         0.00000E+00
         0.00000E+00
         0.00000E+00
         0.00000E+00
         0.00000E+00
         0.00000E+00
         0.00000E+00
         0.00000E+00
         0.00000E+00
         0.00000E+00
         0.00000E+00
         0.00000E+00
         0.00000E+00
         0.00000E+00
         0.00000E+00
         0.00000E+00
         0.00000E+00
         0.00000E+00
         0.00000E+00
         0.00000E+00
         0.00000E+00
         0.00000E+00
         0.00000E+00
         0.00000E+00
         0.00000E+00
         0.00000E+00
         0.00000E+00
         0.00000E+00
         0.00000E+00
         0.00000E+00
         0.00000E+00
         0.00000E+00
         0.00000E+00
         0.00000E+00
         0.00000E+00
         0.00000E+00
         0.00000E+00
         0.00000E+00
         0.00000E+00
         0.00000E+00
         0.00000E+00
         0.00000E+00
         0.00000E+00
         0.00000E+00
         0.00000E+00
         0.00000E+00
         0.00000E+00
         0.00000E+00
         0.00000E+00
         0.00000E+00
         0.00000E+00
         0.00000E+00
         0.00000E+00
         0.00000E+00
         0.00000E+00
         0.00000E+00
         0.00000E+00
         0.00000E+00
         0.00000E+00
         0.00000E+00
         0.00000E+00
         0.00000E+00
         0.00000E+00
         0.00000E+00
         0.00000E+00
         0.00000E+00
         0.00000E+00
         0.00000E+00
         0.00000E+00
         0.00000E+00
         0.00000E+00
         0.00000E+00
         0.00000E+00
         0.00000E+00
         0.00000E+00
         0.00000E+00
         0.00000E+00
         0.00000E+00
         0.00000E+00
         0.00000E+00
         0.00000E+00
         0.00000E+00
         0.00000E+00
         0.00000E+00
         0.00000E+00
         0.00000E+00
         0.00000E+00
         0.00000E+00
         0.00000E+00
         0.00000E+00
         0.00000E+00
         0.00000E+00
         0.00000E+00
         0.00000E+00
         0.00000E+00
         0.00000E+00
         0.00000E+00
         0.00000E+00
         0.00000E+00
         0.00000E+00
         0.00000E+00
         0.00000E+00
         0.00000E+00
         0.00000E+00
         0.00000E+00
         0.00000E+00
         0.00000E+00
         0.00000E+00
         0.00000E+00
         0.00000E+00
         0.00000E+00
         0.00000E+00
         0.00000E+00
         0.00000E+00
         0.00000E+00
         0.00000E+00
         0.00000E+00
         0.00000E+00
         0.00000E+00
         0.00000E+00
         0.00000E+00
         0.00000E+00
         0.00000E+00
         0.00000E+00
         0.00000E+00
         0.00000E+00
         0.00000E+00
         0.00000E+00
         0.00000E+00
         0.00000E+00
         0.00000E+00
         0.00000E+00
         0.00000E+00
         0.00000E+00
         0.00000E+00
         0.00000E+00
         0.00000E+00
         0.00000E+00
         0.00000E+00
         0.00000E+00
         0.00000E+00
         0.00000E+00
         0.00000E+00
         0.00000E+00
         0.00000E+00
         0.00000E+00
         0.00000E+00
         0.00000E+00
         0.00000E+00
         0.00000E+00
         0.00000E+00
         0.00000E+00
         0.00000E+00
         0.00000E+00
         0.00000E+00
         0.00000E+00
         0.00000E+00
         0.00000E+00
         0.00000E+00
         0.00000E+00
         0.00000E+00
         0.00000E+00
         0.00000E+00
         0.00000E+00
         0.00000E+00
         0.00000E+00
         0.00000E+00
         0.00000E+00
         0.00000E+00
         0.00000E+00
         0.00000E+00
         0.00000E+00
         0.00000E+00
         0.00000E+00
         0.00000E+00
         0.00000E+00
         0.00000E+00
         0.00000E+00
         0.00000E+00
         0.00000E+00
         0.00000E+00
         0.00000E+00
         0.00000E+00
         0.00000E+00
         0.00000E+00
         0.00000E+00
         0.00000E+00
         0.00000E+00
         0.00000E+00
         0.00000E+00
         0.00000E+00
         0.00000E+00
         0.00000E+00
         0.00000E+00
         0.00000E+00
         0.00000E+00
         0.00000E+00
         0.00000E+00
         0.00000E+00
         0.00000E+00
         0.00000E+00
         0.00000E+00
         0.00000E+00
         0.00000E+00
         0.00000E+00
         0.00000E+00
         0.00000E+00
         0.00000E+00
         0.00000E+00
         0.00000E+00
         0.00000E+00
         0.00000E+00
         0.00000E+00
         0.00000E+00
         0.00000E+00
         0.00000E+00
         0.00000E+00
         0.00000E+00
         0.00000E+00
         0.00000E+00
         0.00000E+00
         0.00000E+00
         0.00000E+00
         0.00000E+00
         0.00000E+00
         0.00000E+00
         0.00000E+00
         0.00000E+00
         0.00000E+00
         0.00000E+00
         0.00000E+00
         0.00000E+00
         0.00000E+00
         0.00000E+00
         0.00000E+00
         0.00000E+00
         0.00000E+00
         0.00000E+00
         0.00000E+00
         0.00000E+00
         0.00000E+00
         0.00000E+00
         0.00000E+00
         0.00000E+00
         0.00000E+00
         0.00000E+00
         0.00000E+00
         0.00000E+00
         0.00000E+00
         0.00000E+00
         0.00000E+00
         0.00000E+00
         0.00000E+00
         0.00000E+00
         0.00000E+00
         0.00000E+00
         0.00000E+00
         0.00000E+00
         0.00000E+00
         0.00000E+00
         0.00000E+00
         0.00000E+00
         0.00000E+00
         0.00000E+00
         0.00000E+00
         0.00000E+00
         0.00000E+00
         0.00000E+00
         0.00000E+00
         0.00000E+00
         0.00000E+00
         0.00000E+00
         0.00000E+00
         0.00000E+00
         0.00000E+00
         0.00000E+00
         0.00000E+00
         0.00000E+00
         0.00000E+00
         0.00000E+00
         0.00000E+00
         0.00000E+00
         0.00000E+00
         0.00000E+00
         0.00000E+00
         0.00000E+00
         0.00000E+00
         0.00000E+00
         0.00000E+00
         0.00000E+00
         0.00000E+00
         0.00000E+00
         0.00000E+00
         0.00000E+00
         0.00000E+00
         0.00000E+00
         0.00000E+00
         0.00000E+00
         0.00000E+00
         0.00000E+00
         0.00000E+00
         0.00000E+00
         0.00000E+00
         0.00000E+00
         0.00000E+00
         0.00000E+00
         0.00000E+00
         0.00000E+00
         0.00000E+00
         0.00000E+00
         0.00000E+00
         0.00000E+00
         0.00000E+00
         0.00000E+00
         0.00000E+00
         0.00000E+00
         0.00000E+00
         0.00000E+00
         0.00000E+00
         0.00000E+00
         0.00000E+00
         0.00000E+00
         0.00000E+00
         0.00000E+00
         0.00000E+00
         0.00000E+00
         0.00000E+00
         0.00000E+00
         0.00000E+00
         0.00000E+00
         0.00000E+00
         0.00000E+00
         0.00000E+00
         0.00000E+00
         0.00000E+00
         0.00000E+00
         0.00000E+00
         0.00000E+00
         0.00000E+00
         0.00000E+00
         0.00000E+00
         0.00000E+00
         0.00000E+00
         0.00000E+00
         0.00000E+00
         0.00000E+00
         0.00000E+00
         0.00000E+00
         0.00000E+00
         0.00000E+00
         0.00000E+00
         0.00000E+00
         0.00000E+00
         0.00000E+00
         0.00000E+00
         0.00000E+00
         0.00000E+00
         0.00000E+00
         0.00000E+00
         0.00000E+00
         0.00000E+00
         0.00000E+00
         0.00000E+00
         0.00000E+00
         0.00000E+00
         0.00000E+00
         0.00000E+00
         0.00000E+00
         0.00000E+00
         0.00000E+00
         0.00000E+00
         0.00000E+00
         0.00000E+00
         0.00000E+00
         0.00000E+00
         0.00000E+00
         0.00000E+00
         0.00000E+00
         0.00000E+00
         0.00000E+00
         0.00000E+00
         0.00000E+00
         0.00000E+00
         0.00000E+00
         0.00000E+00
         0.00000E+00
         0.00000E+00
         0.00000E+00
         0.00000E+00
         0.00000E+00
         0.00000E+00
         0.00000E+00
         0.00000E+00
         0.00000E+00
         0.00000E+00
         0.00000E+00
         0.00000E+00
         0.00000E+00
         0.00000E+00
         0.00000E+00
         0.00000E+00
         0.00000E+00
         0.00000E+00
         0.00000E+00
         0.00000E+00
         0.00000E+00
         0.00000E+00
         0.00000E+00
         0.00000E+00
         0.00000E+00
         0.00000E+00
         0.00000E+00
         0.00000E+00
         0.00000E+00
         0.00000E+00
         0.00000E+00
         0.00000E+00
         0.00000E+00
         0.00000E+00
         0.00000E+00
         0.00000E+00
         0.00000E+00
         0.00000E+00
         0.00000E+00
         0.00000E+00
         0.00000E+00
         0.00000E+00
         0.00000E+00
         0.00000E+00
         0.00000E+00
         0.00000E+00
         0.00000E+00
         0.00000E+00
         0.00000E+00
         0.00000E+00
         0.00000E+00
         0.00000E+00
         0.00000E+00
         0.00000E+00
         0.00000E+00
         0.00000E+00
         0.00000E+00
         0.00000E+00
         0.00000E+00
         0.00000E+00
         0.00000E+00
         0.00000E+00
         0.00000E+00
         0.00000E+00
         0.00000E+00
         0.00000E+00
         0.00000E+00
         0.00000E+00
         0.00000E+00
         0.00000E+00
         0.00000E+00
         0.00000E+00
         0.00000E+00
         0.00000E+00
         0.00000E+00
         0.00000E+00
         0.00000E+00
         0.00000E+00
         0.00000E+00
         0.00000E+00
         0.00000E+00
         0.00000E+00
         0.00000E+00
         0.00000E+00
         0.00000E+00
         0.00000E+00
         0.00000E+00
         0.00000E+00
         0.00000E+00
         0.00000E+00
         0.00000E+00
         0.00000E+00
         0.00000E+00
         0.00000E+00
         0.00000E+00
         0.00000E+00
         0.00000E+00
         0.00000E+00
         0.00000E+00
         0.00000E+00
         0.00000E+00
         0.00000E+00
         0.00000E+00
         0.00000E+00
         0.00000E+00
         0.00000E+00
         0.00000E+00
         0.00000E+00
         0.00000E+00
         0.00000E+00
         0.00000E+00
         0.00000E+00
         0.00000E+00
         0.00000E+00
         0.00000E+00
         0.00000E+00
         0.00000E+00
         0.00000E+00
         0.00000E+00
         0.00000E+00
         0.00000E+00
         0.00000E+00
         0.00000E+00
         0.00000E+00
         0.00000E+00
         0.00000E+00
         0.00000E+00
         0.00000E+00
         0.00000E+00
         0.00000E+00
         0.00000E+00
         0.00000E+00
         0.00000E+00
         0.00000E+00
         0.00000E+00
         0.00000E+00
         0.00000E+00
         0.00000E+00
         0.00000E+00
         0.00000E+00
         0.00000E+00
         0.00000E+00
         0.00000E+00
         0.00000E+00
         0.00000E+00
         0.00000E+00
         0.00000E+00
         0.00000E+00
         0.00000E+00
         0.00000E+00
         0.00000E+00
         0.00000E+00
         0.00000E+00
         0.00000E+00
         0.00000E+00
         0.00000E+00
         0.00000E+00
         0.00000E+00
         0.00000E+00
         0.00000E+00
         0.00000E+00
         0.00000E+00
         0.00000E+00
         0.00000E+00
         0.00000E+00
         0.00000E+00
         0.00000E+00
         0.00000E+00
         0.00000E+00
         0.00000E+00
         0.00000E+00
         0.00000E+00
         0.00000E+00
         0.00000E+00
         0.00000E+00
         0.00000E+00
         0.00000E+00
         0.00000E+00
         0.00000E+00
         0.00000E+00
         0.00000E+00
         0.00000E+00
         0.00000E+00
         0.00000E+00
         0.00000E+00
         0.00000E+00
         0.00000E+00
         0.00000E+00
         0.00000E+00
         0.00000E+00
         0.00000E+00
         0.00000E+00
         0.00000E+00
         0.00000E+00
         0.00000E+00
         0.00000E+00
         0.00000E+00
         0.00000E+00
         0.00000E+00
         0.00000E+00
         0.00000E+00
         0.00000E+00
         0.00000E+00
         0.00000E+00
         0.00000E+00
         0.00000E+00
         0.00000E+00
         0.00000E+00
         0.00000E+00
         0.00000E+00
         0.00000E+00
         0.00000E+00
         0.00000E+00
         0.00000E+00
         0.00000E+00
         0.00000E+00
         0.00000E+00
         0.00000E+00
         0.00000E+00
         0.00000E+00
         0.00000E+00
         0.00000E+00
         0.00000E+00
         0.00000E+00
         0.00000E+00
         0.00000E+00
         0.00000E+00
         0.00000E+00
         0.00000E+00
         0.00000E+00
         0.00000E+00
         0.00000E+00
         0.00000E+00
         0.00000E+00
         0.00000E+00
         0.00000E+00
         0.00000E+00
         0.00000E+00
         0.00000E+00
         0.00000E+00
         0.00000E+00
         0.00000E+00
         0.00000E+00
         0.00000E+00
         0.00000E+00
         0.00000E+00
         0.00000E+00
         0.00000E+00
         0.00000E+00
         0.00000E+00
         0.00000E+00
         0.00000E+00
         0.00000E+00
         0.00000E+00
         0.00000E+00
         0.00000E+00
         0.00000E+00
         0.00000E+00
         0.00000E+00
         0.00000E+00
         0.00000E+00
         0.00000E+00
         0.00000E+00
         0.00000E+00
         0.00000E+00
         0.00000E+00
         0.00000E+00
         0.00000E+00
         0.00000E+00
         0.00000E+00
         0.00000E+00
         0.00000E+00
         0.00000E+00
         0.00000E+00
         0.00000E+00
         0.00000E+00
         0.00000E+00
         0.00000E+00
         0.00000E+00
         0.00000E+00
         0.00000E+00
         0.00000E+00
         0.00000E+00
         0.00000E+00
         0.00000E+00
         0.00000E+00
         0.00000E+00
         0.00000E+00
         0.00000E+00
         0.00000E+00
         0.00000E+00
         0.00000E+00
         0.00000E+00
         0.00000E+00
         0.00000E+00
         0.00000E+00
         0.00000E+00
         0.00000E+00
         0.00000E+00
         0.00000E+00
         0.00000E+00
         0.00000E+00
         0.00000E+00
         0.00000E+00
         0.00000E+00
         0.00000E+00
         0.00000E+00
         0.00000E+00
         0.00000E+00
         0.00000E+00
         0.00000E+00
         0.00000E+00
         0.00000E+00
         0.00000E+00
         0.00000E+00
         0.00000E+00
         0.00000E+00
         0.00000E+00
         0.00000E+00
         0.00000E+00
         0.00000E+00
         0.00000E+00
         0.00000E+00
         0.00000E+00
         0.00000E+00
         0.00000E+00
         0.00000E+00
         0.00000E+00
         0.00000E+00
         0.00000E+00
         0.00000E+00
         0.00000E+00
         0.00000E+00
         0.00000E+00
         0.00000E+00
         0.00000E+00
         0.00000E+00
         0.00000E+00
         0.00000E+00
         0.00000E+00
         0.00000E+00
         0.00000E+00
         0.00000E+00
         0.00000E+00
         0.00000E+00
         0.00000E+00
         0.00000E+00
         0.00000E+00
         0.00000E+00
         0.00000E+00
         0.00000E+00
         0.00000E+00
         0.00000E+00
         0.00000E+00
         0.00000E+00
         0.00000E+00
         0.00000E+00
         0.00000E+00
         0.00000E+00
         0.00000E+00
         0.00000E+00
         0.00000E+00
         0.00000E+00
         0.00000E+00
         0.00000E+00
         0.00000E+00
         0.00000E+00
         0.00000E+00
         0.00000E+00
         0.00000E+00
         0.00000E+00
         0.00000E+00
         0.00000E+00
         0.00000E+00
         0.00000E+00
         0.00000E+00
         0.00000E+00
         0.00000E+00
         0.00000E+00
         0.00000E+00
         0.00000E+00
         0.00000E+00
         0.00000E+00
         0.00000E+00
         0.00000E+00
         0.00000E+00
         0.00000E+00
         0.00000E+00
         0.00000E+00
         0.00000E+00
         0.00000E+00
         0.00000E+00
         0.00000E+00
         0.00000E+00
         0.00000E+00
         0.00000E+00
         0.00000E+00
         0.00000E+00
         0.00000E+00
         0.00000E+00
         0.00000E+00
         0.00000E+00
         0.00000E+00
         0.00000E+00
         0.00000E+00
         0.00000E+00
         0.00000E+00
         0.00000E+00
         0.00000E+00
         0.00000E+00
         0.00000E+00
         0.00000E+00
         0.00000E+00
         0.00000E+00
         0.00000E+00
         0.00000E+00
         0.00000E+00
         0.00000E+00
         0.00000E+00
         0.00000E+00
         0.00000E+00
         0.00000E+00
         0.00000E+00
         0.00000E+00
         0.00000E+00
         0.00000E+00
         0.00000E+00
         0.00000E+00
         0.00000E+00
         0.00000E+00
         0.00000E+00
         0.00000E+00
         0.00000E+00
         0.00000E+00
         0.00000E+00
         0.00000E+00
         0.00000E+00
         0.00000E+00
         0.00000E+00
         0.00000E+00
         0.00000E+00
         0.00000E+00
         0.00000E+00
         0.00000E+00
         0.00000E+00
         0.00000E+00
         0.00000E+00
         0.00000E+00
         0.00000E+00
         0.00000E+00
         0.00000E+00
         0.00000E+00
         0.00000E+00
         0.00000E+00
         0.00000E+00
         0.00000E+00
         0.00000E+00
         0.00000E+00
         0.00000E+00
         0.00000E+00
         0.00000E+00
         0.00000E+00
         0.00000E+00
         0.00000E+00
         0.00000E+00
         0.00000E+00
         0.00000E+00
         0.00000E+00
         0.00000E+00
         0.00000E+00
         0.00000E+00
         0.00000E+00
         0.00000E+00
         0.00000E+00
         0.00000E+00
         0.00000E+00
         0.00000E+00
         0.00000E+00
         0.00000E+00
         0.00000E+00
         0.00000E+00
         0.00000E+00
         0.00000E+00
         0.00000E+00
         0.00000E+00
         0.00000E+00
         0.00000E+00
         0.00000E+00
         0.00000E+00
         0.00000E+00
         0.00000E+00
         0.00000E+00
         0.00000E+00
         0.00000E+00
         0.00000E+00
         0.00000E+00
         0.00000E+00
         0.00000E+00
         0.00000E+00
         0.00000E+00
         0.00000E+00
         0.00000E+00
         0.00000E+00
         0.00000E+00
         0.00000E+00
         0.00000E+00
         0.00000E+00
         0.00000E+00
         0.00000E+00
         0.00000E+00
         0.00000E+00
         0.00000E+00
         0.00000E+00
         0.00000E+00
         0.00000E+00
         0.00000E+00
         0.00000E+00
         0.00000E+00
         0.00000E+00
         0.00000E+00
         0.00000E+00
         0.00000E+00
         0.00000E+00
         0.00000E+00
         0.00000E+00
         0.00000E+00
         0.00000E+00
         0.00000E+00
         0.00000E+00
         0.00000E+00
         0.00000E+00
         0.00000E+00
         0.00000E+00
         0.00000E+00
         0.00000E+00
         0.00000E+00
         0.00000E+00
         0.00000E+00
         0.00000E+00
         0.00000E+00
         0.00000E+00
         0.00000E+00
         0.00000E+00
         0.00000E+00
         0.00000E+00
         0.00000E+00
         0.00000E+00
         0.00000E+00
         0.00000E+00
         0.00000E+00
         0.00000E+00
         0.00000E+00
         0.00000E+00
         0.00000E+00
         0.00000E+00
         0.00000E+00
         0.00000E+00
         0.00000E+00
         0.00000E+00
         0.00000E+00
         0.00000E+00
         0.00000E+00
         0.00000E+00
         0.00000E+00
         0.00000E+00
         0.00000E+00
         0.00000E+00
         0.00000E+00
         0.00000E+00
         0.00000E+00
         0.00000E+00
         0.00000E+00
         0.00000E+00
         0.00000E+00
         0.00000E+00
         0.00000E+00
         0.00000E+00
         0.00000E+00
         0.00000E+00
         0.00000E+00
         0.00000E+00
         0.00000E+00
         0.00000E+00
         0.00000E+00
         0.00000E+00
         0.00000E+00
         0.00000E+00
         0.00000E+00
         0.00000E+00
         0.00000E+00
         0.00000E+00
         0.00000E+00
         0.00000E+00
         0.00000E+00
         0.00000E+00
         0.00000E+00
         0.00000E+00
         0.00000E+00
         0.00000E+00
         0.00000E+00
         0.00000E+00
         0.00000E+00
         0.00000E+00
         0.00000E+00
         0.00000E+00
         0.00000E+00
         0.00000E+00
         0.00000E+00
         0.00000E+00
         0.00000E+00
         0.00000E+00
         0.00000E+00
         0.00000E+00
         0.00000E+00
         0.00000E+00
         0.00000E+00
         0.00000E+00
         0.00000E+00
         0.00000E+00
         0.00000E+00
         0.00000E+00
         0.00000E+00
         0.00000E+00
         0.00000E+00
         0.00000E+00
         0.00000E+00
         0.00000E+00
         0.00000E+00
         0.00000E+00
         0.00000E+00
         0.00000E+00
         0.00000E+00
         0.00000E+00
         0.00000E+00
         0.00000E+00
         0.00000E+00
         0.00000E+00
         0.00000E+00
         0.00000E+00
         0.00000E+00
         0.00000E+00
         0.00000E+00
         0.00000E+00
         0.00000E+00
         0.00000E+00
         0.00000E+00
         0.00000E+00
         0.00000E+00
         0.00000E+00
         0.00000E+00
         0.00000E+00
         0.00000E+00
         0.00000E+00
         0.00000E+00
         0.00000E+00
         0.00000E+00
         0.00000E+00
         0.00000E+00
         0.00000E+00
         0.00000E+00
         0.00000E+00
         0.00000E+00
         0.00000E+00
         0.00000E+00
         0.00000E+00
         0.00000E+00
         0.00000E+00
         0.00000E+00
         0.00000E+00
         0.00000E+00
         0.00000E+00
         0.00000E+00
         0.00000E+00
         0.00000E+00
         0.00000E+00
         0.00000E+00
         0.00000E+00
         0.00000E+00
         0.00000E+00
         0.00000E+00
         0.00000E+00
         0.00000E+00
         0.00000E+00
         0.00000E+00
         0.00000E+00
         0.00000E+00
         0.00000E+00
         0.00000E+00
         0.00000E+00
         0.00000E+00
         0.00000E+00
         0.00000E+00
         0.00000E+00
         0.00000E+00
         0.00000E+00
         0.00000E+00
         0.00000E+00
         0.00000E+00
         0.00000E+00
         0.00000E+00
         0.00000E+00
         0.00000E+00
         0.00000E+00
         0.00000E+00
         0.00000E+00
         0.00000E+00
         0.00000E+00
         0.00000E+00
         0.00000E+00
         0.00000E+00
         0.00000E+00
         0.00000E+00
         0.00000E+00
         0.00000E+00
         0.00000E+00
         0.00000E+00
         0.00000E+00
         0.00000E+00
         0.00000E+00
         0.00000E+00
         0.00000E+00
         0.00000E+00
         0.00000E+00
         0.00000E+00
         0.00000E+00
         0.00000E+00
         0.00000E+00
         0.00000E+00
         0.00000E+00
         0.00000E+00
         0.00000E+00
         0.00000E+00
         0.00000E+00
         0.00000E+00
         0.00000E+00
         0.00000E+00
         0.00000E+00
         0.00000E+00
         0.00000E+00
         0.00000E+00
         0.00000E+00
         0.00000E+00
         0.00000E+00
         0.00000E+00
         0.00000E+00
         0.00000E+00
         0.00000E+00
         0.00000E+00
         0.00000E+00
         0.00000E+00
         0.00000E+00
         0.00000E+00
         0.00000E+00
         0.00000E+00
         0.00000E+00
         0.00000E+00
         0.00000E+00
         0.00000E+00
         0.00000E+00
         0.00000E+00
         0.00000E+00
         0.00000E+00
         0.00000E+00
         0.00000E+00
         0.00000E+00
         0.00000E+00
         0.00000E+00
         0.00000E+00
         0.00000E+00
         0.00000E+00
         0.00000E+00
         0.00000E+00
         0.00000E+00
         0.00000E+00
         0.00000E+00
         0.00000E+00
         0.00000E+00
         0.00000E+00
         0.00000E+00
         0.00000E+00
         0.00000E+00
         0.00000E+00
         0.00000E+00
         0.00000E+00
         0.00000E+00
         0.00000E+00
         0.00000E+00
         0.00000E+00
         0.00000E+00
         0.00000E+00
         0.00000E+00
         0.00000E+00
         0.00000E+00
         0.00000E+00
         0.00000E+00
         0.00000E+00
         0.00000E+00
         0.00000E+00
         0.00000E+00
         0.00000E+00
         0.00000E+00
         0.00000E+00
         0.00000E+00
         0.00000E+00
         0.00000E+00
         0.00000E+00
         0.00000E+00
         0.00000E+00
         0.00000E+00
         0.00000E+00
         0.00000E+00
         0.00000E+00
         0.00000E+00
         0.00000E+00
         0.00000E+00
         0.00000E+00
         0.00000E+00
         0.00000E+00
         0.00000E+00
         0.00000E+00
         0.00000E+00
         0.00000E+00
         0.00000E+00
         0.00000E+00
         0.00000E+00
         0.00000E+00
         0.00000E+00
         0.00000E+00
         0.00000E+00
         0.00000E+00
         0.00000E+00
         0.00000E+00
         0.00000E+00
         0.00000E+00
         0.00000E+00
         0.00000E+00
         0.00000E+00
         0.00000E+00
         0.00000E+00
         0.00000E+00
         0.00000E+00
         0.00000E+00
         0.00000E+00
         0.00000E+00
         0.00000E+00
         0.00000E+00
         0.00000E+00
         0.00000E+00
         0.00000E+00
         0.00000E+00
         0.00000E+00
         0.00000E+00
         0.00000E+00
         0.00000E+00
         0.00000E+00
         0.00000E+00
         0.00000E+00
         0.00000E+00
         0.00000E+00
         0.00000E+00
         0.00000E+00
         0.00000E+00
         0.00000E+00
         0.00000E+00
         0.00000E+00
         0.00000E+00
         0.00000E+00
         0.00000E+00
         0.00000E+00
         0.00000E+00
         0.00000E+00
         0.00000E+00
         0.00000E+00
         0.00000E+00
         0.00000E+00
         0.00000E+00
         0.00000E+00
         0.00000E+00
         0.00000E+00
         0.00000E+00
         0.00000E+00
         0.00000E+00
         0.00000E+00
         0.00000E+00
         0.00000E+00
         0.00000E+00
         0.00000E+00
         0.00000E+00
         0.00000E+00
         0.00000E+00
         0.00000E+00
         0.00000E+00
         0.00000E+00
         0.00000E+00
         0.00000E+00
         0.00000E+00
         0.00000E+00
         0.00000E+00
         0.00000E+00
         0.00000E+00
         0.00000E+00
         0.00000E+00
         0.00000E+00
         0.00000E+00
         0.00000E+00
         0.00000E+00
         0.00000E+00
         0.00000E+00
         0.00000E+00
         0.00000E+00
         0.00000E+00
         0.00000E+00
         0.00000E+00
         0.00000E+00
         0.00000E+00
         0.00000E+00
         0.00000E+00
         0.00000E+00
         0.00000E+00
         0.00000E+00
         0.00000E+00
         0.00000E+00
         0.00000E+00
         0.00000E+00
         0.00000E+00
         0.00000E+00
         0.00000E+00
         0.00000E+00
         0.00000E+00
         0.00000E+00
         0.00000E+00
         0.00000E+00
         0.00000E+00
         0.00000E+00
         0.00000E+00
         0.00000E+00
         0.00000E+00
         0.00000E+00
         0.00000E+00
         0.00000E+00
         0.00000E+00
         0.00000E+00
         0.00000E+00
         0.00000E+00
         0.00000E+00
         0.00000E+00
         0.00000E+00
         0.00000E+00
         0.00000E+00
         0.00000E+00
         0.00000E+00
         0.00000E+00
         0.00000E+00
         0.00000E+00
         0.00000E+00
         0.00000E+00
         0.00000E+00
         0.00000E+00
         0.00000E+00
         0.00000E+00
         0.00000E+00
         0.00000E+00
         0.00000E+00
         0.00000E+00
         0.00000E+00
         0.00000E+00
         0.00000E+00
         0.00000E+00
         0.00000E+00
         0.00000E+00
         0.00000E+00
         0.00000E+00
         0.00000E+00
         0.00000E+00
         0.00000E+00
         0.00000E+00
         0.00000E+00
         0.00000E+00
         0.00000E+00
         0.00000E+00
         0.00000E+00
         0.00000E+00
         0.00000E+00
         0.00000E+00
         0.00000E+00
         0.00000E+00
         0.00000E+00
         0.00000E+00
         0.00000E+00
         0.00000E+00
         0.00000E+00
         0.00000E+00
         0.00000E+00
         0.00000E+00
         0.00000E+00
         0.00000E+00
         0.00000E+00
         0.00000E+00
         0.00000E+00
         0.00000E+00
         0.00000E+00
         0.00000E+00
         0.00000E+00
         0.00000E+00
         0.00000E+00
         0.00000E+00
         0.00000E+00
         0.00000E+00
         0.00000E+00
         0.00000E+00
         0.00000E+00
         0.00000E+00
         0.00000E+00
         0.00000E+00
         0.00000E+00
         0.00000E+00
         0.00000E+00
         0.00000E+00
         0.00000E+00
         0.00000E+00
         0.00000E+00
         0.00000E+00
         0.00000E+00
         0.00000E+00
         0.00000E+00
         0.00000E+00
         0.00000E+00
         0.00000E+00
         0.00000E+00
         0.00000E+00
         0.00000E+00
         0.00000E+00
         0.00000E+00
         0.00000E+00
         0.00000E+00
         0.00000E+00
         0.00000E+00
         0.00000E+00
         0.00000E+00
         0.00000E+00
         0.00000E+00
         0.00000E+00
         0.00000E+00
         0.00000E+00
         0.00000E+00
         0.00000E+00
         0.00000E+00
         0.00000E+00
         0.00000E+00
         0.00000E+00
         0.00000E+00
         0.00000E+00
         0.00000E+00
         0.00000E+00
         0.00000E+00
         0.00000E+00
         0.00000E+00
         0.00000E+00
         0.00000E+00
         0.00000E+00
         0.00000E+00
         0.00000E+00
         0.00000E+00
         0.00000E+00
         0.00000E+00
         0.00000E+00
         0.00000E+00
         0.00000E+00
         0.00000E+00
         0.00000E+00
         0.00000E+00
         0.00000E+00
         0.00000E+00
         0.00000E+00
         0.00000E+00
         0.00000E+00
         0.00000E+00
         0.00000E+00
         0.00000E+00
         0.00000E+00
         0.00000E+00
         0.00000E+00
         0.00000E+00
         0.00000E+00
         0.00000E+00
         0.00000E+00
         0.00000E+00
         0.00000E+00
         0.00000E+00
         0.00000E+00
         0.00000E+00
         0.00000E+00
         0.00000E+00
         0.00000E+00
         0.00000E+00
         0.00000E+00
         0.00000E+00
         0.00000E+00
         0.00000E+00
         0.00000E+00
         0.00000E+00
         0.00000E+00
         0.00000E+00
         0.00000E+00
         0.00000E+00
         0.00000E+00
         0.00000E+00
         0.00000E+00
         0.00000E+00
         0.00000E+00
         0.00000E+00
         0.00000E+00
         0.00000E+00
         0.00000E+00
         0.00000E+00
         0.00000E+00
         0.00000E+00
         0.00000E+00
         0.00000E+00
         0.00000E+00
         0.00000E+00
         0.00000E+00
         0.00000E+00
         0.00000E+00
         0.00000E+00
         0.00000E+00
         0.00000E+00
         0.00000E+00
         0.00000E+00
         0.00000E+00
         0.00000E+00
         0.00000E+00
         0.00000E+00
         0.00000E+00
         0.00000E+00
         0.00000E+00
         0.00000E+00
         0.00000E+00
         0.00000E+00
         0.00000E+00
         0.00000E+00
         0.00000E+00
         0.00000E+00
         0.00000E+00
         0.00000E+00
         0.00000E+00
         0.00000E+00
         0.00000E+00
         0.00000E+00
         0.00000E+00
         0.00000E+00
         0.00000E+00
         0.00000E+00
         0.00000E+00
         0.00000E+00
         0.00000E+00
         0.00000E+00
         0.00000E+00
         0.00000E+00
         0.00000E+00
         0.00000E+00
         0.00000E+00
         0.00000E+00
         0.00000E+00
         0.00000E+00
         0.00000E+00
         0.00000E+00
         0.00000E+00
         0.00000E+00
         0.00000E+00
         0.00000E+00
         0.00000E+00
         0.00000E+00
         0.00000E+00
         0.00000E+00
         0.00000E+00
         0.00000E+00
         0.00000E+00
         0.00000E+00
         0.00000E+00
         0.00000E+00
         0.00000E+00
         0.00000E+00
         0.00000E+00
         0.00000E+00
         0.00000E+00
         0.00000E+00
         0.00000E+00
         0.00000E+00
         0.00000E+00
         0.00000E+00
         0.00000E+00
         0.00000E+00
         0.00000E+00
         0.00000E+00
         0.00000E+00
         0.00000E+00
         0.00000E+00
         0.00000E+00
         0.00000E+00
         0.00000E+00
         0.00000E+00
         0.00000E+00
         0.00000E+00
         0.00000E+00
         0.00000E+00
         0.00000E+00
         0.00000E+00
         0.00000E+00
         0.00000E+00
         0.00000E+00
         0.00000E+00
         0.00000E+00
         0.00000E+00
         0.00000E+00
         0.00000E+00
         0.00000E+00
         0.00000E+00
         0.00000E+00
         0.00000E+00
         0.00000E+00
         0.00000E+00
         0.00000E+00
         0.00000E+00
         0.00000E+00
         0.00000E+00
         0.00000E+00
         0.00000E+00
         0.00000E+00
         0.00000E+00
         0.00000E+00
         0.00000E+00
         0.00000E+00
         0.00000E+00
         0.00000E+00
  
SCALARS                         fint_z  double 1
LOOKUP_TABLE default
         0.00000E+00
         0.00000E+00
         0.00000E+00
         0.00000E+00
         0.00000E+00
         0.00000E+00
         0.00000E+00
         0.00000E+00
         0.00000E+00
         0.00000E+00
         0.00000E+00
         0.00000E+00
         0.00000E+00
         0.00000E+00
         0.00000E+00
         0.00000E+00
         0.00000E+00
         0.00000E+00
         0.00000E+00
         0.00000E+00
         0.00000E+00
         0.00000E+00
         0.00000E+00
         0.00000E+00
         0.00000E+00
         0.00000E+00
         0.00000E+00
         0.00000E+00
         0.00000E+00
         0.00000E+00
         0.00000E+00
         0.00000E+00
         0.00000E+00
         0.00000E+00
         0.00000E+00
         0.00000E+00
         0.00000E+00
         0.00000E+00
         0.00000E+00
         0.00000E+00
         0.00000E+00
         0.00000E+00
         0.00000E+00
         0.00000E+00
         0.00000E+00
         0.00000E+00
         0.00000E+00
         0.00000E+00
         0.00000E+00
         0.00000E+00
         0.00000E+00
         0.00000E+00
         0.00000E+00
         0.00000E+00
         0.00000E+00
         0.00000E+00
         0.00000E+00
         0.00000E+00
         0.00000E+00
         0.00000E+00
         0.00000E+00
         0.00000E+00
         0.00000E+00
         0.00000E+00
         0.00000E+00
         0.00000E+00
         0.00000E+00
         0.00000E+00
         0.00000E+00
         0.00000E+00
         0.00000E+00
         0.00000E+00
         0.00000E+00
         0.00000E+00
         0.00000E+00
         0.00000E+00
         0.00000E+00
         0.00000E+00
         0.00000E+00
         0.00000E+00
         0.00000E+00
         0.00000E+00
         0.00000E+00
         0.00000E+00
         0.00000E+00
         0.00000E+00
         0.00000E+00
         0.00000E+00
         0.00000E+00
         0.00000E+00
         0.00000E+00
         0.00000E+00
         0.00000E+00
         0.00000E+00
         0.00000E+00
         0.00000E+00
         0.00000E+00
         0.00000E+00
         0.00000E+00
         0.00000E+00
         0.00000E+00
         0.00000E+00
         0.00000E+00
         0.00000E+00
         0.00000E+00
         0.00000E+00
         0.00000E+00
         0.00000E+00
         0.00000E+00
         0.00000E+00
         0.00000E+00
         0.00000E+00
         0.00000E+00
         0.00000E+00
         0.00000E+00
         0.00000E+00
         0.00000E+00
         0.00000E+00
         0.00000E+00
         0.00000E+00
         0.00000E+00
         0.00000E+00
         0.00000E+00
         0.00000E+00
         0.00000E+00
         0.00000E+00
         0.00000E+00
         0.00000E+00
         0.00000E+00
         0.00000E+00
         0.00000E+00
         0.00000E+00
         0.00000E+00
         0.00000E+00
         0.00000E+00
         0.00000E+00
         0.00000E+00
         0.00000E+00
         0.00000E+00
         0.00000E+00
         0.00000E+00
         0.00000E+00
         0.00000E+00
         0.00000E+00
         0.00000E+00
         0.00000E+00
         0.00000E+00
         0.00000E+00
         0.00000E+00
         0.00000E+00
         0.00000E+00
         0.00000E+00
         0.00000E+00
         0.00000E+00
         0.00000E+00
         0.00000E+00
         0.00000E+00
         0.00000E+00
         0.00000E+00
         0.00000E+00
         0.00000E+00
         0.00000E+00
         0.00000E+00
         0.00000E+00
         0.00000E+00
         0.00000E+00
         0.00000E+00
         0.00000E+00
         0.00000E+00
         0.00000E+00
         0.00000E+00
         0.00000E+00
         0.00000E+00
         0.00000E+00
         0.00000E+00
         0.00000E+00
         0.00000E+00
         0.00000E+00
         0.00000E+00
         0.00000E+00
         0.00000E+00
         0.00000E+00
         0.00000E+00
         0.00000E+00
         0.00000E+00
         0.00000E+00
         0.00000E+00
         0.00000E+00
         0.00000E+00
         0.00000E+00
         0.00000E+00
         0.00000E+00
         0.00000E+00
         0.00000E+00
         0.00000E+00
         0.00000E+00
         0.00000E+00
         0.00000E+00
         0.00000E+00
         0.00000E+00
         0.00000E+00
         0.00000E+00
         0.00000E+00
         0.00000E+00
         0.00000E+00
         0.00000E+00
         0.00000E+00
         0.00000E+00
         0.00000E+00
         0.00000E+00
         0.00000E+00
         0.00000E+00
         0.00000E+00
         0.00000E+00
         0.00000E+00
         0.00000E+00
         0.00000E+00
         0.00000E+00
         0.00000E+00
         0.00000E+00
         0.00000E+00
         0.00000E+00
         0.00000E+00
         0.00000E+00
         0.00000E+00
         0.00000E+00
         0.00000E+00
         0.00000E+00
         0.00000E+00
         0.00000E+00
         0.00000E+00
         0.00000E+00
         0.00000E+00
         0.00000E+00
         0.00000E+00
         0.00000E+00
         0.00000E+00
         0.00000E+00
         0.00000E+00
         0.00000E+00
         0.00000E+00
         0.00000E+00
         0.00000E+00
         0.00000E+00
         0.00000E+00
         0.00000E+00
         0.00000E+00
         0.00000E+00
         0.00000E+00
         0.00000E+00
         0.00000E+00
         0.00000E+00
         0.00000E+00
         0.00000E+00
         0.00000E+00
         0.00000E+00
         0.00000E+00
         0.00000E+00
         0.00000E+00
         0.00000E+00
         0.00000E+00
         0.00000E+00
         0.00000E+00
         0.00000E+00
         0.00000E+00
         0.00000E+00
         0.00000E+00
         0.00000E+00
         0.00000E+00
         0.00000E+00
         0.00000E+00
         0.00000E+00
         0.00000E+00
         0.00000E+00
         0.00000E+00
         0.00000E+00
         0.00000E+00
         0.00000E+00
         0.00000E+00
         0.00000E+00
         0.00000E+00
         0.00000E+00
         0.00000E+00
         0.00000E+00
         0.00000E+00
         0.00000E+00
         0.00000E+00
         0.00000E+00
         0.00000E+00
         0.00000E+00
         0.00000E+00
         0.00000E+00
         0.00000E+00
         0.00000E+00
         0.00000E+00
         0.00000E+00
         0.00000E+00
         0.00000E+00
         0.00000E+00
         0.00000E+00
         0.00000E+00
         0.00000E+00
         0.00000E+00
         0.00000E+00
         0.00000E+00
         0.00000E+00
         0.00000E+00
         0.00000E+00
         0.00000E+00
         0.00000E+00
         0.00000E+00
         0.00000E+00
         0.00000E+00
         0.00000E+00
         0.00000E+00
         0.00000E+00
         0.00000E+00
         0.00000E+00
         0.00000E+00
         0.00000E+00
         0.00000E+00
         0.00000E+00
         0.00000E+00
         0.00000E+00
         0.00000E+00
         0.00000E+00
         0.00000E+00
         0.00000E+00
         0.00000E+00
         0.00000E+00
         0.00000E+00
         0.00000E+00
         0.00000E+00
         0.00000E+00
         0.00000E+00
         0.00000E+00
         0.00000E+00
         0.00000E+00
         0.00000E+00
         0.00000E+00
         0.00000E+00
         0.00000E+00
         0.00000E+00
         0.00000E+00
         0.00000E+00
         0.00000E+00
         0.00000E+00
         0.00000E+00
         0.00000E+00
         0.00000E+00
         0.00000E+00
         0.00000E+00
         0.00000E+00
         0.00000E+00
         0.00000E+00
         0.00000E+00
         0.00000E+00
         0.00000E+00
         0.00000E+00
         0.00000E+00
         0.00000E+00
         0.00000E+00
         0.00000E+00
         0.00000E+00
         0.00000E+00
         0.00000E+00
         0.00000E+00
         0.00000E+00
         0.00000E+00
         0.00000E+00
         0.00000E+00
         0.00000E+00
         0.00000E+00
         0.00000E+00
         0.00000E+00
         0.00000E+00
         0.00000E+00
         0.00000E+00
         0.00000E+00
         0.00000E+00
         0.00000E+00
         0.00000E+00
         0.00000E+00
         0.00000E+00
         0.00000E+00
         0.00000E+00
         0.00000E+00
         0.00000E+00
         0.00000E+00
         0.00000E+00
         0.00000E+00
         0.00000E+00
         0.00000E+00
         0.00000E+00
         0.00000E+00
         0.00000E+00
         0.00000E+00
         0.00000E+00
         0.00000E+00
         0.00000E+00
         0.00000E+00
         0.00000E+00
         0.00000E+00
         0.00000E+00
         0.00000E+00
         0.00000E+00
         0.00000E+00
         0.00000E+00
         0.00000E+00
         0.00000E+00
         0.00000E+00
         0.00000E+00
         0.00000E+00
         0.00000E+00
         0.00000E+00
         0.00000E+00
         0.00000E+00
         0.00000E+00
         0.00000E+00
         0.00000E+00
         0.00000E+00
         0.00000E+00
         0.00000E+00
         0.00000E+00
         0.00000E+00
         0.00000E+00
         0.00000E+00
         0.00000E+00
         0.00000E+00
         0.00000E+00
         0.00000E+00
         0.00000E+00
         0.00000E+00
         0.00000E+00
         0.00000E+00
         0.00000E+00
         0.00000E+00
         0.00000E+00
         0.00000E+00
         0.00000E+00
         0.00000E+00
         0.00000E+00
         0.00000E+00
         0.00000E+00
         0.00000E+00
         0.00000E+00
         0.00000E+00
         0.00000E+00
         0.00000E+00
         0.00000E+00
         0.00000E+00
         0.00000E+00
         0.00000E+00
         0.00000E+00
         0.00000E+00
         0.00000E+00
         0.00000E+00
         0.00000E+00
         0.00000E+00
         0.00000E+00
         0.00000E+00
         0.00000E+00
         0.00000E+00
         0.00000E+00
         0.00000E+00
         0.00000E+00
         0.00000E+00
         0.00000E+00
         0.00000E+00
         0.00000E+00
         0.00000E+00
         0.00000E+00
         0.00000E+00
         0.00000E+00
         0.00000E+00
         0.00000E+00
         0.00000E+00
         0.00000E+00
         0.00000E+00
         0.00000E+00
         0.00000E+00
         0.00000E+00
         0.00000E+00
         0.00000E+00
         0.00000E+00
         0.00000E+00
         0.00000E+00
         0.00000E+00
         0.00000E+00
         0.00000E+00
         0.00000E+00
         0.00000E+00
         0.00000E+00
         0.00000E+00
         0.00000E+00
         0.00000E+00
         0.00000E+00
         0.00000E+00
         0.00000E+00
         0.00000E+00
         0.00000E+00
         0.00000E+00
         0.00000E+00
         0.00000E+00
         0.00000E+00
         0.00000E+00
         0.00000E+00
         0.00000E+00
         0.00000E+00
         0.00000E+00
         0.00000E+00
         0.00000E+00
         0.00000E+00
         0.00000E+00
         0.00000E+00
         0.00000E+00
         0.00000E+00
         0.00000E+00
         0.00000E+00
         0.00000E+00
         0.00000E+00
         0.00000E+00
         0.00000E+00
         0.00000E+00
         0.00000E+00
         0.00000E+00
         0.00000E+00
         0.00000E+00
         0.00000E+00
         0.00000E+00
         0.00000E+00
         0.00000E+00
         0.00000E+00
         0.00000E+00
         0.00000E+00
         0.00000E+00
         0.00000E+00
         0.00000E+00
         0.00000E+00
         0.00000E+00
         0.00000E+00
         0.00000E+00
         0.00000E+00
         0.00000E+00
         0.00000E+00
         0.00000E+00
         0.00000E+00
         0.00000E+00
         0.00000E+00
         0.00000E+00
         0.00000E+00
         0.00000E+00
         0.00000E+00
         0.00000E+00
         0.00000E+00
         0.00000E+00
         0.00000E+00
         0.00000E+00
         0.00000E+00
         0.00000E+00
         0.00000E+00
         0.00000E+00
         0.00000E+00
         0.00000E+00
         0.00000E+00
         0.00000E+00
         0.00000E+00
         0.00000E+00
         0.00000E+00
         0.00000E+00
         0.00000E+00
         0.00000E+00
         0.00000E+00
         0.00000E+00
         0.00000E+00
         0.00000E+00
         0.00000E+00
         0.00000E+00
         0.00000E+00
         0.00000E+00
         0.00000E+00
         0.00000E+00
         0.00000E+00
         0.00000E+00
         0.00000E+00
         0.00000E+00
         0.00000E+00
         0.00000E+00
         0.00000E+00
         0.00000E+00
         0.00000E+00
         0.00000E+00
         0.00000E+00
         0.00000E+00
         0.00000E+00
         0.00000E+00
         0.00000E+00
         0.00000E+00
         0.00000E+00
         0.00000E+00
         0.00000E+00
         0.00000E+00
         0.00000E+00
         0.00000E+00
         0.00000E+00
         0.00000E+00
         0.00000E+00
         0.00000E+00
         0.00000E+00
         0.00000E+00
         0.00000E+00
         0.00000E+00
         0.00000E+00
         0.00000E+00
         0.00000E+00
         0.00000E+00
         0.00000E+00
         0.00000E+00
         0.00000E+00
         0.00000E+00
         0.00000E+00
         0.00000E+00
         0.00000E+00
         0.00000E+00
         0.00000E+00
         0.00000E+00
         0.00000E+00
         0.00000E+00
         0.00000E+00
         0.00000E+00
         0.00000E+00
         0.00000E+00
         0.00000E+00
         0.00000E+00
         0.00000E+00
         0.00000E+00
         0.00000E+00
         0.00000E+00
         0.00000E+00
         0.00000E+00
         0.00000E+00
         0.00000E+00
         0.00000E+00
         0.00000E+00
         0.00000E+00
         0.00000E+00
         0.00000E+00
         0.00000E+00
         0.00000E+00
         0.00000E+00
         0.00000E+00
         0.00000E+00
         0.00000E+00
         0.00000E+00
         0.00000E+00
         0.00000E+00
         0.00000E+00
         0.00000E+00
         0.00000E+00
         0.00000E+00
         0.00000E+00
         0.00000E+00
         0.00000E+00
         0.00000E+00
         0.00000E+00
         0.00000E+00
         0.00000E+00
         0.00000E+00
         0.00000E+00
         0.00000E+00
         0.00000E+00
         0.00000E+00
         0.00000E+00
         0.00000E+00
         0.00000E+00
         0.00000E+00
         0.00000E+00
         0.00000E+00
         0.00000E+00
         0.00000E+00
         0.00000E+00
         0.00000E+00
         0.00000E+00
         0.00000E+00
         0.00000E+00
         0.00000E+00
         0.00000E+00
         0.00000E+00
         0.00000E+00
         0.00000E+00
         0.00000E+00
         0.00000E+00
         0.00000E+00
         0.00000E+00
         0.00000E+00
         0.00000E+00
         0.00000E+00
         0.00000E+00
         0.00000E+00
         0.00000E+00
         0.00000E+00
         0.00000E+00
         0.00000E+00
         0.00000E+00
         0.00000E+00
         0.00000E+00
         0.00000E+00
         0.00000E+00
         0.00000E+00
         0.00000E+00
         0.00000E+00
         0.00000E+00
         0.00000E+00
         0.00000E+00
         0.00000E+00
         0.00000E+00
         0.00000E+00
         0.00000E+00
         0.00000E+00
         0.00000E+00
         0.00000E+00
         0.00000E+00
         0.00000E+00
         0.00000E+00
         0.00000E+00
         0.00000E+00
         0.00000E+00
         0.00000E+00
         0.00000E+00
         0.00000E+00
         0.00000E+00
         0.00000E+00
         0.00000E+00
         0.00000E+00
         0.00000E+00
         0.00000E+00
         0.00000E+00
         0.00000E+00
         0.00000E+00
         0.00000E+00
         0.00000E+00
         0.00000E+00
         0.00000E+00
         0.00000E+00
         0.00000E+00
         0.00000E+00
         0.00000E+00
         0.00000E+00
         0.00000E+00
         0.00000E+00
         0.00000E+00
         0.00000E+00
         0.00000E+00
         0.00000E+00
         0.00000E+00
         0.00000E+00
         0.00000E+00
         0.00000E+00
         0.00000E+00
         0.00000E+00
         0.00000E+00
         0.00000E+00
         0.00000E+00
         0.00000E+00
         0.00000E+00
         0.00000E+00
         0.00000E+00
         0.00000E+00
         0.00000E+00
         0.00000E+00
         0.00000E+00
         0.00000E+00
         0.00000E+00
         0.00000E+00
         0.00000E+00
         0.00000E+00
         0.00000E+00
         0.00000E+00
         0.00000E+00
         0.00000E+00
         0.00000E+00
         0.00000E+00
         0.00000E+00
         0.00000E+00
         0.00000E+00
         0.00000E+00
         0.00000E+00
         0.00000E+00
         0.00000E+00
         0.00000E+00
         0.00000E+00
         0.00000E+00
         0.00000E+00
         0.00000E+00
         0.00000E+00
         0.00000E+00
         0.00000E+00
         0.00000E+00
         0.00000E+00
         0.00000E+00
         0.00000E+00
         0.00000E+00
         0.00000E+00
         0.00000E+00
         0.00000E+00
         0.00000E+00
         0.00000E+00
         0.00000E+00
         0.00000E+00
         0.00000E+00
         0.00000E+00
         0.00000E+00
         0.00000E+00
         0.00000E+00
         0.00000E+00
         0.00000E+00
         0.00000E+00
         0.00000E+00
         0.00000E+00
         0.00000E+00
         0.00000E+00
         0.00000E+00
         0.00000E+00
         0.00000E+00
         0.00000E+00
         0.00000E+00
         0.00000E+00
         0.00000E+00
         0.00000E+00
         0.00000E+00
         0.00000E+00
         0.00000E+00
         0.00000E+00
         0.00000E+00
         0.00000E+00
         0.00000E+00
         0.00000E+00
         0.00000E+00
         0.00000E+00
         0.00000E+00
         0.00000E+00
         0.00000E+00
         0.00000E+00
         0.00000E+00
         0.00000E+00
         0.00000E+00
         0.00000E+00
         0.00000E+00
         0.00000E+00
         0.00000E+00
         0.00000E+00
         0.00000E+00
         0.00000E+00
         0.00000E+00
         0.00000E+00
         0.00000E+00
         0.00000E+00
         0.00000E+00
         0.00000E+00
         0.00000E+00
         0.00000E+00
         0.00000E+00
         0.00000E+00
         0.00000E+00
         0.00000E+00
         0.00000E+00
         0.00000E+00
         0.00000E+00
         0.00000E+00
         0.00000E+00
         0.00000E+00
         0.00000E+00
         0.00000E+00
         0.00000E+00
         0.00000E+00
         0.00000E+00
         0.00000E+00
         0.00000E+00
         0.00000E+00
         0.00000E+00
         0.00000E+00
         0.00000E+00
         0.00000E+00
         0.00000E+00
         0.00000E+00
         0.00000E+00
         0.00000E+00
         0.00000E+00
         0.00000E+00
         0.00000E+00
         0.00000E+00
         0.00000E+00
         0.00000E+00
         0.00000E+00
         0.00000E+00
         0.00000E+00
         0.00000E+00
         0.00000E+00
         0.00000E+00
         0.00000E+00
         0.00000E+00
         0.00000E+00
         0.00000E+00
         0.00000E+00
         0.00000E+00
         0.00000E+00
         0.00000E+00
         0.00000E+00
         0.00000E+00
         0.00000E+00
         0.00000E+00
         0.00000E+00
         0.00000E+00
         0.00000E+00
         0.00000E+00
         0.00000E+00
         0.00000E+00
         0.00000E+00
         0.00000E+00
         0.00000E+00
         0.00000E+00
         0.00000E+00
         0.00000E+00
         0.00000E+00
         0.00000E+00
         0.00000E+00
         0.00000E+00
         0.00000E+00
         0.00000E+00
         0.00000E+00
         0.00000E+00
         0.00000E+00
         0.00000E+00
         0.00000E+00
         0.00000E+00
         0.00000E+00
         0.00000E+00
         0.00000E+00
         0.00000E+00
         0.00000E+00
         0.00000E+00
         0.00000E+00
         0.00000E+00
         0.00000E+00
         0.00000E+00
         0.00000E+00
         0.00000E+00
         0.00000E+00
         0.00000E+00
         0.00000E+00
         0.00000E+00
         0.00000E+00
         0.00000E+00
         0.00000E+00
         0.00000E+00
         0.00000E+00
         0.00000E+00
         0.00000E+00
         0.00000E+00
         0.00000E+00
         0.00000E+00
         0.00000E+00
         0.00000E+00
         0.00000E+00
         0.00000E+00
         0.00000E+00
         0.00000E+00
         0.00000E+00
         0.00000E+00
         0.00000E+00
         0.00000E+00
         0.00000E+00
         0.00000E+00
         0.00000E+00
         0.00000E+00
         0.00000E+00
         0.00000E+00
         0.00000E+00
         0.00000E+00
         0.00000E+00
         0.00000E+00
         0.00000E+00
         0.00000E+00
         0.00000E+00
         0.00000E+00
         0.00000E+00
         0.00000E+00
         0.00000E+00
         0.00000E+00
         0.00000E+00
         0.00000E+00
         0.00000E+00
         0.00000E+00
         0.00000E+00
         0.00000E+00
         0.00000E+00
         0.00000E+00
         0.00000E+00
         0.00000E+00
         0.00000E+00
         0.00000E+00
         0.00000E+00
         0.00000E+00
         0.00000E+00
         0.00000E+00
         0.00000E+00
         0.00000E+00
         0.00000E+00
         0.00000E+00
         0.00000E+00
         0.00000E+00
         0.00000E+00
         0.00000E+00
         0.00000E+00
         0.00000E+00
         0.00000E+00
         0.00000E+00
         0.00000E+00
         0.00000E+00
         0.00000E+00
         0.00000E+00
         0.00000E+00
         0.00000E+00
         0.00000E+00
         0.00000E+00
         0.00000E+00
         0.00000E+00
         0.00000E+00
         0.00000E+00
         0.00000E+00
         0.00000E+00
         0.00000E+00
         0.00000E+00
         0.00000E+00
         0.00000E+00
         0.00000E+00
         0.00000E+00
         0.00000E+00
         0.00000E+00
         0.00000E+00
         0.00000E+00
         0.00000E+00
         0.00000E+00
         0.00000E+00
         0.00000E+00
         0.00000E+00
         0.00000E+00
         0.00000E+00
         0.00000E+00
         0.00000E+00
         0.00000E+00
         0.00000E+00
         0.00000E+00
         0.00000E+00
         0.00000E+00
         0.00000E+00
         0.00000E+00
         0.00000E+00
         0.00000E+00
         0.00000E+00
         0.00000E+00
         0.00000E+00
         0.00000E+00
         0.00000E+00
         0.00000E+00
         0.00000E+00
         0.00000E+00
         0.00000E+00
         0.00000E+00
         0.00000E+00
         0.00000E+00
         0.00000E+00
         0.00000E+00
         0.00000E+00
         0.00000E+00
         0.00000E+00
         0.00000E+00
         0.00000E+00
         0.00000E+00
         0.00000E+00
         0.00000E+00
         0.00000E+00
         0.00000E+00
         0.00000E+00
         0.00000E+00
         0.00000E+00
         0.00000E+00
         0.00000E+00
         0.00000E+00
         0.00000E+00
         0.00000E+00
         0.00000E+00
         0.00000E+00
         0.00000E+00
         0.00000E+00
         0.00000E+00
         0.00000E+00
         0.00000E+00
         0.00000E+00
         0.00000E+00
         0.00000E+00
         0.00000E+00
         0.00000E+00
         0.00000E+00
         0.00000E+00
         0.00000E+00
         0.00000E+00
         0.00000E+00
         0.00000E+00
         0.00000E+00
         0.00000E+00
         0.00000E+00
         0.00000E+00
         0.00000E+00
         0.00000E+00
         0.00000E+00
         0.00000E+00
         0.00000E+00
         0.00000E+00
         0.00000E+00
         0.00000E+00
         0.00000E+00
         0.00000E+00
         0.00000E+00
         0.00000E+00
         0.00000E+00
         0.00000E+00
         0.00000E+00
         0.00000E+00
         0.00000E+00
         0.00000E+00
         0.00000E+00
         0.00000E+00
         0.00000E+00
         0.00000E+00
         0.00000E+00
         0.00000E+00
         0.00000E+00
         0.00000E+00
         0.00000E+00
         0.00000E+00
         0.00000E+00
         0.00000E+00
         0.00000E+00
         0.00000E+00
         0.00000E+00
         0.00000E+00
         0.00000E+00
         0.00000E+00
         0.00000E+00
         0.00000E+00
         0.00000E+00
         0.00000E+00
         0.00000E+00
         0.00000E+00
         0.00000E+00
         0.00000E+00
         0.00000E+00
         0.00000E+00
         0.00000E+00
         0.00000E+00
         0.00000E+00
         0.00000E+00
         0.00000E+00
         0.00000E+00
         0.00000E+00
         0.00000E+00
         0.00000E+00
         0.00000E+00
         0.00000E+00
         0.00000E+00
         0.00000E+00
         0.00000E+00
         0.00000E+00
         0.00000E+00
         0.00000E+00
         0.00000E+00
         0.00000E+00
         0.00000E+00
         0.00000E+00
         0.00000E+00
         0.00000E+00
         0.00000E+00
         0.00000E+00
         0.00000E+00
         0.00000E+00
         0.00000E+00
         0.00000E+00
         0.00000E+00
         0.00000E+00
         0.00000E+00
         0.00000E+00
         0.00000E+00
         0.00000E+00
         0.00000E+00
         0.00000E+00
         0.00000E+00
         0.00000E+00
         0.00000E+00
         0.00000E+00
         0.00000E+00
         0.00000E+00
         0.00000E+00
         0.00000E+00
         0.00000E+00
         0.00000E+00
         0.00000E+00
         0.00000E+00
         0.00000E+00
         0.00000E+00
         0.00000E+00
         0.00000E+00
         0.00000E+00
         0.00000E+00
         0.00000E+00
         0.00000E+00
         0.00000E+00
         0.00000E+00
         0.00000E+00
         0.00000E+00
         0.00000E+00
         0.00000E+00
         0.00000E+00
         0.00000E+00
         0.00000E+00
         0.00000E+00
         0.00000E+00
         0.00000E+00
         0.00000E+00
         0.00000E+00
         0.00000E+00
         0.00000E+00
         0.00000E+00
         0.00000E+00
         0.00000E+00
         0.00000E+00
         0.00000E+00
         0.00000E+00
         0.00000E+00
         0.00000E+00
         0.00000E+00
         0.00000E+00
         0.00000E+00
         0.00000E+00
         0.00000E+00
         0.00000E+00
         0.00000E+00
         0.00000E+00
         0.00000E+00
         0.00000E+00
         0.00000E+00
         0.00000E+00
         0.00000E+00
         0.00000E+00
         0.00000E+00
         0.00000E+00
         0.00000E+00
         0.00000E+00
         0.00000E+00
         0.00000E+00
         0.00000E+00
         0.00000E+00
         0.00000E+00
         0.00000E+00
         0.00000E+00
         0.00000E+00
         0.00000E+00
         0.00000E+00
         0.00000E+00
         0.00000E+00
         0.00000E+00
         0.00000E+00
         0.00000E+00
         0.00000E+00
         0.00000E+00
         0.00000E+00
         0.00000E+00
         0.00000E+00
         0.00000E+00
         0.00000E+00
         0.00000E+00
         0.00000E+00
         0.00000E+00
         0.00000E+00
         0.00000E+00
         0.00000E+00
         0.00000E+00
         0.00000E+00
         0.00000E+00
         0.00000E+00
         0.00000E+00
         0.00000E+00
         0.00000E+00
         0.00000E+00
         0.00000E+00
         0.00000E+00
         0.00000E+00
         0.00000E+00
         0.00000E+00
         0.00000E+00
         0.00000E+00
         0.00000E+00
         0.00000E+00
         0.00000E+00
         0.00000E+00
         0.00000E+00
         0.00000E+00
         0.00000E+00
         0.00000E+00
         0.00000E+00
         0.00000E+00
         0.00000E+00
         0.00000E+00
         0.00000E+00
         0.00000E+00
         0.00000E+00
         0.00000E+00
         0.00000E+00
         0.00000E+00
         0.00000E+00
         0.00000E+00
         0.00000E+00
         0.00000E+00
         0.00000E+00
         0.00000E+00
         0.00000E+00
         0.00000E+00
         0.00000E+00
         0.00000E+00
         0.00000E+00
         0.00000E+00
         0.00000E+00
         0.00000E+00
         0.00000E+00
         0.00000E+00
         0.00000E+00
         0.00000E+00
         0.00000E+00
         0.00000E+00
         0.00000E+00
         0.00000E+00
         0.00000E+00
         0.00000E+00
         0.00000E+00
         0.00000E+00
         0.00000E+00
         0.00000E+00
         0.00000E+00
         0.00000E+00
         0.00000E+00
         0.00000E+00
         0.00000E+00
         0.00000E+00
         0.00000E+00
         0.00000E+00
         0.00000E+00
         0.00000E+00
         0.00000E+00
         0.00000E+00
         0.00000E+00
         0.00000E+00
         0.00000E+00
         0.00000E+00
         0.00000E+00
         0.00000E+00
         0.00000E+00
         0.00000E+00
         0.00000E+00
         0.00000E+00
         0.00000E+00
         0.00000E+00
         0.00000E+00
         0.00000E+00
         0.00000E+00
         0.00000E+00
         0.00000E+00
         0.00000E+00
         0.00000E+00
         0.00000E+00
         0.00000E+00
         0.00000E+00
         0.00000E+00
         0.00000E+00
         0.00000E+00
         0.00000E+00
         0.00000E+00
         0.00000E+00
         0.00000E+00
         0.00000E+00
         0.00000E+00
         0.00000E+00
         0.00000E+00
         0.00000E+00
         0.00000E+00
         0.00000E+00
         0.00000E+00
         0.00000E+00
         0.00000E+00
         0.00000E+00
         0.00000E+00
         0.00000E+00
         0.00000E+00
         0.00000E+00
         0.00000E+00
         0.00000E+00
         0.00000E+00
         0.00000E+00
         0.00000E+00
         0.00000E+00
         0.00000E+00
         0.00000E+00
         0.00000E+00
         0.00000E+00
         0.00000E+00
         0.00000E+00
         0.00000E+00
         0.00000E+00
         0.00000E+00
         0.00000E+00
         0.00000E+00
         0.00000E+00
         0.00000E+00
         0.00000E+00
         0.00000E+00
         0.00000E+00
         0.00000E+00
         0.00000E+00
         0.00000E+00
         0.00000E+00
         0.00000E+00
         0.00000E+00
         0.00000E+00
         0.00000E+00
         0.00000E+00
         0.00000E+00
         0.00000E+00
         0.00000E+00
         0.00000E+00
         0.00000E+00
         0.00000E+00
         0.00000E+00
         0.00000E+00
         0.00000E+00
         0.00000E+00
         0.00000E+00
         0.00000E+00
         0.00000E+00
         0.00000E+00
         0.00000E+00
         0.00000E+00
         0.00000E+00
         0.00000E+00
         0.00000E+00
         0.00000E+00
         0.00000E+00
         0.00000E+00
         0.00000E+00
         0.00000E+00
         0.00000E+00
         0.00000E+00
         0.00000E+00
         0.00000E+00
         0.00000E+00
         0.00000E+00
         0.00000E+00
         0.00000E+00
         0.00000E+00
         0.00000E+00
         0.00000E+00
         0.00000E+00
         0.00000E+00
         0.00000E+00
         0.00000E+00
         0.00000E+00
         0.00000E+00
         0.00000E+00
         0.00000E+00
         0.00000E+00
         0.00000E+00
         0.00000E+00
         0.00000E+00
         0.00000E+00
         0.00000E+00
         0.00000E+00
         0.00000E+00
         0.00000E+00
         0.00000E+00
         0.00000E+00
         0.00000E+00
         0.00000E+00
         0.00000E+00
         0.00000E+00
         0.00000E+00
         0.00000E+00
         0.00000E+00
         0.00000E+00
         0.00000E+00
         0.00000E+00
         0.00000E+00
         0.00000E+00
         0.00000E+00
         0.00000E+00
         0.00000E+00
         0.00000E+00
         0.00000E+00
         0.00000E+00
         0.00000E+00
         0.00000E+00
         0.00000E+00
         0.00000E+00
         0.00000E+00
         0.00000E+00
         0.00000E+00
         0.00000E+00
         0.00000E+00
         0.00000E+00
         0.00000E+00
         0.00000E+00
         0.00000E+00
         0.00000E+00
         0.00000E+00
         0.00000E+00
         0.00000E+00
         0.00000E+00
         0.00000E+00
         0.00000E+00
         0.00000E+00
         0.00000E+00
         0.00000E+00
         0.00000E+00
         0.00000E+00
         0.00000E+00
         0.00000E+00
         0.00000E+00
         0.00000E+00
         0.00000E+00
         0.00000E+00
         0.00000E+00
         0.00000E+00
         0.00000E+00
         0.00000E+00
         0.00000E+00
         0.00000E+00
         0.00000E+00
         0.00000E+00
         0.00000E+00
         0.00000E+00
         0.00000E+00
         0.00000E+00
         0.00000E+00
         0.00000E+00
         0.00000E+00
         0.00000E+00
         0.00000E+00
         0.00000E+00
         0.00000E+00
         0.00000E+00
         0.00000E+00
         0.00000E+00
         0.00000E+00
         0.00000E+00
         0.00000E+00
         0.00000E+00
         0.00000E+00
         0.00000E+00
         0.00000E+00
         0.00000E+00
         0.00000E+00
         0.00000E+00
         0.00000E+00
         0.00000E+00
         0.00000E+00
         0.00000E+00
         0.00000E+00
         0.00000E+00
         0.00000E+00
         0.00000E+00
         0.00000E+00
         0.00000E+00
         0.00000E+00
         0.00000E+00
         0.00000E+00
         0.00000E+00
         0.00000E+00
         0.00000E+00
         0.00000E+00
         0.00000E+00
         0.00000E+00
         0.00000E+00
         0.00000E+00
         0.00000E+00
         0.00000E+00
         0.00000E+00
         0.00000E+00
         0.00000E+00
         0.00000E+00
         0.00000E+00
         0.00000E+00
         0.00000E+00
         0.00000E+00
         0.00000E+00
         0.00000E+00
         0.00000E+00
         0.00000E+00
         0.00000E+00
         0.00000E+00
         0.00000E+00
         0.00000E+00
         0.00000E+00
         0.00000E+00
         0.00000E+00
         0.00000E+00
         0.00000E+00
         0.00000E+00
         0.00000E+00
         0.00000E+00
         0.00000E+00
         0.00000E+00
         0.00000E+00
         0.00000E+00
         0.00000E+00
         0.00000E+00
         0.00000E+00
         0.00000E+00
         0.00000E+00
         0.00000E+00
         0.00000E+00
         0.00000E+00
         0.00000E+00
         0.00000E+00
         0.00000E+00
         0.00000E+00
         0.00000E+00
         0.00000E+00
         0.00000E+00
         0.00000E+00
         0.00000E+00
         0.00000E+00
         0.00000E+00
         0.00000E+00
         0.00000E+00
         0.00000E+00
         0.00000E+00
         0.00000E+00
         0.00000E+00
         0.00000E+00
         0.00000E+00
         0.00000E+00
         0.00000E+00
         0.00000E+00
         0.00000E+00
         0.00000E+00
         0.00000E+00
         0.00000E+00
         0.00000E+00
         0.00000E+00
         0.00000E+00
         0.00000E+00
         0.00000E+00
         0.00000E+00
         0.00000E+00
         0.00000E+00
         0.00000E+00
         0.00000E+00
         0.00000E+00
         0.00000E+00
         0.00000E+00
         0.00000E+00
         0.00000E+00
         0.00000E+00
         0.00000E+00
         0.00000E+00
         0.00000E+00
         0.00000E+00
         0.00000E+00
         0.00000E+00
         0.00000E+00
         0.00000E+00
         0.00000E+00
         0.00000E+00
         0.00000E+00
         0.00000E+00
         0.00000E+00
         0.00000E+00
         0.00000E+00
         0.00000E+00
         0.00000E+00
         0.00000E+00
         0.00000E+00
         0.00000E+00
         0.00000E+00
         0.00000E+00
         0.00000E+00
         0.00000E+00
         0.00000E+00
         0.00000E+00
         0.00000E+00
         0.00000E+00
         0.00000E+00
         0.00000E+00
         0.00000E+00
         0.00000E+00
         0.00000E+00
         0.00000E+00
         0.00000E+00
         0.00000E+00
         0.00000E+00
         0.00000E+00
         0.00000E+00
         0.00000E+00
         0.00000E+00
         0.00000E+00
         0.00000E+00
         0.00000E+00
         0.00000E+00
         0.00000E+00
         0.00000E+00
         0.00000E+00
         0.00000E+00
         0.00000E+00
         0.00000E+00
         0.00000E+00
         0.00000E+00
         0.00000E+00
         0.00000E+00
         0.00000E+00
         0.00000E+00
         0.00000E+00
         0.00000E+00
         0.00000E+00
         0.00000E+00
         0.00000E+00
         0.00000E+00
         0.00000E+00
         0.00000E+00
         0.00000E+00
         0.00000E+00
         0.00000E+00
         0.00000E+00
         0.00000E+00
         0.00000E+00
         0.00000E+00
         0.00000E+00
         0.00000E+00
         0.00000E+00
         0.00000E+00
         0.00000E+00
         0.00000E+00
         0.00000E+00
         0.00000E+00
         0.00000E+00
         0.00000E+00
         0.00000E+00
         0.00000E+00
         0.00000E+00
         0.00000E+00
         0.00000E+00
         0.00000E+00
         0.00000E+00
         0.00000E+00
         0.00000E+00
         0.00000E+00
         0.00000E+00
         0.00000E+00
         0.00000E+00
         0.00000E+00
         0.00000E+00
         0.00000E+00
         0.00000E+00
         0.00000E+00
         0.00000E+00
         0.00000E+00
         0.00000E+00
         0.00000E+00
         0.00000E+00
         0.00000E+00
         0.00000E+00
         0.00000E+00
         0.00000E+00
         0.00000E+00
         0.00000E+00
         0.00000E+00
         0.00000E+00
         0.00000E+00
         0.00000E+00
         0.00000E+00
         0.00000E+00
         0.00000E+00
         0.00000E+00
         0.00000E+00
         0.00000E+00
         0.00000E+00
         0.00000E+00
         0.00000E+00
         0.00000E+00
         0.00000E+00
         0.00000E+00
         0.00000E+00
         0.00000E+00
         0.00000E+00
         0.00000E+00
         0.00000E+00
         0.00000E+00
         0.00000E+00
         0.00000E+00
         0.00000E+00
         0.00000E+00
         0.00000E+00
         0.00000E+00
         0.00000E+00
         0.00000E+00
         0.00000E+00
         0.00000E+00
         0.00000E+00
         0.00000E+00
         0.00000E+00
         0.00000E+00
         0.00000E+00
         0.00000E+00
         0.00000E+00
         0.00000E+00
         0.00000E+00
         0.00000E+00
         0.00000E+00
         0.00000E+00
         0.00000E+00
         0.00000E+00
         0.00000E+00
         0.00000E+00
         0.00000E+00
         0.00000E+00
         0.00000E+00
         0.00000E+00
         0.00000E+00
         0.00000E+00
         0.00000E+00
         0.00000E+00
         0.00000E+00
         0.00000E+00
         0.00000E+00
         0.00000E+00
         0.00000E+00
         0.00000E+00
         0.00000E+00
         0.00000E+00
         0.00000E+00
         0.00000E+00
         0.00000E+00
         0.00000E+00
         0.00000E+00
         0.00000E+00
         0.00000E+00
         0.00000E+00
         0.00000E+00
         0.00000E+00
         0.00000E+00
         0.00000E+00
         0.00000E+00
         0.00000E+00
         0.00000E+00
         0.00000E+00
         0.00000E+00
         0.00000E+00
         0.00000E+00
         0.00000E+00
         0.00000E+00
         0.00000E+00
         0.00000E+00
         0.00000E+00
         0.00000E+00
         0.00000E+00
         0.00000E+00
         0.00000E+00
         0.00000E+00
         0.00000E+00
         0.00000E+00
         0.00000E+00
         0.00000E+00
         0.00000E+00
         0.00000E+00
         0.00000E+00
         0.00000E+00
         0.00000E+00
         0.00000E+00
         0.00000E+00
         0.00000E+00
         0.00000E+00
         0.00000E+00
         0.00000E+00
         0.00000E+00
         0.00000E+00
         0.00000E+00
         0.00000E+00
         0.00000E+00
         0.00000E+00
         0.00000E+00
         0.00000E+00
         0.00000E+00
         0.00000E+00
         0.00000E+00
         0.00000E+00
         0.00000E+00
         0.00000E+00
         0.00000E+00
         0.00000E+00
         0.00000E+00
         0.00000E+00
         0.00000E+00
         0.00000E+00
         0.00000E+00
         0.00000E+00
         0.00000E+00
         0.00000E+00
         0.00000E+00
         0.00000E+00
         0.00000E+00
         0.00000E+00
         0.00000E+00
         0.00000E+00
         0.00000E+00
         0.00000E+00
         0.00000E+00
         0.00000E+00
         0.00000E+00
         0.00000E+00
         0.00000E+00
         0.00000E+00
         0.00000E+00
         0.00000E+00
         0.00000E+00
         0.00000E+00
         0.00000E+00
         0.00000E+00
         0.00000E+00
         0.00000E+00
         0.00000E+00
         0.00000E+00
         0.00000E+00
         0.00000E+00
         0.00000E+00
         0.00000E+00
         0.00000E+00
         0.00000E+00
         0.00000E+00
         0.00000E+00
         0.00000E+00
         0.00000E+00
         0.00000E+00
         0.00000E+00
         0.00000E+00
  
SCALARS        characteristic_distance  double 1
LOOKUP_TABLE default
         0.00000E+00
         0.00000E+00
         0.00000E+00
         0.00000E+00
         0.00000E+00
         0.00000E+00
         0.00000E+00
         0.00000E+00
         0.00000E+00
         0.00000E+00
         0.00000E+00
         0.00000E+00
         0.00000E+00
         0.00000E+00
         0.00000E+00
         0.00000E+00
         0.00000E+00
         0.00000E+00
         0.00000E+00
         0.00000E+00
         0.00000E+00
         0.00000E+00
         0.00000E+00
         0.00000E+00
         0.00000E+00
         0.00000E+00
         0.00000E+00
         0.00000E+00
         0.00000E+00
         0.00000E+00
         0.00000E+00
         0.00000E+00
         0.00000E+00
         0.00000E+00
         0.00000E+00
         0.00000E+00
         0.00000E+00
         0.00000E+00
         0.00000E+00
         0.00000E+00
         0.00000E+00
         0.00000E+00
         0.00000E+00
         0.00000E+00
         0.00000E+00
         0.00000E+00
         0.00000E+00
         0.00000E+00
         0.00000E+00
         0.00000E+00
         0.00000E+00
         0.00000E+00
         0.00000E+00
         0.00000E+00
         0.00000E+00
         0.00000E+00
         0.00000E+00
         0.00000E+00
         0.00000E+00
         0.00000E+00
         0.00000E+00
         0.00000E+00
         0.00000E+00
         0.00000E+00
         0.00000E+00
         0.00000E+00
         0.00000E+00
         0.00000E+00
         0.00000E+00
         0.00000E+00
         0.00000E+00
         0.00000E+00
         0.00000E+00
         0.00000E+00
         0.00000E+00
         0.00000E+00
         0.00000E+00
         0.00000E+00
         0.00000E+00
         0.00000E+00
         0.00000E+00
         0.00000E+00
         0.00000E+00
         0.00000E+00
         0.00000E+00
         0.00000E+00
         0.00000E+00
         0.00000E+00
         0.00000E+00
         0.00000E+00
         0.00000E+00
         0.00000E+00
         0.00000E+00
         0.00000E+00
         0.00000E+00
         0.00000E+00
         0.00000E+00
         0.00000E+00
         0.00000E+00
         0.00000E+00
         0.00000E+00
         0.00000E+00
         0.00000E+00
         0.00000E+00
         0.00000E+00
         0.00000E+00
         0.00000E+00
         0.00000E+00
         0.00000E+00
         0.00000E+00
         0.00000E+00
         0.00000E+00
         0.00000E+00
         0.00000E+00
         0.00000E+00
         0.00000E+00
         0.00000E+00
         0.00000E+00
         0.00000E+00
         0.00000E+00
         0.00000E+00
         0.00000E+00
         0.00000E+00
         0.00000E+00
         0.00000E+00
         0.00000E+00
         0.00000E+00
         0.00000E+00
         0.00000E+00
         0.00000E+00
         0.00000E+00
         0.00000E+00
         0.00000E+00
         0.00000E+00
         0.00000E+00
         0.00000E+00
         0.00000E+00
         0.00000E+00
         0.00000E+00
         0.00000E+00
         0.00000E+00
         0.00000E+00
         0.00000E+00
         0.00000E+00
         0.00000E+00
         0.00000E+00
         0.00000E+00
         0.00000E+00
         0.00000E+00
         0.00000E+00
         0.00000E+00
         0.00000E+00
         0.00000E+00
         0.00000E+00
         0.00000E+00
         0.00000E+00
         0.00000E+00
         0.00000E+00
         0.00000E+00
         0.00000E+00
         0.00000E+00
         0.00000E+00
         0.00000E+00
         0.00000E+00
         0.00000E+00
         0.00000E+00
         0.00000E+00
         0.00000E+00
         0.00000E+00
         0.00000E+00
         0.00000E+00
         0.00000E+00
         0.00000E+00
         0.00000E+00
         0.00000E+00
         0.00000E+00
         0.00000E+00
         0.00000E+00
         0.00000E+00
         0.00000E+00
         0.00000E+00
         0.00000E+00
         0.00000E+00
         0.00000E+00
         0.00000E+00
         0.00000E+00
         0.00000E+00
         0.00000E+00
         0.00000E+00
         0.00000E+00
         0.00000E+00
         0.00000E+00
         0.00000E+00
         0.00000E+00
         0.00000E+00
         0.00000E+00
         0.00000E+00
         0.00000E+00
         0.00000E+00
         0.00000E+00
         0.00000E+00
         0.00000E+00
         0.00000E+00
         0.00000E+00
         0.00000E+00
         0.00000E+00
         0.00000E+00
         0.00000E+00
         0.00000E+00
         0.00000E+00
         0.00000E+00
         0.00000E+00
         0.00000E+00
         0.00000E+00
         0.00000E+00
         0.00000E+00
         0.00000E+00
         0.00000E+00
         0.00000E+00
         0.00000E+00
         0.00000E+00
         0.00000E+00
         0.00000E+00
         0.00000E+00
         0.00000E+00
         0.00000E+00
         0.00000E+00
         0.00000E+00
         0.00000E+00
         0.00000E+00
         0.00000E+00
         0.00000E+00
         0.00000E+00
         0.00000E+00
         0.00000E+00
         0.00000E+00
         0.00000E+00
         0.00000E+00
         0.00000E+00
         0.00000E+00
         0.00000E+00
         0.00000E+00
         0.00000E+00
         0.00000E+00
         0.00000E+00
         0.00000E+00
         0.00000E+00
         0.00000E+00
         0.00000E+00
         0.00000E+00
         0.00000E+00
         0.00000E+00
         0.00000E+00
         0.00000E+00
         0.00000E+00
         0.00000E+00
         0.00000E+00
         0.00000E+00
         0.00000E+00
         0.00000E+00
         0.00000E+00
         0.00000E+00
         0.00000E+00
         0.00000E+00
         0.00000E+00
         0.00000E+00
         0.00000E+00
         0.00000E+00
         0.00000E+00
         0.00000E+00
         0.00000E+00
         0.00000E+00
         0.00000E+00
         0.00000E+00
         0.00000E+00
         0.00000E+00
         0.00000E+00
         0.00000E+00
         0.00000E+00
         0.00000E+00
         0.00000E+00
         0.00000E+00
         0.00000E+00
         0.00000E+00
         0.00000E+00
         0.00000E+00
         0.00000E+00
         0.00000E+00
         0.00000E+00
         0.00000E+00
         0.00000E+00
         0.00000E+00
         0.00000E+00
         0.00000E+00
         0.00000E+00
         0.00000E+00
         0.00000E+00
         0.00000E+00
         0.00000E+00
         0.00000E+00
         0.00000E+00
         0.00000E+00
         0.00000E+00
         0.00000E+00
         0.00000E+00
         0.00000E+00
         0.00000E+00
         0.00000E+00
         0.00000E+00
         0.00000E+00
         0.00000E+00
         0.00000E+00
         0.00000E+00
         0.00000E+00
         0.00000E+00
         0.00000E+00
         0.00000E+00
         0.00000E+00
         0.00000E+00
         0.00000E+00
         0.00000E+00
         0.00000E+00
         0.00000E+00
         0.00000E+00
         0.00000E+00
         0.00000E+00
         0.00000E+00
         0.00000E+00
         0.00000E+00
         0.00000E+00
         0.00000E+00
         0.00000E+00
         0.00000E+00
         0.00000E+00
         0.00000E+00
         0.00000E+00
         0.00000E+00
         0.00000E+00
         0.00000E+00
         0.00000E+00
         0.00000E+00
         0.00000E+00
         0.00000E+00
         0.00000E+00
         0.00000E+00
         0.00000E+00
         0.00000E+00
         0.00000E+00
         0.00000E+00
         0.00000E+00
         0.00000E+00
         0.00000E+00
         0.00000E+00
         0.00000E+00
         0.00000E+00
         0.00000E+00
         0.00000E+00
         0.00000E+00
         0.00000E+00
         0.00000E+00
         0.00000E+00
         0.00000E+00
         0.00000E+00
         0.00000E+00
         0.00000E+00
         0.00000E+00
         0.00000E+00
         0.00000E+00
         0.00000E+00
         0.00000E+00
         0.00000E+00
         0.00000E+00
         0.00000E+00
         0.00000E+00
         0.00000E+00
         0.00000E+00
         0.00000E+00
         0.00000E+00
         0.00000E+00
         0.00000E+00
         0.00000E+00
         0.00000E+00
         0.00000E+00
         0.00000E+00
         0.00000E+00
         0.00000E+00
         0.00000E+00
         0.00000E+00
         0.00000E+00
         0.00000E+00
         0.00000E+00
         0.00000E+00
         0.00000E+00
         0.00000E+00
         0.00000E+00
         0.00000E+00
         0.00000E+00
         0.00000E+00
         0.00000E+00
         0.00000E+00
         0.00000E+00
         0.00000E+00
         0.00000E+00
         0.00000E+00
         0.00000E+00
         0.00000E+00
         0.00000E+00
         0.00000E+00
         0.00000E+00
         0.00000E+00
         0.00000E+00
         0.00000E+00
         0.00000E+00
         0.00000E+00
         0.00000E+00
         0.00000E+00
         0.00000E+00
         0.00000E+00
         0.00000E+00
         0.00000E+00
         0.00000E+00
         0.00000E+00
         0.00000E+00
         0.00000E+00
         0.00000E+00
         0.00000E+00
         0.00000E+00
         0.00000E+00
         0.00000E+00
         0.00000E+00
         0.00000E+00
         0.00000E+00
         0.00000E+00
         0.00000E+00
         0.00000E+00
         0.00000E+00
         0.00000E+00
         0.00000E+00
         0.00000E+00
         0.00000E+00
         0.00000E+00
         0.00000E+00
         0.00000E+00
         0.00000E+00
         0.00000E+00
         0.00000E+00
         0.00000E+00
         0.00000E+00
         0.00000E+00
         0.00000E+00
         0.00000E+00
         0.00000E+00
         0.00000E+00
         0.00000E+00
         0.00000E+00
         0.00000E+00
         0.00000E+00
         0.00000E+00
         0.00000E+00
         0.00000E+00
         0.00000E+00
         0.00000E+00
         0.00000E+00
         0.00000E+00
         0.00000E+00
         0.00000E+00
         0.00000E+00
         0.00000E+00
         0.00000E+00
         0.00000E+00
         0.00000E+00
         0.00000E+00
         0.00000E+00
         0.00000E+00
         0.00000E+00
         0.00000E+00
         0.00000E+00
         0.00000E+00
         0.00000E+00
         0.00000E+00
         0.00000E+00
         0.00000E+00
         0.00000E+00
         0.00000E+00
         0.00000E+00
         0.00000E+00
         0.00000E+00
         0.00000E+00
         0.00000E+00
         0.00000E+00
         0.00000E+00
         0.00000E+00
         0.00000E+00
         0.00000E+00
         0.00000E+00
         0.00000E+00
         0.00000E+00
         0.00000E+00
         0.00000E+00
         0.00000E+00
         0.00000E+00
         0.00000E+00
         0.00000E+00
         0.00000E+00
         0.00000E+00
         0.00000E+00
         0.00000E+00
         0.00000E+00
         0.00000E+00
         0.00000E+00
         0.00000E+00
         0.00000E+00
         0.00000E+00
         0.00000E+00
         0.00000E+00
         0.00000E+00
         0.00000E+00
         0.00000E+00
         0.00000E+00
         0.00000E+00
         0.00000E+00
         0.00000E+00
         0.00000E+00
         0.00000E+00
         0.00000E+00
         0.00000E+00
         0.00000E+00
         0.00000E+00
         0.00000E+00
         0.00000E+00
         0.00000E+00
         0.00000E+00
         0.00000E+00
         0.00000E+00
         0.00000E+00
         0.00000E+00
         0.00000E+00
         0.00000E+00
         0.00000E+00
         0.00000E+00
         0.00000E+00
         0.00000E+00
         0.00000E+00
         0.00000E+00
         0.00000E+00
         0.00000E+00
         0.00000E+00
         0.00000E+00
         0.00000E+00
         0.00000E+00
         0.00000E+00
         0.00000E+00
         0.00000E+00
         0.00000E+00
         0.00000E+00
         0.00000E+00
         0.00000E+00
         0.00000E+00
         0.00000E+00
         0.00000E+00
         0.00000E+00
         0.00000E+00
         0.00000E+00
         0.00000E+00
         0.00000E+00
         0.00000E+00
         0.00000E+00
         0.00000E+00
         0.00000E+00
         0.00000E+00
         0.00000E+00
         0.00000E+00
         0.00000E+00
         0.00000E+00
         0.00000E+00
         0.00000E+00
         0.00000E+00
         0.00000E+00
         0.00000E+00
         0.00000E+00
         0.00000E+00
         0.00000E+00
         0.00000E+00
         0.00000E+00
         0.00000E+00
         0.00000E+00
         0.00000E+00
         0.00000E+00
         0.00000E+00
         0.00000E+00
         0.00000E+00
         0.00000E+00
         0.00000E+00
         0.00000E+00
         0.00000E+00
         0.00000E+00
         0.00000E+00
         0.00000E+00
         0.00000E+00
         0.00000E+00
         0.00000E+00
         0.00000E+00
         0.00000E+00
         0.00000E+00
         0.00000E+00
         0.00000E+00
         0.00000E+00
         0.00000E+00
         0.00000E+00
         0.00000E+00
         0.00000E+00
         0.00000E+00
         0.00000E+00
         0.00000E+00
         0.00000E+00
         0.00000E+00
         0.00000E+00
         0.00000E+00
         0.00000E+00
         0.00000E+00
         0.00000E+00
         0.00000E+00
         0.00000E+00
         0.00000E+00
         0.00000E+00
         0.00000E+00
         0.00000E+00
         0.00000E+00
         0.00000E+00
         0.00000E+00
         0.00000E+00
         0.00000E+00
         0.00000E+00
         0.00000E+00
         0.00000E+00
         0.00000E+00
         0.00000E+00
         0.00000E+00
         0.00000E+00
         0.00000E+00
         0.00000E+00
         0.00000E+00
         0.00000E+00
         0.00000E+00
         0.00000E+00
         0.00000E+00
         0.00000E+00
         0.00000E+00
         0.00000E+00
         0.00000E+00
         0.00000E+00
         0.00000E+00
         0.00000E+00
         0.00000E+00
         0.00000E+00
         0.00000E+00
         0.00000E+00
         0.00000E+00
         0.00000E+00
         0.00000E+00
         0.00000E+00
         0.00000E+00
         0.00000E+00
         0.00000E+00
         0.00000E+00
         0.00000E+00
         0.00000E+00
         0.00000E+00
         0.00000E+00
         0.00000E+00
         0.00000E+00
         0.00000E+00
         0.00000E+00
         0.00000E+00
         0.00000E+00
         0.00000E+00
         0.00000E+00
         0.00000E+00
         0.00000E+00
         0.00000E+00
         0.00000E+00
         0.00000E+00
         0.00000E+00
         0.00000E+00
         0.00000E+00
         0.00000E+00
         0.00000E+00
         0.00000E+00
         0.00000E+00
         0.00000E+00
         0.00000E+00
         0.00000E+00
         0.00000E+00
         0.00000E+00
         0.00000E+00
         0.00000E+00
         0.00000E+00
         0.00000E+00
         0.00000E+00
         0.00000E+00
         0.00000E+00
         0.00000E+00
         0.00000E+00
         0.00000E+00
         0.00000E+00
         0.00000E+00
         0.00000E+00
         0.00000E+00
         0.00000E+00
         0.00000E+00
         0.00000E+00
         0.00000E+00
         0.00000E+00
         0.00000E+00
         0.00000E+00
         0.00000E+00
         0.00000E+00
         0.00000E+00
         0.00000E+00
         0.00000E+00
         0.00000E+00
         0.00000E+00
         0.00000E+00
         0.00000E+00
         0.00000E+00
         0.00000E+00
         0.00000E+00
         0.00000E+00
         0.00000E+00
         0.00000E+00
         0.00000E+00
         0.00000E+00
         0.00000E+00
         0.00000E+00
         0.00000E+00
         0.00000E+00
         0.00000E+00
         0.00000E+00
         0.00000E+00
         0.00000E+00
         0.00000E+00
         0.00000E+00
         0.00000E+00
         0.00000E+00
         0.00000E+00
         0.00000E+00
         0.00000E+00
         0.00000E+00
         0.00000E+00
         0.00000E+00
         0.00000E+00
         0.00000E+00
         0.00000E+00
         0.00000E+00
         0.00000E+00
         0.00000E+00
         0.00000E+00
         0.00000E+00
         0.00000E+00
         0.00000E+00
         0.00000E+00
         0.00000E+00
         0.00000E+00
         0.00000E+00
         0.00000E+00
         0.00000E+00
         0.00000E+00
         0.00000E+00
         0.00000E+00
         0.00000E+00
         0.00000E+00
         0.00000E+00
         0.00000E+00
         0.00000E+00
         0.00000E+00
         0.00000E+00
         0.00000E+00
         0.00000E+00
         0.00000E+00
         0.00000E+00
         0.00000E+00
         0.00000E+00
         0.00000E+00
         0.00000E+00
         0.00000E+00
         0.00000E+00
         0.00000E+00
         0.00000E+00
         0.00000E+00
         0.00000E+00
         0.00000E+00
         0.00000E+00
         0.00000E+00
         0.00000E+00
         0.00000E+00
         0.00000E+00
         0.00000E+00
         0.00000E+00
         0.00000E+00
         0.00000E+00
         0.00000E+00
         0.00000E+00
         0.00000E+00
         0.00000E+00
         0.00000E+00
         0.00000E+00
         0.00000E+00
         0.00000E+00
         0.00000E+00
         0.00000E+00
         0.00000E+00
         0.00000E+00
         0.00000E+00
         0.00000E+00
         0.00000E+00
         0.00000E+00
         0.00000E+00
         0.00000E+00
         0.00000E+00
         0.00000E+00
         0.00000E+00
         0.00000E+00
         0.00000E+00
         0.00000E+00
         0.00000E+00
         0.00000E+00
         0.00000E+00
         0.00000E+00
         0.00000E+00
         0.00000E+00
         0.00000E+00
         0.00000E+00
         0.00000E+00
         0.00000E+00
         0.00000E+00
         0.00000E+00
         0.00000E+00
         0.00000E+00
         0.00000E+00
         0.00000E+00
         0.00000E+00
         0.00000E+00
         0.00000E+00
         0.00000E+00
         0.00000E+00
         0.00000E+00
         0.00000E+00
         0.00000E+00
         0.00000E+00
         0.00000E+00
         0.00000E+00
         0.00000E+00
         0.00000E+00
         0.00000E+00
         0.00000E+00
         0.00000E+00
         0.00000E+00
         0.00000E+00
         0.00000E+00
         0.00000E+00
         0.00000E+00
         0.00000E+00
         0.00000E+00
         0.00000E+00
         0.00000E+00
         0.00000E+00
         0.00000E+00
         0.00000E+00
         0.00000E+00
         0.00000E+00
         0.00000E+00
         0.00000E+00
         0.00000E+00
         0.00000E+00
         0.00000E+00
         0.00000E+00
         0.00000E+00
         0.00000E+00
         0.00000E+00
         0.00000E+00
         0.00000E+00
         0.00000E+00
         0.00000E+00
         0.00000E+00
         0.00000E+00
         0.00000E+00
         0.00000E+00
         0.00000E+00
         0.00000E+00
         0.00000E+00
         0.00000E+00
         0.00000E+00
         0.00000E+00
         0.00000E+00
         0.00000E+00
         0.00000E+00
         0.00000E+00
         0.00000E+00
         0.00000E+00
         0.00000E+00
         0.00000E+00
         0.00000E+00
         0.00000E+00
         0.00000E+00
         0.00000E+00
         0.00000E+00
         0.00000E+00
         0.00000E+00
         0.00000E+00
         0.00000E+00
         0.00000E+00
         0.00000E+00
         0.00000E+00
         0.00000E+00
         0.00000E+00
         0.00000E+00
         0.00000E+00
         0.00000E+00
         0.00000E+00
         0.00000E+00
         0.00000E+00
         0.00000E+00
         0.00000E+00
         0.00000E+00
         0.00000E+00
         0.00000E+00
         0.00000E+00
         0.00000E+00
         0.00000E+00
         0.00000E+00
         0.00000E+00
         0.00000E+00
         0.00000E+00
         0.00000E+00
         0.00000E+00
         0.00000E+00
         0.00000E+00
         0.00000E+00
         0.00000E+00
         0.00000E+00
         0.00000E+00
         0.00000E+00
         0.00000E+00
         0.00000E+00
         0.00000E+00
         0.00000E+00
         0.00000E+00
         0.00000E+00
         0.00000E+00
         0.00000E+00
         0.00000E+00
         0.00000E+00
         0.00000E+00
         0.00000E+00
         0.00000E+00
         0.00000E+00
         0.00000E+00
         0.00000E+00
         0.00000E+00
         0.00000E+00
         0.00000E+00
         0.00000E+00
         0.00000E+00
         0.00000E+00
         0.00000E+00
         0.00000E+00
         0.00000E+00
         0.00000E+00
         0.00000E+00
         0.00000E+00
         0.00000E+00
         0.00000E+00
         0.00000E+00
         0.00000E+00
         0.00000E+00
         0.00000E+00
         0.00000E+00
         0.00000E+00
         0.00000E+00
         0.00000E+00
         0.00000E+00
         0.00000E+00
         0.00000E+00
         0.00000E+00
         0.00000E+00
         0.00000E+00
         0.00000E+00
         0.00000E+00
         0.00000E+00
         0.00000E+00
         0.00000E+00
         0.00000E+00
         0.00000E+00
         0.00000E+00
         0.00000E+00
         0.00000E+00
         0.00000E+00
         0.00000E+00
         0.00000E+00
         0.00000E+00
         0.00000E+00
         0.00000E+00
         0.00000E+00
         0.00000E+00
         0.00000E+00
         0.00000E+00
         0.00000E+00
         0.00000E+00
         0.00000E+00
         0.00000E+00
         0.00000E+00
         0.00000E+00
         0.00000E+00
         0.00000E+00
         0.00000E+00
         0.00000E+00
         0.00000E+00
         0.00000E+00
         0.00000E+00
         0.00000E+00
         0.00000E+00
         0.00000E+00
         0.00000E+00
         0.00000E+00
         0.00000E+00
         0.00000E+00
         0.00000E+00
         0.00000E+00
         0.00000E+00
         0.00000E+00
         0.00000E+00
         0.00000E+00
         0.00000E+00
         0.00000E+00
         0.00000E+00
         0.00000E+00
         0.00000E+00
         0.00000E+00
         0.00000E+00
         0.00000E+00
         0.00000E+00
         0.00000E+00
         0.00000E+00
         0.00000E+00
         0.00000E+00
         0.00000E+00
         0.00000E+00
         0.00000E+00
         0.00000E+00
         0.00000E+00
         0.00000E+00
         0.00000E+00
         0.00000E+00
         0.00000E+00
         0.00000E+00
         0.00000E+00
         0.00000E+00
         0.00000E+00
         0.00000E+00
         0.00000E+00
         0.00000E+00
         0.00000E+00
         0.00000E+00
         0.00000E+00
         0.00000E+00
         0.00000E+00
         0.00000E+00
         0.00000E+00
         0.00000E+00
         0.00000E+00
         0.00000E+00
         0.00000E+00
         0.00000E+00
         0.00000E+00
         0.00000E+00
         0.00000E+00
         0.00000E+00
         0.00000E+00
         0.00000E+00
         0.00000E+00
         0.00000E+00
         0.00000E+00
         0.00000E+00
         0.00000E+00
         0.00000E+00
         0.00000E+00
         0.00000E+00
         0.00000E+00
         0.00000E+00
         0.00000E+00
         0.00000E+00
         0.00000E+00
         0.00000E+00
         0.00000E+00
         0.00000E+00
         0.00000E+00
         0.00000E+00
         0.00000E+00
         0.00000E+00
         0.00000E+00
         0.00000E+00
         0.00000E+00
         0.00000E+00
         0.00000E+00
         0.00000E+00
         0.00000E+00
         0.00000E+00
         0.00000E+00
         0.00000E+00
         0.00000E+00
         0.00000E+00
         0.00000E+00
         0.00000E+00
         0.00000E+00
         0.00000E+00
         0.00000E+00
         0.00000E+00
         0.00000E+00
         0.00000E+00
         0.00000E+00
         0.00000E+00
         0.00000E+00
         0.00000E+00
         0.00000E+00
         0.00000E+00
         0.00000E+00
         0.00000E+00
         0.00000E+00
         0.00000E+00
         0.00000E+00
         0.00000E+00
         0.00000E+00
         0.00000E+00
         0.00000E+00
         0.00000E+00
         0.00000E+00
         0.00000E+00
         0.00000E+00
         0.00000E+00
         0.00000E+00
         0.00000E+00
         0.00000E+00
         0.00000E+00
         0.00000E+00
         0.00000E+00
         0.00000E+00
         0.00000E+00
         0.00000E+00
         0.00000E+00
         0.00000E+00
         0.00000E+00
         0.00000E+00
         0.00000E+00
         0.00000E+00
         0.00000E+00
         0.00000E+00
         0.00000E+00
         0.00000E+00
         0.00000E+00
         0.00000E+00
         0.00000E+00
         0.00000E+00
         0.00000E+00
         0.00000E+00
         0.00000E+00
         0.00000E+00
         0.00000E+00
         0.00000E+00
         0.00000E+00
         0.00000E+00
         0.00000E+00
         0.00000E+00
         0.00000E+00
         0.00000E+00
         0.00000E+00
         0.00000E+00
         0.00000E+00
         0.00000E+00
         0.00000E+00
         0.00000E+00
         0.00000E+00
         0.00000E+00
         0.00000E+00
         0.00000E+00
         0.00000E+00
         0.00000E+00
         0.00000E+00
         0.00000E+00
         0.00000E+00
         0.00000E+00
         0.00000E+00
         0.00000E+00
         0.00000E+00
         0.00000E+00
         0.00000E+00
         0.00000E+00
         0.00000E+00
         0.00000E+00
         0.00000E+00
         0.00000E+00
         0.00000E+00
         0.00000E+00
         0.00000E+00
         0.00000E+00
         0.00000E+00
         0.00000E+00
         0.00000E+00
         0.00000E+00
         0.00000E+00
         0.00000E+00
         0.00000E+00
         0.00000E+00
         0.00000E+00
         0.00000E+00
         0.00000E+00
         0.00000E+00
         0.00000E+00
         0.00000E+00
         0.00000E+00
         0.00000E+00
         0.00000E+00
         0.00000E+00
         0.00000E+00
         0.00000E+00
         0.00000E+00
         0.00000E+00
         0.00000E+00
         0.00000E+00
         0.00000E+00
         0.00000E+00
         0.00000E+00
         0.00000E+00
         0.00000E+00
         0.00000E+00
         0.00000E+00
         0.00000E+00
         0.00000E+00
         0.00000E+00
         0.00000E+00
         0.00000E+00
         0.00000E+00
         0.00000E+00
         0.00000E+00
         0.00000E+00
         0.00000E+00
         0.00000E+00
         0.00000E+00
         0.00000E+00
         0.00000E+00
         0.00000E+00
         0.00000E+00
         0.00000E+00
         0.00000E+00
         0.00000E+00
         0.00000E+00
         0.00000E+00
         0.00000E+00
         0.00000E+00
         0.00000E+00
         0.00000E+00
         0.00000E+00
         0.00000E+00
         0.00000E+00
         0.00000E+00
         0.00000E+00
         0.00000E+00
         0.00000E+00
         0.00000E+00
         0.00000E+00
         0.00000E+00
         0.00000E+00
         0.00000E+00
         0.00000E+00
         0.00000E+00
         0.00000E+00
         0.00000E+00
         0.00000E+00
         0.00000E+00
         0.00000E+00
         0.00000E+00
         0.00000E+00
         0.00000E+00
         0.00000E+00
         0.00000E+00
         0.00000E+00
         0.00000E+00
         0.00000E+00
         0.00000E+00
         0.00000E+00
         0.00000E+00
         0.00000E+00
         0.00000E+00
         0.00000E+00
         0.00000E+00
         0.00000E+00
         0.00000E+00
         0.00000E+00
         0.00000E+00
         0.00000E+00
         0.00000E+00
         0.00000E+00
         0.00000E+00
         0.00000E+00
         0.00000E+00
         0.00000E+00
         0.00000E+00
         0.00000E+00
         0.00000E+00
         0.00000E+00
         0.00000E+00
         0.00000E+00
         0.00000E+00
         0.00000E+00
         0.00000E+00
         0.00000E+00
         0.00000E+00
         0.00000E+00
         0.00000E+00
         0.00000E+00
         0.00000E+00
         0.00000E+00
         0.00000E+00
         0.00000E+00
         0.00000E+00
         0.00000E+00
         0.00000E+00
         0.00000E+00
         0.00000E+00
         0.00000E+00
         0.00000E+00
         0.00000E+00
         0.00000E+00
         0.00000E+00
         0.00000E+00
         0.00000E+00
         0.00000E+00
         0.00000E+00
         0.00000E+00
         0.00000E+00
         0.00000E+00
         0.00000E+00
         0.00000E+00
         0.00000E+00
         0.00000E+00
         0.00000E+00
         0.00000E+00
         0.00000E+00
         0.00000E+00
         0.00000E+00
         0.00000E+00
         0.00000E+00
         0.00000E+00
         0.00000E+00
         0.00000E+00
         0.00000E+00
         0.00000E+00
         0.00000E+00
         0.00000E+00
         0.00000E+00
         0.00000E+00
         0.00000E+00
         0.00000E+00
         0.00000E+00
         0.00000E+00
         0.00000E+00
         0.00000E+00
         0.00000E+00
         0.00000E+00
         0.00000E+00
         0.00000E+00
         0.00000E+00
         0.00000E+00
         0.00000E+00
         0.00000E+00
         0.00000E+00
         0.00000E+00
         0.00000E+00
         0.00000E+00
         0.00000E+00
         0.00000E+00
         0.00000E+00
         0.00000E+00
         0.00000E+00
         0.00000E+00
         0.00000E+00
         0.00000E+00
         0.00000E+00
         0.00000E+00
         0.00000E+00
         0.00000E+00
         0.00000E+00
         0.00000E+00
         0.00000E+00
         0.00000E+00
         0.00000E+00
         0.00000E+00
         0.00000E+00
         0.00000E+00
         0.00000E+00
         0.00000E+00
         0.00000E+00
         0.00000E+00
         0.00000E+00
         0.00000E+00
         0.00000E+00
         0.00000E+00
         0.00000E+00
         0.00000E+00
         0.00000E+00
         0.00000E+00
         0.00000E+00
         0.00000E+00
         0.00000E+00
         0.00000E+00
         0.00000E+00
         0.00000E+00
         0.00000E+00
         0.00000E+00
         0.00000E+00
         0.00000E+00
         0.00000E+00
         0.00000E+00
         0.00000E+00
         0.00000E+00
         0.00000E+00
         0.00000E+00
         0.00000E+00
         0.00000E+00
         0.00000E+00
         0.00000E+00
         0.00000E+00
         0.00000E+00
         0.00000E+00
         0.00000E+00
         0.00000E+00
         0.00000E+00
         0.00000E+00
         0.00000E+00
         0.00000E+00
         0.00000E+00
         0.00000E+00
         0.00000E+00
         0.00000E+00
         0.00000E+00
         0.00000E+00
         0.00000E+00
         0.00000E+00
         0.00000E+00
         0.00000E+00
         0.00000E+00
         0.00000E+00
         0.00000E+00
         0.00000E+00
         0.00000E+00
         0.00000E+00
         0.00000E+00
         0.00000E+00
         0.00000E+00
         0.00000E+00
         0.00000E+00
         0.00000E+00
         0.00000E+00
         0.00000E+00
         0.00000E+00
         0.00000E+00
         0.00000E+00
         0.00000E+00
         0.00000E+00
         0.00000E+00
         0.00000E+00
         0.00000E+00
         0.00000E+00
         0.00000E+00
         0.00000E+00
         0.00000E+00
         0.00000E+00
         0.00000E+00
         0.00000E+00
         0.00000E+00
         0.00000E+00
         0.00000E+00
         0.00000E+00
         0.00000E+00
         0.00000E+00
         0.00000E+00
         0.00000E+00
         0.00000E+00
         0.00000E+00
         0.00000E+00
         0.00000E+00
         0.00000E+00
         0.00000E+00
         0.00000E+00
         0.00000E+00
         0.00000E+00
         0.00000E+00
         0.00000E+00
         0.00000E+00
         0.00000E+00
         0.00000E+00
         0.00000E+00
         0.00000E+00
         0.00000E+00
         0.00000E+00
         0.00000E+00
         0.00000E+00
         0.00000E+00
         0.00000E+00
         0.00000E+00
         0.00000E+00
         0.00000E+00
         0.00000E+00
         0.00000E+00
         0.00000E+00
         0.00000E+00
         0.00000E+00
         0.00000E+00
         0.00000E+00
         0.00000E+00
         0.00000E+00
         0.00000E+00
         0.00000E+00
         0.00000E+00
         0.00000E+00
         0.00000E+00
         0.00000E+00
         0.00000E+00
         0.00000E+00
         0.00000E+00
         0.00000E+00
         0.00000E+00
         0.00000E+00
         0.00000E+00
         0.00000E+00
         0.00000E+00
         0.00000E+00
         0.00000E+00
         0.00000E+00
         0.00000E+00
         0.00000E+00
         0.00000E+00
         0.00000E+00
         0.00000E+00
         0.00000E+00
         0.00000E+00
         0.00000E+00
         0.00000E+00
         0.00000E+00
         0.00000E+00
         0.00000E+00
         0.00000E+00
         0.00000E+00
         0.00000E+00
         0.00000E+00
         0.00000E+00
         0.00000E+00
         0.00000E+00
         0.00000E+00
         0.00000E+00
         0.00000E+00
         0.00000E+00
         0.00000E+00
         0.00000E+00
         0.00000E+00
         0.00000E+00
         0.00000E+00
         0.00000E+00
         0.00000E+00
         0.00000E+00
         0.00000E+00
         0.00000E+00
         0.00000E+00
         0.00000E+00
         0.00000E+00
         0.00000E+00
         0.00000E+00
         0.00000E+00
         0.00000E+00
         0.00000E+00
         0.00000E+00
         0.00000E+00
         0.00000E+00
         0.00000E+00
         0.00000E+00
         0.00000E+00
         0.00000E+00
         0.00000E+00
         0.00000E+00
         0.00000E+00
         0.00000E+00
         0.00000E+00
         0.00000E+00
         0.00000E+00
         0.00000E+00
         0.00000E+00
         0.00000E+00
         0.00000E+00
         0.00000E+00
         0.00000E+00
         0.00000E+00
         0.00000E+00
         0.00000E+00
         0.00000E+00
         0.00000E+00
         0.00000E+00
         0.00000E+00
         0.00000E+00
         0.00000E+00
         0.00000E+00
         0.00000E+00
         0.00000E+00
         0.00000E+00
         0.00000E+00
         0.00000E+00
         0.00000E+00
         0.00000E+00
         0.00000E+00
         0.00000E+00
         0.00000E+00
         0.00000E+00
         0.00000E+00
         0.00000E+00
         0.00000E+00
         0.00000E+00
         0.00000E+00
         0.00000E+00
         0.00000E+00
         0.00000E+00
         0.00000E+00
         0.00000E+00
         0.00000E+00
         0.00000E+00
         0.00000E+00
         0.00000E+00
         0.00000E+00
         0.00000E+00
         0.00000E+00
         0.00000E+00
         0.00000E+00
         0.00000E+00
         0.00000E+00
         0.00000E+00
         0.00000E+00
         0.00000E+00
         0.00000E+00
         0.00000E+00
         0.00000E+00
         0.00000E+00
         0.00000E+00
         0.00000E+00
         0.00000E+00
         0.00000E+00
         0.00000E+00
         0.00000E+00
         0.00000E+00
         0.00000E+00
         0.00000E+00
         0.00000E+00
         0.00000E+00
         0.00000E+00
         0.00000E+00
         0.00000E+00
         0.00000E+00
         0.00000E+00
         0.00000E+00
         0.00000E+00
         0.00000E+00
         0.00000E+00
         0.00000E+00
         0.00000E+00
         0.00000E+00
         0.00000E+00
         0.00000E+00
         0.00000E+00
         0.00000E+00
         0.00000E+00
         0.00000E+00
         0.00000E+00
         0.00000E+00
         0.00000E+00
         0.00000E+00
         0.00000E+00
         0.00000E+00
         0.00000E+00
         0.00000E+00
         0.00000E+00
         0.00000E+00
         0.00000E+00
         0.00000E+00
         0.00000E+00
         0.00000E+00
         0.00000E+00
         0.00000E+00
         0.00000E+00
         0.00000E+00
         0.00000E+00
         0.00000E+00
         0.00000E+00
         0.00000E+00
         0.00000E+00
         0.00000E+00
         0.00000E+00
         0.00000E+00
         0.00000E+00
         0.00000E+00
         0.00000E+00
         0.00000E+00
         0.00000E+00
         0.00000E+00
         0.00000E+00
         0.00000E+00
         0.00000E+00
         0.00000E+00
         0.00000E+00
         0.00000E+00
         0.00000E+00
         0.00000E+00
         0.00000E+00
         0.00000E+00
         0.00000E+00
         0.00000E+00
         0.00000E+00
         0.00000E+00
         0.00000E+00
         0.00000E+00
         0.00000E+00
         0.00000E+00
         0.00000E+00
         0.00000E+00
         0.00000E+00
         0.00000E+00
         0.00000E+00
         0.00000E+00
         0.00000E+00
         0.00000E+00
         0.00000E+00
         0.00000E+00
         0.00000E+00
         0.00000E+00
         0.00000E+00
         0.00000E+00
         0.00000E+00
         0.00000E+00
         0.00000E+00
         0.00000E+00
         0.00000E+00
         0.00000E+00
         0.00000E+00
         0.00000E+00
         0.00000E+00
         0.00000E+00
         0.00000E+00
         0.00000E+00
         0.00000E+00
         0.00000E+00
         0.00000E+00
         0.00000E+00
         0.00000E+00
         0.00000E+00
         0.00000E+00
         0.00000E+00
         0.00000E+00
         0.00000E+00
         0.00000E+00
         0.00000E+00
         0.00000E+00
         0.00000E+00
         0.00000E+00
         0.00000E+00
         0.00000E+00
         0.00000E+00
         0.00000E+00
         0.00000E+00
         0.00000E+00
         0.00000E+00
         0.00000E+00
         0.00000E+00
         0.00000E+00
         0.00000E+00
         0.00000E+00
         0.00000E+00
         0.00000E+00
         0.00000E+00
         0.00000E+00
         0.00000E+00
         0.00000E+00
         0.00000E+00
         0.00000E+00
         0.00000E+00
         0.00000E+00
         0.00000E+00
         0.00000E+00
         0.00000E+00
         0.00000E+00
         0.00000E+00
         0.00000E+00
         0.00000E+00
         0.00000E+00
         0.00000E+00
         0.00000E+00
         0.00000E+00
         0.00000E+00
         0.00000E+00
         0.00000E+00
         0.00000E+00
         0.00000E+00
         0.00000E+00
         0.00000E+00
         0.00000E+00
         0.00000E+00
         0.00000E+00
         0.00000E+00
         0.00000E+00
         0.00000E+00
         0.00000E+00
         0.00000E+00
         0.00000E+00
         0.00000E+00
         0.00000E+00
         0.00000E+00
         0.00000E+00
         0.00000E+00
         0.00000E+00
         0.00000E+00
         0.00000E+00
         0.00000E+00
         0.00000E+00
         0.00000E+00
         0.00000E+00
         0.00000E+00
         0.00000E+00
         0.00000E+00
         0.00000E+00
         0.00000E+00
         0.00000E+00
         0.00000E+00
         0.00000E+00
         0.00000E+00
         0.00000E+00
         0.00000E+00
         0.00000E+00
         0.00000E+00
         0.00000E+00
         0.00000E+00
         0.00000E+00
         0.00000E+00
         0.00000E+00
         0.00000E+00
         0.00000E+00
         0.00000E+00
         0.00000E+00
         0.00000E+00
         0.00000E+00
         0.00000E+00
         0.00000E+00
         0.00000E+00
         0.00000E+00
         0.00000E+00
         0.00000E+00
         0.00000E+00
         0.00000E+00
         0.00000E+00
         0.00000E+00
         0.00000E+00
         0.00000E+00
         0.00000E+00
         0.00000E+00
         0.00000E+00
         0.00000E+00
         0.00000E+00
         0.00000E+00
         0.00000E+00
         0.00000E+00
         0.00000E+00
         0.00000E+00
         0.00000E+00
         0.00000E+00
         0.00000E+00
         0.00000E+00
         0.00000E+00
         0.00000E+00
         0.00000E+00
         0.00000E+00
         0.00000E+00
         0.00000E+00
         0.00000E+00
         0.00000E+00
         0.00000E+00
         0.00000E+00
         0.00000E+00
         0.00000E+00
         0.00000E+00
         0.00000E+00
         0.00000E+00
         0.00000E+00
         0.00000E+00
         0.00000E+00
         0.00000E+00
         0.00000E+00
         0.00000E+00
         0.00000E+00
         0.00000E+00
         0.00000E+00
         0.00000E+00
         0.00000E+00
         0.00000E+00
         0.00000E+00
         0.00000E+00
         0.00000E+00
         0.00000E+00
         0.00000E+00
         0.00000E+00
         0.00000E+00
         0.00000E+00
         0.00000E+00
         0.00000E+00
         0.00000E+00
         0.00000E+00
         0.00000E+00
         0.00000E+00
         0.00000E+00
         0.00000E+00
         0.00000E+00
         0.00000E+00
         0.00000E+00
         0.00000E+00
         0.00000E+00
         0.00000E+00
         0.00000E+00
         0.00000E+00
         0.00000E+00
         0.00000E+00
         0.00000E+00
         0.00000E+00
         0.00000E+00
         0.00000E+00
         0.00000E+00
         0.00000E+00
         0.00000E+00
         0.00000E+00
         0.00000E+00
         0.00000E+00
         0.00000E+00
         0.00000E+00
         0.00000E+00
         0.00000E+00
         0.00000E+00
         0.00000E+00
         0.00000E+00
         0.00000E+00
  
SCALARS                   max_wave_vel  double 1
LOOKUP_TABLE default
         0.00000E+00
         0.00000E+00
         0.00000E+00
         0.00000E+00
         0.00000E+00
         0.00000E+00
         0.00000E+00
         0.00000E+00
         0.00000E+00
         0.00000E+00
         0.00000E+00
         0.00000E+00
         0.00000E+00
         0.00000E+00
         0.00000E+00
         0.00000E+00
         0.00000E+00
         0.00000E+00
         0.00000E+00
         0.00000E+00
         0.00000E+00
         0.00000E+00
         0.00000E+00
         0.00000E+00
         0.00000E+00
         0.00000E+00
         0.00000E+00
         0.00000E+00
         0.00000E+00
         0.00000E+00
         0.00000E+00
         0.00000E+00
         0.00000E+00
         0.00000E+00
         0.00000E+00
         0.00000E+00
         0.00000E+00
         0.00000E+00
         0.00000E+00
         0.00000E+00
         0.00000E+00
         0.00000E+00
         0.00000E+00
         0.00000E+00
         0.00000E+00
         0.00000E+00
         0.00000E+00
         0.00000E+00
         0.00000E+00
         0.00000E+00
         0.00000E+00
         0.00000E+00
         0.00000E+00
         0.00000E+00
         0.00000E+00
         0.00000E+00
         0.00000E+00
         0.00000E+00
         0.00000E+00
         0.00000E+00
         0.00000E+00
         0.00000E+00
         0.00000E+00
         0.00000E+00
         0.00000E+00
         0.00000E+00
         0.00000E+00
         0.00000E+00
         0.00000E+00
         0.00000E+00
         0.00000E+00
         0.00000E+00
         0.00000E+00
         0.00000E+00
         0.00000E+00
         0.00000E+00
         0.00000E+00
         0.00000E+00
         0.00000E+00
         0.00000E+00
         0.00000E+00
         0.00000E+00
         0.00000E+00
         0.00000E+00
         0.00000E+00
         0.00000E+00
         0.00000E+00
         0.00000E+00
         0.00000E+00
         0.00000E+00
         0.00000E+00
         0.00000E+00
         0.00000E+00
         0.00000E+00
         0.00000E+00
         0.00000E+00
         0.00000E+00
         0.00000E+00
         0.00000E+00
         0.00000E+00
         0.00000E+00
         0.00000E+00
         0.00000E+00
         0.00000E+00
         0.00000E+00
         0.00000E+00
         0.00000E+00
         0.00000E+00
         0.00000E+00
         0.00000E+00
         0.00000E+00
         0.00000E+00
         0.00000E+00
         0.00000E+00
         0.00000E+00
         0.00000E+00
         0.00000E+00
         0.00000E+00
         0.00000E+00
         0.00000E+00
         0.00000E+00
         0.00000E+00
         0.00000E+00
         0.00000E+00
         0.00000E+00
         0.00000E+00
         0.00000E+00
         0.00000E+00
         0.00000E+00
         0.00000E+00
         0.00000E+00
         0.00000E+00
         0.00000E+00
         0.00000E+00
         0.00000E+00
         0.00000E+00
         0.00000E+00
         0.00000E+00
         0.00000E+00
         0.00000E+00
         0.00000E+00
         0.00000E+00
         0.00000E+00
         0.00000E+00
         0.00000E+00
         0.00000E+00
         0.00000E+00
         0.00000E+00
         0.00000E+00
         0.00000E+00
         0.00000E+00
         0.00000E+00
         0.00000E+00
         0.00000E+00
         0.00000E+00
         0.00000E+00
         0.00000E+00
         0.00000E+00
         0.00000E+00
         0.00000E+00
         0.00000E+00
         0.00000E+00
         0.00000E+00
         0.00000E+00
         0.00000E+00
         0.00000E+00
         0.00000E+00
         0.00000E+00
         0.00000E+00
         0.00000E+00
         0.00000E+00
         0.00000E+00
         0.00000E+00
         0.00000E+00
         0.00000E+00
         0.00000E+00
         0.00000E+00
         0.00000E+00
         0.00000E+00
         0.00000E+00
         0.00000E+00
         0.00000E+00
         0.00000E+00
         0.00000E+00
         0.00000E+00
         0.00000E+00
         0.00000E+00
         0.00000E+00
         0.00000E+00
         0.00000E+00
         0.00000E+00
         0.00000E+00
         0.00000E+00
         0.00000E+00
         0.00000E+00
         0.00000E+00
         0.00000E+00
         0.00000E+00
         0.00000E+00
         0.00000E+00
         0.00000E+00
         0.00000E+00
         0.00000E+00
         0.00000E+00
         0.00000E+00
         0.00000E+00
         0.00000E+00
         0.00000E+00
         0.00000E+00
         0.00000E+00
         0.00000E+00
         0.00000E+00
         0.00000E+00
         0.00000E+00
         0.00000E+00
         0.00000E+00
         0.00000E+00
         0.00000E+00
         0.00000E+00
         0.00000E+00
         0.00000E+00
         0.00000E+00
         0.00000E+00
         0.00000E+00
         0.00000E+00
         0.00000E+00
         0.00000E+00
         0.00000E+00
         0.00000E+00
         0.00000E+00
         0.00000E+00
         0.00000E+00
         0.00000E+00
         0.00000E+00
         0.00000E+00
         0.00000E+00
         0.00000E+00
         0.00000E+00
         0.00000E+00
         0.00000E+00
         0.00000E+00
         0.00000E+00
         0.00000E+00
         0.00000E+00
         0.00000E+00
         0.00000E+00
         0.00000E+00
         0.00000E+00
         0.00000E+00
         0.00000E+00
         0.00000E+00
         0.00000E+00
         0.00000E+00
         0.00000E+00
         0.00000E+00
         0.00000E+00
         0.00000E+00
         0.00000E+00
         0.00000E+00
         0.00000E+00
         0.00000E+00
         0.00000E+00
         0.00000E+00
         0.00000E+00
         0.00000E+00
         0.00000E+00
         0.00000E+00
         0.00000E+00
         0.00000E+00
         0.00000E+00
         0.00000E+00
         0.00000E+00
         0.00000E+00
         0.00000E+00
         0.00000E+00
         0.00000E+00
         0.00000E+00
         0.00000E+00
         0.00000E+00
         0.00000E+00
         0.00000E+00
         0.00000E+00
         0.00000E+00
         0.00000E+00
         0.00000E+00
         0.00000E+00
         0.00000E+00
         0.00000E+00
         0.00000E+00
         0.00000E+00
         0.00000E+00
         0.00000E+00
         0.00000E+00
         0.00000E+00
         0.00000E+00
         0.00000E+00
         0.00000E+00
         0.00000E+00
         0.00000E+00
         0.00000E+00
         0.00000E+00
         0.00000E+00
         0.00000E+00
         0.00000E+00
         0.00000E+00
         0.00000E+00
         0.00000E+00
         0.00000E+00
         0.00000E+00
         0.00000E+00
         0.00000E+00
         0.00000E+00
         0.00000E+00
         0.00000E+00
         0.00000E+00
         0.00000E+00
         0.00000E+00
         0.00000E+00
         0.00000E+00
         0.00000E+00
         0.00000E+00
         0.00000E+00
         0.00000E+00
         0.00000E+00
         0.00000E+00
         0.00000E+00
         0.00000E+00
         0.00000E+00
         0.00000E+00
         0.00000E+00
         0.00000E+00
         0.00000E+00
         0.00000E+00
         0.00000E+00
         0.00000E+00
         0.00000E+00
         0.00000E+00
         0.00000E+00
         0.00000E+00
         0.00000E+00
         0.00000E+00
         0.00000E+00
         0.00000E+00
         0.00000E+00
         0.00000E+00
         0.00000E+00
         0.00000E+00
         0.00000E+00
         0.00000E+00
         0.00000E+00
         0.00000E+00
         0.00000E+00
         0.00000E+00
         0.00000E+00
         0.00000E+00
         0.00000E+00
         0.00000E+00
         0.00000E+00
         0.00000E+00
         0.00000E+00
         0.00000E+00
         0.00000E+00
         0.00000E+00
         0.00000E+00
         0.00000E+00
         0.00000E+00
         0.00000E+00
         0.00000E+00
         0.00000E+00
         0.00000E+00
         0.00000E+00
         0.00000E+00
         0.00000E+00
         0.00000E+00
         0.00000E+00
         0.00000E+00
         0.00000E+00
         0.00000E+00
         0.00000E+00
         0.00000E+00
         0.00000E+00
         0.00000E+00
         0.00000E+00
         0.00000E+00
         0.00000E+00
         0.00000E+00
         0.00000E+00
         0.00000E+00
         0.00000E+00
         0.00000E+00
         0.00000E+00
         0.00000E+00
         0.00000E+00
         0.00000E+00
         0.00000E+00
         0.00000E+00
         0.00000E+00
         0.00000E+00
         0.00000E+00
         0.00000E+00
         0.00000E+00
         0.00000E+00
         0.00000E+00
         0.00000E+00
         0.00000E+00
         0.00000E+00
         0.00000E+00
         0.00000E+00
         0.00000E+00
         0.00000E+00
         0.00000E+00
         0.00000E+00
         0.00000E+00
         0.00000E+00
         0.00000E+00
         0.00000E+00
         0.00000E+00
         0.00000E+00
         0.00000E+00
         0.00000E+00
         0.00000E+00
         0.00000E+00
         0.00000E+00
         0.00000E+00
         0.00000E+00
         0.00000E+00
         0.00000E+00
         0.00000E+00
         0.00000E+00
         0.00000E+00
         0.00000E+00
         0.00000E+00
         0.00000E+00
         0.00000E+00
         0.00000E+00
         0.00000E+00
         0.00000E+00
         0.00000E+00
         0.00000E+00
         0.00000E+00
         0.00000E+00
         0.00000E+00
         0.00000E+00
         0.00000E+00
         0.00000E+00
         0.00000E+00
         0.00000E+00
         0.00000E+00
         0.00000E+00
         0.00000E+00
         0.00000E+00
         0.00000E+00
         0.00000E+00
         0.00000E+00
         0.00000E+00
         0.00000E+00
         0.00000E+00
         0.00000E+00
         0.00000E+00
         0.00000E+00
         0.00000E+00
         0.00000E+00
         0.00000E+00
         0.00000E+00
         0.00000E+00
         0.00000E+00
         0.00000E+00
         0.00000E+00
         0.00000E+00
         0.00000E+00
         0.00000E+00
         0.00000E+00
         0.00000E+00
         0.00000E+00
         0.00000E+00
         0.00000E+00
         0.00000E+00
         0.00000E+00
         0.00000E+00
         0.00000E+00
         0.00000E+00
         0.00000E+00
         0.00000E+00
         0.00000E+00
         0.00000E+00
         0.00000E+00
         0.00000E+00
         0.00000E+00
         0.00000E+00
         0.00000E+00
         0.00000E+00
         0.00000E+00
         0.00000E+00
         0.00000E+00
         0.00000E+00
         0.00000E+00
         0.00000E+00
         0.00000E+00
         0.00000E+00
         0.00000E+00
         0.00000E+00
         0.00000E+00
         0.00000E+00
         0.00000E+00
         0.00000E+00
         0.00000E+00
         0.00000E+00
         0.00000E+00
         0.00000E+00
         0.00000E+00
         0.00000E+00
         0.00000E+00
         0.00000E+00
         0.00000E+00
         0.00000E+00
         0.00000E+00
         0.00000E+00
         0.00000E+00
         0.00000E+00
         0.00000E+00
         0.00000E+00
         0.00000E+00
         0.00000E+00
         0.00000E+00
         0.00000E+00
         0.00000E+00
         0.00000E+00
         0.00000E+00
         0.00000E+00
         0.00000E+00
         0.00000E+00
         0.00000E+00
         0.00000E+00
         0.00000E+00
         0.00000E+00
         0.00000E+00
         0.00000E+00
         0.00000E+00
         0.00000E+00
         0.00000E+00
         0.00000E+00
         0.00000E+00
         0.00000E+00
         0.00000E+00
         0.00000E+00
         0.00000E+00
         0.00000E+00
         0.00000E+00
         0.00000E+00
         0.00000E+00
         0.00000E+00
         0.00000E+00
         0.00000E+00
         0.00000E+00
         0.00000E+00
         0.00000E+00
         0.00000E+00
         0.00000E+00
         0.00000E+00
         0.00000E+00
         0.00000E+00
         0.00000E+00
         0.00000E+00
         0.00000E+00
         0.00000E+00
         0.00000E+00
         0.00000E+00
         0.00000E+00
         0.00000E+00
         0.00000E+00
         0.00000E+00
         0.00000E+00
         0.00000E+00
         0.00000E+00
         0.00000E+00
         0.00000E+00
         0.00000E+00
         0.00000E+00
         0.00000E+00
         0.00000E+00
         0.00000E+00
         0.00000E+00
         0.00000E+00
         0.00000E+00
         0.00000E+00
         0.00000E+00
         0.00000E+00
         0.00000E+00
         0.00000E+00
         0.00000E+00
         0.00000E+00
         0.00000E+00
         0.00000E+00
         0.00000E+00
         0.00000E+00
         0.00000E+00
         0.00000E+00
         0.00000E+00
         0.00000E+00
         0.00000E+00
         0.00000E+00
         0.00000E+00
         0.00000E+00
         0.00000E+00
         0.00000E+00
         0.00000E+00
         0.00000E+00
         0.00000E+00
         0.00000E+00
         0.00000E+00
         0.00000E+00
         0.00000E+00
         0.00000E+00
         0.00000E+00
         0.00000E+00
         0.00000E+00
         0.00000E+00
         0.00000E+00
         0.00000E+00
         0.00000E+00
         0.00000E+00
         0.00000E+00
         0.00000E+00
         0.00000E+00
         0.00000E+00
         0.00000E+00
         0.00000E+00
         0.00000E+00
         0.00000E+00
         0.00000E+00
         0.00000E+00
         0.00000E+00
         0.00000E+00
         0.00000E+00
         0.00000E+00
         0.00000E+00
         0.00000E+00
         0.00000E+00
         0.00000E+00
         0.00000E+00
         0.00000E+00
         0.00000E+00
         0.00000E+00
         0.00000E+00
         0.00000E+00
         0.00000E+00
         0.00000E+00
         0.00000E+00
         0.00000E+00
         0.00000E+00
         0.00000E+00
         0.00000E+00
         0.00000E+00
         0.00000E+00
         0.00000E+00
         0.00000E+00
         0.00000E+00
         0.00000E+00
         0.00000E+00
         0.00000E+00
         0.00000E+00
         0.00000E+00
         0.00000E+00
         0.00000E+00
         0.00000E+00
         0.00000E+00
         0.00000E+00
         0.00000E+00
         0.00000E+00
         0.00000E+00
         0.00000E+00
         0.00000E+00
         0.00000E+00
         0.00000E+00
         0.00000E+00
         0.00000E+00
         0.00000E+00
         0.00000E+00
         0.00000E+00
         0.00000E+00
         0.00000E+00
         0.00000E+00
         0.00000E+00
         0.00000E+00
         0.00000E+00
         0.00000E+00
         0.00000E+00
         0.00000E+00
         0.00000E+00
         0.00000E+00
         0.00000E+00
         0.00000E+00
         0.00000E+00
         0.00000E+00
         0.00000E+00
         0.00000E+00
         0.00000E+00
         0.00000E+00
         0.00000E+00
         0.00000E+00
         0.00000E+00
         0.00000E+00
         0.00000E+00
         0.00000E+00
         0.00000E+00
         0.00000E+00
         0.00000E+00
         0.00000E+00
         0.00000E+00
         0.00000E+00
         0.00000E+00
         0.00000E+00
         0.00000E+00
         0.00000E+00
         0.00000E+00
         0.00000E+00
         0.00000E+00
         0.00000E+00
         0.00000E+00
         0.00000E+00
         0.00000E+00
         0.00000E+00
         0.00000E+00
         0.00000E+00
         0.00000E+00
         0.00000E+00
         0.00000E+00
         0.00000E+00
         0.00000E+00
         0.00000E+00
         0.00000E+00
         0.00000E+00
         0.00000E+00
         0.00000E+00
         0.00000E+00
         0.00000E+00
         0.00000E+00
         0.00000E+00
         0.00000E+00
         0.00000E+00
         0.00000E+00
         0.00000E+00
         0.00000E+00
         0.00000E+00
         0.00000E+00
         0.00000E+00
         0.00000E+00
         0.00000E+00
         0.00000E+00
         0.00000E+00
         0.00000E+00
         0.00000E+00
         0.00000E+00
         0.00000E+00
         0.00000E+00
         0.00000E+00
         0.00000E+00
         0.00000E+00
         0.00000E+00
         0.00000E+00
         0.00000E+00
         0.00000E+00
         0.00000E+00
         0.00000E+00
         0.00000E+00
         0.00000E+00
         0.00000E+00
         0.00000E+00
         0.00000E+00
         0.00000E+00
         0.00000E+00
         0.00000E+00
         0.00000E+00
         0.00000E+00
         0.00000E+00
         0.00000E+00
         0.00000E+00
         0.00000E+00
         0.00000E+00
         0.00000E+00
         0.00000E+00
         0.00000E+00
         0.00000E+00
         0.00000E+00
         0.00000E+00
         0.00000E+00
         0.00000E+00
         0.00000E+00
         0.00000E+00
         0.00000E+00
         0.00000E+00
         0.00000E+00
         0.00000E+00
         0.00000E+00
         0.00000E+00
         0.00000E+00
         0.00000E+00
         0.00000E+00
         0.00000E+00
         0.00000E+00
         0.00000E+00
         0.00000E+00
         0.00000E+00
         0.00000E+00
         0.00000E+00
         0.00000E+00
         0.00000E+00
         0.00000E+00
         0.00000E+00
         0.00000E+00
         0.00000E+00
         0.00000E+00
         0.00000E+00
         0.00000E+00
         0.00000E+00
         0.00000E+00
         0.00000E+00
         0.00000E+00
         0.00000E+00
         0.00000E+00
         0.00000E+00
         0.00000E+00
         0.00000E+00
         0.00000E+00
         0.00000E+00
         0.00000E+00
         0.00000E+00
         0.00000E+00
         0.00000E+00
         0.00000E+00
         0.00000E+00
         0.00000E+00
         0.00000E+00
         0.00000E+00
         0.00000E+00
         0.00000E+00
         0.00000E+00
         0.00000E+00
         0.00000E+00
         0.00000E+00
         0.00000E+00
         0.00000E+00
         0.00000E+00
         0.00000E+00
         0.00000E+00
         0.00000E+00
         0.00000E+00
         0.00000E+00
         0.00000E+00
         0.00000E+00
         0.00000E+00
         0.00000E+00
         0.00000E+00
         0.00000E+00
         0.00000E+00
         0.00000E+00
         0.00000E+00
         0.00000E+00
         0.00000E+00
         0.00000E+00
         0.00000E+00
         0.00000E+00
         0.00000E+00
         0.00000E+00
         0.00000E+00
         0.00000E+00
         0.00000E+00
         0.00000E+00
         0.00000E+00
         0.00000E+00
         0.00000E+00
         0.00000E+00
         0.00000E+00
         0.00000E+00
         0.00000E+00
         0.00000E+00
         0.00000E+00
         0.00000E+00
         0.00000E+00
         0.00000E+00
         0.00000E+00
         0.00000E+00
         0.00000E+00
         0.00000E+00
         0.00000E+00
         0.00000E+00
         0.00000E+00
         0.00000E+00
         0.00000E+00
         0.00000E+00
         0.00000E+00
         0.00000E+00
         0.00000E+00
         0.00000E+00
         0.00000E+00
         0.00000E+00
         0.00000E+00
         0.00000E+00
         0.00000E+00
         0.00000E+00
         0.00000E+00
         0.00000E+00
         0.00000E+00
         0.00000E+00
         0.00000E+00
         0.00000E+00
         0.00000E+00
         0.00000E+00
         0.00000E+00
         0.00000E+00
         0.00000E+00
         0.00000E+00
         0.00000E+00
         0.00000E+00
         0.00000E+00
         0.00000E+00
         0.00000E+00
         0.00000E+00
         0.00000E+00
         0.00000E+00
         0.00000E+00
         0.00000E+00
         0.00000E+00
         0.00000E+00
         0.00000E+00
         0.00000E+00
         0.00000E+00
         0.00000E+00
         0.00000E+00
         0.00000E+00
         0.00000E+00
         0.00000E+00
         0.00000E+00
         0.00000E+00
         0.00000E+00
         0.00000E+00
         0.00000E+00
         0.00000E+00
         0.00000E+00
         0.00000E+00
         0.00000E+00
         0.00000E+00
         0.00000E+00
         0.00000E+00
         0.00000E+00
         0.00000E+00
         0.00000E+00
         0.00000E+00
         0.00000E+00
         0.00000E+00
         0.00000E+00
         0.00000E+00
         0.00000E+00
         0.00000E+00
         0.00000E+00
         0.00000E+00
         0.00000E+00
         0.00000E+00
         0.00000E+00
         0.00000E+00
         0.00000E+00
         0.00000E+00
         0.00000E+00
         0.00000E+00
         0.00000E+00
         0.00000E+00
         0.00000E+00
         0.00000E+00
         0.00000E+00
         0.00000E+00
         0.00000E+00
         0.00000E+00
         0.00000E+00
         0.00000E+00
         0.00000E+00
         0.00000E+00
         0.00000E+00
         0.00000E+00
         0.00000E+00
         0.00000E+00
         0.00000E+00
         0.00000E+00
         0.00000E+00
         0.00000E+00
         0.00000E+00
         0.00000E+00
         0.00000E+00
         0.00000E+00
         0.00000E+00
         0.00000E+00
         0.00000E+00
         0.00000E+00
         0.00000E+00
         0.00000E+00
         0.00000E+00
         0.00000E+00
         0.00000E+00
         0.00000E+00
         0.00000E+00
         0.00000E+00
         0.00000E+00
         0.00000E+00
         0.00000E+00
         0.00000E+00
         0.00000E+00
         0.00000E+00
         0.00000E+00
         0.00000E+00
         0.00000E+00
         0.00000E+00
         0.00000E+00
         0.00000E+00
         0.00000E+00
         0.00000E+00
         0.00000E+00
         0.00000E+00
         0.00000E+00
         0.00000E+00
         0.00000E+00
         0.00000E+00
         0.00000E+00
         0.00000E+00
         0.00000E+00
         0.00000E+00
         0.00000E+00
         0.00000E+00
         0.00000E+00
         0.00000E+00
         0.00000E+00
         0.00000E+00
         0.00000E+00
         0.00000E+00
         0.00000E+00
         0.00000E+00
         0.00000E+00
         0.00000E+00
         0.00000E+00
         0.00000E+00
         0.00000E+00
         0.00000E+00
         0.00000E+00
         0.00000E+00
         0.00000E+00
         0.00000E+00
         0.00000E+00
         0.00000E+00
         0.00000E+00
         0.00000E+00
         0.00000E+00
         0.00000E+00
         0.00000E+00
         0.00000E+00
         0.00000E+00
         0.00000E+00
         0.00000E+00
         0.00000E+00
         0.00000E+00
         0.00000E+00
         0.00000E+00
         0.00000E+00
         0.00000E+00
         0.00000E+00
         0.00000E+00
         0.00000E+00
         0.00000E+00
         0.00000E+00
         0.00000E+00
         0.00000E+00
         0.00000E+00
         0.00000E+00
         0.00000E+00
         0.00000E+00
         0.00000E+00
         0.00000E+00
         0.00000E+00
         0.00000E+00
         0.00000E+00
         0.00000E+00
         0.00000E+00
         0.00000E+00
         0.00000E+00
         0.00000E+00
         0.00000E+00
         0.00000E+00
         0.00000E+00
         0.00000E+00
         0.00000E+00
         0.00000E+00
         0.00000E+00
         0.00000E+00
         0.00000E+00
         0.00000E+00
         0.00000E+00
         0.00000E+00
         0.00000E+00
         0.00000E+00
         0.00000E+00
         0.00000E+00
         0.00000E+00
         0.00000E+00
         0.00000E+00
         0.00000E+00
         0.00000E+00
         0.00000E+00
         0.00000E+00
         0.00000E+00
         0.00000E+00
         0.00000E+00
         0.00000E+00
         0.00000E+00
         0.00000E+00
         0.00000E+00
         0.00000E+00
         0.00000E+00
         0.00000E+00
         0.00000E+00
         0.00000E+00
         0.00000E+00
         0.00000E+00
         0.00000E+00
         0.00000E+00
         0.00000E+00
         0.00000E+00
         0.00000E+00
         0.00000E+00
         0.00000E+00
         0.00000E+00
         0.00000E+00
         0.00000E+00
         0.00000E+00
         0.00000E+00
         0.00000E+00
         0.00000E+00
         0.00000E+00
         0.00000E+00
         0.00000E+00
         0.00000E+00
         0.00000E+00
         0.00000E+00
         0.00000E+00
         0.00000E+00
         0.00000E+00
         0.00000E+00
         0.00000E+00
         0.00000E+00
         0.00000E+00
         0.00000E+00
         0.00000E+00
         0.00000E+00
         0.00000E+00
         0.00000E+00
         0.00000E+00
         0.00000E+00
         0.00000E+00
         0.00000E+00
         0.00000E+00
         0.00000E+00
         0.00000E+00
         0.00000E+00
         0.00000E+00
         0.00000E+00
         0.00000E+00
         0.00000E+00
         0.00000E+00
         0.00000E+00
         0.00000E+00
         0.00000E+00
         0.00000E+00
         0.00000E+00
         0.00000E+00
         0.00000E+00
         0.00000E+00
         0.00000E+00
         0.00000E+00
         0.00000E+00
         0.00000E+00
         0.00000E+00
         0.00000E+00
         0.00000E+00
         0.00000E+00
         0.00000E+00
         0.00000E+00
         0.00000E+00
         0.00000E+00
         0.00000E+00
         0.00000E+00
         0.00000E+00
         0.00000E+00
         0.00000E+00
         0.00000E+00
         0.00000E+00
         0.00000E+00
         0.00000E+00
         0.00000E+00
         0.00000E+00
         0.00000E+00
         0.00000E+00
         0.00000E+00
         0.00000E+00
         0.00000E+00
         0.00000E+00
         0.00000E+00
         0.00000E+00
         0.00000E+00
         0.00000E+00
         0.00000E+00
         0.00000E+00
         0.00000E+00
         0.00000E+00
         0.00000E+00
         0.00000E+00
         0.00000E+00
         0.00000E+00
         0.00000E+00
         0.00000E+00
         0.00000E+00
         0.00000E+00
         0.00000E+00
         0.00000E+00
         0.00000E+00
         0.00000E+00
         0.00000E+00
         0.00000E+00
         0.00000E+00
         0.00000E+00
         0.00000E+00
         0.00000E+00
         0.00000E+00
         0.00000E+00
         0.00000E+00
         0.00000E+00
         0.00000E+00
         0.00000E+00
         0.00000E+00
         0.00000E+00
         0.00000E+00
         0.00000E+00
         0.00000E+00
         0.00000E+00
         0.00000E+00
         0.00000E+00
         0.00000E+00
         0.00000E+00
         0.00000E+00
         0.00000E+00
         0.00000E+00
         0.00000E+00
         0.00000E+00
         0.00000E+00
         0.00000E+00
         0.00000E+00
         0.00000E+00
         0.00000E+00
         0.00000E+00
         0.00000E+00
         0.00000E+00
         0.00000E+00
         0.00000E+00
         0.00000E+00
         0.00000E+00
         0.00000E+00
         0.00000E+00
         0.00000E+00
         0.00000E+00
         0.00000E+00
         0.00000E+00
         0.00000E+00
         0.00000E+00
         0.00000E+00
         0.00000E+00
         0.00000E+00
         0.00000E+00
         0.00000E+00
         0.00000E+00
         0.00000E+00
         0.00000E+00
         0.00000E+00
         0.00000E+00
         0.00000E+00
         0.00000E+00
         0.00000E+00
         0.00000E+00
         0.00000E+00
         0.00000E+00
         0.00000E+00
         0.00000E+00
         0.00000E+00
         0.00000E+00
         0.00000E+00
         0.00000E+00
         0.00000E+00
         0.00000E+00
         0.00000E+00
         0.00000E+00
         0.00000E+00
         0.00000E+00
         0.00000E+00
         0.00000E+00
         0.00000E+00
         0.00000E+00
         0.00000E+00
         0.00000E+00
         0.00000E+00
         0.00000E+00
         0.00000E+00
         0.00000E+00
         0.00000E+00
         0.00000E+00
         0.00000E+00
         0.00000E+00
         0.00000E+00
         0.00000E+00
         0.00000E+00
         0.00000E+00
         0.00000E+00
         0.00000E+00
         0.00000E+00
         0.00000E+00
         0.00000E+00
         0.00000E+00
         0.00000E+00
         0.00000E+00
         0.00000E+00
         0.00000E+00
         0.00000E+00
         0.00000E+00
         0.00000E+00
         0.00000E+00
         0.00000E+00
         0.00000E+00
         0.00000E+00
         0.00000E+00
         0.00000E+00
         0.00000E+00
         0.00000E+00
         0.00000E+00
         0.00000E+00
         0.00000E+00
         0.00000E+00
         0.00000E+00
         0.00000E+00
         0.00000E+00
         0.00000E+00
         0.00000E+00
         0.00000E+00
         0.00000E+00
         0.00000E+00
         0.00000E+00
         0.00000E+00
         0.00000E+00
         0.00000E+00
         0.00000E+00
         0.00000E+00
         0.00000E+00
         0.00000E+00
         0.00000E+00
         0.00000E+00
         0.00000E+00
         0.00000E+00
         0.00000E+00
         0.00000E+00
         0.00000E+00
         0.00000E+00
         0.00000E+00
         0.00000E+00
         0.00000E+00
         0.00000E+00
         0.00000E+00
         0.00000E+00
         0.00000E+00
         0.00000E+00
         0.00000E+00
         0.00000E+00
         0.00000E+00
         0.00000E+00
         0.00000E+00
         0.00000E+00
         0.00000E+00
         0.00000E+00
         0.00000E+00
         0.00000E+00
         0.00000E+00
         0.00000E+00
         0.00000E+00
         0.00000E+00
         0.00000E+00
         0.00000E+00
         0.00000E+00
         0.00000E+00
         0.00000E+00
         0.00000E+00
         0.00000E+00
         0.00000E+00
         0.00000E+00
         0.00000E+00
         0.00000E+00
         0.00000E+00
         0.00000E+00
         0.00000E+00
         0.00000E+00
         0.00000E+00
         0.00000E+00
         0.00000E+00
         0.00000E+00
         0.00000E+00
         0.00000E+00
         0.00000E+00
         0.00000E+00
         0.00000E+00
         0.00000E+00
         0.00000E+00
         0.00000E+00
         0.00000E+00
         0.00000E+00
         0.00000E+00
         0.00000E+00
         0.00000E+00
         0.00000E+00
         0.00000E+00
         0.00000E+00
         0.00000E+00
         0.00000E+00
         0.00000E+00
         0.00000E+00
         0.00000E+00
         0.00000E+00
         0.00000E+00
         0.00000E+00
         0.00000E+00
         0.00000E+00
         0.00000E+00
         0.00000E+00
         0.00000E+00
         0.00000E+00
         0.00000E+00
         0.00000E+00
         0.00000E+00
         0.00000E+00
         0.00000E+00
         0.00000E+00
         0.00000E+00
         0.00000E+00
         0.00000E+00
         0.00000E+00
         0.00000E+00
         0.00000E+00
         0.00000E+00
         0.00000E+00
         0.00000E+00
         0.00000E+00
         0.00000E+00
         0.00000E+00
         0.00000E+00
         0.00000E+00
         0.00000E+00
         0.00000E+00
         0.00000E+00
         0.00000E+00
         0.00000E+00
         0.00000E+00
         0.00000E+00
         0.00000E+00
         0.00000E+00
         0.00000E+00
         0.00000E+00
         0.00000E+00
         0.00000E+00
         0.00000E+00
         0.00000E+00
         0.00000E+00
         0.00000E+00
         0.00000E+00
         0.00000E+00
         0.00000E+00
         0.00000E+00
         0.00000E+00
         0.00000E+00
         0.00000E+00
         0.00000E+00
         0.00000E+00
         0.00000E+00
         0.00000E+00
         0.00000E+00
         0.00000E+00
         0.00000E+00
         0.00000E+00
         0.00000E+00
         0.00000E+00
         0.00000E+00
         0.00000E+00
         0.00000E+00
         0.00000E+00
         0.00000E+00
         0.00000E+00
         0.00000E+00
         0.00000E+00
         0.00000E+00
         0.00000E+00
         0.00000E+00
         0.00000E+00
         0.00000E+00
         0.00000E+00
         0.00000E+00
         0.00000E+00
         0.00000E+00
         0.00000E+00
         0.00000E+00
         0.00000E+00
         0.00000E+00
         0.00000E+00
         0.00000E+00
         0.00000E+00
         0.00000E+00
         0.00000E+00
         0.00000E+00
         0.00000E+00
         0.00000E+00
         0.00000E+00
         0.00000E+00
         0.00000E+00
         0.00000E+00
         0.00000E+00
         0.00000E+00
         0.00000E+00
         0.00000E+00
         0.00000E+00
         0.00000E+00
         0.00000E+00
         0.00000E+00
         0.00000E+00
         0.00000E+00
         0.00000E+00
         0.00000E+00
         0.00000E+00
         0.00000E+00
         0.00000E+00
         0.00000E+00
         0.00000E+00
         0.00000E+00
         0.00000E+00
         0.00000E+00
         0.00000E+00
         0.00000E+00
         0.00000E+00
         0.00000E+00
         0.00000E+00
         0.00000E+00
         0.00000E+00
         0.00000E+00
         0.00000E+00
         0.00000E+00
         0.00000E+00
         0.00000E+00
         0.00000E+00
         0.00000E+00
         0.00000E+00
         0.00000E+00
         0.00000E+00
         0.00000E+00
         0.00000E+00
         0.00000E+00
         0.00000E+00
         0.00000E+00
         0.00000E+00
         0.00000E+00
         0.00000E+00
         0.00000E+00
         0.00000E+00
         0.00000E+00
         0.00000E+00
         0.00000E+00
         0.00000E+00
         0.00000E+00
         0.00000E+00
         0.00000E+00
         0.00000E+00
         0.00000E+00
         0.00000E+00
         0.00000E+00
         0.00000E+00
         0.00000E+00
         0.00000E+00
         0.00000E+00
         0.00000E+00
         0.00000E+00
         0.00000E+00
         0.00000E+00
         0.00000E+00
         0.00000E+00
         0.00000E+00
         0.00000E+00
         0.00000E+00
         0.00000E+00
         0.00000E+00
         0.00000E+00
         0.00000E+00
         0.00000E+00
         0.00000E+00
         0.00000E+00
         0.00000E+00
         0.00000E+00
         0.00000E+00
         0.00000E+00
         0.00000E+00
         0.00000E+00
         0.00000E+00
         0.00000E+00
         0.00000E+00
         0.00000E+00
         0.00000E+00
         0.00000E+00
         0.00000E+00
         0.00000E+00
         0.00000E+00
         0.00000E+00
         0.00000E+00
         0.00000E+00
         0.00000E+00
         0.00000E+00
         0.00000E+00
         0.00000E+00
         0.00000E+00
         0.00000E+00
         0.00000E+00
         0.00000E+00
         0.00000E+00
         0.00000E+00
         0.00000E+00
         0.00000E+00
         0.00000E+00
         0.00000E+00
         0.00000E+00
         0.00000E+00
         0.00000E+00
         0.00000E+00
         0.00000E+00
         0.00000E+00
         0.00000E+00
         0.00000E+00
         0.00000E+00
         0.00000E+00
         0.00000E+00
         0.00000E+00
         0.00000E+00
         0.00000E+00
         0.00000E+00
         0.00000E+00
         0.00000E+00
         0.00000E+00
         0.00000E+00
         0.00000E+00
         0.00000E+00
         0.00000E+00
         0.00000E+00
         0.00000E+00
         0.00000E+00
         0.00000E+00
         0.00000E+00
         0.00000E+00
         0.00000E+00
         0.00000E+00
         0.00000E+00
         0.00000E+00
         0.00000E+00
         0.00000E+00
         0.00000E+00
         0.00000E+00
         0.00000E+00
         0.00000E+00
         0.00000E+00
         0.00000E+00
         0.00000E+00
         0.00000E+00
         0.00000E+00
         0.00000E+00
         0.00000E+00
         0.00000E+00
         0.00000E+00
         0.00000E+00
         0.00000E+00
         0.00000E+00
         0.00000E+00
         0.00000E+00
         0.00000E+00
         0.00000E+00
         0.00000E+00
         0.00000E+00
         0.00000E+00
         0.00000E+00
         0.00000E+00
         0.00000E+00
         0.00000E+00
         0.00000E+00
         0.00000E+00
         0.00000E+00
         0.00000E+00
         0.00000E+00
         0.00000E+00
         0.00000E+00
         0.00000E+00
         0.00000E+00
         0.00000E+00
         0.00000E+00
         0.00000E+00
         0.00000E+00
         0.00000E+00
         0.00000E+00
         0.00000E+00
         0.00000E+00
         0.00000E+00
         0.00000E+00
         0.00000E+00
         0.00000E+00
         0.00000E+00
         0.00000E+00
         0.00000E+00
         0.00000E+00
         0.00000E+00
         0.00000E+00
         0.00000E+00
         0.00000E+00
         0.00000E+00
         0.00000E+00
         0.00000E+00
         0.00000E+00
         0.00000E+00
         0.00000E+00
         0.00000E+00
         0.00000E+00
         0.00000E+00
         0.00000E+00
         0.00000E+00
         0.00000E+00
         0.00000E+00
         0.00000E+00
         0.00000E+00
         0.00000E+00
         0.00000E+00
         0.00000E+00
         0.00000E+00
         0.00000E+00
         0.00000E+00
         0.00000E+00
         0.00000E+00
         0.00000E+00
         0.00000E+00
         0.00000E+00
         0.00000E+00
         0.00000E+00
         0.00000E+00
         0.00000E+00
         0.00000E+00
         0.00000E+00
         0.00000E+00
         0.00000E+00
         0.00000E+00
         0.00000E+00
         0.00000E+00
         0.00000E+00
         0.00000E+00
         0.00000E+00
         0.00000E+00
         0.00000E+00
         0.00000E+00
         0.00000E+00
         0.00000E+00
         0.00000E+00
         0.00000E+00
         0.00000E+00
         0.00000E+00
         0.00000E+00
         0.00000E+00
         0.00000E+00
         0.00000E+00
         0.00000E+00
         0.00000E+00
         0.00000E+00
         0.00000E+00
         0.00000E+00
         0.00000E+00
         0.00000E+00
         0.00000E+00
         0.00000E+00
         0.00000E+00
         0.00000E+00
         0.00000E+00
         0.00000E+00
         0.00000E+00
         0.00000E+00
         0.00000E+00
         0.00000E+00
         0.00000E+00
         0.00000E+00
         0.00000E+00
         0.00000E+00
         0.00000E+00
         0.00000E+00
         0.00000E+00
         0.00000E+00
         0.00000E+00
         0.00000E+00
         0.00000E+00
         0.00000E+00
         0.00000E+00
         0.00000E+00
         0.00000E+00
         0.00000E+00
         0.00000E+00
         0.00000E+00
         0.00000E+00
         0.00000E+00
         0.00000E+00
         0.00000E+00
         0.00000E+00
         0.00000E+00
         0.00000E+00
         0.00000E+00
         0.00000E+00
         0.00000E+00
         0.00000E+00
         0.00000E+00
         0.00000E+00
         0.00000E+00
         0.00000E+00
         0.00000E+00
         0.00000E+00
         0.00000E+00
         0.00000E+00
         0.00000E+00
         0.00000E+00
         0.00000E+00
         0.00000E+00
         0.00000E+00
         0.00000E+00
         0.00000E+00
         0.00000E+00
         0.00000E+00
         0.00000E+00
         0.00000E+00
         0.00000E+00
         0.00000E+00
         0.00000E+00
         0.00000E+00
         0.00000E+00
         0.00000E+00
         0.00000E+00
         0.00000E+00
         0.00000E+00
         0.00000E+00
         0.00000E+00
         0.00000E+00
         0.00000E+00
         0.00000E+00
         0.00000E+00
         0.00000E+00
         0.00000E+00
         0.00000E+00
         0.00000E+00
         0.00000E+00
         0.00000E+00
         0.00000E+00
         0.00000E+00
         0.00000E+00
         0.00000E+00
         0.00000E+00
         0.00000E+00
         0.00000E+00
         0.00000E+00
         0.00000E+00
         0.00000E+00
         0.00000E+00
         0.00000E+00
         0.00000E+00
         0.00000E+00
         0.00000E+00
         0.00000E+00
         0.00000E+00
         0.00000E+00
         0.00000E+00
         0.00000E+00
         0.00000E+00
         0.00000E+00
         0.00000E+00
         0.00000E+00
         0.00000E+00
         0.00000E+00
         0.00000E+00
         0.00000E+00
         0.00000E+00
         0.00000E+00
         0.00000E+00
         0.00000E+00
         0.00000E+00
         0.00000E+00
         0.00000E+00
         0.00000E+00
         0.00000E+00
         0.00000E+00
         0.00000E+00
         0.00000E+00
         0.00000E+00
         0.00000E+00
         0.00000E+00
         0.00000E+00
         0.00000E+00
         0.00000E+00
         0.00000E+00
         0.00000E+00
         0.00000E+00
         0.00000E+00
         0.00000E+00
         0.00000E+00
         0.00000E+00
         0.00000E+00
         0.00000E+00
         0.00000E+00
         0.00000E+00
         0.00000E+00
         0.00000E+00
         0.00000E+00
         0.00000E+00
         0.00000E+00
         0.00000E+00
         0.00000E+00
         0.00000E+00
         0.00000E+00
         0.00000E+00
         0.00000E+00
         0.00000E+00
         0.00000E+00
         0.00000E+00
         0.00000E+00
         0.00000E+00
         0.00000E+00
         0.00000E+00
         0.00000E+00
         0.00000E+00
         0.00000E+00
         0.00000E+00
         0.00000E+00
         0.00000E+00
         0.00000E+00
         0.00000E+00
         0.00000E+00
         0.00000E+00
         0.00000E+00
         0.00000E+00
         0.00000E+00
         0.00000E+00
         0.00000E+00
  
SCALARS                      eps_shear  double 1
LOOKUP_TABLE default
         0.00000E+00
         0.00000E+00
         0.00000E+00
         0.00000E+00
         0.00000E+00
         0.00000E+00
         0.00000E+00
         0.00000E+00
         0.00000E+00
         0.00000E+00
         0.00000E+00
         0.00000E+00
         0.00000E+00
         0.00000E+00
         0.00000E+00
         0.00000E+00
         0.00000E+00
         0.00000E+00
         0.00000E+00
         0.00000E+00
         0.00000E+00
         0.00000E+00
         0.00000E+00
         0.00000E+00
         0.00000E+00
         0.00000E+00
         0.00000E+00
         0.00000E+00
         0.00000E+00
         0.00000E+00
         0.00000E+00
         0.00000E+00
         0.00000E+00
         0.00000E+00
         0.00000E+00
         0.00000E+00
         0.00000E+00
         0.00000E+00
         0.00000E+00
         0.00000E+00
         0.00000E+00
         0.00000E+00
         0.00000E+00
         0.00000E+00
         0.00000E+00
         0.00000E+00
         0.00000E+00
         0.00000E+00
         0.00000E+00
         0.00000E+00
         0.00000E+00
         0.00000E+00
         0.00000E+00
         0.00000E+00
         0.00000E+00
         0.00000E+00
         0.00000E+00
         0.00000E+00
         0.00000E+00
         0.00000E+00
         0.00000E+00
         0.00000E+00
         0.00000E+00
         0.00000E+00
         0.00000E+00
         0.00000E+00
         0.00000E+00
         0.00000E+00
         0.00000E+00
         0.00000E+00
         0.00000E+00
         0.00000E+00
         0.00000E+00
         0.00000E+00
         0.00000E+00
         0.00000E+00
         0.00000E+00
         0.00000E+00
         0.00000E+00
         0.00000E+00
         0.00000E+00
         0.00000E+00
         0.00000E+00
         0.00000E+00
         0.00000E+00
         0.00000E+00
         0.00000E+00
         0.00000E+00
         0.00000E+00
         0.00000E+00
         0.00000E+00
         0.00000E+00
         0.00000E+00
         0.00000E+00
         0.00000E+00
         0.00000E+00
         0.00000E+00
         0.00000E+00
         0.00000E+00
         0.00000E+00
         0.00000E+00
         0.00000E+00
         0.00000E+00
         0.00000E+00
         0.00000E+00
         0.00000E+00
         0.00000E+00
         0.00000E+00
         0.00000E+00
         0.00000E+00
         0.00000E+00
         0.00000E+00
         0.00000E+00
         0.00000E+00
         0.00000E+00
         0.00000E+00
         0.00000E+00
         0.00000E+00
         0.00000E+00
         0.00000E+00
         0.00000E+00
         0.00000E+00
         0.00000E+00
         0.00000E+00
         0.00000E+00
         0.00000E+00
         0.00000E+00
         0.00000E+00
         0.00000E+00
         0.00000E+00
         0.00000E+00
         0.00000E+00
         0.00000E+00
         0.00000E+00
         0.00000E+00
         0.00000E+00
         0.00000E+00
         0.00000E+00
         0.00000E+00
         0.00000E+00
         0.00000E+00
         0.00000E+00
         0.00000E+00
         0.00000E+00
         0.00000E+00
         0.00000E+00
         0.00000E+00
         0.00000E+00
         0.00000E+00
         0.00000E+00
         0.00000E+00
         0.00000E+00
         0.00000E+00
         0.00000E+00
         0.00000E+00
         0.00000E+00
         0.00000E+00
         0.00000E+00
         0.00000E+00
         0.00000E+00
         0.00000E+00
         0.00000E+00
         0.00000E+00
         0.00000E+00
         0.00000E+00
         0.00000E+00
         0.00000E+00
         0.00000E+00
         0.00000E+00
         0.00000E+00
         0.00000E+00
         0.00000E+00
         0.00000E+00
         0.00000E+00
         0.00000E+00
         0.00000E+00
         0.00000E+00
         0.00000E+00
         0.00000E+00
         0.00000E+00
         0.00000E+00
         0.00000E+00
         0.00000E+00
         0.00000E+00
         0.00000E+00
         0.00000E+00
         0.00000E+00
         0.00000E+00
         0.00000E+00
         0.00000E+00
         0.00000E+00
         0.00000E+00
         0.00000E+00
         0.00000E+00
         0.00000E+00
         0.00000E+00
         0.00000E+00
         0.00000E+00
         0.00000E+00
         0.00000E+00
         0.00000E+00
         0.00000E+00
         0.00000E+00
         0.00000E+00
         0.00000E+00
         0.00000E+00
         0.00000E+00
         0.00000E+00
         0.00000E+00
         0.00000E+00
         0.00000E+00
         0.00000E+00
         0.00000E+00
         0.00000E+00
         0.00000E+00
         0.00000E+00
         0.00000E+00
         0.00000E+00
         0.00000E+00
         0.00000E+00
         0.00000E+00
         0.00000E+00
         0.00000E+00
         0.00000E+00
         0.00000E+00
         0.00000E+00
         0.00000E+00
         0.00000E+00
         0.00000E+00
         0.00000E+00
         0.00000E+00
         0.00000E+00
         0.00000E+00
         0.00000E+00
         0.00000E+00
         0.00000E+00
         0.00000E+00
         0.00000E+00
         0.00000E+00
         0.00000E+00
         0.00000E+00
         0.00000E+00
         0.00000E+00
         0.00000E+00
         0.00000E+00
         0.00000E+00
         0.00000E+00
         0.00000E+00
         0.00000E+00
         0.00000E+00
         0.00000E+00
         0.00000E+00
         0.00000E+00
         0.00000E+00
         0.00000E+00
         0.00000E+00
         0.00000E+00
         0.00000E+00
         0.00000E+00
         0.00000E+00
         0.00000E+00
         0.00000E+00
         0.00000E+00
         0.00000E+00
         0.00000E+00
         0.00000E+00
         0.00000E+00
         0.00000E+00
         0.00000E+00
         0.00000E+00
         0.00000E+00
         0.00000E+00
         0.00000E+00
         0.00000E+00
         0.00000E+00
         0.00000E+00
         0.00000E+00
         0.00000E+00
         0.00000E+00
         0.00000E+00
         0.00000E+00
         0.00000E+00
         0.00000E+00
         0.00000E+00
         0.00000E+00
         0.00000E+00
         0.00000E+00
         0.00000E+00
         0.00000E+00
         0.00000E+00
         0.00000E+00
         0.00000E+00
         0.00000E+00
         0.00000E+00
         0.00000E+00
         0.00000E+00
         0.00000E+00
         0.00000E+00
         0.00000E+00
         0.00000E+00
         0.00000E+00
         0.00000E+00
         0.00000E+00
         0.00000E+00
         0.00000E+00
         0.00000E+00
         0.00000E+00
         0.00000E+00
         0.00000E+00
         0.00000E+00
         0.00000E+00
         0.00000E+00
         0.00000E+00
         0.00000E+00
         0.00000E+00
         0.00000E+00
         0.00000E+00
         0.00000E+00
         0.00000E+00
         0.00000E+00
         0.00000E+00
         0.00000E+00
         0.00000E+00
         0.00000E+00
         0.00000E+00
         0.00000E+00
         0.00000E+00
         0.00000E+00
         0.00000E+00
         0.00000E+00
         0.00000E+00
         0.00000E+00
         0.00000E+00
         0.00000E+00
         0.00000E+00
         0.00000E+00
         0.00000E+00
         0.00000E+00
         0.00000E+00
         0.00000E+00
         0.00000E+00
         0.00000E+00
         0.00000E+00
         0.00000E+00
         0.00000E+00
         0.00000E+00
         0.00000E+00
         0.00000E+00
         0.00000E+00
         0.00000E+00
         0.00000E+00
         0.00000E+00
         0.00000E+00
         0.00000E+00
         0.00000E+00
         0.00000E+00
         0.00000E+00
         0.00000E+00
         0.00000E+00
         0.00000E+00
         0.00000E+00
         0.00000E+00
         0.00000E+00
         0.00000E+00
         0.00000E+00
         0.00000E+00
         0.00000E+00
         0.00000E+00
         0.00000E+00
         0.00000E+00
         0.00000E+00
         0.00000E+00
         0.00000E+00
         0.00000E+00
         0.00000E+00
         0.00000E+00
         0.00000E+00
         0.00000E+00
         0.00000E+00
         0.00000E+00
         0.00000E+00
         0.00000E+00
         0.00000E+00
         0.00000E+00
         0.00000E+00
         0.00000E+00
         0.00000E+00
         0.00000E+00
         0.00000E+00
         0.00000E+00
         0.00000E+00
         0.00000E+00
         0.00000E+00
         0.00000E+00
         0.00000E+00
         0.00000E+00
         0.00000E+00
         0.00000E+00
         0.00000E+00
         0.00000E+00
         0.00000E+00
         0.00000E+00
         0.00000E+00
         0.00000E+00
         0.00000E+00
         0.00000E+00
         0.00000E+00
         0.00000E+00
         0.00000E+00
         0.00000E+00
         0.00000E+00
         0.00000E+00
         0.00000E+00
         0.00000E+00
         0.00000E+00
         0.00000E+00
         0.00000E+00
         0.00000E+00
         0.00000E+00
         0.00000E+00
         0.00000E+00
         0.00000E+00
         0.00000E+00
         0.00000E+00
         0.00000E+00
         0.00000E+00
         0.00000E+00
         0.00000E+00
         0.00000E+00
         0.00000E+00
         0.00000E+00
         0.00000E+00
         0.00000E+00
         0.00000E+00
         0.00000E+00
         0.00000E+00
         0.00000E+00
         0.00000E+00
         0.00000E+00
         0.00000E+00
         0.00000E+00
         0.00000E+00
         0.00000E+00
         0.00000E+00
         0.00000E+00
         0.00000E+00
         0.00000E+00
         0.00000E+00
         0.00000E+00
         0.00000E+00
         0.00000E+00
         0.00000E+00
         0.00000E+00
         0.00000E+00
         0.00000E+00
         0.00000E+00
         0.00000E+00
         0.00000E+00
         0.00000E+00
         0.00000E+00
         0.00000E+00
         0.00000E+00
         0.00000E+00
         0.00000E+00
         0.00000E+00
         0.00000E+00
         0.00000E+00
         0.00000E+00
         0.00000E+00
         0.00000E+00
         0.00000E+00
         0.00000E+00
         0.00000E+00
         0.00000E+00
         0.00000E+00
         0.00000E+00
         0.00000E+00
         0.00000E+00
         0.00000E+00
         0.00000E+00
         0.00000E+00
         0.00000E+00
         0.00000E+00
         0.00000E+00
         0.00000E+00
         0.00000E+00
         0.00000E+00
         0.00000E+00
         0.00000E+00
         0.00000E+00
         0.00000E+00
         0.00000E+00
         0.00000E+00
         0.00000E+00
         0.00000E+00
         0.00000E+00
         0.00000E+00
         0.00000E+00
         0.00000E+00
         0.00000E+00
         0.00000E+00
         0.00000E+00
         0.00000E+00
         0.00000E+00
         0.00000E+00
         0.00000E+00
         0.00000E+00
         0.00000E+00
         0.00000E+00
         0.00000E+00
         0.00000E+00
         0.00000E+00
         0.00000E+00
         0.00000E+00
         0.00000E+00
         0.00000E+00
         0.00000E+00
         0.00000E+00
         0.00000E+00
         0.00000E+00
         0.00000E+00
         0.00000E+00
         0.00000E+00
         0.00000E+00
         0.00000E+00
         0.00000E+00
         0.00000E+00
         0.00000E+00
         0.00000E+00
         0.00000E+00
         0.00000E+00
         0.00000E+00
         0.00000E+00
         0.00000E+00
         0.00000E+00
         0.00000E+00
         0.00000E+00
         0.00000E+00
         0.00000E+00
         0.00000E+00
         0.00000E+00
         0.00000E+00
         0.00000E+00
         0.00000E+00
         0.00000E+00
         0.00000E+00
         0.00000E+00
         0.00000E+00
         0.00000E+00
         0.00000E+00
         0.00000E+00
         0.00000E+00
         0.00000E+00
         0.00000E+00
         0.00000E+00
         0.00000E+00
         0.00000E+00
         0.00000E+00
         0.00000E+00
         0.00000E+00
         0.00000E+00
         0.00000E+00
         0.00000E+00
         0.00000E+00
         0.00000E+00
         0.00000E+00
         0.00000E+00
         0.00000E+00
         0.00000E+00
         0.00000E+00
         0.00000E+00
         0.00000E+00
         0.00000E+00
         0.00000E+00
         0.00000E+00
         0.00000E+00
         0.00000E+00
         0.00000E+00
         0.00000E+00
         0.00000E+00
         0.00000E+00
         0.00000E+00
         0.00000E+00
         0.00000E+00
         0.00000E+00
         0.00000E+00
         0.00000E+00
         0.00000E+00
         0.00000E+00
         0.00000E+00
         0.00000E+00
         0.00000E+00
         0.00000E+00
         0.00000E+00
         0.00000E+00
         0.00000E+00
         0.00000E+00
         0.00000E+00
         0.00000E+00
         0.00000E+00
         0.00000E+00
         0.00000E+00
         0.00000E+00
         0.00000E+00
         0.00000E+00
         0.00000E+00
         0.00000E+00
         0.00000E+00
         0.00000E+00
         0.00000E+00
         0.00000E+00
         0.00000E+00
         0.00000E+00
         0.00000E+00
         0.00000E+00
         0.00000E+00
         0.00000E+00
         0.00000E+00
         0.00000E+00
         0.00000E+00
         0.00000E+00
         0.00000E+00
         0.00000E+00
         0.00000E+00
         0.00000E+00
         0.00000E+00
         0.00000E+00
         0.00000E+00
         0.00000E+00
         0.00000E+00
         0.00000E+00
         0.00000E+00
         0.00000E+00
         0.00000E+00
         0.00000E+00
         0.00000E+00
         0.00000E+00
         0.00000E+00
         0.00000E+00
         0.00000E+00
         0.00000E+00
         0.00000E+00
         0.00000E+00
         0.00000E+00
         0.00000E+00
         0.00000E+00
         0.00000E+00
         0.00000E+00
         0.00000E+00
         0.00000E+00
         0.00000E+00
         0.00000E+00
         0.00000E+00
         0.00000E+00
         0.00000E+00
         0.00000E+00
         0.00000E+00
         0.00000E+00
         0.00000E+00
         0.00000E+00
         0.00000E+00
         0.00000E+00
         0.00000E+00
         0.00000E+00
         0.00000E+00
         0.00000E+00
         0.00000E+00
         0.00000E+00
         0.00000E+00
         0.00000E+00
         0.00000E+00
         0.00000E+00
         0.00000E+00
         0.00000E+00
         0.00000E+00
         0.00000E+00
         0.00000E+00
         0.00000E+00
         0.00000E+00
         0.00000E+00
         0.00000E+00
         0.00000E+00
         0.00000E+00
         0.00000E+00
         0.00000E+00
         0.00000E+00
         0.00000E+00
         0.00000E+00
         0.00000E+00
         0.00000E+00
         0.00000E+00
         0.00000E+00
         0.00000E+00
         0.00000E+00
         0.00000E+00
         0.00000E+00
         0.00000E+00
         0.00000E+00
         0.00000E+00
         0.00000E+00
         0.00000E+00
         0.00000E+00
         0.00000E+00
         0.00000E+00
         0.00000E+00
         0.00000E+00
         0.00000E+00
         0.00000E+00
         0.00000E+00
         0.00000E+00
         0.00000E+00
         0.00000E+00
         0.00000E+00
         0.00000E+00
         0.00000E+00
         0.00000E+00
         0.00000E+00
         0.00000E+00
         0.00000E+00
         0.00000E+00
         0.00000E+00
         0.00000E+00
         0.00000E+00
         0.00000E+00
         0.00000E+00
         0.00000E+00
         0.00000E+00
         0.00000E+00
         0.00000E+00
         0.00000E+00
         0.00000E+00
         0.00000E+00
         0.00000E+00
         0.00000E+00
         0.00000E+00
         0.00000E+00
         0.00000E+00
         0.00000E+00
         0.00000E+00
         0.00000E+00
         0.00000E+00
         0.00000E+00
         0.00000E+00
         0.00000E+00
         0.00000E+00
         0.00000E+00
         0.00000E+00
         0.00000E+00
         0.00000E+00
         0.00000E+00
         0.00000E+00
         0.00000E+00
         0.00000E+00
         0.00000E+00
         0.00000E+00
         0.00000E+00
         0.00000E+00
         0.00000E+00
         0.00000E+00
         0.00000E+00
         0.00000E+00
         0.00000E+00
         0.00000E+00
         0.00000E+00
         0.00000E+00
         0.00000E+00
         0.00000E+00
         0.00000E+00
         0.00000E+00
         0.00000E+00
         0.00000E+00
         0.00000E+00
         0.00000E+00
         0.00000E+00
         0.00000E+00
         0.00000E+00
         0.00000E+00
         0.00000E+00
         0.00000E+00
         0.00000E+00
         0.00000E+00
         0.00000E+00
         0.00000E+00
         0.00000E+00
         0.00000E+00
         0.00000E+00
         0.00000E+00
         0.00000E+00
         0.00000E+00
         0.00000E+00
         0.00000E+00
         0.00000E+00
         0.00000E+00
         0.00000E+00
         0.00000E+00
         0.00000E+00
         0.00000E+00
         0.00000E+00
         0.00000E+00
         0.00000E+00
         0.00000E+00
         0.00000E+00
         0.00000E+00
         0.00000E+00
         0.00000E+00
         0.00000E+00
         0.00000E+00
         0.00000E+00
         0.00000E+00
         0.00000E+00
         0.00000E+00
         0.00000E+00
         0.00000E+00
         0.00000E+00
         0.00000E+00
         0.00000E+00
         0.00000E+00
         0.00000E+00
         0.00000E+00
         0.00000E+00
         0.00000E+00
         0.00000E+00
         0.00000E+00
         0.00000E+00
         0.00000E+00
         0.00000E+00
         0.00000E+00
         0.00000E+00
         0.00000E+00
         0.00000E+00
         0.00000E+00
         0.00000E+00
         0.00000E+00
         0.00000E+00
         0.00000E+00
         0.00000E+00
         0.00000E+00
         0.00000E+00
         0.00000E+00
         0.00000E+00
         0.00000E+00
         0.00000E+00
         0.00000E+00
         0.00000E+00
         0.00000E+00
         0.00000E+00
         0.00000E+00
         0.00000E+00
         0.00000E+00
         0.00000E+00
         0.00000E+00
         0.00000E+00
         0.00000E+00
         0.00000E+00
         0.00000E+00
         0.00000E+00
         0.00000E+00
         0.00000E+00
         0.00000E+00
         0.00000E+00
         0.00000E+00
         0.00000E+00
         0.00000E+00
         0.00000E+00
         0.00000E+00
         0.00000E+00
         0.00000E+00
         0.00000E+00
         0.00000E+00
         0.00000E+00
         0.00000E+00
         0.00000E+00
         0.00000E+00
         0.00000E+00
         0.00000E+00
         0.00000E+00
         0.00000E+00
         0.00000E+00
         0.00000E+00
         0.00000E+00
         0.00000E+00
         0.00000E+00
         0.00000E+00
         0.00000E+00
         0.00000E+00
         0.00000E+00
         0.00000E+00
         0.00000E+00
         0.00000E+00
         0.00000E+00
         0.00000E+00
         0.00000E+00
         0.00000E+00
         0.00000E+00
         0.00000E+00
         0.00000E+00
         0.00000E+00
         0.00000E+00
         0.00000E+00
         0.00000E+00
         0.00000E+00
         0.00000E+00
         0.00000E+00
         0.00000E+00
         0.00000E+00
         0.00000E+00
         0.00000E+00
         0.00000E+00
         0.00000E+00
         0.00000E+00
         0.00000E+00
         0.00000E+00
         0.00000E+00
         0.00000E+00
         0.00000E+00
         0.00000E+00
         0.00000E+00
         0.00000E+00
         0.00000E+00
         0.00000E+00
         0.00000E+00
         0.00000E+00
         0.00000E+00
         0.00000E+00
         0.00000E+00
         0.00000E+00
         0.00000E+00
         0.00000E+00
         0.00000E+00
         0.00000E+00
         0.00000E+00
         0.00000E+00
         0.00000E+00
         0.00000E+00
         0.00000E+00
         0.00000E+00
         0.00000E+00
         0.00000E+00
         0.00000E+00
         0.00000E+00
         0.00000E+00
         0.00000E+00
         0.00000E+00
         0.00000E+00
         0.00000E+00
         0.00000E+00
         0.00000E+00
         0.00000E+00
         0.00000E+00
         0.00000E+00
         0.00000E+00
         0.00000E+00
         0.00000E+00
         0.00000E+00
         0.00000E+00
         0.00000E+00
         0.00000E+00
         0.00000E+00
         0.00000E+00
         0.00000E+00
         0.00000E+00
         0.00000E+00
         0.00000E+00
         0.00000E+00
         0.00000E+00
         0.00000E+00
         0.00000E+00
         0.00000E+00
         0.00000E+00
         0.00000E+00
         0.00000E+00
         0.00000E+00
         0.00000E+00
         0.00000E+00
         0.00000E+00
         0.00000E+00
         0.00000E+00
         0.00000E+00
         0.00000E+00
         0.00000E+00
         0.00000E+00
         0.00000E+00
         0.00000E+00
         0.00000E+00
         0.00000E+00
         0.00000E+00
         0.00000E+00
         0.00000E+00
         0.00000E+00
         0.00000E+00
         0.00000E+00
         0.00000E+00
         0.00000E+00
         0.00000E+00
         0.00000E+00
         0.00000E+00
         0.00000E+00
         0.00000E+00
         0.00000E+00
         0.00000E+00
         0.00000E+00
         0.00000E+00
         0.00000E+00
         0.00000E+00
         0.00000E+00
         0.00000E+00
         0.00000E+00
         0.00000E+00
         0.00000E+00
         0.00000E+00
         0.00000E+00
         0.00000E+00
         0.00000E+00
         0.00000E+00
         0.00000E+00
         0.00000E+00
         0.00000E+00
         0.00000E+00
         0.00000E+00
         0.00000E+00
         0.00000E+00
         0.00000E+00
         0.00000E+00
         0.00000E+00
         0.00000E+00
         0.00000E+00
         0.00000E+00
         0.00000E+00
         0.00000E+00
         0.00000E+00
         0.00000E+00
         0.00000E+00
         0.00000E+00
         0.00000E+00
         0.00000E+00
         0.00000E+00
         0.00000E+00
         0.00000E+00
         0.00000E+00
         0.00000E+00
         0.00000E+00
         0.00000E+00
         0.00000E+00
         0.00000E+00
         0.00000E+00
         0.00000E+00
         0.00000E+00
         0.00000E+00
         0.00000E+00
         0.00000E+00
         0.00000E+00
         0.00000E+00
         0.00000E+00
         0.00000E+00
         0.00000E+00
         0.00000E+00
         0.00000E+00
         0.00000E+00
         0.00000E+00
         0.00000E+00
         0.00000E+00
         0.00000E+00
         0.00000E+00
         0.00000E+00
         0.00000E+00
         0.00000E+00
         0.00000E+00
         0.00000E+00
         0.00000E+00
         0.00000E+00
         0.00000E+00
         0.00000E+00
         0.00000E+00
         0.00000E+00
         0.00000E+00
         0.00000E+00
         0.00000E+00
         0.00000E+00
         0.00000E+00
         0.00000E+00
         0.00000E+00
         0.00000E+00
         0.00000E+00
         0.00000E+00
         0.00000E+00
         0.00000E+00
         0.00000E+00
         0.00000E+00
         0.00000E+00
         0.00000E+00
         0.00000E+00
         0.00000E+00
         0.00000E+00
         0.00000E+00
         0.00000E+00
         0.00000E+00
         0.00000E+00
         0.00000E+00
         0.00000E+00
         0.00000E+00
         0.00000E+00
         0.00000E+00
         0.00000E+00
         0.00000E+00
         0.00000E+00
         0.00000E+00
         0.00000E+00
         0.00000E+00
         0.00000E+00
         0.00000E+00
         0.00000E+00
         0.00000E+00
         0.00000E+00
         0.00000E+00
         0.00000E+00
         0.00000E+00
         0.00000E+00
         0.00000E+00
         0.00000E+00
         0.00000E+00
         0.00000E+00
         0.00000E+00
         0.00000E+00
         0.00000E+00
         0.00000E+00
         0.00000E+00
         0.00000E+00
         0.00000E+00
         0.00000E+00
         0.00000E+00
         0.00000E+00
         0.00000E+00
         0.00000E+00
         0.00000E+00
         0.00000E+00
         0.00000E+00
         0.00000E+00
         0.00000E+00
         0.00000E+00
         0.00000E+00
         0.00000E+00
         0.00000E+00
         0.00000E+00
         0.00000E+00
         0.00000E+00
         0.00000E+00
         0.00000E+00
         0.00000E+00
         0.00000E+00
         0.00000E+00
         0.00000E+00
         0.00000E+00
         0.00000E+00
         0.00000E+00
         0.00000E+00
         0.00000E+00
         0.00000E+00
         0.00000E+00
         0.00000E+00
         0.00000E+00
         0.00000E+00
         0.00000E+00
         0.00000E+00
         0.00000E+00
         0.00000E+00
         0.00000E+00
         0.00000E+00
         0.00000E+00
         0.00000E+00
         0.00000E+00
         0.00000E+00
         0.00000E+00
         0.00000E+00
         0.00000E+00
         0.00000E+00
         0.00000E+00
         0.00000E+00
         0.00000E+00
         0.00000E+00
         0.00000E+00
         0.00000E+00
         0.00000E+00
         0.00000E+00
         0.00000E+00
         0.00000E+00
         0.00000E+00
         0.00000E+00
         0.00000E+00
         0.00000E+00
         0.00000E+00
         0.00000E+00
         0.00000E+00
         0.00000E+00
         0.00000E+00
         0.00000E+00
         0.00000E+00
         0.00000E+00
         0.00000E+00
         0.00000E+00
         0.00000E+00
         0.00000E+00
         0.00000E+00
         0.00000E+00
         0.00000E+00
         0.00000E+00
         0.00000E+00
         0.00000E+00
         0.00000E+00
         0.00000E+00
         0.00000E+00
         0.00000E+00
         0.00000E+00
         0.00000E+00
         0.00000E+00
         0.00000E+00
         0.00000E+00
         0.00000E+00
         0.00000E+00
         0.00000E+00
         0.00000E+00
         0.00000E+00
         0.00000E+00
         0.00000E+00
         0.00000E+00
         0.00000E+00
         0.00000E+00
         0.00000E+00
         0.00000E+00
         0.00000E+00
         0.00000E+00
         0.00000E+00
         0.00000E+00
         0.00000E+00
         0.00000E+00
         0.00000E+00
         0.00000E+00
         0.00000E+00
         0.00000E+00
         0.00000E+00
         0.00000E+00
         0.00000E+00
         0.00000E+00
         0.00000E+00
         0.00000E+00
         0.00000E+00
         0.00000E+00
         0.00000E+00
         0.00000E+00
         0.00000E+00
         0.00000E+00
         0.00000E+00
         0.00000E+00
         0.00000E+00
         0.00000E+00
         0.00000E+00
         0.00000E+00
         0.00000E+00
         0.00000E+00
         0.00000E+00
         0.00000E+00
         0.00000E+00
         0.00000E+00
         0.00000E+00
         0.00000E+00
         0.00000E+00
         0.00000E+00
         0.00000E+00
         0.00000E+00
         0.00000E+00
         0.00000E+00
         0.00000E+00
         0.00000E+00
         0.00000E+00
         0.00000E+00
         0.00000E+00
         0.00000E+00
         0.00000E+00
         0.00000E+00
         0.00000E+00
         0.00000E+00
         0.00000E+00
         0.00000E+00
         0.00000E+00
         0.00000E+00
         0.00000E+00
         0.00000E+00
         0.00000E+00
         0.00000E+00
         0.00000E+00
         0.00000E+00
         0.00000E+00
         0.00000E+00
         0.00000E+00
         0.00000E+00
         0.00000E+00
         0.00000E+00
         0.00000E+00
         0.00000E+00
         0.00000E+00
         0.00000E+00
         0.00000E+00
         0.00000E+00
         0.00000E+00
         0.00000E+00
         0.00000E+00
         0.00000E+00
         0.00000E+00
         0.00000E+00
         0.00000E+00
         0.00000E+00
         0.00000E+00
         0.00000E+00
         0.00000E+00
         0.00000E+00
         0.00000E+00
         0.00000E+00
         0.00000E+00
         0.00000E+00
         0.00000E+00
         0.00000E+00
         0.00000E+00
         0.00000E+00
         0.00000E+00
         0.00000E+00
         0.00000E+00
         0.00000E+00
         0.00000E+00
         0.00000E+00
         0.00000E+00
         0.00000E+00
         0.00000E+00
         0.00000E+00
         0.00000E+00
         0.00000E+00
         0.00000E+00
         0.00000E+00
         0.00000E+00
         0.00000E+00
         0.00000E+00
         0.00000E+00
         0.00000E+00
         0.00000E+00
         0.00000E+00
         0.00000E+00
         0.00000E+00
         0.00000E+00
         0.00000E+00
         0.00000E+00
         0.00000E+00
         0.00000E+00
         0.00000E+00
         0.00000E+00
         0.00000E+00
         0.00000E+00
         0.00000E+00
         0.00000E+00
         0.00000E+00
         0.00000E+00
         0.00000E+00
         0.00000E+00
         0.00000E+00
         0.00000E+00
         0.00000E+00
         0.00000E+00
         0.00000E+00
         0.00000E+00
         0.00000E+00
         0.00000E+00
         0.00000E+00
         0.00000E+00
         0.00000E+00
         0.00000E+00
         0.00000E+00
         0.00000E+00
         0.00000E+00
         0.00000E+00
         0.00000E+00
         0.00000E+00
         0.00000E+00
         0.00000E+00
         0.00000E+00
         0.00000E+00
         0.00000E+00
         0.00000E+00
         0.00000E+00
         0.00000E+00
         0.00000E+00
         0.00000E+00
         0.00000E+00
         0.00000E+00
         0.00000E+00
         0.00000E+00
         0.00000E+00
         0.00000E+00
         0.00000E+00
         0.00000E+00
         0.00000E+00
         0.00000E+00
         0.00000E+00
         0.00000E+00
         0.00000E+00
         0.00000E+00
         0.00000E+00
         0.00000E+00
         0.00000E+00
         0.00000E+00
         0.00000E+00
         0.00000E+00
         0.00000E+00
         0.00000E+00
         0.00000E+00
         0.00000E+00
         0.00000E+00
         0.00000E+00
         0.00000E+00
         0.00000E+00
         0.00000E+00
         0.00000E+00
         0.00000E+00
         0.00000E+00
         0.00000E+00
         0.00000E+00
         0.00000E+00
         0.00000E+00
         0.00000E+00
         0.00000E+00
         0.00000E+00
         0.00000E+00
         0.00000E+00
         0.00000E+00
         0.00000E+00
         0.00000E+00
         0.00000E+00
         0.00000E+00
         0.00000E+00
         0.00000E+00
         0.00000E+00
         0.00000E+00
         0.00000E+00
         0.00000E+00
         0.00000E+00
         0.00000E+00
         0.00000E+00
         0.00000E+00
         0.00000E+00
         0.00000E+00
         0.00000E+00
         0.00000E+00
         0.00000E+00
         0.00000E+00
         0.00000E+00
         0.00000E+00
         0.00000E+00
         0.00000E+00
         0.00000E+00
         0.00000E+00
         0.00000E+00
         0.00000E+00
         0.00000E+00
         0.00000E+00
         0.00000E+00
         0.00000E+00
         0.00000E+00
         0.00000E+00
         0.00000E+00
         0.00000E+00
         0.00000E+00
         0.00000E+00
         0.00000E+00
         0.00000E+00
         0.00000E+00
         0.00000E+00
         0.00000E+00
         0.00000E+00
         0.00000E+00
         0.00000E+00
         0.00000E+00
         0.00000E+00
         0.00000E+00
         0.00000E+00
         0.00000E+00
         0.00000E+00
         0.00000E+00
         0.00000E+00
         0.00000E+00
         0.00000E+00
         0.00000E+00
         0.00000E+00
         0.00000E+00
         0.00000E+00
         0.00000E+00
         0.00000E+00
         0.00000E+00
         0.00000E+00
         0.00000E+00
         0.00000E+00
         0.00000E+00
         0.00000E+00
         0.00000E+00
         0.00000E+00
         0.00000E+00
         0.00000E+00
         0.00000E+00
         0.00000E+00
         0.00000E+00
         0.00000E+00
         0.00000E+00
         0.00000E+00
         0.00000E+00
         0.00000E+00
         0.00000E+00
         0.00000E+00
         0.00000E+00
         0.00000E+00
         0.00000E+00
         0.00000E+00
         0.00000E+00
         0.00000E+00
         0.00000E+00
         0.00000E+00
         0.00000E+00
         0.00000E+00
         0.00000E+00
         0.00000E+00
         0.00000E+00
         0.00000E+00
         0.00000E+00
         0.00000E+00
         0.00000E+00
         0.00000E+00
         0.00000E+00
         0.00000E+00
         0.00000E+00
         0.00000E+00
         0.00000E+00
         0.00000E+00
         0.00000E+00
         0.00000E+00
         0.00000E+00
         0.00000E+00
         0.00000E+00
         0.00000E+00
         0.00000E+00
         0.00000E+00
         0.00000E+00
         0.00000E+00
         0.00000E+00
         0.00000E+00
         0.00000E+00
         0.00000E+00
         0.00000E+00
         0.00000E+00
         0.00000E+00
         0.00000E+00
         0.00000E+00
         0.00000E+00
         0.00000E+00
         0.00000E+00
         0.00000E+00
         0.00000E+00
         0.00000E+00
         0.00000E+00
         0.00000E+00
         0.00000E+00
         0.00000E+00
         0.00000E+00
         0.00000E+00
         0.00000E+00
         0.00000E+00
         0.00000E+00
         0.00000E+00
         0.00000E+00
         0.00000E+00
         0.00000E+00
         0.00000E+00
         0.00000E+00
         0.00000E+00
         0.00000E+00
         0.00000E+00
         0.00000E+00
         0.00000E+00
         0.00000E+00
         0.00000E+00
         0.00000E+00
         0.00000E+00
         0.00000E+00
         0.00000E+00
         0.00000E+00
         0.00000E+00
         0.00000E+00
         0.00000E+00
         0.00000E+00
         0.00000E+00
         0.00000E+00
         0.00000E+00
         0.00000E+00
         0.00000E+00
         0.00000E+00
         0.00000E+00
         0.00000E+00
         0.00000E+00
         0.00000E+00
         0.00000E+00
         0.00000E+00
         0.00000E+00
         0.00000E+00
         0.00000E+00
         0.00000E+00
         0.00000E+00
         0.00000E+00
         0.00000E+00
         0.00000E+00
         0.00000E+00
         0.00000E+00
         0.00000E+00
         0.00000E+00
         0.00000E+00
         0.00000E+00
         0.00000E+00
         0.00000E+00
         0.00000E+00
         0.00000E+00
         0.00000E+00
         0.00000E+00
         0.00000E+00
         0.00000E+00
         0.00000E+00
         0.00000E+00
         0.00000E+00
         0.00000E+00
         0.00000E+00
         0.00000E+00
         0.00000E+00
         0.00000E+00
         0.00000E+00
         0.00000E+00
         0.00000E+00
         0.00000E+00
         0.00000E+00
         0.00000E+00
         0.00000E+00
         0.00000E+00
         0.00000E+00
         0.00000E+00
         0.00000E+00
         0.00000E+00
         0.00000E+00
         0.00000E+00
         0.00000E+00
         0.00000E+00
         0.00000E+00
         0.00000E+00
         0.00000E+00
         0.00000E+00
         0.00000E+00
         0.00000E+00
         0.00000E+00
         0.00000E+00
         0.00000E+00
         0.00000E+00
         0.00000E+00
         0.00000E+00
         0.00000E+00
         0.00000E+00
         0.00000E+00
         0.00000E+00
         0.00000E+00
         0.00000E+00
         0.00000E+00
         0.00000E+00
         0.00000E+00
         0.00000E+00
         0.00000E+00
         0.00000E+00
         0.00000E+00
         0.00000E+00
         0.00000E+00
         0.00000E+00
         0.00000E+00
         0.00000E+00
         0.00000E+00
         0.00000E+00
         0.00000E+00
         0.00000E+00
         0.00000E+00
         0.00000E+00
         0.00000E+00
         0.00000E+00
         0.00000E+00
         0.00000E+00
         0.00000E+00
         0.00000E+00
         0.00000E+00
         0.00000E+00
         0.00000E+00
         0.00000E+00
         0.00000E+00
         0.00000E+00
         0.00000E+00
         0.00000E+00
         0.00000E+00
         0.00000E+00
         0.00000E+00
         0.00000E+00
         0.00000E+00
         0.00000E+00
         0.00000E+00
         0.00000E+00
         0.00000E+00
         0.00000E+00
         0.00000E+00
         0.00000E+00
         0.00000E+00
         0.00000E+00
         0.00000E+00
         0.00000E+00
         0.00000E+00
         0.00000E+00
         0.00000E+00
         0.00000E+00
         0.00000E+00
         0.00000E+00
         0.00000E+00
         0.00000E+00
         0.00000E+00
         0.00000E+00
         0.00000E+00
         0.00000E+00
         0.00000E+00
         0.00000E+00
         0.00000E+00
         0.00000E+00
         0.00000E+00
         0.00000E+00
         0.00000E+00
         0.00000E+00
         0.00000E+00
         0.00000E+00
         0.00000E+00
         0.00000E+00
         0.00000E+00
         0.00000E+00
         0.00000E+00
         0.00000E+00
         0.00000E+00
         0.00000E+00
         0.00000E+00
         0.00000E+00
         0.00000E+00
         0.00000E+00
         0.00000E+00
         0.00000E+00
         0.00000E+00
         0.00000E+00
         0.00000E+00
         0.00000E+00
         0.00000E+00
         0.00000E+00
         0.00000E+00
         0.00000E+00
         0.00000E+00
         0.00000E+00
         0.00000E+00
         0.00000E+00
         0.00000E+00
         0.00000E+00
         0.00000E+00
         0.00000E+00
         0.00000E+00
         0.00000E+00
         0.00000E+00
         0.00000E+00
         0.00000E+00
         0.00000E+00
         0.00000E+00
         0.00000E+00
         0.00000E+00
         0.00000E+00
         0.00000E+00
         0.00000E+00
         0.00000E+00
         0.00000E+00
         0.00000E+00
         0.00000E+00
         0.00000E+00
         0.00000E+00
         0.00000E+00
         0.00000E+00
         0.00000E+00
         0.00000E+00
         0.00000E+00
         0.00000E+00
         0.00000E+00
         0.00000E+00
         0.00000E+00
         0.00000E+00
         0.00000E+00
         0.00000E+00
         0.00000E+00
         0.00000E+00
         0.00000E+00
         0.00000E+00
         0.00000E+00
         0.00000E+00
         0.00000E+00
         0.00000E+00
         0.00000E+00
         0.00000E+00
         0.00000E+00
         0.00000E+00
         0.00000E+00
         0.00000E+00
         0.00000E+00
         0.00000E+00
         0.00000E+00
         0.00000E+00
         0.00000E+00
         0.00000E+00
         0.00000E+00
         0.00000E+00
         0.00000E+00
         0.00000E+00
         0.00000E+00
         0.00000E+00
         0.00000E+00
         0.00000E+00
         0.00000E+00
         0.00000E+00
         0.00000E+00
         0.00000E+00
         0.00000E+00
         0.00000E+00
         0.00000E+00
         0.00000E+00
         0.00000E+00
         0.00000E+00
         0.00000E+00
         0.00000E+00
         0.00000E+00
         0.00000E+00
         0.00000E+00
         0.00000E+00
         0.00000E+00
         0.00000E+00
         0.00000E+00
         0.00000E+00
         0.00000E+00
         0.00000E+00
         0.00000E+00
         0.00000E+00
         0.00000E+00
         0.00000E+00
         0.00000E+00
         0.00000E+00
         0.00000E+00
         0.00000E+00
         0.00000E+00
         0.00000E+00
         0.00000E+00
         0.00000E+00
         0.00000E+00
         0.00000E+00
         0.00000E+00
         0.00000E+00
         0.00000E+00
         0.00000E+00
         0.00000E+00
         0.00000E+00
         0.00000E+00
         0.00000E+00
         0.00000E+00
         0.00000E+00
         0.00000E+00
         0.00000E+00
         0.00000E+00
         0.00000E+00
         0.00000E+00
         0.00000E+00
         0.00000E+00
         0.00000E+00
         0.00000E+00
         0.00000E+00
         0.00000E+00
         0.00000E+00
         0.00000E+00
         0.00000E+00
         0.00000E+00
         0.00000E+00
         0.00000E+00
         0.00000E+00
         0.00000E+00
         0.00000E+00
         0.00000E+00
         0.00000E+00
         0.00000E+00
         0.00000E+00
         0.00000E+00
         0.00000E+00
         0.00000E+00
         0.00000E+00
         0.00000E+00
         0.00000E+00
         0.00000E+00
         0.00000E+00
         0.00000E+00
         0.00000E+00
         0.00000E+00
         0.00000E+00
         0.00000E+00
         0.00000E+00
         0.00000E+00
         0.00000E+00
         0.00000E+00
         0.00000E+00
         0.00000E+00
         0.00000E+00
         0.00000E+00
         0.00000E+00
         0.00000E+00
         0.00000E+00
         0.00000E+00
         0.00000E+00
         0.00000E+00
         0.00000E+00
         0.00000E+00
         0.00000E+00
         0.00000E+00
         0.00000E+00
         0.00000E+00
         0.00000E+00
         0.00000E+00
         0.00000E+00
         0.00000E+00
         0.00000E+00
         0.00000E+00
         0.00000E+00
         0.00000E+00
         0.00000E+00
         0.00000E+00
         0.00000E+00
         0.00000E+00
         0.00000E+00
         0.00000E+00
         0.00000E+00
         0.00000E+00
         0.00000E+00
         0.00000E+00
         0.00000E+00
         0.00000E+00
         0.00000E+00
  
SCALARS                        eps_vol  double 1
LOOKUP_TABLE default
         0.00000E+00
         0.00000E+00
         0.00000E+00
         0.00000E+00
         0.00000E+00
         0.00000E+00
         0.00000E+00
         0.00000E+00
         0.00000E+00
         0.00000E+00
         0.00000E+00
         0.00000E+00
         0.00000E+00
         0.00000E+00
         0.00000E+00
         0.00000E+00
         0.00000E+00
         0.00000E+00
         0.00000E+00
         0.00000E+00
         0.00000E+00
         0.00000E+00
         0.00000E+00
         0.00000E+00
         0.00000E+00
         0.00000E+00
         0.00000E+00
         0.00000E+00
         0.00000E+00
         0.00000E+00
         0.00000E+00
         0.00000E+00
         0.00000E+00
         0.00000E+00
         0.00000E+00
         0.00000E+00
         0.00000E+00
         0.00000E+00
         0.00000E+00
         0.00000E+00
         0.00000E+00
         0.00000E+00
         0.00000E+00
         0.00000E+00
         0.00000E+00
         0.00000E+00
         0.00000E+00
         0.00000E+00
         0.00000E+00
         0.00000E+00
         0.00000E+00
         0.00000E+00
         0.00000E+00
         0.00000E+00
         0.00000E+00
         0.00000E+00
         0.00000E+00
         0.00000E+00
         0.00000E+00
         0.00000E+00
         0.00000E+00
         0.00000E+00
         0.00000E+00
         0.00000E+00
         0.00000E+00
         0.00000E+00
         0.00000E+00
         0.00000E+00
         0.00000E+00
         0.00000E+00
         0.00000E+00
         0.00000E+00
         0.00000E+00
         0.00000E+00
         0.00000E+00
         0.00000E+00
         0.00000E+00
         0.00000E+00
         0.00000E+00
         0.00000E+00
         0.00000E+00
         0.00000E+00
         0.00000E+00
         0.00000E+00
         0.00000E+00
         0.00000E+00
         0.00000E+00
         0.00000E+00
         0.00000E+00
         0.00000E+00
         0.00000E+00
         0.00000E+00
         0.00000E+00
         0.00000E+00
         0.00000E+00
         0.00000E+00
         0.00000E+00
         0.00000E+00
         0.00000E+00
         0.00000E+00
         0.00000E+00
         0.00000E+00
         0.00000E+00
         0.00000E+00
         0.00000E+00
         0.00000E+00
         0.00000E+00
         0.00000E+00
         0.00000E+00
         0.00000E+00
         0.00000E+00
         0.00000E+00
         0.00000E+00
         0.00000E+00
         0.00000E+00
         0.00000E+00
         0.00000E+00
         0.00000E+00
         0.00000E+00
         0.00000E+00
         0.00000E+00
         0.00000E+00
         0.00000E+00
         0.00000E+00
         0.00000E+00
         0.00000E+00
         0.00000E+00
         0.00000E+00
         0.00000E+00
         0.00000E+00
         0.00000E+00
         0.00000E+00
         0.00000E+00
         0.00000E+00
         0.00000E+00
         0.00000E+00
         0.00000E+00
         0.00000E+00
         0.00000E+00
         0.00000E+00
         0.00000E+00
         0.00000E+00
         0.00000E+00
         0.00000E+00
         0.00000E+00
         0.00000E+00
         0.00000E+00
         0.00000E+00
         0.00000E+00
         0.00000E+00
         0.00000E+00
         0.00000E+00
         0.00000E+00
         0.00000E+00
         0.00000E+00
         0.00000E+00
         0.00000E+00
         0.00000E+00
         0.00000E+00
         0.00000E+00
         0.00000E+00
         0.00000E+00
         0.00000E+00
         0.00000E+00
         0.00000E+00
         0.00000E+00
         0.00000E+00
         0.00000E+00
         0.00000E+00
         0.00000E+00
         0.00000E+00
         0.00000E+00
         0.00000E+00
         0.00000E+00
         0.00000E+00
         0.00000E+00
         0.00000E+00
         0.00000E+00
         0.00000E+00
         0.00000E+00
         0.00000E+00
         0.00000E+00
         0.00000E+00
         0.00000E+00
         0.00000E+00
         0.00000E+00
         0.00000E+00
         0.00000E+00
         0.00000E+00
         0.00000E+00
         0.00000E+00
         0.00000E+00
         0.00000E+00
         0.00000E+00
         0.00000E+00
         0.00000E+00
         0.00000E+00
         0.00000E+00
         0.00000E+00
         0.00000E+00
         0.00000E+00
         0.00000E+00
         0.00000E+00
         0.00000E+00
         0.00000E+00
         0.00000E+00
         0.00000E+00
         0.00000E+00
         0.00000E+00
         0.00000E+00
         0.00000E+00
         0.00000E+00
         0.00000E+00
         0.00000E+00
         0.00000E+00
         0.00000E+00
         0.00000E+00
         0.00000E+00
         0.00000E+00
         0.00000E+00
         0.00000E+00
         0.00000E+00
         0.00000E+00
         0.00000E+00
         0.00000E+00
         0.00000E+00
         0.00000E+00
         0.00000E+00
         0.00000E+00
         0.00000E+00
         0.00000E+00
         0.00000E+00
         0.00000E+00
         0.00000E+00
         0.00000E+00
         0.00000E+00
         0.00000E+00
         0.00000E+00
         0.00000E+00
         0.00000E+00
         0.00000E+00
         0.00000E+00
         0.00000E+00
         0.00000E+00
         0.00000E+00
         0.00000E+00
         0.00000E+00
         0.00000E+00
         0.00000E+00
         0.00000E+00
         0.00000E+00
         0.00000E+00
         0.00000E+00
         0.00000E+00
         0.00000E+00
         0.00000E+00
         0.00000E+00
         0.00000E+00
         0.00000E+00
         0.00000E+00
         0.00000E+00
         0.00000E+00
         0.00000E+00
         0.00000E+00
         0.00000E+00
         0.00000E+00
         0.00000E+00
         0.00000E+00
         0.00000E+00
         0.00000E+00
         0.00000E+00
         0.00000E+00
         0.00000E+00
         0.00000E+00
         0.00000E+00
         0.00000E+00
         0.00000E+00
         0.00000E+00
         0.00000E+00
         0.00000E+00
         0.00000E+00
         0.00000E+00
         0.00000E+00
         0.00000E+00
         0.00000E+00
         0.00000E+00
         0.00000E+00
         0.00000E+00
         0.00000E+00
         0.00000E+00
         0.00000E+00
         0.00000E+00
         0.00000E+00
         0.00000E+00
         0.00000E+00
         0.00000E+00
         0.00000E+00
         0.00000E+00
         0.00000E+00
         0.00000E+00
         0.00000E+00
         0.00000E+00
         0.00000E+00
         0.00000E+00
         0.00000E+00
         0.00000E+00
         0.00000E+00
         0.00000E+00
         0.00000E+00
         0.00000E+00
         0.00000E+00
         0.00000E+00
         0.00000E+00
         0.00000E+00
         0.00000E+00
         0.00000E+00
         0.00000E+00
         0.00000E+00
         0.00000E+00
         0.00000E+00
         0.00000E+00
         0.00000E+00
         0.00000E+00
         0.00000E+00
         0.00000E+00
         0.00000E+00
         0.00000E+00
         0.00000E+00
         0.00000E+00
         0.00000E+00
         0.00000E+00
         0.00000E+00
         0.00000E+00
         0.00000E+00
         0.00000E+00
         0.00000E+00
         0.00000E+00
         0.00000E+00
         0.00000E+00
         0.00000E+00
         0.00000E+00
         0.00000E+00
         0.00000E+00
         0.00000E+00
         0.00000E+00
         0.00000E+00
         0.00000E+00
         0.00000E+00
         0.00000E+00
         0.00000E+00
         0.00000E+00
         0.00000E+00
         0.00000E+00
         0.00000E+00
         0.00000E+00
         0.00000E+00
         0.00000E+00
         0.00000E+00
         0.00000E+00
         0.00000E+00
         0.00000E+00
         0.00000E+00
         0.00000E+00
         0.00000E+00
         0.00000E+00
         0.00000E+00
         0.00000E+00
         0.00000E+00
         0.00000E+00
         0.00000E+00
         0.00000E+00
         0.00000E+00
         0.00000E+00
         0.00000E+00
         0.00000E+00
         0.00000E+00
         0.00000E+00
         0.00000E+00
         0.00000E+00
         0.00000E+00
         0.00000E+00
         0.00000E+00
         0.00000E+00
         0.00000E+00
         0.00000E+00
         0.00000E+00
         0.00000E+00
         0.00000E+00
         0.00000E+00
         0.00000E+00
         0.00000E+00
         0.00000E+00
         0.00000E+00
         0.00000E+00
         0.00000E+00
         0.00000E+00
         0.00000E+00
         0.00000E+00
         0.00000E+00
         0.00000E+00
         0.00000E+00
         0.00000E+00
         0.00000E+00
         0.00000E+00
         0.00000E+00
         0.00000E+00
         0.00000E+00
         0.00000E+00
         0.00000E+00
         0.00000E+00
         0.00000E+00
         0.00000E+00
         0.00000E+00
         0.00000E+00
         0.00000E+00
         0.00000E+00
         0.00000E+00
         0.00000E+00
         0.00000E+00
         0.00000E+00
         0.00000E+00
         0.00000E+00
         0.00000E+00
         0.00000E+00
         0.00000E+00
         0.00000E+00
         0.00000E+00
         0.00000E+00
         0.00000E+00
         0.00000E+00
         0.00000E+00
         0.00000E+00
         0.00000E+00
         0.00000E+00
         0.00000E+00
         0.00000E+00
         0.00000E+00
         0.00000E+00
         0.00000E+00
         0.00000E+00
         0.00000E+00
         0.00000E+00
         0.00000E+00
         0.00000E+00
         0.00000E+00
         0.00000E+00
         0.00000E+00
         0.00000E+00
         0.00000E+00
         0.00000E+00
         0.00000E+00
         0.00000E+00
         0.00000E+00
         0.00000E+00
         0.00000E+00
         0.00000E+00
         0.00000E+00
         0.00000E+00
         0.00000E+00
         0.00000E+00
         0.00000E+00
         0.00000E+00
         0.00000E+00
         0.00000E+00
         0.00000E+00
         0.00000E+00
         0.00000E+00
         0.00000E+00
         0.00000E+00
         0.00000E+00
         0.00000E+00
         0.00000E+00
         0.00000E+00
         0.00000E+00
         0.00000E+00
         0.00000E+00
         0.00000E+00
         0.00000E+00
         0.00000E+00
         0.00000E+00
         0.00000E+00
         0.00000E+00
         0.00000E+00
         0.00000E+00
         0.00000E+00
         0.00000E+00
         0.00000E+00
         0.00000E+00
         0.00000E+00
         0.00000E+00
         0.00000E+00
         0.00000E+00
         0.00000E+00
         0.00000E+00
         0.00000E+00
         0.00000E+00
         0.00000E+00
         0.00000E+00
         0.00000E+00
         0.00000E+00
         0.00000E+00
         0.00000E+00
         0.00000E+00
         0.00000E+00
         0.00000E+00
         0.00000E+00
         0.00000E+00
         0.00000E+00
         0.00000E+00
         0.00000E+00
         0.00000E+00
         0.00000E+00
         0.00000E+00
         0.00000E+00
         0.00000E+00
         0.00000E+00
         0.00000E+00
         0.00000E+00
         0.00000E+00
         0.00000E+00
         0.00000E+00
         0.00000E+00
         0.00000E+00
         0.00000E+00
         0.00000E+00
         0.00000E+00
         0.00000E+00
         0.00000E+00
         0.00000E+00
         0.00000E+00
         0.00000E+00
         0.00000E+00
         0.00000E+00
         0.00000E+00
         0.00000E+00
         0.00000E+00
         0.00000E+00
         0.00000E+00
         0.00000E+00
         0.00000E+00
         0.00000E+00
         0.00000E+00
         0.00000E+00
         0.00000E+00
         0.00000E+00
         0.00000E+00
         0.00000E+00
         0.00000E+00
         0.00000E+00
         0.00000E+00
         0.00000E+00
         0.00000E+00
         0.00000E+00
         0.00000E+00
         0.00000E+00
         0.00000E+00
         0.00000E+00
         0.00000E+00
         0.00000E+00
         0.00000E+00
         0.00000E+00
         0.00000E+00
         0.00000E+00
         0.00000E+00
         0.00000E+00
         0.00000E+00
         0.00000E+00
         0.00000E+00
         0.00000E+00
         0.00000E+00
         0.00000E+00
         0.00000E+00
         0.00000E+00
         0.00000E+00
         0.00000E+00
         0.00000E+00
         0.00000E+00
         0.00000E+00
         0.00000E+00
         0.00000E+00
         0.00000E+00
         0.00000E+00
         0.00000E+00
         0.00000E+00
         0.00000E+00
         0.00000E+00
         0.00000E+00
         0.00000E+00
         0.00000E+00
         0.00000E+00
         0.00000E+00
         0.00000E+00
         0.00000E+00
         0.00000E+00
         0.00000E+00
         0.00000E+00
         0.00000E+00
         0.00000E+00
         0.00000E+00
         0.00000E+00
         0.00000E+00
         0.00000E+00
         0.00000E+00
         0.00000E+00
         0.00000E+00
         0.00000E+00
         0.00000E+00
         0.00000E+00
         0.00000E+00
         0.00000E+00
         0.00000E+00
         0.00000E+00
         0.00000E+00
         0.00000E+00
         0.00000E+00
         0.00000E+00
         0.00000E+00
         0.00000E+00
         0.00000E+00
         0.00000E+00
         0.00000E+00
         0.00000E+00
         0.00000E+00
         0.00000E+00
         0.00000E+00
         0.00000E+00
         0.00000E+00
         0.00000E+00
         0.00000E+00
         0.00000E+00
         0.00000E+00
         0.00000E+00
         0.00000E+00
         0.00000E+00
         0.00000E+00
         0.00000E+00
         0.00000E+00
         0.00000E+00
         0.00000E+00
         0.00000E+00
         0.00000E+00
         0.00000E+00
         0.00000E+00
         0.00000E+00
         0.00000E+00
         0.00000E+00
         0.00000E+00
         0.00000E+00
         0.00000E+00
         0.00000E+00
         0.00000E+00
         0.00000E+00
         0.00000E+00
         0.00000E+00
         0.00000E+00
         0.00000E+00
         0.00000E+00
         0.00000E+00
         0.00000E+00
         0.00000E+00
         0.00000E+00
         0.00000E+00
         0.00000E+00
         0.00000E+00
         0.00000E+00
         0.00000E+00
         0.00000E+00
         0.00000E+00
         0.00000E+00
         0.00000E+00
         0.00000E+00
         0.00000E+00
         0.00000E+00
         0.00000E+00
         0.00000E+00
         0.00000E+00
         0.00000E+00
         0.00000E+00
         0.00000E+00
         0.00000E+00
         0.00000E+00
         0.00000E+00
         0.00000E+00
         0.00000E+00
         0.00000E+00
         0.00000E+00
         0.00000E+00
         0.00000E+00
         0.00000E+00
         0.00000E+00
         0.00000E+00
         0.00000E+00
         0.00000E+00
         0.00000E+00
         0.00000E+00
         0.00000E+00
         0.00000E+00
         0.00000E+00
         0.00000E+00
         0.00000E+00
         0.00000E+00
         0.00000E+00
         0.00000E+00
         0.00000E+00
         0.00000E+00
         0.00000E+00
         0.00000E+00
         0.00000E+00
         0.00000E+00
         0.00000E+00
         0.00000E+00
         0.00000E+00
         0.00000E+00
         0.00000E+00
         0.00000E+00
         0.00000E+00
         0.00000E+00
         0.00000E+00
         0.00000E+00
         0.00000E+00
         0.00000E+00
         0.00000E+00
         0.00000E+00
         0.00000E+00
         0.00000E+00
         0.00000E+00
         0.00000E+00
         0.00000E+00
         0.00000E+00
         0.00000E+00
         0.00000E+00
         0.00000E+00
         0.00000E+00
         0.00000E+00
         0.00000E+00
         0.00000E+00
         0.00000E+00
         0.00000E+00
         0.00000E+00
         0.00000E+00
         0.00000E+00
         0.00000E+00
         0.00000E+00
         0.00000E+00
         0.00000E+00
         0.00000E+00
         0.00000E+00
         0.00000E+00
         0.00000E+00
         0.00000E+00
         0.00000E+00
         0.00000E+00
         0.00000E+00
         0.00000E+00
         0.00000E+00
         0.00000E+00
         0.00000E+00
         0.00000E+00
         0.00000E+00
         0.00000E+00
         0.00000E+00
         0.00000E+00
         0.00000E+00
         0.00000E+00
         0.00000E+00
         0.00000E+00
         0.00000E+00
         0.00000E+00
         0.00000E+00
         0.00000E+00
         0.00000E+00
         0.00000E+00
         0.00000E+00
         0.00000E+00
         0.00000E+00
         0.00000E+00
         0.00000E+00
         0.00000E+00
         0.00000E+00
         0.00000E+00
         0.00000E+00
         0.00000E+00
         0.00000E+00
         0.00000E+00
         0.00000E+00
         0.00000E+00
         0.00000E+00
         0.00000E+00
         0.00000E+00
         0.00000E+00
         0.00000E+00
         0.00000E+00
         0.00000E+00
         0.00000E+00
         0.00000E+00
         0.00000E+00
         0.00000E+00
         0.00000E+00
         0.00000E+00
         0.00000E+00
         0.00000E+00
         0.00000E+00
         0.00000E+00
         0.00000E+00
         0.00000E+00
         0.00000E+00
         0.00000E+00
         0.00000E+00
         0.00000E+00
         0.00000E+00
         0.00000E+00
         0.00000E+00
         0.00000E+00
         0.00000E+00
         0.00000E+00
         0.00000E+00
         0.00000E+00
         0.00000E+00
         0.00000E+00
         0.00000E+00
         0.00000E+00
         0.00000E+00
         0.00000E+00
         0.00000E+00
         0.00000E+00
         0.00000E+00
         0.00000E+00
         0.00000E+00
         0.00000E+00
         0.00000E+00
         0.00000E+00
         0.00000E+00
         0.00000E+00
         0.00000E+00
         0.00000E+00
         0.00000E+00
         0.00000E+00
         0.00000E+00
         0.00000E+00
         0.00000E+00
         0.00000E+00
         0.00000E+00
         0.00000E+00
         0.00000E+00
         0.00000E+00
         0.00000E+00
         0.00000E+00
         0.00000E+00
         0.00000E+00
         0.00000E+00
         0.00000E+00
         0.00000E+00
         0.00000E+00
         0.00000E+00
         0.00000E+00
         0.00000E+00
         0.00000E+00
         0.00000E+00
         0.00000E+00
         0.00000E+00
         0.00000E+00
         0.00000E+00
         0.00000E+00
         0.00000E+00
         0.00000E+00
         0.00000E+00
         0.00000E+00
         0.00000E+00
         0.00000E+00
         0.00000E+00
         0.00000E+00
         0.00000E+00
         0.00000E+00
         0.00000E+00
         0.00000E+00
         0.00000E+00
         0.00000E+00
         0.00000E+00
         0.00000E+00
         0.00000E+00
         0.00000E+00
         0.00000E+00
         0.00000E+00
         0.00000E+00
         0.00000E+00
         0.00000E+00
         0.00000E+00
         0.00000E+00
         0.00000E+00
         0.00000E+00
         0.00000E+00
         0.00000E+00
         0.00000E+00
         0.00000E+00
         0.00000E+00
         0.00000E+00
         0.00000E+00
         0.00000E+00
         0.00000E+00
         0.00000E+00
         0.00000E+00
         0.00000E+00
         0.00000E+00
         0.00000E+00
         0.00000E+00
         0.00000E+00
         0.00000E+00
         0.00000E+00
         0.00000E+00
         0.00000E+00
         0.00000E+00
         0.00000E+00
         0.00000E+00
         0.00000E+00
         0.00000E+00
         0.00000E+00
         0.00000E+00
         0.00000E+00
         0.00000E+00
         0.00000E+00
         0.00000E+00
         0.00000E+00
         0.00000E+00
         0.00000E+00
         0.00000E+00
         0.00000E+00
         0.00000E+00
         0.00000E+00
         0.00000E+00
         0.00000E+00
         0.00000E+00
         0.00000E+00
         0.00000E+00
         0.00000E+00
         0.00000E+00
         0.00000E+00
         0.00000E+00
         0.00000E+00
         0.00000E+00
         0.00000E+00
         0.00000E+00
         0.00000E+00
         0.00000E+00
         0.00000E+00
         0.00000E+00
         0.00000E+00
         0.00000E+00
         0.00000E+00
         0.00000E+00
         0.00000E+00
         0.00000E+00
         0.00000E+00
         0.00000E+00
         0.00000E+00
         0.00000E+00
         0.00000E+00
         0.00000E+00
         0.00000E+00
         0.00000E+00
         0.00000E+00
         0.00000E+00
         0.00000E+00
         0.00000E+00
         0.00000E+00
         0.00000E+00
         0.00000E+00
         0.00000E+00
         0.00000E+00
         0.00000E+00
         0.00000E+00
         0.00000E+00
         0.00000E+00
         0.00000E+00
         0.00000E+00
         0.00000E+00
         0.00000E+00
         0.00000E+00
         0.00000E+00
         0.00000E+00
         0.00000E+00
         0.00000E+00
         0.00000E+00
         0.00000E+00
         0.00000E+00
         0.00000E+00
         0.00000E+00
         0.00000E+00
         0.00000E+00
         0.00000E+00
         0.00000E+00
         0.00000E+00
         0.00000E+00
         0.00000E+00
         0.00000E+00
         0.00000E+00
         0.00000E+00
         0.00000E+00
         0.00000E+00
         0.00000E+00
         0.00000E+00
         0.00000E+00
         0.00000E+00
         0.00000E+00
         0.00000E+00
         0.00000E+00
         0.00000E+00
         0.00000E+00
         0.00000E+00
         0.00000E+00
         0.00000E+00
         0.00000E+00
         0.00000E+00
         0.00000E+00
         0.00000E+00
         0.00000E+00
         0.00000E+00
         0.00000E+00
         0.00000E+00
         0.00000E+00
         0.00000E+00
         0.00000E+00
         0.00000E+00
         0.00000E+00
         0.00000E+00
         0.00000E+00
         0.00000E+00
         0.00000E+00
         0.00000E+00
         0.00000E+00
         0.00000E+00
         0.00000E+00
         0.00000E+00
         0.00000E+00
         0.00000E+00
         0.00000E+00
         0.00000E+00
         0.00000E+00
         0.00000E+00
         0.00000E+00
         0.00000E+00
         0.00000E+00
         0.00000E+00
         0.00000E+00
         0.00000E+00
         0.00000E+00
         0.00000E+00
         0.00000E+00
         0.00000E+00
         0.00000E+00
         0.00000E+00
         0.00000E+00
         0.00000E+00
         0.00000E+00
         0.00000E+00
         0.00000E+00
         0.00000E+00
         0.00000E+00
         0.00000E+00
         0.00000E+00
         0.00000E+00
         0.00000E+00
         0.00000E+00
         0.00000E+00
         0.00000E+00
         0.00000E+00
         0.00000E+00
         0.00000E+00
         0.00000E+00
         0.00000E+00
         0.00000E+00
         0.00000E+00
         0.00000E+00
         0.00000E+00
         0.00000E+00
         0.00000E+00
         0.00000E+00
         0.00000E+00
         0.00000E+00
         0.00000E+00
         0.00000E+00
         0.00000E+00
         0.00000E+00
         0.00000E+00
         0.00000E+00
         0.00000E+00
         0.00000E+00
         0.00000E+00
         0.00000E+00
         0.00000E+00
         0.00000E+00
         0.00000E+00
         0.00000E+00
         0.00000E+00
         0.00000E+00
         0.00000E+00
         0.00000E+00
         0.00000E+00
         0.00000E+00
         0.00000E+00
         0.00000E+00
         0.00000E+00
         0.00000E+00
         0.00000E+00
         0.00000E+00
         0.00000E+00
         0.00000E+00
         0.00000E+00
         0.00000E+00
         0.00000E+00
         0.00000E+00
         0.00000E+00
         0.00000E+00
         0.00000E+00
         0.00000E+00
         0.00000E+00
         0.00000E+00
         0.00000E+00
         0.00000E+00
         0.00000E+00
         0.00000E+00
         0.00000E+00
         0.00000E+00
         0.00000E+00
         0.00000E+00
         0.00000E+00
         0.00000E+00
         0.00000E+00
         0.00000E+00
         0.00000E+00
         0.00000E+00
         0.00000E+00
         0.00000E+00
         0.00000E+00
         0.00000E+00
         0.00000E+00
         0.00000E+00
         0.00000E+00
         0.00000E+00
         0.00000E+00
         0.00000E+00
         0.00000E+00
         0.00000E+00
         0.00000E+00
         0.00000E+00
         0.00000E+00
         0.00000E+00
         0.00000E+00
         0.00000E+00
         0.00000E+00
         0.00000E+00
         0.00000E+00
         0.00000E+00
         0.00000E+00
         0.00000E+00
         0.00000E+00
         0.00000E+00
         0.00000E+00
         0.00000E+00
         0.00000E+00
         0.00000E+00
         0.00000E+00
         0.00000E+00
         0.00000E+00
         0.00000E+00
         0.00000E+00
         0.00000E+00
         0.00000E+00
         0.00000E+00
         0.00000E+00
         0.00000E+00
         0.00000E+00
         0.00000E+00
         0.00000E+00
         0.00000E+00
         0.00000E+00
         0.00000E+00
         0.00000E+00
         0.00000E+00
         0.00000E+00
         0.00000E+00
         0.00000E+00
         0.00000E+00
         0.00000E+00
         0.00000E+00
         0.00000E+00
         0.00000E+00
         0.00000E+00
         0.00000E+00
         0.00000E+00
         0.00000E+00
         0.00000E+00
         0.00000E+00
         0.00000E+00
         0.00000E+00
         0.00000E+00
         0.00000E+00
         0.00000E+00
         0.00000E+00
         0.00000E+00
         0.00000E+00
         0.00000E+00
         0.00000E+00
         0.00000E+00
         0.00000E+00
         0.00000E+00
         0.00000E+00
         0.00000E+00
         0.00000E+00
         0.00000E+00
         0.00000E+00
         0.00000E+00
         0.00000E+00
         0.00000E+00
         0.00000E+00
         0.00000E+00
         0.00000E+00
         0.00000E+00
         0.00000E+00
         0.00000E+00
         0.00000E+00
         0.00000E+00
         0.00000E+00
         0.00000E+00
         0.00000E+00
         0.00000E+00
         0.00000E+00
         0.00000E+00
         0.00000E+00
         0.00000E+00
         0.00000E+00
         0.00000E+00
         0.00000E+00
         0.00000E+00
         0.00000E+00
         0.00000E+00
         0.00000E+00
         0.00000E+00
         0.00000E+00
         0.00000E+00
         0.00000E+00
         0.00000E+00
         0.00000E+00
         0.00000E+00
         0.00000E+00
         0.00000E+00
         0.00000E+00
         0.00000E+00
         0.00000E+00
         0.00000E+00
         0.00000E+00
         0.00000E+00
         0.00000E+00
         0.00000E+00
         0.00000E+00
         0.00000E+00
         0.00000E+00
         0.00000E+00
         0.00000E+00
         0.00000E+00
         0.00000E+00
         0.00000E+00
         0.00000E+00
         0.00000E+00
         0.00000E+00
         0.00000E+00
         0.00000E+00
         0.00000E+00
         0.00000E+00
         0.00000E+00
         0.00000E+00
         0.00000E+00
         0.00000E+00
         0.00000E+00
         0.00000E+00
         0.00000E+00
         0.00000E+00
         0.00000E+00
         0.00000E+00
         0.00000E+00
         0.00000E+00
         0.00000E+00
         0.00000E+00
         0.00000E+00
         0.00000E+00
         0.00000E+00
         0.00000E+00
         0.00000E+00
         0.00000E+00
         0.00000E+00
         0.00000E+00
         0.00000E+00
         0.00000E+00
         0.00000E+00
         0.00000E+00
         0.00000E+00
         0.00000E+00
         0.00000E+00
         0.00000E+00
         0.00000E+00
         0.00000E+00
         0.00000E+00
         0.00000E+00
         0.00000E+00
         0.00000E+00
         0.00000E+00
         0.00000E+00
         0.00000E+00
         0.00000E+00
         0.00000E+00
         0.00000E+00
         0.00000E+00
         0.00000E+00
         0.00000E+00
         0.00000E+00
         0.00000E+00
         0.00000E+00
         0.00000E+00
         0.00000E+00
         0.00000E+00
         0.00000E+00
         0.00000E+00
         0.00000E+00
         0.00000E+00
         0.00000E+00
         0.00000E+00
         0.00000E+00
         0.00000E+00
         0.00000E+00
         0.00000E+00
         0.00000E+00
         0.00000E+00
         0.00000E+00
         0.00000E+00
         0.00000E+00
         0.00000E+00
         0.00000E+00
         0.00000E+00
         0.00000E+00
         0.00000E+00
         0.00000E+00
         0.00000E+00
         0.00000E+00
         0.00000E+00
         0.00000E+00
         0.00000E+00
         0.00000E+00
         0.00000E+00
         0.00000E+00
         0.00000E+00
         0.00000E+00
         0.00000E+00
         0.00000E+00
         0.00000E+00
         0.00000E+00
         0.00000E+00
         0.00000E+00
         0.00000E+00
         0.00000E+00
         0.00000E+00
         0.00000E+00
         0.00000E+00
         0.00000E+00
         0.00000E+00
         0.00000E+00
         0.00000E+00
         0.00000E+00
         0.00000E+00
         0.00000E+00
         0.00000E+00
         0.00000E+00
         0.00000E+00
         0.00000E+00
         0.00000E+00
         0.00000E+00
         0.00000E+00
         0.00000E+00
         0.00000E+00
         0.00000E+00
         0.00000E+00
         0.00000E+00
         0.00000E+00
         0.00000E+00
         0.00000E+00
         0.00000E+00
         0.00000E+00
         0.00000E+00
         0.00000E+00
         0.00000E+00
         0.00000E+00
         0.00000E+00
         0.00000E+00
         0.00000E+00
         0.00000E+00
         0.00000E+00
         0.00000E+00
         0.00000E+00
         0.00000E+00
         0.00000E+00
         0.00000E+00
         0.00000E+00
         0.00000E+00
         0.00000E+00
         0.00000E+00
         0.00000E+00
         0.00000E+00
         0.00000E+00
         0.00000E+00
         0.00000E+00
         0.00000E+00
         0.00000E+00
         0.00000E+00
         0.00000E+00
         0.00000E+00
         0.00000E+00
         0.00000E+00
         0.00000E+00
         0.00000E+00
         0.00000E+00
         0.00000E+00
         0.00000E+00
         0.00000E+00
         0.00000E+00
         0.00000E+00
         0.00000E+00
         0.00000E+00
         0.00000E+00
         0.00000E+00
         0.00000E+00
         0.00000E+00
         0.00000E+00
         0.00000E+00
         0.00000E+00
         0.00000E+00
         0.00000E+00
         0.00000E+00
         0.00000E+00
         0.00000E+00
         0.00000E+00
         0.00000E+00
         0.00000E+00
         0.00000E+00
         0.00000E+00
         0.00000E+00
         0.00000E+00
         0.00000E+00
         0.00000E+00
         0.00000E+00
         0.00000E+00
         0.00000E+00
         0.00000E+00
         0.00000E+00
         0.00000E+00
         0.00000E+00
         0.00000E+00
         0.00000E+00
         0.00000E+00
         0.00000E+00
         0.00000E+00
         0.00000E+00
         0.00000E+00
         0.00000E+00
         0.00000E+00
         0.00000E+00
         0.00000E+00
         0.00000E+00
         0.00000E+00
         0.00000E+00
         0.00000E+00
         0.00000E+00
         0.00000E+00
         0.00000E+00
         0.00000E+00
         0.00000E+00
         0.00000E+00
         0.00000E+00
         0.00000E+00
         0.00000E+00
         0.00000E+00
         0.00000E+00
         0.00000E+00
         0.00000E+00
         0.00000E+00
         0.00000E+00
         0.00000E+00
         0.00000E+00
         0.00000E+00
         0.00000E+00
         0.00000E+00
         0.00000E+00
         0.00000E+00
         0.00000E+00
         0.00000E+00
         0.00000E+00
         0.00000E+00
         0.00000E+00
         0.00000E+00
         0.00000E+00
         0.00000E+00
         0.00000E+00
         0.00000E+00
         0.00000E+00
         0.00000E+00
         0.00000E+00
         0.00000E+00
         0.00000E+00
         0.00000E+00
         0.00000E+00
         0.00000E+00
         0.00000E+00
         0.00000E+00
         0.00000E+00
         0.00000E+00
         0.00000E+00
         0.00000E+00
         0.00000E+00
         0.00000E+00
         0.00000E+00
         0.00000E+00
         0.00000E+00
         0.00000E+00
         0.00000E+00
         0.00000E+00
         0.00000E+00
         0.00000E+00
         0.00000E+00
         0.00000E+00
         0.00000E+00
         0.00000E+00
         0.00000E+00
         0.00000E+00
         0.00000E+00
         0.00000E+00
         0.00000E+00
         0.00000E+00
         0.00000E+00
         0.00000E+00
         0.00000E+00
         0.00000E+00
         0.00000E+00
         0.00000E+00
         0.00000E+00
         0.00000E+00
         0.00000E+00
         0.00000E+00
         0.00000E+00
         0.00000E+00
         0.00000E+00
         0.00000E+00
         0.00000E+00
         0.00000E+00
         0.00000E+00
         0.00000E+00
         0.00000E+00
         0.00000E+00
         0.00000E+00
         0.00000E+00
         0.00000E+00
         0.00000E+00
         0.00000E+00
         0.00000E+00
         0.00000E+00
         0.00000E+00
         0.00000E+00
         0.00000E+00
         0.00000E+00
         0.00000E+00
         0.00000E+00
         0.00000E+00
         0.00000E+00
         0.00000E+00
         0.00000E+00
         0.00000E+00
         0.00000E+00
         0.00000E+00
         0.00000E+00
         0.00000E+00
         0.00000E+00
         0.00000E+00
         0.00000E+00
         0.00000E+00
         0.00000E+00
         0.00000E+00
         0.00000E+00
         0.00000E+00
         0.00000E+00
         0.00000E+00
         0.00000E+00
         0.00000E+00
         0.00000E+00
         0.00000E+00
         0.00000E+00
         0.00000E+00
         0.00000E+00
         0.00000E+00
         0.00000E+00
         0.00000E+00
         0.00000E+00
         0.00000E+00
         0.00000E+00
         0.00000E+00
         0.00000E+00
         0.00000E+00
         0.00000E+00
         0.00000E+00
         0.00000E+00
         0.00000E+00
         0.00000E+00
         0.00000E+00
         0.00000E+00
         0.00000E+00
         0.00000E+00
         0.00000E+00
         0.00000E+00
         0.00000E+00
         0.00000E+00
         0.00000E+00
         0.00000E+00
         0.00000E+00
         0.00000E+00
         0.00000E+00
         0.00000E+00
         0.00000E+00
         0.00000E+00
         0.00000E+00
         0.00000E+00
         0.00000E+00
         0.00000E+00
         0.00000E+00
         0.00000E+00
         0.00000E+00
         0.00000E+00
         0.00000E+00
         0.00000E+00
         0.00000E+00
         0.00000E+00
         0.00000E+00
         0.00000E+00
         0.00000E+00
         0.00000E+00
         0.00000E+00
         0.00000E+00
         0.00000E+00
         0.00000E+00
         0.00000E+00
         0.00000E+00
         0.00000E+00
         0.00000E+00
         0.00000E+00
         0.00000E+00
         0.00000E+00
         0.00000E+00
         0.00000E+00
         0.00000E+00
         0.00000E+00
         0.00000E+00
         0.00000E+00
         0.00000E+00
         0.00000E+00
         0.00000E+00
         0.00000E+00
         0.00000E+00
         0.00000E+00
         0.00000E+00
         0.00000E+00
         0.00000E+00
         0.00000E+00
         0.00000E+00
         0.00000E+00
         0.00000E+00
         0.00000E+00
         0.00000E+00
         0.00000E+00
         0.00000E+00
         0.00000E+00
         0.00000E+00
         0.00000E+00
         0.00000E+00
         0.00000E+00
         0.00000E+00
         0.00000E+00
         0.00000E+00
         0.00000E+00
         0.00000E+00
         0.00000E+00
         0.00000E+00
         0.00000E+00
         0.00000E+00
         0.00000E+00
         0.00000E+00
         0.00000E+00
         0.00000E+00
         0.00000E+00
         0.00000E+00
         0.00000E+00
         0.00000E+00
         0.00000E+00
         0.00000E+00
         0.00000E+00
         0.00000E+00
         0.00000E+00
         0.00000E+00
         0.00000E+00
         0.00000E+00
         0.00000E+00
         0.00000E+00
         0.00000E+00
         0.00000E+00
         0.00000E+00
         0.00000E+00
         0.00000E+00
         0.00000E+00
         0.00000E+00
         0.00000E+00
         0.00000E+00
         0.00000E+00
         0.00000E+00
         0.00000E+00
         0.00000E+00
         0.00000E+00
         0.00000E+00
         0.00000E+00
         0.00000E+00
         0.00000E+00
         0.00000E+00
         0.00000E+00
         0.00000E+00
         0.00000E+00
         0.00000E+00
         0.00000E+00
         0.00000E+00
         0.00000E+00
         0.00000E+00
         0.00000E+00
         0.00000E+00
         0.00000E+00
         0.00000E+00
         0.00000E+00
         0.00000E+00
         0.00000E+00
         0.00000E+00
         0.00000E+00
         0.00000E+00
         0.00000E+00
         0.00000E+00
         0.00000E+00
         0.00000E+00
         0.00000E+00
         0.00000E+00
         0.00000E+00
         0.00000E+00
         0.00000E+00
         0.00000E+00
         0.00000E+00
         0.00000E+00
         0.00000E+00
         0.00000E+00
         0.00000E+00
         0.00000E+00
         0.00000E+00
         0.00000E+00
         0.00000E+00
         0.00000E+00
         0.00000E+00
         0.00000E+00
         0.00000E+00
         0.00000E+00
         0.00000E+00
         0.00000E+00
         0.00000E+00
         0.00000E+00
         0.00000E+00
         0.00000E+00
         0.00000E+00
         0.00000E+00
         0.00000E+00
         0.00000E+00
         0.00000E+00
         0.00000E+00
         0.00000E+00
         0.00000E+00
         0.00000E+00
         0.00000E+00
         0.00000E+00
         0.00000E+00
         0.00000E+00
         0.00000E+00
         0.00000E+00
         0.00000E+00
         0.00000E+00
         0.00000E+00
         0.00000E+00
         0.00000E+00
         0.00000E+00
         0.00000E+00
         0.00000E+00
         0.00000E+00
         0.00000E+00
         0.00000E+00
         0.00000E+00
         0.00000E+00
         0.00000E+00
         0.00000E+00
         0.00000E+00
         0.00000E+00
         0.00000E+00
         0.00000E+00
         0.00000E+00
         0.00000E+00
         0.00000E+00
         0.00000E+00
         0.00000E+00
         0.00000E+00
         0.00000E+00
         0.00000E+00
         0.00000E+00
         0.00000E+00
         0.00000E+00
         0.00000E+00
         0.00000E+00
         0.00000E+00
         0.00000E+00
         0.00000E+00
         0.00000E+00
         0.00000E+00
         0.00000E+00
         0.00000E+00
         0.00000E+00
         0.00000E+00
         0.00000E+00
         0.00000E+00
         0.00000E+00
         0.00000E+00
         0.00000E+00
         0.00000E+00
         0.00000E+00
         0.00000E+00
         0.00000E+00
         0.00000E+00
         0.00000E+00
         0.00000E+00
         0.00000E+00
         0.00000E+00
         0.00000E+00
         0.00000E+00
         0.00000E+00
         0.00000E+00
         0.00000E+00
         0.00000E+00
         0.00000E+00
         0.00000E+00
         0.00000E+00
         0.00000E+00
         0.00000E+00
         0.00000E+00
         0.00000E+00
         0.00000E+00
         0.00000E+00
         0.00000E+00
         0.00000E+00
         0.00000E+00
         0.00000E+00
         0.00000E+00
         0.00000E+00
         0.00000E+00
         0.00000E+00
         0.00000E+00
         0.00000E+00
         0.00000E+00
         0.00000E+00
         0.00000E+00
         0.00000E+00
         0.00000E+00
         0.00000E+00
         0.00000E+00
         0.00000E+00
         0.00000E+00
         0.00000E+00
         0.00000E+00
         0.00000E+00
         0.00000E+00
         0.00000E+00
         0.00000E+00
         0.00000E+00
         0.00000E+00
         0.00000E+00
         0.00000E+00
         0.00000E+00
         0.00000E+00
         0.00000E+00
         0.00000E+00
         0.00000E+00
         0.00000E+00
         0.00000E+00
         0.00000E+00
         0.00000E+00
         0.00000E+00
         0.00000E+00
         0.00000E+00
         0.00000E+00
         0.00000E+00
         0.00000E+00
         0.00000E+00
         0.00000E+00
         0.00000E+00
         0.00000E+00
         0.00000E+00
         0.00000E+00
         0.00000E+00
         0.00000E+00
         0.00000E+00
         0.00000E+00
         0.00000E+00
         0.00000E+00
         0.00000E+00
         0.00000E+00
         0.00000E+00
         0.00000E+00
         0.00000E+00
         0.00000E+00
         0.00000E+00
         0.00000E+00
         0.00000E+00
         0.00000E+00
         0.00000E+00
         0.00000E+00
         0.00000E+00
         0.00000E+00
         0.00000E+00
         0.00000E+00
         0.00000E+00
         0.00000E+00
         0.00000E+00
         0.00000E+00
         0.00000E+00
         0.00000E+00
         0.00000E+00
         0.00000E+00
         0.00000E+00
         0.00000E+00
         0.00000E+00
         0.00000E+00
         0.00000E+00
         0.00000E+00
         0.00000E+00
         0.00000E+00
         0.00000E+00
         0.00000E+00
         0.00000E+00
         0.00000E+00
         0.00000E+00
  
SCALARS                            eps  double 1
LOOKUP_TABLE default
         0.13029E+02
         0.12870E+02
         0.12971E+02
         0.13151E+02
         0.00000E+00
         0.00000E+00
         0.00000E+00
         0.00000E+00
         0.12866E+02
         0.12919E+02
         0.00000E+00
         0.00000E+00
         0.12641E+02
         0.12632E+02
         0.00000E+00
         0.00000E+00
         0.13125E+02
         0.12645E+02
         0.00000E+00
         0.00000E+00
         0.12468E+02
         0.12331E+02
         0.12549E+02
         0.00000E+00
         0.00000E+00
         0.00000E+00
         0.12336E+02
         0.12135E+02
         0.00000E+00
         0.00000E+00
         0.13116E+02
         0.12907E+02
         0.13319E+02
         0.00000E+00
         0.00000E+00
         0.00000E+00
         0.12996E+02
         0.12729E+02
         0.00000E+00
         0.00000E+00
         0.12890E+02
         0.12685E+02
         0.00000E+00
         0.00000E+00
         0.13064E+02
         0.13141E+02
         0.00000E+00
         0.00000E+00
         0.12519E+02
         0.00000E+00
         0.13126E+02
         0.00000E+00
         0.12278E+02
         0.00000E+00
         0.12215E+02
         0.00000E+00
         0.12216E+02
         0.12440E+02
         0.00000E+00
         0.00000E+00
         0.13112E+02
         0.13032E+02
         0.00000E+00
         0.00000E+00
         0.13162E+02
         0.00000E+00
         0.13067E+02
         0.00000E+00
         0.12817E+02
         0.12791E+02
         0.00000E+00
         0.00000E+00
         0.12734E+02
         0.00000E+00
         0.12064E+02
         0.00000E+00
         0.12029E+02
         0.00000E+00
         0.12047E+02
         0.00000E+00
         0.12145E+02
         0.12245E+02
         0.00000E+00
         0.00000E+00
         0.12448E+02
         0.00000E+00
         0.13060E+02
         0.00000E+00
         0.12965E+02
         0.00000E+00
         0.12888E+02
         0.12844E+02
         0.00000E+00
         0.00000E+00
         0.12896E+02
         0.00000E+00
         0.12934E+02
         0.00000E+00
         0.12900E+02
         0.00000E+00
         0.12889E+02
         0.12923E+02
         0.00000E+00
         0.00000E+00
         0.12704E+02
         0.12796E+02
         0.00000E+00
         0.00000E+00
         0.12689E+02
         0.00000E+00
         0.12795E+02
         0.00000E+00
         0.12691E+02
         0.00000E+00
         0.12463E+02
         0.00000E+00
         0.12242E+02
         0.00000E+00
         0.12110E+02
         0.00000E+00
         0.12096E+02
         0.00000E+00
         0.12100E+02
         0.00000E+00
         0.12244E+02
         0.00000E+00
         0.12514E+02
         0.00000E+00
         0.12810E+02
         0.00000E+00
         0.12982E+02
         0.00000E+00
         0.13152E+02
         0.00000E+00
         0.13264E+02
         0.00000E+00
         0.13261E+02
         0.00000E+00
         0.12985E+02
         0.00000E+00
         0.12793E+02
         0.00000E+00
         0.12729E+02
         0.00000E+00
         0.12833E+02
         0.00000E+00
         0.12885E+02
         0.00000E+00
         0.12794E+02
         0.00000E+00
         0.12794E+02
         0.00000E+00
         0.12863E+02
         0.00000E+00
         0.12952E+02
         0.00000E+00
         0.35565E+00
         0.36173E+00
         0.36088E+00
         0.35313E+00
         0.36806E+00
         0.36021E+00
         0.36996E+00
         0.36475E+00
         0.35431E+00
         0.36068E+00
         0.37583E+00
         0.37781E+00
         0.37291E+00
         0.37249E+00
         0.37573E+00
         0.35349E+00
         0.35488E+00
         0.35102E+00
         0.36241E+00
         0.36022E+00
         0.36345E+00
         0.36137E+00
         0.36525E+00
         0.36415E+00
         0.36041E+00
         0.36066E+00
         0.36716E+00
         0.36655E+00
         0.37160E+00
         0.36406E+00
         0.35417E+00
         0.36181E+00
         0.35422E+00
         0.35916E+00
         0.37908E+00
         0.37230E+00
         0.36924E+00
         0.37292E+00
         0.37336E+00
         0.37954E+00
         0.38429E+00
         0.37312E+00
         0.36334E+00
         0.36458E+00
         0.36955E+00
         0.37885E+00
         0.37084E+00
         0.36287E+00
         0.36340E+00
         0.36955E+00
         0.37623E+00
         0.36734E+00
         0.39717E+00
         0.38826E+00
         0.38982E+00
         0.38785E+00
         0.38853E+00
         0.39356E+00
         0.39857E+00
         0.39998E+00
         0.39919E+00
         0.39980E+00
         0.40194E+00
         0.38885E+00
         0.38387E+00
         0.38199E+00
         0.37916E+00
         0.37707E+00
         0.37726E+00
         0.38112E+00
         0.39423E+00
         0.39111E+00
         0.38640E+00
         0.38633E+00
         0.38714E+00
         0.39147E+00
         0.38509E+00
         0.38283E+00
         0.84817E-02
         0.38299E-02
         0.34342E-02
         0.13737E-02
         0.89317E-02
         0.51918E-02
         0.54773E-03
         0.82888E-02
         0.40068E-02
         0.76256E-02
         0.21037E-02
         0.19604E-01
         0.14091E-01
         0.54416E-02
         0.20690E-01
         0.52919E-02
         0.11370E-02
         0.00000E+00
         0.25364E-02
         0.00000E+00
         0.14710E-01
         0.13598E-01
         0.13156E-01
         0.10903E-02
         0.37975E-02
         0.00000E+00
         0.49551E-02
         0.00000E+00
         0.00000E+00
         0.43856E-02
         0.40606E-02
         0.69998E-03
         0.15285E-02
         0.90317E-03
         0.12493E-01
         0.61854E-02
         0.89476E-02
         0.16260E-01
         0.11752E-01
         0.10713E-01
         0.16590E-01
         0.14731E-01
         0.14851E-01
         0.10760E-01
         0.92637E-02
         0.13867E-01
         0.79761E-02
         0.63046E-02
         0.46433E-02
         0.60560E-02
         0.11940E-01
         0.71888E-02
         0.63899E-01
         0.65516E-01
         0.68650E-01
         0.68125E-01
         0.72867E-01
         0.78512E-01
         0.75187E-01
         0.66445E-01
         0.64657E-01
         0.69456E-01
         0.67997E-01
         0.67022E-01
         0.54772E-01
         0.51889E-01
         0.57360E-01
         0.61698E-01
         0.64165E-01
         0.70411E-01
         0.67588E-01
         0.69518E-01
         0.62231E-01
         0.58903E-01
         0.63060E-01
         0.61564E-01
         0.63459E-01
         0.62894E-01
         0.84905E-02
         0.38314E-02
         0.34379E-02
         0.13802E-02
         0.89263E-02
         0.51869E-02
         0.55878E-03
         0.82999E-02
         0.40191E-02
         0.76574E-02
         0.21035E-02
         0.19603E-01
         0.14098E-01
         0.54214E-02
         0.20715E-01
         0.52986E-02
         0.11489E-02
         0.00000E+00
         0.25396E-02
         0.00000E+00
         0.14711E-01
         0.13596E-01
         0.13155E-01
         0.10901E-02
         0.38274E-02
         0.00000E+00
         0.49578E-02
         0.00000E+00
         0.00000E+00
         0.43989E-02
         0.40675E-02
         0.69875E-03
         0.15206E-02
         0.90683E-03
         0.12500E-01
         0.61828E-02
         0.89449E-02
         0.16291E-01
         0.11786E-01
         0.10733E-01
         0.16603E-01
         0.14740E-01
         0.14853E-01
         0.10760E-01
         0.92612E-02
         0.13866E-01
         0.79763E-02
         0.63040E-02
         0.46322E-02
         0.60434E-02
         0.11932E-01
         0.71727E-02
         0.63874E-01
         0.65499E-01
         0.68649E-01
         0.68126E-01
         0.72854E-01
         0.78484E-01
         0.75154E-01
         0.66426E-01
         0.64640E-01
         0.69434E-01
         0.67985E-01
         0.67024E-01
         0.54766E-01
         0.51887E-01
         0.57367E-01
         0.61713E-01
         0.64182E-01
         0.70427E-01
         0.67584E-01
         0.69514E-01
         0.62224E-01
         0.58899E-01
         0.63037E-01
         0.61521E-01
         0.63421E-01
         0.62858E-01
         0.84994E-02
         0.38331E-02
         0.34417E-02
         0.13866E-02
         0.89206E-02
         0.51823E-02
         0.56989E-03
         0.83110E-02
         0.40315E-02
         0.76891E-02
         0.21035E-02
         0.19602E-01
         0.14105E-01
         0.54013E-02
         0.20740E-01
         0.53055E-02
         0.11610E-02
         0.00000E+00
         0.25430E-02
         0.00000E+00
         0.14713E-01
         0.13595E-01
         0.13154E-01
         0.10900E-02
         0.38570E-02
         0.00000E+00
         0.49604E-02
         0.00000E+00
         0.00000E+00
         0.44117E-02
         0.40746E-02
         0.69752E-03
         0.15128E-02
         0.91044E-03
         0.12507E-01
         0.61803E-02
         0.89419E-02
         0.16321E-01
         0.11819E-01
         0.10752E-01
         0.16617E-01
         0.14750E-01
         0.14856E-01
         0.10760E-01
         0.92592E-02
         0.13865E-01
         0.79764E-02
         0.63033E-02
         0.46212E-02
         0.60306E-02
         0.11924E-01
         0.71568E-02
         0.63850E-01
         0.65482E-01
         0.68649E-01
         0.68126E-01
         0.72841E-01
         0.78456E-01
         0.75121E-01
         0.66408E-01
         0.64622E-01
         0.69412E-01
         0.67973E-01
         0.67027E-01
         0.54761E-01
         0.51885E-01
         0.57374E-01
         0.61730E-01
         0.64200E-01
         0.70443E-01
         0.67580E-01
         0.69510E-01
         0.62217E-01
         0.58895E-01
         0.63014E-01
         0.61479E-01
         0.63383E-01
         0.62823E-01
         0.85082E-02
         0.38347E-02
         0.34455E-02
         0.13931E-02
         0.89151E-02
         0.51775E-02
         0.58109E-03
         0.83220E-02
         0.40439E-02
         0.77200E-02
         0.21035E-02
         0.19602E-01
         0.14112E-01
         0.53811E-02
         0.20765E-01
         0.53131E-02
         0.11735E-02
         0.00000E+00
         0.25466E-02
         0.00000E+00
         0.14715E-01
         0.13595E-01
         0.13155E-01
         0.10895E-02
         0.38860E-02
         0.00000E+00
         0.49626E-02
         0.00000E+00
         0.00000E+00
         0.44234E-02
         0.40819E-02
         0.69657E-03
         0.15049E-02
         0.91409E-03
         0.12514E-01
         0.61777E-02
         0.89390E-02
         0.16352E-01
         0.11854E-01
         0.10773E-01
         0.16631E-01
         0.14760E-01
         0.14859E-01
         0.10762E-01
         0.92577E-02
         0.13865E-01
         0.79773E-02
         0.63027E-02
         0.46101E-02
         0.60179E-02
         0.11915E-01
         0.71408E-02
         0.63825E-01
         0.65466E-01
         0.68649E-01
         0.68127E-01
         0.72829E-01
         0.78429E-01
         0.75088E-01
         0.66389E-01
         0.64605E-01
         0.69390E-01
         0.67961E-01
         0.67030E-01
         0.54757E-01
         0.51883E-01
         0.57382E-01
         0.61748E-01
         0.64220E-01
         0.70460E-01
         0.67576E-01
         0.69506E-01
         0.62209E-01
         0.58891E-01
         0.62991E-01
         0.61436E-01
         0.63346E-01
         0.62787E-01
         0.85170E-02
         0.38363E-02
         0.34492E-02
         0.13995E-02
         0.89097E-02
         0.51727E-02
         0.59220E-03
         0.83329E-02
         0.40562E-02
         0.77503E-02
         0.21036E-02
         0.19601E-01
         0.14119E-01
         0.53610E-02
         0.20790E-01
         0.53213E-02
         0.11865E-02
         0.00000E+00
         0.25503E-02
         0.00000E+00
         0.14718E-01
         0.13594E-01
         0.13156E-01
         0.10889E-02
         0.39144E-02
         0.00000E+00
         0.49646E-02
         0.00000E+00
         0.00000E+00
         0.44339E-02
         0.40895E-02
         0.69573E-03
         0.14970E-02
         0.91772E-03
         0.12521E-01
         0.61751E-02
         0.89363E-02
         0.16382E-01
         0.11889E-01
         0.10794E-01
         0.16646E-01
         0.14770E-01
         0.14863E-01
         0.10765E-01
         0.92572E-02
         0.13866E-01
         0.79786E-02
         0.63026E-02
         0.45993E-02
         0.60051E-02
         0.11907E-01
         0.71248E-02
         0.63801E-01
         0.65449E-01
         0.68648E-01
         0.68127E-01
         0.72816E-01
         0.78401E-01
         0.75055E-01
         0.66371E-01
         0.64588E-01
         0.69368E-01
         0.67950E-01
         0.67035E-01
         0.54754E-01
         0.51882E-01
         0.57391E-01
         0.61769E-01
         0.64243E-01
         0.70478E-01
         0.67573E-01
         0.69502E-01
         0.62202E-01
         0.58887E-01
         0.62968E-01
         0.61393E-01
         0.63308E-01
         0.62752E-01
         0.85253E-02
         0.38374E-02
         0.34528E-02
         0.14060E-02
         0.89042E-02
         0.51680E-02
         0.60303E-03
         0.83430E-02
         0.40685E-02
         0.77797E-02
         0.21042E-02
         0.19601E-01
         0.14126E-01
         0.53409E-02
         0.20814E-01
         0.53296E-02
         0.11996E-02
         0.00000E+00
         0.25541E-02
         0.00000E+00
         0.14721E-01
         0.13594E-01
         0.13157E-01
         0.10882E-02
         0.39421E-02
         0.00000E+00
         0.49665E-02
         0.00000E+00
         0.00000E+00
         0.44440E-02
         0.40969E-02
         0.69463E-03
         0.14891E-02
         0.92136E-03
         0.12528E-01
         0.61730E-02
         0.89339E-02
         0.16413E-01
         0.11924E-01
         0.10816E-01
         0.16662E-01
         0.14781E-01
         0.14867E-01
         0.10768E-01
         0.92576E-02
         0.13867E-01
         0.79802E-02
         0.63028E-02
         0.45889E-02
         0.59926E-02
         0.11899E-01
         0.71092E-02
         0.63776E-01
         0.65433E-01
         0.68648E-01
         0.68128E-01
         0.72803E-01
         0.78373E-01
         0.75022E-01
         0.66352E-01
         0.64571E-01
         0.69346E-01
         0.67938E-01
         0.67039E-01
         0.54752E-01
         0.51881E-01
         0.57400E-01
         0.61791E-01
         0.64266E-01
         0.70496E-01
         0.67569E-01
         0.69497E-01
         0.62195E-01
         0.58883E-01
         0.62945E-01
         0.61351E-01
         0.63270E-01
         0.62717E-01
         0.85330E-02
         0.38376E-02
         0.34563E-02
         0.14125E-02
         0.88989E-02
         0.51634E-02
         0.61347E-03
         0.83516E-02
         0.40811E-02
         0.78079E-02
         0.21055E-02
         0.19601E-01
         0.14134E-01
         0.53210E-02
         0.20840E-01
         0.53381E-02
         0.12125E-02
         0.00000E+00
         0.25579E-02
         0.00000E+00
         0.14724E-01
         0.13594E-01
         0.13159E-01
         0.10877E-02
         0.39689E-02
         0.00000E+00
         0.49686E-02
         0.00000E+00
         0.00000E+00
         0.44541E-02
         0.41038E-02
         0.69278E-03
         0.14811E-02
         0.92486E-03
         0.12535E-01
         0.61712E-02
         0.89318E-02
         0.16444E-01
         0.11960E-01
         0.10838E-01
         0.16678E-01
         0.14792E-01
         0.14872E-01
         0.10772E-01
         0.92584E-02
         0.13870E-01
         0.79826E-02
         0.63040E-02
         0.45800E-02
         0.59808E-02
         0.11891E-01
         0.70937E-02
         0.63752E-01
         0.65417E-01
         0.68647E-01
         0.68128E-01
         0.72791E-01
         0.78345E-01
         0.74989E-01
         0.66333E-01
         0.64554E-01
         0.69324E-01
         0.67927E-01
         0.67044E-01
         0.54750E-01
         0.51880E-01
         0.57410E-01
         0.61813E-01
         0.64290E-01
         0.70514E-01
         0.67564E-01
         0.69493E-01
         0.62189E-01
         0.58880E-01
         0.62922E-01
         0.61308E-01
         0.63233E-01
         0.62681E-01
         0.85403E-02
         0.38377E-02
         0.34597E-02
         0.14190E-02
         0.88939E-02
         0.51586E-02
         0.62358E-03
         0.83595E-02
         0.40938E-02
         0.78355E-02
         0.21073E-02
         0.19601E-01
         0.14141E-01
         0.53012E-02
         0.20865E-01
         0.53465E-02
         0.12252E-02
         0.00000E+00
         0.25617E-02
         0.00000E+00
         0.14727E-01
         0.13594E-01
         0.13161E-01
         0.10872E-02
         0.39954E-02
         0.00000E+00
         0.49708E-02
         0.00000E+00
         0.00000E+00
         0.44642E-02
         0.41105E-02
         0.69051E-03
         0.14731E-02
         0.92835E-03
         0.12543E-01
         0.61699E-02
         0.89303E-02
         0.16476E-01
         0.11996E-01
         0.10861E-01
         0.16693E-01
         0.14803E-01
         0.14877E-01
         0.10776E-01
         0.92596E-02
         0.13872E-01
         0.79854E-02
         0.63054E-02
         0.45717E-02
         0.59691E-02
         0.11884E-01
         0.70784E-02
         0.63727E-01
         0.65400E-01
         0.68646E-01
         0.68128E-01
         0.72778E-01
         0.78317E-01
         0.74956E-01
         0.66314E-01
         0.64536E-01
         0.69301E-01
         0.67915E-01
         0.67049E-01
         0.54748E-01
         0.51879E-01
         0.57419E-01
         0.61834E-01
         0.64313E-01
         0.70531E-01
         0.67559E-01
         0.69488E-01
         0.62183E-01
         0.58877E-01
         0.62899E-01
         0.61266E-01
         0.63195E-01
         0.62646E-01
         0.85476E-02
         0.38377E-02
         0.34630E-02
         0.14256E-02
         0.88887E-02
         0.51538E-02
         0.63370E-03
         0.83674E-02
         0.41066E-02
         0.78631E-02
         0.21090E-02
         0.19601E-01
         0.14149E-01
         0.52815E-02
         0.20890E-01
         0.53550E-02
         0.12380E-02
         0.00000E+00
         0.25654E-02
         0.00000E+00
         0.14730E-01
         0.13594E-01
         0.13163E-01
         0.10868E-02
         0.40218E-02
         0.00000E+00
         0.49732E-02
         0.00000E+00
         0.00000E+00
         0.44743E-02
         0.41171E-02
         0.68829E-03
         0.14652E-02
         0.93182E-03
         0.12551E-01
         0.61682E-02
         0.89285E-02
         0.16507E-01
         0.12032E-01
         0.10883E-01
         0.16709E-01
         0.14814E-01
         0.14882E-01
         0.10780E-01
         0.92610E-02
         0.13875E-01
         0.79880E-02
         0.63069E-02
         0.45636E-02
         0.59577E-02
         0.11877E-01
         0.70630E-02
         0.63703E-01
         0.65384E-01
         0.68645E-01
         0.68129E-01
         0.72766E-01
         0.78289E-01
         0.74922E-01
         0.66295E-01
         0.64519E-01
         0.69279E-01
         0.67903E-01
         0.67053E-01
         0.54746E-01
         0.51878E-01
         0.57428E-01
         0.61856E-01
         0.64336E-01
         0.70548E-01
         0.67554E-01
         0.69484E-01
         0.62177E-01
         0.58875E-01
         0.62876E-01
         0.61224E-01
         0.63158E-01
         0.62611E-01
         0.85549E-02
         0.38376E-02
         0.34663E-02
         0.14321E-02
         0.88835E-02
         0.51491E-02
         0.64387E-03
         0.83753E-02
         0.41194E-02
         0.78906E-02
         0.21110E-02
         0.19601E-01
         0.14157E-01
         0.52619E-02
         0.20915E-01
         0.53634E-02
         0.12508E-02
         0.00000E+00
         0.25691E-02
         0.00000E+00
         0.14733E-01
         0.13594E-01
         0.13164E-01
         0.10864E-02
         0.40482E-02
         0.00000E+00
         0.49755E-02
         0.00000E+00
         0.00000E+00
         0.44844E-02
         0.41238E-02
         0.68600E-03
         0.14573E-02
         0.93533E-03
         0.12559E-01
         0.61669E-02
         0.89270E-02
         0.16539E-01
         0.12068E-01
         0.10905E-01
         0.16725E-01
         0.14825E-01
         0.14886E-01
         0.10784E-01
         0.92622E-02
         0.13878E-01
         0.79908E-02
         0.63085E-02
         0.45553E-02
         0.59459E-02
         0.11870E-01
         0.70476E-02
         0.63678E-01
         0.65368E-01
         0.68644E-01
         0.68129E-01
         0.72753E-01
         0.78261E-01
         0.74889E-01
         0.66276E-01
         0.64502E-01
         0.69256E-01
         0.67891E-01
         0.67058E-01
         0.54744E-01
         0.51876E-01
         0.57437E-01
         0.61878E-01
         0.64360E-01
         0.70565E-01
         0.67550E-01
         0.69479E-01
         0.62172E-01
         0.58872E-01
         0.62853E-01
         0.61181E-01
         0.63121E-01
         0.62576E-01
         0.85621E-02
         0.38374E-02
         0.34697E-02
         0.14387E-02
         0.88785E-02
         0.51445E-02
         0.65416E-03
         0.83832E-02
         0.41322E-02
         0.79182E-02
         0.21130E-02
         0.19601E-01
         0.14165E-01
         0.52422E-02
         0.20941E-01
         0.53718E-02
         0.12636E-02
         0.00000E+00
         0.25729E-02
         0.00000E+00
         0.14736E-01
         0.13594E-01
         0.13166E-01
         0.10860E-02
         0.40745E-02
         0.00000E+00
         0.49779E-02
         0.00000E+00
         0.00000E+00
         0.44945E-02
         0.41304E-02
         0.68376E-03
         0.14495E-02
         0.93881E-03
         0.12566E-01
         0.61653E-02
         0.89254E-02
         0.16570E-01
         0.12104E-01
         0.10927E-01
         0.16741E-01
         0.14836E-01
         0.14891E-01
         0.10787E-01
         0.92634E-02
         0.13881E-01
         0.79936E-02
         0.63100E-02
         0.45471E-02
         0.59344E-02
         0.11863E-01
         0.70323E-02
         0.63653E-01
         0.65351E-01
         0.68643E-01
         0.68129E-01
         0.72740E-01
         0.78233E-01
         0.74855E-01
         0.66258E-01
         0.64485E-01
         0.69234E-01
         0.67880E-01
         0.67063E-01
         0.54741E-01
         0.51875E-01
         0.57447E-01
         0.61900E-01
         0.64383E-01
         0.70583E-01
         0.67545E-01
         0.69474E-01
         0.62166E-01
         0.58869E-01
         0.62830E-01
         0.61139E-01
         0.63084E-01
         0.62540E-01
         0.85693E-02
         0.38374E-02
         0.34730E-02
         0.14453E-02
         0.88734E-02
         0.51397E-02
         0.66436E-03
         0.83911E-02
         0.41450E-02
         0.79456E-02
         0.21151E-02
         0.19601E-01
         0.14173E-01
         0.52227E-02
         0.20966E-01
         0.53803E-02
         0.12765E-02
         0.00000E+00
         0.25767E-02
         0.00000E+00
         0.14739E-01
         0.13594E-01
         0.13168E-01
         0.10857E-02
         0.41007E-02
         0.00000E+00
         0.49802E-02
         0.00000E+00
         0.00000E+00
         0.45046E-02
         0.41371E-02
         0.68152E-03
         0.14417E-02
         0.94234E-03
         0.12574E-01
         0.61638E-02
         0.89236E-02
         0.16602E-01
         0.12140E-01
         0.10949E-01
         0.16757E-01
         0.14847E-01
         0.14896E-01
         0.10791E-01
         0.92647E-02
         0.13884E-01
         0.79962E-02
         0.63117E-02
         0.45390E-02
         0.59229E-02
         0.11855E-01
         0.70169E-02
         0.63629E-01
         0.65335E-01
         0.68642E-01
         0.68130E-01
         0.72728E-01
         0.78205E-01
         0.74822E-01
         0.66239E-01
         0.64468E-01
         0.69211E-01
         0.67868E-01
         0.67067E-01
         0.54739E-01
         0.51874E-01
         0.57456E-01
         0.61921E-01
         0.64407E-01
         0.70600E-01
         0.67540E-01
         0.69470E-01
         0.62160E-01
         0.58866E-01
         0.62807E-01
         0.61096E-01
         0.63046E-01
         0.62505E-01
         0.85765E-02
         0.38373E-02
         0.34763E-02
         0.14519E-02
         0.88683E-02
         0.51350E-02
         0.67457E-03
         0.83989E-02
         0.41578E-02
         0.79730E-02
         0.21172E-02
         0.19601E-01
         0.14181E-01
         0.52030E-02
         0.20992E-01
         0.53886E-02
         0.12893E-02
         0.00000E+00
         0.25804E-02
         0.00000E+00
         0.14742E-01
         0.13594E-01
         0.13170E-01
         0.10853E-02
         0.41269E-02
         0.00000E+00
         0.49826E-02
         0.00000E+00
         0.00000E+00
         0.45145E-02
         0.41437E-02
         0.67925E-03
         0.14338E-02
         0.94583E-03
         0.12582E-01
         0.61626E-02
         0.89221E-02
         0.16633E-01
         0.12176E-01
         0.10971E-01
         0.16773E-01
         0.14858E-01
         0.14900E-01
         0.10796E-01
         0.92661E-02
         0.13886E-01
         0.79990E-02
         0.63132E-02
         0.45309E-02
         0.59113E-02
         0.11848E-01
         0.70015E-02
         0.63604E-01
         0.65319E-01
         0.68641E-01
         0.68130E-01
         0.72715E-01
         0.78177E-01
         0.74788E-01
         0.66220E-01
         0.64451E-01
         0.69188E-01
         0.67856E-01
         0.67072E-01
         0.54737E-01
         0.51873E-01
         0.57465E-01
         0.61943E-01
         0.64430E-01
         0.70617E-01
         0.67535E-01
         0.69466E-01
         0.62154E-01
         0.58863E-01
         0.62784E-01
         0.61054E-01
         0.63009E-01
         0.62470E-01
         0.85837E-02
         0.38373E-02
         0.34797E-02
         0.14585E-02
         0.88633E-02
         0.51302E-02
         0.68491E-03
         0.84068E-02
         0.41706E-02
         0.80005E-02
         0.21195E-02
         0.19601E-01
         0.14189E-01
         0.51835E-02
         0.21017E-01
         0.53970E-02
         0.13022E-02
         0.00000E+00
         0.25842E-02
         0.00000E+00
         0.14745E-01
         0.13594E-01
         0.13172E-01
         0.10850E-02
         0.41531E-02
         0.00000E+00
         0.49848E-02
         0.00000E+00
         0.11461E-04
         0.45245E-02
         0.41503E-02
         0.67703E-03
         0.14261E-02
         0.94934E-03
         0.12590E-01
         0.61611E-02
         0.89204E-02
         0.16665E-01
         0.12212E-01
         0.10993E-01
         0.16789E-01
         0.14868E-01
         0.14905E-01
         0.10799E-01
         0.92674E-02
         0.13889E-01
         0.80019E-02
         0.63147E-02
         0.45226E-02
         0.58998E-02
         0.11841E-01
         0.69863E-02
         0.63580E-01
         0.65303E-01
         0.68640E-01
         0.68130E-01
         0.72703E-01
         0.78149E-01
         0.74754E-01
         0.66200E-01
         0.64434E-01
         0.69164E-01
         0.67844E-01
         0.67076E-01
         0.54734E-01
         0.51872E-01
         0.57474E-01
         0.61965E-01
         0.64454E-01
         0.70634E-01
         0.67531E-01
         0.69461E-01
         0.62148E-01
         0.58860E-01
         0.62761E-01
         0.61012E-01
         0.62972E-01
         0.62435E-01
         0.85909E-02
         0.38373E-02
         0.34830E-02
         0.14652E-02
         0.88582E-02
         0.51255E-02
         0.69518E-03
         0.84146E-02
         0.41835E-02
         0.80279E-02
         0.21218E-02
         0.19602E-01
         0.14197E-01
         0.51639E-02
         0.21042E-01
         0.54054E-02
         0.13151E-02
         0.00000E+00
         0.25879E-02
         0.00000E+00
         0.14749E-01
         0.13594E-01
         0.13173E-01
         0.10847E-02
         0.41794E-02
         0.00000E+00
         0.49871E-02
         0.00000E+00
         0.24996E-04
         0.45345E-02
         0.41569E-02
         0.67474E-03
         0.14184E-02
         0.95285E-03
         0.12597E-01
         0.61599E-02
         0.89188E-02
         0.16696E-01
         0.12248E-01
         0.11015E-01
         0.16805E-01
         0.14879E-01
         0.14910E-01
         0.10803E-01
         0.92686E-02
         0.13892E-01
         0.80044E-02
         0.63164E-02
         0.45145E-02
         0.58881E-02
         0.11834E-01
         0.69708E-02
         0.63555E-01
         0.65287E-01
         0.68639E-01
         0.68131E-01
         0.72690E-01
         0.78121E-01
         0.74720E-01
         0.66181E-01
         0.64417E-01
         0.69141E-01
         0.67833E-01
         0.67081E-01
         0.54732E-01
         0.51871E-01
         0.57484E-01
         0.61987E-01
         0.64477E-01
         0.70651E-01
         0.67526E-01
         0.69456E-01
         0.62142E-01
         0.58857E-01
         0.62737E-01
         0.60969E-01
         0.62935E-01
         0.62400E-01
         0.85980E-02
         0.38371E-02
         0.34863E-02
         0.14718E-02
         0.88530E-02
         0.51210E-02
         0.70546E-03
         0.84225E-02
         0.41964E-02
         0.80553E-02
         0.21242E-02
         0.19602E-01
         0.14205E-01
         0.51444E-02
         0.21067E-01
         0.54138E-02
         0.13281E-02
         0.00000E+00
         0.25917E-02
         0.00000E+00
         0.14752E-01
         0.13594E-01
         0.13175E-01
         0.10844E-02
         0.42055E-02
         0.00000E+00
         0.49894E-02
         0.00000E+00
         0.38637E-04
         0.45445E-02
         0.41635E-02
         0.67255E-03
         0.14107E-02
         0.95642E-03
         0.12605E-01
         0.61584E-02
         0.89172E-02
         0.16728E-01
         0.12284E-01
         0.11037E-01
         0.16820E-01
         0.14890E-01
         0.14914E-01
         0.10807E-01
         0.92701E-02
         0.13894E-01
         0.80073E-02
         0.63179E-02
         0.45064E-02
         0.58766E-02
         0.11827E-01
         0.69555E-02
         0.63530E-01
         0.65270E-01
         0.68638E-01
         0.68131E-01
         0.72678E-01
         0.78093E-01
         0.74686E-01
         0.66162E-01
         0.64400E-01
         0.69118E-01
         0.67821E-01
         0.67086E-01
         0.54730E-01
         0.51870E-01
         0.57493E-01
         0.62009E-01
         0.64501E-01
         0.70668E-01
         0.67521E-01
         0.69452E-01
         0.62136E-01
         0.58854E-01
         0.62714E-01
         0.60927E-01
         0.62898E-01
         0.62365E-01
         0.86051E-02
         0.38370E-02
         0.34897E-02
         0.14784E-02
         0.88481E-02
         0.51162E-02
         0.71586E-03
         0.84303E-02
         0.42093E-02
         0.80826E-02
         0.21266E-02
         0.19602E-01
         0.14213E-01
         0.51248E-02
         0.21093E-01
         0.54223E-02
         0.13411E-02
         0.00000E+00
         0.25954E-02
         0.00000E+00
         0.14755E-01
         0.13594E-01
         0.13177E-01
         0.10842E-02
         0.42316E-02
         0.00000E+00
         0.49915E-02
         0.00000E+00
         0.52219E-04
         0.45543E-02
         0.41702E-02
         0.67039E-03
         0.14031E-02
         0.96001E-03
         0.12613E-01
         0.61569E-02
         0.89154E-02
         0.16760E-01
         0.12320E-01
         0.11059E-01
         0.16836E-01
         0.14901E-01
         0.14919E-01
         0.10811E-01
         0.92714E-02
         0.13897E-01
         0.80101E-02
         0.63196E-02
         0.44983E-02
         0.58650E-02
         0.11819E-01
         0.69403E-02
         0.63506E-01
         0.65254E-01
         0.68637E-01
         0.68131E-01
         0.72665E-01
         0.78064E-01
         0.74652E-01
         0.66143E-01
         0.64383E-01
         0.69095E-01
         0.67810E-01
         0.67091E-01
         0.54728E-01
         0.51869E-01
         0.57502E-01
         0.62030E-01
         0.64524E-01
         0.70685E-01
         0.67517E-01
         0.69447E-01
         0.62130E-01
         0.58851E-01
         0.62691E-01
         0.60885E-01
         0.62861E-01
         0.62329E-01
         0.86123E-02
         0.38370E-02
         0.34930E-02
         0.14851E-02
         0.88430E-02
         0.51115E-02
         0.72616E-03
         0.84380E-02
         0.42223E-02
         0.81097E-02
         0.21291E-02
         0.19602E-01
         0.14220E-01
         0.51052E-02
         0.21118E-01
         0.54307E-02
         0.13540E-02
         0.00000E+00
         0.25992E-02
         0.00000E+00
         0.14758E-01
         0.13594E-01
         0.13179E-01
         0.10838E-02
         0.42576E-02
         0.00000E+00
         0.49929E-02
         0.00000E+00
         0.66055E-04
         0.45637E-02
         0.41768E-02
         0.66810E-03
         0.13955E-02
         0.96359E-03
         0.12621E-01
         0.61557E-02
         0.89139E-02
         0.16792E-01
         0.12357E-01
         0.11080E-01
         0.16851E-01
         0.14911E-01
         0.14923E-01
         0.10815E-01
         0.92728E-02
         0.13900E-01
         0.80128E-02
         0.63212E-02
         0.44901E-02
         0.58534E-02
         0.11813E-01
         0.69249E-02
         0.63481E-01
         0.65238E-01
         0.68636E-01
         0.68131E-01
         0.72652E-01
         0.78036E-01
         0.74618E-01
         0.66124E-01
         0.64366E-01
         0.69070E-01
         0.67798E-01
         0.67098E-01
         0.54727E-01
         0.51868E-01
         0.57511E-01
         0.62052E-01
         0.64547E-01
         0.70703E-01
         0.67512E-01
         0.69443E-01
         0.62125E-01
         0.58848E-01
         0.62667E-01
         0.60842E-01
         0.62824E-01
         0.62294E-01
         0.86194E-02
         0.38369E-02
         0.34963E-02
         0.14918E-02
         0.88379E-02
         0.51067E-02
         0.73651E-03
         0.84457E-02
         0.42353E-02
         0.81365E-02
         0.21317E-02
         0.19602E-01
         0.14228E-01
         0.50854E-02
         0.21143E-01
         0.54390E-02
         0.13670E-02
         0.00000E+00
         0.26030E-02
         0.00000E+00
         0.14761E-01
         0.13593E-01
         0.13180E-01
         0.10836E-02
         0.42835E-02
         0.00000E+00
         0.49938E-02
         0.00000E+00
         0.79998E-04
         0.45725E-02
         0.41834E-02
         0.66590E-03
         0.13879E-02
         0.96714E-03
         0.12629E-01
         0.61543E-02
         0.89123E-02
         0.16824E-01
         0.12392E-01
         0.11100E-01
         0.16865E-01
         0.14919E-01
         0.14927E-01
         0.10819E-01
         0.92743E-02
         0.13903E-01
         0.80156E-02
         0.63227E-02
         0.44821E-02
         0.58417E-02
         0.11805E-01
         0.69094E-02
         0.63456E-01
         0.65222E-01
         0.68634E-01
         0.68132E-01
         0.72639E-01
         0.78008E-01
         0.74583E-01
         0.66105E-01
         0.64349E-01
         0.69044E-01
         0.67787E-01
         0.67107E-01
         0.54727E-01
         0.51868E-01
         0.57520E-01
         0.62073E-01
         0.64571E-01
         0.70719E-01
         0.67507E-01
         0.69438E-01
         0.62119E-01
         0.58845E-01
         0.62644E-01
         0.60800E-01
         0.62787E-01
         0.62259E-01
         0.86266E-02
         0.38369E-02
         0.34998E-02
         0.14986E-02
         0.88331E-02
         0.51022E-02
         0.74695E-03
         0.84535E-02
         0.42484E-02
         0.81634E-02
         0.21344E-02
         0.19603E-01
         0.14236E-01
         0.50656E-02
         0.21168E-01
         0.54474E-02
         0.13801E-02
         0.00000E+00
         0.26069E-02
         0.00000E+00
         0.14764E-01
         0.13593E-01
         0.13182E-01
         0.10833E-02
         0.43094E-02
         0.00000E+00
         0.49945E-02
         0.00000E+00
         0.93958E-04
         0.45812E-02
         0.41901E-02
         0.66374E-03
         0.13805E-02
         0.97080E-03
         0.12637E-01
         0.61531E-02
         0.89105E-02
         0.16855E-01
         0.12428E-01
         0.11120E-01
         0.16878E-01
         0.14928E-01
         0.14930E-01
         0.10823E-01
         0.92755E-02
         0.13906E-01
         0.80184E-02
         0.63245E-02
         0.44741E-02
         0.58302E-02
         0.11798E-01
         0.68943E-02
         0.63432E-01
         0.65206E-01
         0.68633E-01
         0.68132E-01
         0.72627E-01
         0.77980E-01
         0.74549E-01
         0.66086E-01
         0.64331E-01
         0.69018E-01
         0.67776E-01
         0.67116E-01
         0.54728E-01
         0.51867E-01
         0.57530E-01
         0.62095E-01
         0.64594E-01
         0.70737E-01
         0.67503E-01
         0.69434E-01
         0.62113E-01
         0.58842E-01
         0.62620E-01
         0.60758E-01
         0.62751E-01
         0.62224E-01
         0.91817E-02
         0.47182E-02
         0.44083E-02
         0.25251E-02
         0.95715E-02
         0.59775E-02
         0.23232E-02
         0.91549E-02
         0.50198E-02
         0.88974E-02
         0.36502E-02
         0.20276E-01
         0.14903E-01
         0.61832E-02
         0.21873E-01
         0.60970E-02
         0.26068E-02
         0.89071E-03
         0.36944E-02
         0.16897E-02
         0.15325E-01
         0.14186E-01
         0.13732E-01
         0.23465E-02
         0.53186E-02
         0.85584E-03
         0.61103E-02
         0.11983E-02
         0.21735E-02
         0.56120E-02
         0.49375E-02
         0.20058E-02
         0.24267E-02
         0.21976E-02
         0.13375E-01
         0.70451E-02
         0.96421E-02
         0.17581E-01
         0.13231E-01
         0.11938E-01
         0.17561E-01
         0.15584E-01
         0.15525E-01
         0.11404E-01
         0.99561E-02
         0.14604E-01
         0.88161E-02
         0.71218E-02
         0.53742E-02
         0.66771E-02
         0.12493E-01
         0.76801E-02
         0.64385E-01
         0.66139E-01
         0.69608E-01
         0.69068E-01
         0.73596E-01
         0.79007E-01
         0.75576E-01
         0.67104E-01
         0.65361E-01
         0.70080E-01
         0.68808E-01
         0.68086E-01
         0.55546E-01
         0.52624E-01
         0.58305E-01
         0.62903E-01
         0.65418E-01
         0.71658E-01
         0.68488E-01
         0.70427E-01
         0.62993E-01
         0.59682E-01
         0.63483E-01
         0.61593E-01
         0.63581E-01
         0.63056E-01
         0.38304E-01
         0.37407E-01
         0.36723E-01
         0.32809E-01
         0.43547E-01
         0.39306E-01
         0.39539E-01
         0.42957E-01
         0.35109E-01
         0.42768E-01
         0.43887E-01
         0.58335E-01
         0.50420E-01
         0.46100E-01
         0.61227E-01
         0.35013E-01
         0.35940E-01
         0.30749E-01
         0.37499E-01
         0.38837E-01
         0.47366E-01
         0.47470E-01
         0.44737E-01
         0.35604E-01
         0.41417E-01
         0.33907E-01
         0.45942E-01
         0.43605E-01
         0.44046E-01
         0.42966E-01
         0.34762E-01
         0.35344E-01
         0.33038E-01
         0.34501E-01
         0.49369E-01
         0.42433E-01
         0.43965E-01
         0.56826E-01
         0.52765E-01
         0.51425E-01
         0.55973E-01
         0.52395E-01
         0.50110E-01
         0.42303E-01
         0.42800E-01
         0.50086E-01
         0.43594E-01
         0.40382E-01
         0.38804E-01
         0.40773E-01
         0.47165E-01
         0.41362E-01
         0.11105E+00
         0.11140E+00
         0.11590E+00
         0.11408E+00
         0.12002E+00
         0.12821E+00
         0.12636E+00
         0.11822E+00
         0.11672E+00
         0.12224E+00
         0.11948E+00
         0.11552E+00
         0.98492E-01
         0.93308E-01
         0.98417E-01
         0.10290E+00
         0.10567E+00
         0.11507E+00
         0.11497E+00
         0.11719E+00
         0.10681E+00
         0.10237E+00
         0.10741E+00
         0.10540E+00
         0.10670E+00
         0.10579E+00
  
SCALARS                            dam  double 1
LOOKUP_TABLE default
         0.00000E+00
         0.00000E+00
         0.00000E+00
         0.00000E+00
         0.00000E+00
         0.00000E+00
         0.00000E+00
         0.00000E+00
         0.00000E+00
         0.00000E+00
         0.00000E+00
         0.00000E+00
         0.00000E+00
         0.00000E+00
         0.00000E+00
         0.00000E+00
         0.00000E+00
         0.00000E+00
         0.00000E+00
         0.00000E+00
         0.00000E+00
         0.00000E+00
         0.00000E+00
         0.00000E+00
         0.00000E+00
         0.00000E+00
         0.00000E+00
         0.00000E+00
         0.00000E+00
         0.00000E+00
         0.00000E+00
         0.00000E+00
         0.00000E+00
         0.00000E+00
         0.00000E+00
         0.00000E+00
         0.00000E+00
         0.00000E+00
         0.00000E+00
         0.00000E+00
         0.00000E+00
         0.00000E+00
         0.00000E+00
         0.00000E+00
         0.00000E+00
         0.00000E+00
         0.00000E+00
         0.00000E+00
         0.00000E+00
         0.00000E+00
         0.00000E+00
         0.00000E+00
         0.00000E+00
         0.00000E+00
         0.00000E+00
         0.00000E+00
         0.00000E+00
         0.00000E+00
         0.00000E+00
         0.00000E+00
         0.00000E+00
         0.00000E+00
         0.00000E+00
         0.00000E+00
         0.00000E+00
         0.00000E+00
         0.00000E+00
         0.00000E+00
         0.00000E+00
         0.00000E+00
         0.00000E+00
         0.00000E+00
         0.00000E+00
         0.00000E+00
         0.00000E+00
         0.00000E+00
         0.00000E+00
         0.00000E+00
         0.00000E+00
         0.00000E+00
         0.00000E+00
         0.00000E+00
         0.00000E+00
         0.00000E+00
         0.00000E+00
         0.00000E+00
         0.00000E+00
         0.00000E+00
         0.00000E+00
         0.00000E+00
         0.00000E+00
         0.00000E+00
         0.00000E+00
         0.00000E+00
         0.00000E+00
         0.00000E+00
         0.00000E+00
         0.00000E+00
         0.00000E+00
         0.00000E+00
         0.00000E+00
         0.00000E+00
         0.00000E+00
         0.00000E+00
         0.00000E+00
         0.00000E+00
         0.00000E+00
         0.00000E+00
         0.00000E+00
         0.00000E+00
         0.00000E+00
         0.00000E+00
         0.00000E+00
         0.00000E+00
         0.00000E+00
         0.00000E+00
         0.00000E+00
         0.00000E+00
         0.00000E+00
         0.00000E+00
         0.00000E+00
         0.00000E+00
         0.00000E+00
         0.00000E+00
         0.00000E+00
         0.00000E+00
         0.00000E+00
         0.00000E+00
         0.00000E+00
         0.00000E+00
         0.00000E+00
         0.00000E+00
         0.00000E+00
         0.00000E+00
         0.00000E+00
         0.00000E+00
         0.00000E+00
         0.00000E+00
         0.00000E+00
         0.00000E+00
         0.00000E+00
         0.00000E+00
         0.00000E+00
         0.00000E+00
         0.00000E+00
         0.00000E+00
         0.00000E+00
         0.00000E+00
         0.00000E+00
         0.00000E+00
         0.00000E+00
         0.00000E+00
         0.00000E+00
         0.00000E+00
         0.00000E+00
         0.00000E+00
         0.00000E+00
         0.00000E+00
         0.00000E+00
         0.00000E+00
         0.00000E+00
         0.00000E+00
         0.00000E+00
         0.00000E+00
         0.00000E+00
         0.00000E+00
         0.00000E+00
         0.00000E+00
         0.00000E+00
         0.00000E+00
         0.00000E+00
         0.00000E+00
         0.00000E+00
         0.00000E+00
         0.00000E+00
         0.00000E+00
         0.00000E+00
         0.00000E+00
         0.00000E+00
         0.00000E+00
         0.00000E+00
         0.00000E+00
         0.00000E+00
         0.00000E+00
         0.00000E+00
         0.00000E+00
         0.00000E+00
         0.00000E+00
         0.00000E+00
         0.00000E+00
         0.00000E+00
         0.00000E+00
         0.00000E+00
         0.00000E+00
         0.00000E+00
         0.00000E+00
         0.00000E+00
         0.00000E+00
         0.00000E+00
         0.00000E+00
         0.00000E+00
         0.00000E+00
         0.00000E+00
         0.00000E+00
         0.00000E+00
         0.00000E+00
         0.00000E+00
         0.00000E+00
         0.00000E+00
         0.00000E+00
         0.00000E+00
         0.00000E+00
         0.00000E+00
         0.00000E+00
         0.00000E+00
         0.00000E+00
         0.00000E+00
         0.00000E+00
         0.00000E+00
         0.00000E+00
         0.00000E+00
         0.00000E+00
         0.00000E+00
         0.00000E+00
         0.00000E+00
         0.00000E+00
         0.00000E+00
         0.00000E+00
         0.00000E+00
         0.00000E+00
         0.00000E+00
         0.00000E+00
         0.00000E+00
         0.00000E+00
         0.00000E+00
         0.00000E+00
         0.00000E+00
         0.00000E+00
         0.00000E+00
         0.00000E+00
         0.00000E+00
         0.00000E+00
         0.00000E+00
         0.00000E+00
         0.00000E+00
         0.00000E+00
         0.00000E+00
         0.00000E+00
         0.00000E+00
         0.00000E+00
         0.00000E+00
         0.00000E+00
         0.00000E+00
         0.00000E+00
         0.00000E+00
         0.00000E+00
         0.00000E+00
         0.00000E+00
         0.00000E+00
         0.00000E+00
         0.00000E+00
         0.00000E+00
         0.00000E+00
         0.00000E+00
         0.00000E+00
         0.00000E+00
         0.00000E+00
         0.00000E+00
         0.00000E+00
         0.00000E+00
         0.00000E+00
         0.00000E+00
         0.00000E+00
         0.00000E+00
         0.00000E+00
         0.00000E+00
         0.00000E+00
         0.00000E+00
         0.00000E+00
         0.00000E+00
         0.00000E+00
         0.00000E+00
         0.00000E+00
         0.00000E+00
         0.00000E+00
         0.00000E+00
         0.00000E+00
         0.00000E+00
         0.00000E+00
         0.00000E+00
         0.00000E+00
         0.00000E+00
         0.00000E+00
         0.00000E+00
         0.00000E+00
         0.00000E+00
         0.00000E+00
         0.00000E+00
         0.00000E+00
         0.00000E+00
         0.00000E+00
         0.00000E+00
         0.00000E+00
         0.00000E+00
         0.00000E+00
         0.00000E+00
         0.00000E+00
         0.00000E+00
         0.00000E+00
         0.00000E+00
         0.00000E+00
         0.00000E+00
         0.00000E+00
         0.00000E+00
         0.00000E+00
         0.00000E+00
         0.00000E+00
         0.00000E+00
         0.00000E+00
         0.00000E+00
         0.00000E+00
         0.00000E+00
         0.00000E+00
         0.00000E+00
         0.00000E+00
         0.00000E+00
         0.00000E+00
         0.00000E+00
         0.00000E+00
         0.00000E+00
         0.00000E+00
         0.00000E+00
         0.00000E+00
         0.00000E+00
         0.00000E+00
         0.00000E+00
         0.00000E+00
         0.00000E+00
         0.00000E+00
         0.00000E+00
         0.00000E+00
         0.00000E+00
         0.00000E+00
         0.00000E+00
         0.00000E+00
         0.00000E+00
         0.00000E+00
         0.00000E+00
         0.00000E+00
         0.00000E+00
         0.00000E+00
         0.00000E+00
         0.00000E+00
         0.00000E+00
         0.00000E+00
         0.00000E+00
         0.00000E+00
         0.00000E+00
         0.00000E+00
         0.00000E+00
         0.00000E+00
         0.00000E+00
         0.00000E+00
         0.00000E+00
         0.00000E+00
         0.00000E+00
         0.00000E+00
         0.00000E+00
         0.00000E+00
         0.00000E+00
         0.00000E+00
         0.00000E+00
         0.00000E+00
         0.00000E+00
         0.00000E+00
         0.00000E+00
         0.00000E+00
         0.00000E+00
         0.00000E+00
         0.00000E+00
         0.00000E+00
         0.00000E+00
         0.00000E+00
         0.00000E+00
         0.00000E+00
         0.00000E+00
         0.00000E+00
         0.00000E+00
         0.00000E+00
         0.00000E+00
         0.00000E+00
         0.00000E+00
         0.00000E+00
         0.00000E+00
         0.00000E+00
         0.00000E+00
         0.00000E+00
         0.00000E+00
         0.00000E+00
         0.00000E+00
         0.00000E+00
         0.00000E+00
         0.00000E+00
         0.00000E+00
         0.00000E+00
         0.00000E+00
         0.00000E+00
         0.00000E+00
         0.00000E+00
         0.00000E+00
         0.00000E+00
         0.00000E+00
         0.00000E+00
         0.00000E+00
         0.00000E+00
         0.00000E+00
         0.00000E+00
         0.00000E+00
         0.00000E+00
         0.00000E+00
         0.00000E+00
         0.00000E+00
         0.00000E+00
         0.00000E+00
         0.00000E+00
         0.00000E+00
         0.00000E+00
         0.00000E+00
         0.00000E+00
         0.00000E+00
         0.00000E+00
         0.00000E+00
         0.00000E+00
         0.00000E+00
         0.00000E+00
         0.00000E+00
         0.00000E+00
         0.00000E+00
         0.00000E+00
         0.00000E+00
         0.00000E+00
         0.00000E+00
         0.00000E+00
         0.00000E+00
         0.00000E+00
         0.00000E+00
         0.00000E+00
         0.00000E+00
         0.00000E+00
         0.00000E+00
         0.00000E+00
         0.00000E+00
         0.00000E+00
         0.00000E+00
         0.00000E+00
         0.00000E+00
         0.00000E+00
         0.00000E+00
         0.00000E+00
         0.00000E+00
         0.00000E+00
         0.00000E+00
         0.00000E+00
         0.00000E+00
         0.00000E+00
         0.00000E+00
         0.00000E+00
         0.00000E+00
         0.00000E+00
         0.00000E+00
         0.00000E+00
         0.00000E+00
         0.00000E+00
         0.00000E+00
         0.00000E+00
         0.00000E+00
         0.00000E+00
         0.00000E+00
         0.00000E+00
         0.00000E+00
         0.00000E+00
         0.00000E+00
         0.00000E+00
         0.00000E+00
         0.00000E+00
         0.00000E+00
         0.00000E+00
         0.00000E+00
         0.00000E+00
         0.00000E+00
         0.00000E+00
         0.00000E+00
         0.00000E+00
         0.00000E+00
         0.00000E+00
         0.00000E+00
         0.00000E+00
         0.00000E+00
         0.00000E+00
         0.00000E+00
         0.00000E+00
         0.00000E+00
         0.00000E+00
         0.00000E+00
         0.00000E+00
         0.00000E+00
         0.00000E+00
         0.00000E+00
         0.00000E+00
         0.00000E+00
         0.00000E+00
         0.00000E+00
         0.00000E+00
         0.00000E+00
         0.00000E+00
         0.00000E+00
         0.00000E+00
         0.00000E+00
         0.00000E+00
         0.00000E+00
         0.00000E+00
         0.00000E+00
         0.00000E+00
         0.00000E+00
         0.00000E+00
         0.00000E+00
         0.00000E+00
         0.00000E+00
         0.00000E+00
         0.00000E+00
         0.00000E+00
         0.00000E+00
         0.00000E+00
         0.00000E+00
         0.00000E+00
         0.00000E+00
         0.00000E+00
         0.00000E+00
         0.00000E+00
         0.00000E+00
         0.00000E+00
         0.00000E+00
         0.00000E+00
         0.00000E+00
         0.00000E+00
         0.00000E+00
         0.00000E+00
         0.00000E+00
         0.00000E+00
         0.00000E+00
         0.00000E+00
         0.00000E+00
         0.00000E+00
         0.00000E+00
         0.00000E+00
         0.00000E+00
         0.00000E+00
         0.00000E+00
         0.00000E+00
         0.00000E+00
         0.00000E+00
         0.00000E+00
         0.00000E+00
         0.00000E+00
         0.00000E+00
         0.00000E+00
         0.00000E+00
         0.00000E+00
         0.00000E+00
         0.00000E+00
         0.00000E+00
         0.00000E+00
         0.00000E+00
         0.00000E+00
         0.00000E+00
         0.00000E+00
         0.00000E+00
         0.00000E+00
         0.00000E+00
         0.00000E+00
         0.00000E+00
         0.00000E+00
         0.00000E+00
         0.00000E+00
         0.00000E+00
         0.00000E+00
         0.00000E+00
         0.00000E+00
         0.00000E+00
         0.00000E+00
         0.00000E+00
         0.00000E+00
         0.00000E+00
         0.00000E+00
         0.00000E+00
         0.00000E+00
         0.00000E+00
         0.00000E+00
         0.00000E+00
         0.00000E+00
         0.00000E+00
         0.00000E+00
         0.00000E+00
         0.00000E+00
         0.00000E+00
         0.00000E+00
         0.00000E+00
         0.00000E+00
         0.00000E+00
         0.00000E+00
         0.00000E+00
         0.00000E+00
         0.00000E+00
         0.00000E+00
         0.00000E+00
         0.00000E+00
         0.00000E+00
         0.00000E+00
         0.00000E+00
         0.00000E+00
         0.00000E+00
         0.00000E+00
         0.00000E+00
         0.00000E+00
         0.00000E+00
         0.00000E+00
         0.00000E+00
         0.00000E+00
         0.00000E+00
         0.00000E+00
         0.00000E+00
         0.00000E+00
         0.00000E+00
         0.00000E+00
         0.00000E+00
         0.00000E+00
         0.00000E+00
         0.00000E+00
         0.00000E+00
         0.00000E+00
         0.00000E+00
         0.00000E+00
         0.00000E+00
         0.00000E+00
         0.00000E+00
         0.00000E+00
         0.00000E+00
         0.00000E+00
         0.00000E+00
         0.00000E+00
         0.00000E+00
         0.00000E+00
         0.00000E+00
         0.00000E+00
         0.00000E+00
         0.00000E+00
         0.00000E+00
         0.00000E+00
         0.00000E+00
         0.00000E+00
         0.00000E+00
         0.00000E+00
         0.00000E+00
         0.00000E+00
         0.00000E+00
         0.00000E+00
         0.00000E+00
         0.00000E+00
         0.00000E+00
         0.00000E+00
         0.00000E+00
         0.00000E+00
         0.00000E+00
         0.00000E+00
         0.00000E+00
         0.00000E+00
         0.00000E+00
         0.00000E+00
         0.00000E+00
         0.00000E+00
         0.00000E+00
         0.00000E+00
         0.00000E+00
         0.00000E+00
         0.00000E+00
         0.00000E+00
         0.00000E+00
         0.00000E+00
         0.00000E+00
         0.00000E+00
         0.00000E+00
         0.00000E+00
         0.00000E+00
         0.00000E+00
         0.00000E+00
         0.00000E+00
         0.00000E+00
         0.00000E+00
         0.00000E+00
         0.00000E+00
         0.00000E+00
         0.00000E+00
         0.00000E+00
         0.00000E+00
         0.00000E+00
         0.00000E+00
         0.00000E+00
         0.00000E+00
         0.00000E+00
         0.00000E+00
         0.00000E+00
         0.00000E+00
         0.00000E+00
         0.00000E+00
         0.00000E+00
         0.00000E+00
         0.00000E+00
         0.00000E+00
         0.00000E+00
         0.00000E+00
         0.00000E+00
         0.00000E+00
         0.00000E+00
         0.00000E+00
         0.00000E+00
         0.00000E+00
         0.00000E+00
         0.00000E+00
         0.00000E+00
         0.00000E+00
         0.00000E+00
         0.00000E+00
         0.00000E+00
         0.00000E+00
         0.00000E+00
         0.00000E+00
         0.00000E+00
         0.00000E+00
         0.00000E+00
         0.00000E+00
         0.00000E+00
         0.00000E+00
         0.00000E+00
         0.00000E+00
         0.00000E+00
         0.00000E+00
         0.00000E+00
         0.00000E+00
         0.00000E+00
         0.00000E+00
         0.00000E+00
         0.00000E+00
         0.00000E+00
         0.00000E+00
         0.00000E+00
         0.00000E+00
         0.00000E+00
         0.00000E+00
         0.00000E+00
         0.00000E+00
         0.00000E+00
         0.00000E+00
         0.00000E+00
         0.00000E+00
         0.00000E+00
         0.00000E+00
         0.00000E+00
         0.00000E+00
         0.00000E+00
         0.00000E+00
         0.00000E+00
         0.00000E+00
         0.00000E+00
         0.00000E+00
         0.00000E+00
         0.00000E+00
         0.00000E+00
         0.00000E+00
         0.00000E+00
         0.00000E+00
         0.00000E+00
         0.00000E+00
         0.00000E+00
         0.00000E+00
         0.00000E+00
         0.00000E+00
         0.00000E+00
         0.00000E+00
         0.00000E+00
         0.00000E+00
         0.00000E+00
         0.00000E+00
         0.00000E+00
         0.00000E+00
         0.00000E+00
         0.00000E+00
         0.00000E+00
         0.00000E+00
         0.00000E+00
         0.00000E+00
         0.00000E+00
         0.00000E+00
         0.00000E+00
         0.00000E+00
         0.00000E+00
         0.00000E+00
         0.00000E+00
         0.00000E+00
         0.00000E+00
         0.00000E+00
         0.00000E+00
         0.00000E+00
         0.00000E+00
         0.00000E+00
         0.00000E+00
         0.00000E+00
         0.00000E+00
         0.00000E+00
         0.00000E+00
         0.00000E+00
         0.00000E+00
         0.00000E+00
         0.00000E+00
         0.00000E+00
         0.00000E+00
         0.00000E+00
         0.00000E+00
         0.00000E+00
         0.00000E+00
         0.00000E+00
         0.00000E+00
         0.00000E+00
         0.00000E+00
         0.00000E+00
         0.00000E+00
         0.00000E+00
         0.00000E+00
         0.00000E+00
         0.00000E+00
         0.00000E+00
         0.00000E+00
         0.00000E+00
         0.00000E+00
         0.00000E+00
         0.00000E+00
         0.00000E+00
         0.00000E+00
         0.00000E+00
         0.00000E+00
         0.00000E+00
         0.00000E+00
         0.00000E+00
         0.00000E+00
         0.00000E+00
         0.00000E+00
         0.00000E+00
         0.00000E+00
         0.00000E+00
         0.00000E+00
         0.00000E+00
         0.00000E+00
         0.00000E+00
         0.00000E+00
         0.00000E+00
         0.00000E+00
         0.00000E+00
         0.00000E+00
         0.00000E+00
         0.00000E+00
         0.00000E+00
         0.00000E+00
         0.00000E+00
         0.00000E+00
         0.00000E+00
         0.00000E+00
         0.00000E+00
         0.00000E+00
         0.00000E+00
         0.00000E+00
         0.00000E+00
         0.00000E+00
         0.00000E+00
         0.00000E+00
         0.00000E+00
         0.00000E+00
         0.00000E+00
         0.00000E+00
         0.00000E+00
         0.00000E+00
         0.00000E+00
         0.00000E+00
         0.00000E+00
         0.00000E+00
         0.00000E+00
         0.00000E+00
         0.00000E+00
         0.00000E+00
         0.00000E+00
         0.00000E+00
         0.00000E+00
         0.00000E+00
         0.00000E+00
         0.00000E+00
         0.00000E+00
         0.00000E+00
         0.00000E+00
         0.00000E+00
         0.00000E+00
         0.00000E+00
         0.00000E+00
         0.00000E+00
         0.00000E+00
         0.00000E+00
         0.00000E+00
         0.00000E+00
         0.00000E+00
         0.00000E+00
         0.00000E+00
         0.00000E+00
         0.00000E+00
         0.00000E+00
         0.00000E+00
         0.00000E+00
         0.00000E+00
         0.00000E+00
         0.00000E+00
         0.00000E+00
         0.00000E+00
         0.00000E+00
         0.00000E+00
         0.00000E+00
         0.00000E+00
         0.00000E+00
         0.00000E+00
         0.00000E+00
         0.00000E+00
         0.00000E+00
         0.00000E+00
         0.00000E+00
         0.00000E+00
         0.00000E+00
         0.00000E+00
         0.00000E+00
         0.00000E+00
         0.00000E+00
         0.00000E+00
         0.00000E+00
         0.00000E+00
         0.00000E+00
         0.00000E+00
         0.00000E+00
         0.00000E+00
         0.00000E+00
         0.00000E+00
         0.00000E+00
         0.00000E+00
         0.00000E+00
         0.00000E+00
         0.00000E+00
         0.00000E+00
         0.00000E+00
         0.00000E+00
         0.00000E+00
         0.00000E+00
         0.00000E+00
         0.00000E+00
         0.00000E+00
         0.00000E+00
         0.00000E+00
         0.00000E+00
         0.00000E+00
         0.00000E+00
         0.00000E+00
         0.00000E+00
         0.00000E+00
         0.00000E+00
         0.00000E+00
         0.00000E+00
         0.00000E+00
         0.00000E+00
         0.00000E+00
         0.00000E+00
         0.00000E+00
         0.00000E+00
         0.00000E+00
         0.00000E+00
         0.00000E+00
         0.00000E+00
         0.00000E+00
         0.00000E+00
         0.00000E+00
         0.00000E+00
         0.00000E+00
         0.00000E+00
         0.00000E+00
         0.00000E+00
         0.00000E+00
         0.00000E+00
         0.00000E+00
         0.00000E+00
         0.00000E+00
         0.00000E+00
         0.00000E+00
         0.00000E+00
         0.00000E+00
         0.00000E+00
         0.00000E+00
         0.00000E+00
         0.00000E+00
         0.00000E+00
         0.00000E+00
         0.00000E+00
         0.00000E+00
         0.00000E+00
         0.00000E+00
         0.00000E+00
         0.00000E+00
         0.00000E+00
         0.00000E+00
         0.00000E+00
         0.00000E+00
         0.00000E+00
         0.00000E+00
         0.00000E+00
         0.00000E+00
         0.00000E+00
         0.00000E+00
         0.00000E+00
         0.00000E+00
         0.00000E+00
         0.00000E+00
         0.00000E+00
         0.00000E+00
         0.00000E+00
         0.00000E+00
         0.00000E+00
         0.00000E+00
         0.00000E+00
         0.00000E+00
         0.00000E+00
         0.00000E+00
         0.00000E+00
         0.00000E+00
         0.00000E+00
         0.00000E+00
         0.00000E+00
         0.00000E+00
         0.00000E+00
         0.00000E+00
         0.00000E+00
         0.00000E+00
         0.00000E+00
         0.00000E+00
         0.00000E+00
         0.00000E+00
         0.00000E+00
         0.00000E+00
         0.00000E+00
         0.00000E+00
         0.00000E+00
         0.00000E+00
         0.00000E+00
         0.00000E+00
         0.00000E+00
         0.00000E+00
         0.00000E+00
         0.00000E+00
         0.00000E+00
         0.00000E+00
         0.00000E+00
         0.00000E+00
         0.00000E+00
         0.00000E+00
         0.00000E+00
         0.00000E+00
         0.00000E+00
         0.00000E+00
         0.00000E+00
         0.00000E+00
         0.00000E+00
         0.00000E+00
         0.00000E+00
         0.00000E+00
         0.00000E+00
         0.00000E+00
         0.00000E+00
         0.00000E+00
         0.00000E+00
         0.00000E+00
         0.00000E+00
         0.00000E+00
         0.00000E+00
         0.00000E+00
         0.00000E+00
         0.00000E+00
         0.00000E+00
         0.00000E+00
         0.00000E+00
         0.00000E+00
         0.00000E+00
         0.00000E+00
         0.00000E+00
         0.00000E+00
         0.00000E+00
         0.00000E+00
         0.00000E+00
         0.00000E+00
         0.00000E+00
         0.00000E+00
         0.00000E+00
         0.00000E+00
         0.00000E+00
         0.00000E+00
         0.00000E+00
         0.00000E+00
         0.00000E+00
         0.00000E+00
         0.00000E+00
         0.00000E+00
         0.00000E+00
         0.00000E+00
         0.00000E+00
         0.00000E+00
         0.00000E+00
         0.00000E+00
         0.00000E+00
         0.00000E+00
         0.00000E+00
         0.00000E+00
         0.00000E+00
         0.00000E+00
         0.00000E+00
         0.00000E+00
         0.00000E+00
         0.00000E+00
         0.00000E+00
         0.00000E+00
         0.00000E+00
         0.00000E+00
         0.00000E+00
         0.00000E+00
         0.00000E+00
         0.00000E+00
         0.00000E+00
         0.00000E+00
         0.00000E+00
         0.00000E+00
         0.00000E+00
         0.00000E+00
         0.00000E+00
         0.00000E+00
         0.00000E+00
         0.00000E+00
         0.00000E+00
         0.00000E+00
         0.00000E+00
         0.00000E+00
         0.00000E+00
         0.00000E+00
         0.00000E+00
         0.00000E+00
         0.00000E+00
         0.00000E+00
         0.00000E+00
         0.00000E+00
         0.00000E+00
         0.00000E+00
         0.00000E+00
         0.00000E+00
         0.00000E+00
         0.00000E+00
         0.00000E+00
         0.00000E+00
         0.00000E+00
         0.00000E+00
         0.00000E+00
         0.00000E+00
         0.00000E+00
         0.00000E+00
         0.00000E+00
         0.00000E+00
         0.00000E+00
         0.00000E+00
         0.00000E+00
         0.00000E+00
         0.00000E+00
         0.00000E+00
         0.00000E+00
         0.00000E+00
         0.00000E+00
         0.00000E+00
         0.00000E+00
         0.00000E+00
         0.00000E+00
         0.00000E+00
         0.00000E+00
         0.00000E+00
         0.00000E+00
         0.00000E+00
         0.00000E+00
         0.00000E+00
         0.00000E+00
         0.00000E+00
         0.00000E+00
         0.00000E+00
         0.00000E+00
         0.00000E+00
         0.00000E+00
         0.00000E+00
         0.00000E+00
         0.00000E+00
         0.00000E+00
         0.00000E+00
         0.00000E+00
         0.00000E+00
         0.00000E+00
         0.00000E+00
         0.00000E+00
         0.00000E+00
         0.00000E+00
         0.00000E+00
         0.00000E+00
         0.00000E+00
         0.00000E+00
         0.00000E+00
         0.00000E+00
         0.00000E+00
         0.00000E+00
         0.00000E+00
         0.00000E+00
         0.00000E+00
         0.00000E+00
         0.00000E+00
         0.00000E+00
         0.00000E+00
         0.00000E+00
         0.00000E+00
         0.00000E+00
         0.00000E+00
         0.00000E+00
         0.00000E+00
         0.00000E+00
         0.00000E+00
         0.00000E+00
         0.00000E+00
         0.00000E+00
         0.00000E+00
         0.00000E+00
         0.00000E+00
         0.00000E+00
         0.00000E+00
         0.00000E+00
         0.00000E+00
         0.00000E+00
         0.00000E+00
         0.00000E+00
         0.00000E+00
         0.00000E+00
         0.00000E+00
         0.00000E+00
         0.00000E+00
         0.00000E+00
         0.00000E+00
         0.00000E+00
         0.00000E+00
         0.00000E+00
         0.00000E+00
         0.00000E+00
         0.00000E+00
         0.00000E+00
         0.00000E+00
         0.00000E+00
         0.00000E+00
         0.00000E+00
         0.00000E+00
         0.00000E+00
         0.00000E+00
         0.00000E+00
         0.00000E+00
         0.00000E+00
         0.00000E+00
         0.00000E+00
         0.00000E+00
         0.00000E+00
         0.00000E+00
         0.00000E+00
         0.00000E+00
         0.00000E+00
         0.00000E+00
         0.00000E+00
         0.00000E+00
         0.00000E+00
         0.00000E+00
         0.00000E+00
         0.00000E+00
         0.00000E+00
         0.00000E+00
         0.00000E+00
         0.00000E+00
         0.00000E+00
         0.00000E+00
         0.00000E+00
         0.00000E+00
         0.00000E+00
         0.00000E+00
         0.00000E+00
         0.00000E+00
         0.00000E+00
         0.00000E+00
         0.00000E+00
         0.00000E+00
         0.00000E+00
         0.00000E+00
         0.00000E+00
         0.00000E+00
         0.00000E+00
         0.00000E+00
         0.00000E+00
         0.00000E+00
         0.00000E+00
         0.00000E+00
         0.00000E+00
         0.00000E+00
         0.00000E+00
         0.00000E+00
         0.00000E+00
         0.00000E+00
         0.00000E+00
         0.00000E+00
         0.00000E+00
         0.00000E+00
         0.00000E+00
         0.00000E+00
         0.00000E+00
         0.00000E+00
         0.00000E+00
         0.00000E+00
         0.00000E+00
         0.00000E+00
         0.00000E+00
         0.00000E+00
         0.00000E+00
         0.00000E+00
         0.00000E+00
         0.00000E+00
         0.00000E+00
         0.00000E+00
         0.00000E+00
         0.00000E+00
         0.00000E+00
         0.00000E+00
         0.00000E+00
         0.00000E+00
         0.00000E+00
         0.00000E+00
         0.00000E+00
         0.00000E+00
         0.00000E+00
         0.00000E+00
         0.00000E+00
         0.00000E+00
         0.00000E+00
         0.00000E+00
         0.00000E+00
         0.00000E+00
         0.00000E+00
         0.00000E+00
         0.00000E+00
         0.00000E+00
         0.00000E+00
         0.00000E+00
         0.00000E+00
         0.00000E+00
         0.00000E+00
         0.00000E+00
         0.00000E+00
         0.00000E+00
         0.00000E+00
         0.00000E+00
         0.00000E+00
         0.00000E+00
         0.00000E+00
         0.00000E+00
         0.00000E+00
         0.00000E+00
         0.00000E+00
         0.00000E+00
         0.00000E+00
         0.00000E+00
         0.00000E+00
         0.00000E+00
         0.00000E+00
         0.00000E+00
         0.00000E+00
         0.00000E+00
         0.00000E+00
         0.00000E+00
         0.00000E+00
         0.00000E+00
         0.00000E+00
         0.00000E+00
         0.00000E+00
         0.00000E+00
         0.00000E+00
         0.00000E+00
         0.00000E+00
         0.00000E+00
         0.00000E+00
         0.00000E+00
         0.00000E+00
         0.00000E+00
         0.00000E+00
         0.00000E+00
         0.00000E+00
         0.00000E+00
         0.00000E+00
         0.00000E+00
         0.00000E+00
         0.00000E+00
         0.00000E+00
         0.00000E+00
         0.00000E+00
         0.00000E+00
         0.00000E+00
         0.00000E+00
         0.00000E+00
         0.00000E+00
         0.00000E+00
         0.00000E+00
         0.00000E+00
         0.00000E+00
         0.00000E+00
         0.00000E+00
         0.00000E+00
         0.00000E+00
         0.00000E+00
         0.00000E+00
         0.00000E+00
         0.00000E+00
         0.00000E+00
         0.00000E+00
         0.00000E+00
         0.00000E+00
         0.00000E+00
         0.00000E+00
         0.00000E+00
         0.00000E+00
         0.00000E+00
         0.00000E+00
         0.00000E+00
         0.00000E+00
         0.00000E+00
         0.00000E+00
         0.00000E+00
         0.00000E+00
         0.00000E+00
         0.00000E+00
         0.00000E+00
         0.00000E+00
         0.00000E+00
         0.00000E+00
         0.00000E+00
         0.00000E+00
         0.00000E+00
         0.00000E+00
         0.00000E+00
         0.00000E+00
         0.00000E+00
         0.00000E+00
         0.00000E+00
         0.00000E+00
         0.00000E+00
         0.00000E+00
         0.00000E+00
         0.00000E+00
         0.00000E+00
         0.00000E+00
         0.00000E+00
         0.00000E+00
         0.00000E+00
         0.00000E+00
         0.00000E+00
         0.00000E+00
         0.00000E+00
         0.00000E+00
         0.00000E+00
         0.00000E+00
         0.00000E+00
         0.00000E+00
         0.00000E+00
         0.00000E+00
         0.00000E+00
         0.00000E+00
         0.00000E+00
         0.00000E+00
         0.00000E+00
         0.00000E+00
         0.00000E+00
         0.00000E+00
         0.00000E+00
         0.00000E+00
         0.00000E+00
         0.00000E+00
         0.00000E+00
         0.00000E+00
         0.00000E+00
         0.00000E+00
         0.00000E+00
         0.00000E+00
         0.00000E+00
         0.00000E+00
         0.00000E+00
         0.00000E+00
         0.00000E+00
         0.00000E+00
         0.00000E+00
         0.00000E+00
         0.00000E+00
         0.00000E+00
         0.00000E+00
         0.00000E+00
         0.00000E+00
         0.00000E+00
         0.00000E+00
         0.00000E+00
         0.00000E+00
         0.00000E+00
         0.00000E+00
         0.00000E+00
         0.00000E+00
         0.00000E+00
         0.00000E+00
         0.00000E+00
         0.00000E+00
         0.00000E+00
         0.00000E+00
         0.00000E+00
         0.00000E+00
         0.00000E+00
         0.00000E+00
         0.00000E+00
         0.00000E+00
         0.00000E+00
         0.00000E+00
         0.00000E+00
         0.00000E+00
         0.00000E+00
         0.00000E+00
         0.00000E+00
         0.00000E+00
         0.00000E+00
         0.00000E+00
         0.00000E+00
         0.00000E+00
         0.00000E+00
         0.00000E+00
         0.00000E+00
         0.00000E+00
         0.00000E+00
         0.00000E+00
         0.00000E+00
         0.00000E+00
         0.00000E+00
         0.00000E+00
         0.00000E+00
         0.00000E+00
         0.00000E+00
         0.00000E+00
         0.00000E+00
         0.00000E+00
         0.00000E+00
         0.00000E+00
         0.00000E+00
         0.00000E+00
         0.00000E+00
         0.00000E+00
         0.00000E+00
         0.00000E+00
         0.00000E+00
         0.00000E+00
         0.00000E+00
         0.00000E+00
         0.00000E+00
         0.00000E+00
         0.00000E+00
         0.00000E+00
         0.00000E+00
         0.00000E+00
         0.00000E+00
         0.00000E+00
         0.00000E+00
         0.00000E+00
         0.00000E+00
         0.00000E+00
         0.00000E+00
         0.00000E+00
         0.00000E+00
         0.00000E+00
         0.00000E+00
         0.00000E+00
         0.00000E+00
         0.00000E+00
         0.00000E+00
         0.00000E+00
         0.00000E+00
         0.00000E+00
         0.00000E+00
         0.00000E+00
         0.00000E+00
         0.00000E+00
         0.00000E+00
         0.00000E+00
         0.00000E+00
         0.00000E+00
         0.00000E+00
         0.00000E+00
         0.00000E+00
         0.00000E+00
         0.00000E+00
         0.00000E+00
         0.00000E+00
         0.00000E+00
         0.00000E+00
         0.00000E+00
         0.00000E+00
         0.00000E+00
         0.00000E+00
         0.00000E+00
         0.00000E+00
         0.00000E+00
         0.00000E+00
         0.00000E+00
         0.00000E+00
         0.00000E+00
         0.00000E+00
         0.00000E+00
         0.00000E+00
         0.00000E+00
         0.00000E+00
         0.00000E+00
         0.00000E+00
         0.00000E+00
         0.00000E+00
         0.00000E+00
         0.00000E+00
         0.00000E+00
         0.00000E+00
         0.00000E+00
         0.00000E+00
         0.00000E+00
         0.00000E+00
         0.00000E+00
         0.00000E+00
         0.00000E+00
         0.00000E+00
         0.00000E+00
         0.00000E+00
         0.00000E+00
         0.00000E+00
         0.00000E+00
         0.00000E+00
         0.00000E+00
         0.00000E+00
         0.00000E+00
         0.00000E+00
         0.00000E+00
         0.00000E+00
         0.00000E+00
         0.00000E+00
         0.00000E+00
         0.00000E+00
         0.00000E+00
         0.00000E+00
         0.00000E+00
         0.00000E+00
         0.00000E+00
         0.00000E+00
         0.00000E+00
         0.00000E+00
         0.00000E+00
         0.00000E+00
         0.00000E+00
         0.00000E+00
         0.00000E+00
         0.00000E+00
         0.00000E+00
         0.00000E+00
         0.00000E+00
         0.00000E+00
         0.00000E+00
         0.00000E+00
         0.00000E+00
         0.00000E+00
         0.00000E+00
         0.00000E+00
         0.00000E+00
         0.00000E+00
         0.00000E+00
         0.00000E+00
         0.00000E+00
         0.00000E+00
         0.00000E+00
         0.00000E+00
         0.00000E+00
         0.00000E+00
         0.00000E+00
         0.00000E+00
         0.00000E+00
         0.00000E+00
         0.00000E+00
         0.00000E+00
         0.00000E+00
         0.00000E+00
         0.00000E+00
         0.00000E+00
         0.00000E+00
         0.00000E+00
         0.00000E+00
         0.00000E+00
         0.00000E+00
         0.00000E+00
         0.00000E+00
         0.00000E+00
         0.00000E+00
         0.00000E+00
         0.00000E+00
         0.00000E+00
         0.00000E+00
         0.00000E+00
         0.00000E+00
         0.00000E+00
         0.00000E+00
         0.00000E+00
         0.00000E+00
         0.00000E+00
         0.00000E+00
         0.00000E+00
         0.00000E+00
         0.00000E+00
         0.00000E+00
         0.00000E+00
         0.00000E+00
         0.00000E+00
         0.00000E+00
         0.00000E+00
         0.00000E+00
         0.00000E+00
         0.00000E+00
         0.00000E+00
         0.00000E+00
         0.00000E+00
         0.00000E+00
         0.00000E+00
         0.00000E+00
         0.00000E+00
         0.00000E+00
         0.00000E+00
         0.00000E+00
         0.00000E+00
         0.00000E+00
         0.00000E+00
         0.00000E+00
         0.00000E+00
         0.00000E+00
         0.00000E+00
         0.00000E+00
         0.00000E+00
         0.00000E+00
         0.00000E+00
         0.00000E+00
         0.00000E+00
         0.00000E+00
         0.00000E+00
         0.00000E+00
         0.00000E+00
         0.00000E+00
         0.00000E+00
         0.00000E+00
         0.00000E+00
         0.00000E+00
         0.00000E+00
         0.00000E+00
         0.00000E+00
         0.00000E+00
         0.00000E+00
         0.00000E+00
         0.00000E+00
         0.00000E+00
         0.00000E+00
         0.00000E+00
         0.00000E+00
         0.00000E+00
         0.00000E+00
         0.00000E+00
         0.00000E+00
         0.00000E+00
         0.00000E+00
         0.00000E+00
         0.00000E+00
         0.00000E+00
         0.00000E+00
         0.00000E+00
         0.00000E+00
         0.00000E+00
         0.00000E+00
         0.00000E+00
         0.00000E+00
         0.00000E+00
         0.00000E+00
         0.00000E+00
         0.00000E+00
         0.00000E+00
         0.00000E+00
         0.00000E+00
         0.00000E+00
         0.00000E+00
         0.00000E+00
         0.00000E+00
         0.00000E+00
         0.00000E+00
         0.00000E+00
         0.00000E+00
         0.00000E+00
         0.00000E+00
         0.00000E+00
         0.00000E+00
         0.00000E+00
         0.00000E+00
         0.00000E+00
         0.00000E+00
         0.00000E+00
         0.00000E+00
         0.00000E+00
         0.00000E+00
         0.00000E+00
         0.00000E+00
         0.00000E+00
         0.00000E+00
         0.00000E+00
         0.00000E+00
         0.00000E+00
         0.00000E+00
         0.00000E+00
         0.00000E+00
         0.00000E+00
         0.00000E+00
         0.00000E+00
         0.00000E+00
         0.00000E+00
         0.00000E+00
         0.00000E+00
         0.00000E+00
         0.00000E+00
         0.00000E+00
         0.00000E+00
         0.00000E+00
         0.00000E+00
         0.00000E+00
         0.00000E+00
         0.00000E+00
         0.00000E+00
         0.00000E+00
         0.00000E+00
         0.00000E+00
         0.00000E+00
         0.00000E+00
         0.00000E+00
         0.00000E+00
         0.00000E+00
         0.00000E+00
         0.00000E+00
         0.00000E+00
         0.00000E+00
         0.00000E+00
         0.00000E+00
         0.00000E+00
         0.00000E+00
         0.00000E+00
         0.00000E+00
         0.00000E+00
         0.00000E+00
         0.00000E+00
         0.00000E+00
         0.00000E+00
         0.00000E+00
         0.00000E+00
         0.00000E+00
         0.00000E+00
         0.00000E+00
         0.00000E+00
         0.00000E+00
         0.00000E+00
         0.00000E+00
         0.00000E+00
         0.00000E+00
         0.00000E+00
         0.00000E+00
         0.00000E+00
         0.00000E+00
         0.00000E+00
         0.00000E+00
         0.00000E+00
         0.00000E+00
         0.00000E+00
         0.00000E+00
         0.00000E+00
         0.00000E+00
         0.00000E+00
         0.00000E+00
         0.00000E+00
         0.00000E+00
         0.00000E+00
         0.00000E+00
         0.00000E+00
         0.00000E+00
         0.00000E+00
         0.00000E+00
         0.00000E+00
         0.00000E+00
         0.00000E+00
         0.00000E+00
         0.00000E+00
         0.00000E+00
         0.00000E+00
         0.00000E+00
         0.00000E+00
         0.00000E+00
         0.00000E+00
         0.00000E+00
         0.00000E+00
         0.00000E+00
         0.00000E+00
         0.00000E+00
         0.00000E+00
         0.00000E+00
         0.00000E+00
         0.00000E+00
         0.00000E+00
         0.00000E+00
         0.00000E+00
         0.00000E+00
         0.00000E+00
         0.00000E+00
         0.00000E+00
         0.00000E+00
         0.00000E+00
         0.00000E+00
         0.00000E+00
         0.00000E+00
         0.00000E+00
  
SCALARS           initial_coordinate_x  double 1
LOOKUP_TABLE default
         0.10378E-02
         0.17452E-02
         0.23177E-02
         0.16698E-02
         0.10379E-02
         0.17453E-02
         0.23178E-02
         0.16700E-02
         0.30377E-02
         0.27791E-02
         0.30377E-02
         0.27788E-02
         0.12850E-02
         0.65139E-03
         0.12851E-02
         0.65164E-03
         0.12757E-03
        -0.12822E-03
         0.12783E-03
        -0.12804E-03
         0.94500E-03
         0.11327E-02
         0.17490E-02
         0.94533E-03
         0.11330E-02
         0.17494E-02
         0.40588E-03
         0.39779E-03
         0.40594E-03
         0.39781E-03
        -0.76303E-03
        -0.86604E-03
         0.46119E-03
        -0.76268E-03
        -0.86593E-03
         0.46164E-03
        -0.18300E-02
        -0.18440E-02
        -0.18297E-02
        -0.18441E-02
        -0.27238E-02
        -0.28028E-02
        -0.27238E-02
        -0.28031E-02
        -0.25365E-02
        -0.19287E-02
        -0.25363E-02
        -0.19283E-02
        -0.99363E-03
        -0.99377E-03
        -0.14380E-02
        -0.14377E-02
        -0.31574E-03
        -0.31594E-03
        -0.11068E-02
        -0.11071E-02
        -0.18845E-02
        -0.18713E-02
        -0.18846E-02
        -0.18714E-02
        -0.15871E-03
        -0.94089E-03
        -0.15844E-03
        -0.94029E-03
         0.78856E-03
         0.78922E-03
         0.17211E-02
         0.17211E-02
         0.32050E-02
         0.28046E-02
         0.32047E-02
         0.28047E-02
         0.23059E-02
         0.23060E-02
        -0.40614E-03
        -0.40627E-03
        -0.12092E-02
        -0.12092E-02
        -0.19448E-02
        -0.19448E-02
        -0.25029E-02
        -0.26371E-02
        -0.25029E-02
        -0.26372E-02
        -0.27671E-02
        -0.27674E-02
        -0.21123E-02
        -0.21122E-02
        -0.16087E-02
        -0.16087E-02
        -0.11939E-02
        -0.58641E-03
        -0.11937E-02
        -0.58606E-03
         0.20912E-03
         0.20952E-03
         0.10586E-02
         0.10589E-02
         0.18413E-02
         0.18413E-02
         0.24544E-02
         0.26022E-02
         0.24543E-02
         0.26021E-02
         0.37964E-02
         0.39100E-02
         0.37964E-02
         0.39100E-02
         0.34621E-02
         0.34621E-02
         0.29267E-02
         0.29267E-02
         0.22211E-02
         0.22211E-02
         0.13865E-02
         0.13865E-02
         0.47130E-03
         0.47130E-03
        -0.47130E-03
        -0.47130E-03
        -0.13865E-02
        -0.13865E-02
        -0.22211E-02
        -0.22211E-02
        -0.29267E-02
        -0.29267E-02
        -0.34621E-02
        -0.34621E-02
        -0.37964E-02
        -0.37964E-02
        -0.39100E-02
        -0.39100E-02
        -0.37964E-02
        -0.37964E-02
        -0.34621E-02
        -0.34621E-02
        -0.29267E-02
        -0.29267E-02
        -0.22211E-02
        -0.22211E-02
        -0.13865E-02
        -0.13865E-02
        -0.47130E-03
        -0.47130E-03
         0.47130E-03
         0.47130E-03
         0.13865E-02
         0.13865E-02
         0.22211E-02
         0.22211E-02
         0.29267E-02
         0.29267E-02
         0.34621E-02
         0.34621E-02
         0.37964E-02
         0.37964E-02
         0.10376E-02
         0.17450E-02
         0.23175E-02
         0.16696E-02
         0.30377E-02
         0.27795E-02
         0.12849E-02
         0.65115E-03
         0.12731E-03
        -0.12841E-03
         0.94467E-03
         0.11323E-02
         0.17487E-02
         0.40583E-03
         0.39777E-03
        -0.76338E-03
        -0.86615E-03
         0.46074E-03
        -0.18303E-02
        -0.18439E-02
        -0.27238E-02
        -0.28025E-02
        -0.25366E-02
        -0.19292E-02
        -0.99349E-03
        -0.14384E-02
        -0.31554E-03
        -0.11064E-02
        -0.18845E-02
        -0.18712E-02
        -0.15899E-03
        -0.94149E-03
         0.78790E-03
         0.17210E-02
         0.32053E-02
         0.28046E-02
         0.23058E-02
        -0.40600E-03
        -0.12092E-02
        -0.19447E-02
        -0.25028E-02
        -0.26370E-02
        -0.27668E-02
        -0.21125E-02
        -0.16088E-02
        -0.11940E-02
        -0.58676E-03
         0.20871E-03
         0.10583E-02
         0.18413E-02
         0.24545E-02
         0.26022E-02
         0.37964E-02
         0.39100E-02
         0.34621E-02
         0.29267E-02
         0.22211E-02
         0.13865E-02
         0.47130E-03
        -0.47130E-03
        -0.13865E-02
        -0.22211E-02
        -0.29267E-02
        -0.34621E-02
        -0.37964E-02
        -0.39100E-02
        -0.37964E-02
        -0.34621E-02
        -0.29267E-02
        -0.22211E-02
        -0.13865E-02
        -0.47130E-03
         0.47130E-03
         0.13865E-02
         0.22211E-02
         0.29267E-02
         0.34621E-02
         0.37964E-02
         0.10375E-02
         0.17448E-02
         0.23174E-02
         0.16694E-02
         0.30377E-02
         0.27798E-02
         0.12848E-02
         0.65090E-03
         0.12705E-03
        -0.12859E-03
         0.94434E-03
         0.11320E-02
         0.17483E-02
         0.40577E-03
         0.39776E-03
        -0.76374E-03
        -0.86626E-03
         0.46029E-03
        -0.18306E-02
        -0.18438E-02
        -0.27238E-02
        -0.28022E-02
        -0.25368E-02
        -0.19296E-02
        -0.99334E-03
        -0.14387E-02
        -0.31534E-03
        -0.11061E-02
        -0.18844E-02
        -0.18710E-02
        -0.15926E-03
        -0.94209E-03
         0.78724E-03
         0.17210E-02
         0.32056E-02
         0.28046E-02
         0.23057E-02
        -0.40586E-03
        -0.12092E-02
        -0.19447E-02
        -0.25028E-02
        -0.26369E-02
        -0.27665E-02
        -0.21126E-02
        -0.16088E-02
        -0.11941E-02
        -0.58711E-03
         0.20830E-03
         0.10580E-02
         0.18414E-02
         0.24546E-02
         0.26023E-02
         0.37964E-02
         0.39100E-02
         0.34621E-02
         0.29267E-02
         0.22211E-02
         0.13865E-02
         0.47130E-03
        -0.47130E-03
        -0.13865E-02
        -0.22211E-02
        -0.29267E-02
        -0.34621E-02
        -0.37964E-02
        -0.39100E-02
        -0.37964E-02
        -0.34621E-02
        -0.29267E-02
        -0.22211E-02
        -0.13865E-02
        -0.47130E-03
         0.47130E-03
         0.13865E-02
         0.22211E-02
         0.29267E-02
         0.34621E-02
         0.37964E-02
         0.10374E-02
         0.17446E-02
         0.23173E-02
         0.16692E-02
         0.30376E-02
         0.27801E-02
         0.12847E-02
         0.65065E-03
         0.12678E-03
        -0.12878E-03
         0.94401E-03
         0.11316E-02
         0.17479E-02
         0.40572E-03
         0.39774E-03
        -0.76409E-03
        -0.86637E-03
         0.45985E-03
        -0.18309E-02
        -0.18437E-02
        -0.27237E-02
        -0.28020E-02
        -0.25369E-02
        -0.19300E-02
        -0.99320E-03
        -0.14391E-02
        -0.31514E-03
        -0.11057E-02
        -0.18844E-02
        -0.18709E-02
        -0.15954E-03
        -0.94269E-03
         0.78658E-03
         0.17209E-02
         0.32060E-02
         0.28046E-02
         0.23056E-02
        -0.40572E-03
        -0.12092E-02
        -0.19446E-02
        -0.25028E-02
        -0.26368E-02
        -0.27662E-02
        -0.21128E-02
        -0.16088E-02
        -0.11942E-02
        -0.58746E-03
         0.20790E-03
         0.10577E-02
         0.18414E-02
         0.24548E-02
         0.26024E-02
         0.37964E-02
         0.39100E-02
         0.34621E-02
         0.29267E-02
         0.22211E-02
         0.13865E-02
         0.47130E-03
        -0.47130E-03
        -0.13865E-02
        -0.22211E-02
        -0.29267E-02
        -0.34621E-02
        -0.37964E-02
        -0.39100E-02
        -0.37964E-02
        -0.34621E-02
        -0.29267E-02
        -0.22211E-02
        -0.13865E-02
        -0.47130E-03
         0.47130E-03
         0.13865E-02
         0.22211E-02
         0.29267E-02
         0.34621E-02
         0.37964E-02
         0.10373E-02
         0.17445E-02
         0.23172E-02
         0.16689E-02
         0.30376E-02
         0.27805E-02
         0.12846E-02
         0.65041E-03
         0.12652E-03
        -0.12896E-03
         0.94367E-03
         0.11313E-02
         0.17475E-02
         0.40566E-03
         0.39772E-03
        -0.76444E-03
        -0.86648E-03
         0.45940E-03
        -0.18312E-02
        -0.18436E-02
        -0.27237E-02
        -0.28017E-02
        -0.25371E-02
        -0.19305E-02
        -0.99305E-03
        -0.14394E-02
        -0.31494E-03
        -0.11054E-02
        -0.18843E-02
        -0.18708E-02
        -0.15981E-03
        -0.94328E-03
         0.78592E-03
         0.17209E-02
         0.32063E-02
         0.28045E-02
         0.23055E-02
        -0.40558E-03
        -0.12092E-02
        -0.19446E-02
        -0.25027E-02
        -0.26367E-02
        -0.27658E-02
        -0.21129E-02
        -0.16089E-02
        -0.11943E-02
        -0.58781E-03
         0.20749E-03
         0.10574E-02
         0.18415E-02
         0.24549E-02
         0.26025E-02
         0.37964E-02
         0.39100E-02
         0.34621E-02
         0.29267E-02
         0.22211E-02
         0.13865E-02
         0.47130E-03
        -0.47130E-03
        -0.13865E-02
        -0.22211E-02
        -0.29267E-02
        -0.34621E-02
        -0.37964E-02
        -0.39100E-02
        -0.37964E-02
        -0.34621E-02
        -0.29267E-02
        -0.22211E-02
        -0.13865E-02
        -0.47130E-03
         0.47130E-03
         0.13865E-02
         0.22211E-02
         0.29267E-02
         0.34621E-02
         0.37964E-02
         0.10372E-02
         0.17443E-02
         0.23171E-02
         0.16687E-02
         0.30376E-02
         0.27808E-02
         0.12845E-02
         0.65016E-03
         0.12626E-03
        -0.12915E-03
         0.94334E-03
         0.11310E-02
         0.17471E-02
         0.40561E-03
         0.39770E-03
        -0.76480E-03
        -0.86659E-03
         0.45895E-03
        -0.18315E-02
        -0.18435E-02
        -0.27237E-02
        -0.28014E-02
        -0.25372E-02
        -0.19309E-02
        -0.99291E-03
        -0.14398E-02
        -0.31474E-03
        -0.11051E-02
        -0.18843E-02
        -0.18706E-02
        -0.16009E-03
        -0.94388E-03
         0.78526E-03
         0.17208E-02
         0.32066E-02
         0.28045E-02
         0.23053E-02
        -0.40545E-03
        -0.12092E-02
        -0.19446E-02
        -0.25027E-02
        -0.26366E-02
        -0.27655E-02
        -0.21130E-02
        -0.16089E-02
        -0.11944E-02
        -0.58816E-03
         0.20709E-03
         0.10571E-02
         0.18415E-02
         0.24550E-02
         0.26025E-02
         0.37964E-02
         0.39100E-02
         0.34621E-02
         0.29267E-02
         0.22211E-02
         0.13865E-02
         0.47130E-03
        -0.47130E-03
        -0.13865E-02
        -0.22211E-02
        -0.29267E-02
        -0.34621E-02
        -0.37964E-02
        -0.39100E-02
        -0.37964E-02
        -0.34621E-02
        -0.29267E-02
        -0.22211E-02
        -0.13865E-02
        -0.47130E-03
         0.47130E-03
         0.13865E-02
         0.22211E-02
         0.29267E-02
         0.34621E-02
         0.37964E-02
         0.10371E-02
         0.17441E-02
         0.23169E-02
         0.16685E-02
         0.30376E-02
         0.27812E-02
         0.12844E-02
         0.64992E-03
         0.12600E-03
        -0.12933E-03
         0.94301E-03
         0.11306E-02
         0.17467E-02
         0.40556E-03
         0.39769E-03
        -0.76515E-03
        -0.86670E-03
         0.45850E-03
        -0.18318E-02
        -0.18434E-02
        -0.27236E-02
        -0.28011E-02
        -0.25374E-02
        -0.19313E-02
        -0.99277E-03
        -0.14401E-02
        -0.31454E-03
        -0.11047E-02
        -0.18842E-02
        -0.18705E-02
        -0.16036E-03
        -0.94448E-03
         0.78460E-03
         0.17208E-02
         0.32070E-02
         0.28045E-02
         0.23052E-02
        -0.40531E-03
        -0.12092E-02
        -0.19445E-02
        -0.25027E-02
        -0.26366E-02
        -0.27652E-02
        -0.21132E-02
        -0.16090E-02
        -0.11946E-02
        -0.58851E-03
         0.20668E-03
         0.10567E-02
         0.18416E-02
         0.24551E-02
         0.26026E-02
         0.37964E-02
         0.39100E-02
         0.34621E-02
         0.29267E-02
         0.22211E-02
         0.13865E-02
         0.47130E-03
        -0.47130E-03
        -0.13865E-02
        -0.22211E-02
        -0.29267E-02
        -0.34621E-02
        -0.37964E-02
        -0.39100E-02
        -0.37964E-02
        -0.34621E-02
        -0.29267E-02
        -0.22211E-02
        -0.13865E-02
        -0.47130E-03
         0.47130E-03
         0.13865E-02
         0.22211E-02
         0.29267E-02
         0.34621E-02
         0.37964E-02
         0.10370E-02
         0.17439E-02
         0.23168E-02
         0.16683E-02
         0.30375E-02
         0.27815E-02
         0.12843E-02
         0.64967E-03
         0.12573E-03
        -0.12952E-03
         0.94268E-03
         0.11303E-02
         0.17463E-02
         0.40550E-03
         0.39767E-03
        -0.76551E-03
        -0.86680E-03
         0.45806E-03
        -0.18321E-02
        -0.18433E-02
        -0.27236E-02
        -0.28009E-02
        -0.25375E-02
        -0.19317E-02
        -0.99262E-03
        -0.14405E-02
        -0.31434E-03
        -0.11044E-02
        -0.18842E-02
        -0.18704E-02
        -0.16064E-03
        -0.94508E-03
         0.78394E-03
         0.17208E-02
         0.32073E-02
         0.28045E-02
         0.23051E-02
        -0.40517E-03
        -0.12092E-02
        -0.19445E-02
        -0.25026E-02
        -0.26365E-02
        -0.27649E-02
        -0.21133E-02
        -0.16090E-02
        -0.11947E-02
        -0.58886E-03
         0.20627E-03
         0.10564E-02
         0.18416E-02
         0.24553E-02
         0.26027E-02
         0.37964E-02
         0.39100E-02
         0.34621E-02
         0.29267E-02
         0.22211E-02
         0.13865E-02
         0.47130E-03
        -0.47130E-03
        -0.13865E-02
        -0.22211E-02
        -0.29267E-02
        -0.34621E-02
        -0.37964E-02
        -0.39100E-02
        -0.37964E-02
        -0.34621E-02
        -0.29267E-02
        -0.22211E-02
        -0.13865E-02
        -0.47130E-03
         0.47130E-03
         0.13865E-02
         0.22211E-02
         0.29267E-02
         0.34621E-02
         0.37964E-02
         0.10368E-02
         0.17438E-02
         0.23167E-02
         0.16681E-02
         0.30375E-02
         0.27819E-02
         0.12842E-02
         0.64943E-03
         0.12547E-03
        -0.12970E-03
         0.94235E-03
         0.11300E-02
         0.17459E-02
         0.40545E-03
         0.39766E-03
        -0.76586E-03
        -0.86691E-03
         0.45761E-03
        -0.18324E-02
        -0.18432E-02
        -0.27236E-02
        -0.28006E-02
        -0.25377E-02
        -0.19322E-02
        -0.99248E-03
        -0.14408E-02
        -0.31414E-03
        -0.11040E-02
        -0.18841E-02
        -0.18703E-02
        -0.16091E-03
        -0.94568E-03
         0.78328E-03
         0.17207E-02
         0.32076E-02
         0.28044E-02
         0.23050E-02
        -0.40503E-03
        -0.12092E-02
        -0.19445E-02
        -0.25026E-02
        -0.26364E-02
        -0.27646E-02
        -0.21134E-02
        -0.16091E-02
        -0.11948E-02
        -0.58921E-03
         0.20587E-03
         0.10561E-02
         0.18416E-02
         0.24554E-02
         0.26027E-02
         0.37964E-02
         0.39100E-02
         0.34621E-02
         0.29267E-02
         0.22211E-02
         0.13865E-02
         0.47130E-03
        -0.47130E-03
        -0.13865E-02
        -0.22211E-02
        -0.29267E-02
        -0.34621E-02
        -0.37964E-02
        -0.39100E-02
        -0.37964E-02
        -0.34621E-02
        -0.29267E-02
        -0.22211E-02
        -0.13865E-02
        -0.47130E-03
         0.47130E-03
         0.13865E-02
         0.22211E-02
         0.29267E-02
         0.34621E-02
         0.37964E-02
         0.10367E-02
         0.17436E-02
         0.23166E-02
         0.16679E-02
         0.30375E-02
         0.27822E-02
         0.12841E-02
         0.64918E-03
         0.12521E-03
        -0.12989E-03
         0.94202E-03
         0.11296E-02
         0.17455E-02
         0.40539E-03
         0.39764E-03
        -0.76621E-03
        -0.86702E-03
         0.45716E-03
        -0.18326E-02
        -0.18431E-02
        -0.27235E-02
        -0.28003E-02
        -0.25379E-02
        -0.19326E-02
        -0.99233E-03
        -0.14412E-02
        -0.31394E-03
        -0.11037E-02
        -0.18841E-02
        -0.18701E-02
        -0.16119E-03
        -0.94628E-03
         0.78262E-03
         0.17207E-02
         0.32079E-02
         0.28044E-02
         0.23049E-02
        -0.40490E-03
        -0.12093E-02
        -0.19444E-02
        -0.25026E-02
        -0.26363E-02
        -0.27643E-02
        -0.21136E-02
        -0.16091E-02
        -0.11949E-02
        -0.58956E-03
         0.20546E-03
         0.10558E-02
         0.18417E-02
         0.24555E-02
         0.26028E-02
         0.37964E-02
         0.39100E-02
         0.34621E-02
         0.29267E-02
         0.22211E-02
         0.13865E-02
         0.47130E-03
        -0.47130E-03
        -0.13865E-02
        -0.22211E-02
        -0.29267E-02
        -0.34621E-02
        -0.37964E-02
        -0.39100E-02
        -0.37964E-02
        -0.34621E-02
        -0.29267E-02
        -0.22211E-02
        -0.13865E-02
        -0.47130E-03
         0.47130E-03
         0.13865E-02
         0.22211E-02
         0.29267E-02
         0.34621E-02
         0.37964E-02
         0.10366E-02
         0.17434E-02
         0.23164E-02
         0.16677E-02
         0.30375E-02
         0.27825E-02
         0.12840E-02
         0.64894E-03
         0.12495E-03
        -0.13007E-03
         0.94169E-03
         0.11293E-02
         0.17451E-02
         0.40534E-03
         0.39762E-03
        -0.76657E-03
        -0.86713E-03
         0.45671E-03
        -0.18329E-02
        -0.18430E-02
        -0.27235E-02
        -0.28001E-02
        -0.25380E-02
        -0.19330E-02
        -0.99219E-03
        -0.14415E-02
        -0.31374E-03
        -0.11033E-02
        -0.18840E-02
        -0.18700E-02
        -0.16146E-03
        -0.94687E-03
         0.78195E-03
         0.17207E-02
         0.32083E-02
         0.28044E-02
         0.23048E-02
        -0.40476E-03
        -0.12093E-02
        -0.19444E-02
        -0.25026E-02
        -0.26362E-02
        -0.27640E-02
        -0.21137E-02
        -0.16091E-02
        -0.11950E-02
        -0.58991E-03
         0.20505E-03
         0.10555E-02
         0.18417E-02
         0.24556E-02
         0.26029E-02
         0.37964E-02
         0.39100E-02
         0.34621E-02
         0.29267E-02
         0.22211E-02
         0.13865E-02
         0.47130E-03
        -0.47130E-03
        -0.13865E-02
        -0.22211E-02
        -0.29267E-02
        -0.34621E-02
        -0.37964E-02
        -0.39100E-02
        -0.37964E-02
        -0.34621E-02
        -0.29267E-02
        -0.22211E-02
        -0.13865E-02
        -0.47130E-03
         0.47130E-03
         0.13865E-02
         0.22211E-02
         0.29267E-02
         0.34621E-02
         0.37964E-02
         0.10365E-02
         0.17432E-02
         0.23163E-02
         0.16675E-02
         0.30374E-02
         0.27829E-02
         0.12839E-02
         0.64869E-03
         0.12468E-03
        -0.13026E-03
         0.94135E-03
         0.11289E-02
         0.17447E-02
         0.40528E-03
         0.39760E-03
        -0.76692E-03
        -0.86724E-03
         0.45626E-03
        -0.18332E-02
        -0.18430E-02
        -0.27235E-02
        -0.27998E-02
        -0.25382E-02
        -0.19334E-02
        -0.99205E-03
        -0.14419E-02
        -0.31354E-03
        -0.11030E-02
        -0.18840E-02
        -0.18699E-02
        -0.16174E-03
        -0.94747E-03
         0.78129E-03
         0.17206E-02
         0.32086E-02
         0.28044E-02
         0.23047E-02
        -0.40462E-03
        -0.12093E-02
        -0.19444E-02
        -0.25025E-02
        -0.26361E-02
        -0.27637E-02
        -0.21139E-02
        -0.16092E-02
        -0.11951E-02
        -0.59025E-03
         0.20465E-03
         0.10552E-02
         0.18418E-02
         0.24558E-02
         0.26030E-02
         0.37964E-02
         0.39100E-02
         0.34621E-02
         0.29267E-02
         0.22211E-02
         0.13865E-02
         0.47130E-03
        -0.47130E-03
        -0.13865E-02
        -0.22211E-02
        -0.29267E-02
        -0.34621E-02
        -0.37964E-02
        -0.39100E-02
        -0.37964E-02
        -0.34621E-02
        -0.29267E-02
        -0.22211E-02
        -0.13865E-02
        -0.47130E-03
         0.47130E-03
         0.13865E-02
         0.22211E-02
         0.29267E-02
         0.34621E-02
         0.37964E-02
         0.10364E-02
         0.17430E-02
         0.23162E-02
         0.16672E-02
         0.30374E-02
         0.27832E-02
         0.12838E-02
         0.64845E-03
         0.12442E-03
        -0.13044E-03
         0.94102E-03
         0.11286E-02
         0.17443E-02
         0.40523E-03
         0.39759E-03
        -0.76727E-03
        -0.86735E-03
         0.45582E-03
        -0.18335E-02
        -0.18429E-02
        -0.27235E-02
        -0.27995E-02
        -0.25383E-02
        -0.19339E-02
        -0.99190E-03
        -0.14422E-02
        -0.31334E-03
        -0.11026E-02
        -0.18839E-02
        -0.18697E-02
        -0.16201E-03
        -0.94807E-03
         0.78063E-03
         0.17206E-02
         0.32089E-02
         0.28043E-02
         0.23046E-02
        -0.40448E-03
        -0.12093E-02
        -0.19443E-02
        -0.25025E-02
        -0.26360E-02
        -0.27633E-02
        -0.21140E-02
        -0.16092E-02
        -0.11953E-02
        -0.59060E-03
         0.20424E-03
         0.10549E-02
         0.18418E-02
         0.24559E-02
         0.26030E-02
         0.37964E-02
         0.39100E-02
         0.34621E-02
         0.29267E-02
         0.22211E-02
         0.13865E-02
         0.47130E-03
        -0.47130E-03
        -0.13865E-02
        -0.22211E-02
        -0.29267E-02
        -0.34621E-02
        -0.37964E-02
        -0.39100E-02
        -0.37964E-02
        -0.34621E-02
        -0.29267E-02
        -0.22211E-02
        -0.13865E-02
        -0.47130E-03
         0.47130E-03
         0.13865E-02
         0.22211E-02
         0.29267E-02
         0.34621E-02
         0.37964E-02
         0.10363E-02
         0.17429E-02
         0.23161E-02
         0.16670E-02
         0.30374E-02
         0.27836E-02
         0.12837E-02
         0.64820E-03
         0.12416E-03
        -0.13063E-03
         0.94069E-03
         0.11282E-02
         0.17439E-02
         0.40518E-03
         0.39757E-03
        -0.76763E-03
        -0.86746E-03
         0.45537E-03
        -0.18338E-02
        -0.18428E-02
        -0.27234E-02
        -0.27992E-02
        -0.25385E-02
        -0.19343E-02
        -0.99176E-03
        -0.14425E-02
        -0.31314E-03
        -0.11023E-02
        -0.18839E-02
        -0.18696E-02
        -0.16229E-03
        -0.94867E-03
         0.77997E-03
         0.17205E-02
         0.32092E-02
         0.28043E-02
         0.23044E-02
        -0.40434E-03
        -0.12093E-02
        -0.19443E-02
        -0.25025E-02
        -0.26359E-02
        -0.27630E-02
        -0.21141E-02
        -0.16093E-02
        -0.11954E-02
        -0.59095E-03
         0.20384E-03
         0.10546E-02
         0.18419E-02
         0.24560E-02
         0.26031E-02
         0.37964E-02
         0.39100E-02
         0.34621E-02
         0.29267E-02
         0.22211E-02
         0.13865E-02
         0.47130E-03
        -0.47130E-03
        -0.13865E-02
        -0.22211E-02
        -0.29267E-02
        -0.34621E-02
        -0.37964E-02
        -0.39100E-02
        -0.37964E-02
        -0.34621E-02
        -0.29267E-02
        -0.22211E-02
        -0.13865E-02
        -0.47130E-03
         0.47130E-03
         0.13865E-02
         0.22211E-02
         0.29267E-02
         0.34621E-02
         0.37964E-02
         0.10362E-02
         0.17427E-02
         0.23160E-02
         0.16668E-02
         0.30373E-02
         0.27839E-02
         0.12836E-02
         0.64796E-03
         0.12390E-03
        -0.13082E-03
         0.94036E-03
         0.11279E-02
         0.17435E-02
         0.40512E-03
         0.39755E-03
        -0.76798E-03
        -0.86756E-03
         0.45492E-03
        -0.18341E-02
        -0.18427E-02
        -0.27234E-02
        -0.27990E-02
        -0.25386E-02
        -0.19347E-02
        -0.99161E-03
        -0.14429E-02
        -0.31294E-03
        -0.11019E-02
        -0.18838E-02
        -0.18695E-02
        -0.16256E-03
        -0.94927E-03
         0.77931E-03
         0.17205E-02
         0.32096E-02
         0.28043E-02
         0.23043E-02
        -0.40420E-03
        -0.12093E-02
        -0.19443E-02
        -0.25024E-02
        -0.26358E-02
        -0.27627E-02
        -0.21143E-02
        -0.16093E-02
        -0.11955E-02
        -0.59130E-03
         0.20343E-03
         0.10543E-02
         0.18419E-02
         0.24561E-02
         0.26032E-02
         0.37964E-02
         0.39100E-02
         0.34621E-02
         0.29267E-02
         0.22211E-02
         0.13865E-02
         0.47130E-03
        -0.47130E-03
        -0.13865E-02
        -0.22211E-02
        -0.29267E-02
        -0.34621E-02
        -0.37964E-02
        -0.39100E-02
        -0.37964E-02
        -0.34621E-02
        -0.29267E-02
        -0.22211E-02
        -0.13865E-02
        -0.47130E-03
         0.47130E-03
         0.13865E-02
         0.22211E-02
         0.29267E-02
         0.34621E-02
         0.37964E-02
         0.10360E-02
         0.17425E-02
         0.23158E-02
         0.16666E-02
         0.30373E-02
         0.27842E-02
         0.12835E-02
         0.64771E-03
         0.12363E-03
        -0.13100E-03
         0.94003E-03
         0.11276E-02
         0.17432E-02
         0.40507E-03
         0.39754E-03
        -0.76834E-03
        -0.86767E-03
         0.45447E-03
        -0.18344E-02
        -0.18426E-02
        -0.27234E-02
        -0.27987E-02
        -0.25388E-02
        -0.19352E-02
        -0.99147E-03
        -0.14433E-02
        -0.31274E-03
        -0.11016E-02
        -0.18838E-02
        -0.18694E-02
        -0.16284E-03
        -0.94986E-03
         0.77865E-03
         0.17205E-02
         0.32099E-02
         0.28042E-02
         0.23042E-02
        -0.40407E-03
        -0.12093E-02
        -0.19442E-02
        -0.25024E-02
        -0.26358E-02
        -0.27624E-02
        -0.21144E-02
        -0.16094E-02
        -0.11956E-02
        -0.59165E-03
         0.20302E-03
         0.10540E-02
         0.18419E-02
         0.24563E-02
         0.26033E-02
         0.37964E-02
         0.39100E-02
         0.34621E-02
         0.29267E-02
         0.22211E-02
         0.13865E-02
         0.47130E-03
        -0.47130E-03
        -0.13865E-02
        -0.22211E-02
        -0.29267E-02
        -0.34621E-02
        -0.37964E-02
        -0.39100E-02
        -0.37964E-02
        -0.34621E-02
        -0.29267E-02
        -0.22211E-02
        -0.13865E-02
        -0.47130E-03
         0.47130E-03
         0.13865E-02
         0.22211E-02
         0.29267E-02
         0.34621E-02
         0.37964E-02
         0.10359E-02
         0.17423E-02
         0.23157E-02
         0.16664E-02
         0.30373E-02
         0.27846E-02
         0.12834E-02
         0.64747E-03
         0.12337E-03
        -0.13118E-03
         0.93970E-03
         0.11272E-02
         0.17428E-02
         0.40501E-03
         0.39752E-03
        -0.76869E-03
        -0.86778E-03
         0.45402E-03
        -0.18347E-02
        -0.18425E-02
        -0.27234E-02
        -0.27984E-02
        -0.25389E-02
        -0.19356E-02
        -0.99133E-03
        -0.14436E-02
        -0.31254E-03
        -0.11013E-02
        -0.18837E-02
        -0.18692E-02
        -0.16311E-03
        -0.95046E-03
         0.77799E-03
         0.17204E-02
         0.32102E-02
         0.28042E-02
         0.23041E-02
        -0.40393E-03
        -0.12093E-02
        -0.19442E-02
        -0.25024E-02
        -0.26357E-02
        -0.27621E-02
        -0.21146E-02
        -0.16094E-02
        -0.11957E-02
        -0.59200E-03
         0.20262E-03
         0.10536E-02
         0.18420E-02
         0.24564E-02
         0.26033E-02
         0.37964E-02
         0.39100E-02
         0.34621E-02
         0.29267E-02
         0.22211E-02
         0.13865E-02
         0.47130E-03
        -0.47130E-03
        -0.13865E-02
        -0.22211E-02
        -0.29267E-02
        -0.34621E-02
        -0.37964E-02
        -0.39100E-02
        -0.37964E-02
        -0.34621E-02
        -0.29267E-02
        -0.22211E-02
        -0.13865E-02
        -0.47130E-03
         0.47130E-03
         0.13865E-02
         0.22211E-02
         0.29267E-02
         0.34621E-02
         0.37964E-02
         0.10358E-02
         0.17422E-02
         0.23156E-02
         0.16662E-02
         0.30373E-02
         0.27849E-02
         0.12833E-02
         0.64722E-03
         0.12311E-03
        -0.13137E-03
         0.93937E-03
         0.11269E-02
         0.17424E-02
         0.40496E-03
         0.39750E-03
        -0.76904E-03
        -0.86789E-03
         0.45358E-03
        -0.18350E-02
        -0.18424E-02
        -0.27233E-02
        -0.27981E-02
        -0.25391E-02
        -0.19360E-02
        -0.99118E-03
        -0.14440E-02
        -0.31234E-03
        -0.11009E-02
        -0.18836E-02
        -0.18691E-02
        -0.16339E-03
        -0.95106E-03
         0.77733E-03
         0.17204E-02
         0.32105E-02
         0.28042E-02
         0.23040E-02
        -0.40379E-03
        -0.12093E-02
        -0.19441E-02
        -0.25023E-02
        -0.26356E-02
        -0.27618E-02
        -0.21147E-02
        -0.16094E-02
        -0.11958E-02
        -0.59235E-03
         0.20221E-03
         0.10533E-02
         0.18420E-02
         0.24565E-02
         0.26034E-02
         0.37964E-02
         0.39100E-02
         0.34621E-02
         0.29267E-02
         0.22211E-02
         0.13865E-02
         0.47130E-03
        -0.47130E-03
        -0.13865E-02
        -0.22211E-02
        -0.29267E-02
        -0.34621E-02
        -0.37964E-02
        -0.39100E-02
        -0.37964E-02
        -0.34621E-02
        -0.29267E-02
        -0.22211E-02
        -0.13865E-02
        -0.47130E-03
         0.47130E-03
         0.13865E-02
         0.22211E-02
         0.29267E-02
         0.34621E-02
         0.37964E-02
         0.10357E-02
         0.17420E-02
         0.23155E-02
         0.16660E-02
         0.30372E-02
         0.27853E-02
         0.12832E-02
         0.64698E-03
         0.12285E-03
        -0.13155E-03
         0.93903E-03
         0.11266E-02
         0.17420E-02
         0.40490E-03
         0.39749E-03
        -0.76940E-03
        -0.86800E-03
         0.45313E-03
        -0.18353E-02
        -0.18423E-02
        -0.27233E-02
        -0.27979E-02
        -0.25393E-02
        -0.19365E-02
        -0.99104E-03
        -0.14443E-02
        -0.31214E-03
        -0.11006E-02
        -0.18836E-02
        -0.18690E-02
        -0.16366E-03
        -0.95166E-03
         0.77667E-03
         0.17203E-02
         0.32109E-02
         0.28042E-02
         0.23039E-02
        -0.40365E-03
        -0.12093E-02
        -0.19441E-02
        -0.25023E-02
        -0.26355E-02
        -0.27615E-02
        -0.21148E-02
        -0.16095E-02
        -0.11960E-02
        -0.59270E-03
         0.20180E-03
         0.10530E-02
         0.18421E-02
         0.24566E-02
         0.26035E-02
         0.37964E-02
         0.39100E-02
         0.34621E-02
         0.29267E-02
         0.22211E-02
         0.13865E-02
         0.47130E-03
        -0.47130E-03
        -0.13865E-02
        -0.22211E-02
        -0.29267E-02
        -0.34621E-02
        -0.37964E-02
        -0.39100E-02
        -0.37964E-02
        -0.34621E-02
        -0.29267E-02
        -0.22211E-02
        -0.13865E-02
        -0.47130E-03
         0.47130E-03
         0.13865E-02
         0.22211E-02
         0.29267E-02
         0.34621E-02
         0.37964E-02
         0.10356E-02
         0.17418E-02
         0.23153E-02
         0.16657E-02
         0.30372E-02
         0.27856E-02
         0.12830E-02
         0.64673E-03
         0.12259E-03
        -0.13174E-03
         0.93870E-03
         0.11262E-02
         0.17416E-02
         0.40485E-03
         0.39747E-03
        -0.76975E-03
        -0.86811E-03
         0.45268E-03
        -0.18356E-02
        -0.18422E-02
        -0.27233E-02
        -0.27976E-02
        -0.25394E-02
        -0.19369E-02
        -0.99090E-03
        -0.14446E-02
        -0.31194E-03
        -0.11002E-02
        -0.18835E-02
        -0.18689E-02
        -0.16394E-03
        -0.95226E-03
         0.77601E-03
         0.17203E-02
         0.32112E-02
         0.28042E-02
         0.23038E-02
        -0.40352E-03
        -0.12093E-02
        -0.19441E-02
        -0.25023E-02
        -0.26354E-02
        -0.27612E-02
        -0.21150E-02
        -0.16095E-02
        -0.11961E-02
        -0.59305E-03
         0.20140E-03
         0.10527E-02
         0.18421E-02
         0.24568E-02
         0.26036E-02
         0.37964E-02
         0.39100E-02
         0.34621E-02
         0.29267E-02
         0.22211E-02
         0.13865E-02
         0.47130E-03
        -0.47130E-03
        -0.13865E-02
        -0.22211E-02
        -0.29267E-02
        -0.34621E-02
        -0.37964E-02
        -0.39100E-02
        -0.37964E-02
        -0.34621E-02
        -0.29267E-02
        -0.22211E-02
        -0.13865E-02
        -0.47130E-03
         0.47130E-03
         0.13865E-02
         0.22211E-02
         0.29267E-02
         0.34621E-02
         0.37964E-02
         0.10355E-02
         0.17416E-02
         0.23152E-02
         0.16655E-02
         0.30372E-02
         0.27860E-02
         0.12829E-02
         0.64649E-03
         0.12232E-03
        -0.13193E-03
         0.93837E-03
         0.11259E-02
         0.17412E-02
         0.40480E-03
         0.39745E-03
        -0.77011E-03
        -0.86822E-03
         0.45223E-03
        -0.18359E-02
        -0.18421E-02
        -0.27232E-02
        -0.27973E-02
        -0.25396E-02
        -0.19373E-02
        -0.99075E-03
        -0.14450E-02
        -0.31173E-03
        -0.10999E-02
        -0.18835E-02
        -0.18687E-02
        -0.16421E-03
        -0.95285E-03
         0.77535E-03
         0.17202E-02
         0.32115E-02
         0.28041E-02
         0.23037E-02
        -0.40338E-03
        -0.12093E-02
        -0.19440E-02
        -0.25023E-02
        -0.26353E-02
        -0.27609E-02
        -0.21151E-02
        -0.16096E-02
        -0.11962E-02
        -0.59340E-03
         0.20099E-03
         0.10524E-02
         0.18422E-02
         0.24569E-02
         0.26036E-02
         0.37964E-02
         0.39100E-02
         0.34621E-02
         0.29267E-02
         0.22211E-02
         0.13865E-02
         0.47130E-03
        -0.47130E-03
        -0.13865E-02
        -0.22211E-02
        -0.29267E-02
        -0.34621E-02
        -0.37964E-02
        -0.39100E-02
        -0.37964E-02
        -0.34621E-02
        -0.29267E-02
        -0.22211E-02
        -0.13865E-02
        -0.47130E-03
         0.47130E-03
         0.13865E-02
         0.22211E-02
         0.29267E-02
         0.34621E-02
         0.37964E-02
         0.10354E-02
         0.17414E-02
         0.23151E-02
         0.16653E-02
         0.30372E-02
         0.27863E-02
         0.12829E-02
         0.64624E-03
         0.12206E-03
        -0.13211E-03
         0.93804E-03
         0.11255E-02
         0.17408E-02
         0.40474E-03
         0.39744E-03
        -0.77046E-03
        -0.86832E-03
         0.45179E-03
        -0.18362E-02
        -0.18420E-02
        -0.27232E-02
        -0.27970E-02
        -0.25397E-02
        -0.19377E-02
        -0.99061E-03
        -0.14453E-02
        -0.31153E-03
        -0.10995E-02
        -0.18834E-02
        -0.18686E-02
        -0.16449E-03
        -0.95345E-03
         0.77469E-03
         0.17202E-02
         0.32119E-02
         0.28041E-02
         0.23036E-02
        -0.40324E-03
        -0.12093E-02
        -0.19440E-02
        -0.25022E-02
        -0.26352E-02
        -0.27606E-02
        -0.21152E-02
        -0.16096E-02
        -0.11963E-02
        -0.59375E-03
         0.20059E-03
         0.10521E-02
         0.18422E-02
         0.24570E-02
         0.26037E-02
         0.37964E-02
         0.39100E-02
         0.34621E-02
         0.29267E-02
         0.22211E-02
         0.13865E-02
         0.47130E-03
        -0.47130E-03
        -0.13865E-02
        -0.22211E-02
        -0.29267E-02
        -0.34621E-02
        -0.37964E-02
        -0.39100E-02
        -0.37964E-02
        -0.34621E-02
        -0.29267E-02
        -0.22211E-02
        -0.13865E-02
        -0.47130E-03
         0.47130E-03
         0.13865E-02
         0.22211E-02
         0.29267E-02
         0.34621E-02
         0.37964E-02
         0.10352E-02
         0.17413E-02
         0.23150E-02
         0.16651E-02
         0.30371E-02
         0.27866E-02
         0.12827E-02
         0.64600E-03
         0.12180E-03
        -0.13230E-03
         0.93771E-03
         0.11252E-02
         0.17404E-02
         0.40469E-03
         0.39742E-03
        -0.77081E-03
        -0.86843E-03
         0.45134E-03
        -0.18365E-02
        -0.18419E-02
        -0.27232E-02
        -0.27968E-02
        -0.25399E-02
        -0.19382E-02
        -0.99046E-03
        -0.14457E-02
        -0.31133E-03
        -0.10992E-02
        -0.18834E-02
        -0.18685E-02
        -0.16476E-03
        -0.95405E-03
         0.77402E-03
         0.17202E-02
         0.32122E-02
         0.28041E-02
         0.23034E-02
        -0.40310E-03
        -0.12093E-02
        -0.19440E-02
        -0.25022E-02
        -0.26351E-02
        -0.27602E-02
        -0.21154E-02
        -0.16097E-02
        -0.11964E-02
        -0.59409E-03
         0.20018E-03
         0.10518E-02
         0.18422E-02
         0.24571E-02
         0.26038E-02
         0.37964E-02
         0.39100E-02
         0.34621E-02
         0.29267E-02
         0.22211E-02
         0.13865E-02
         0.47130E-03
        -0.47130E-03
        -0.13865E-02
        -0.22211E-02
        -0.29267E-02
        -0.34621E-02
        -0.37964E-02
        -0.39100E-02
        -0.37964E-02
        -0.34621E-02
        -0.29267E-02
        -0.22211E-02
        -0.13865E-02
        -0.47130E-03
         0.47130E-03
         0.13865E-02
         0.22211E-02
         0.29267E-02
         0.34621E-02
         0.37964E-02
         0.10351E-02
         0.17411E-02
         0.23149E-02
         0.16649E-02
         0.30371E-02
         0.27870E-02
         0.12826E-02
         0.64575E-03
         0.12154E-03
        -0.13248E-03
         0.93738E-03
         0.11249E-02
         0.17400E-02
         0.40463E-03
         0.39740E-03
        -0.77117E-03
        -0.86854E-03
         0.45089E-03
        -0.18368E-02
        -0.18418E-02
        -0.27232E-02
        -0.27965E-02
        -0.25400E-02
        -0.19386E-02
        -0.99032E-03
        -0.14460E-02
        -0.31113E-03
        -0.10988E-02
        -0.18833E-02
        -0.18683E-02
        -0.16504E-03
        -0.95465E-03
         0.77336E-03
         0.17201E-02
         0.32125E-02
         0.28041E-02
         0.23033E-02
        -0.40296E-03
        -0.12093E-02
        -0.19439E-02
        -0.25022E-02
        -0.26350E-02
        -0.27599E-02
        -0.21155E-02
        -0.16097E-02
        -0.11965E-02
        -0.59444E-03
         0.19977E-03
         0.10515E-02
         0.18423E-02
         0.24573E-02
         0.26039E-02
         0.37964E-02
         0.39100E-02
         0.34621E-02
         0.29267E-02
         0.22211E-02
         0.13865E-02
         0.47130E-03
        -0.47130E-03
        -0.13865E-02
        -0.22211E-02
        -0.29267E-02
        -0.34621E-02
        -0.37964E-02
        -0.39100E-02
        -0.37964E-02
        -0.34621E-02
        -0.29267E-02
        -0.22211E-02
        -0.13865E-02
        -0.47130E-03
         0.47130E-03
         0.13865E-02
         0.22211E-02
         0.29267E-02
         0.34621E-02
         0.37964E-02
  
SCALARS           initial_coordinate_y  double 1
LOOKUP_TABLE default
         0.67292E-03
         0.12308E-02
         0.59151E-03
        -0.33775E-03
         0.67237E-03
         0.12301E-02
         0.59098E-03
        -0.33851E-03
         0.14882E-03
        -0.67643E-03
         0.14846E-03
        -0.67692E-03
         0.18412E-02
         0.14576E-02
         0.18410E-02
         0.14566E-02
         0.29933E-03
         0.11672E-02
         0.29819E-03
         0.11655E-02
         0.22748E-02
         0.28286E-02
         0.24238E-02
         0.22746E-02
         0.28291E-02
         0.24236E-02
         0.21685E-02
         0.29366E-02
         0.21684E-02
         0.29369E-02
        -0.10033E-02
         0.78969E-04
        -0.70318E-03
        -0.10032E-02
         0.78160E-04
        -0.70391E-03
        -0.71196E-03
         0.82749E-04
        -0.71210E-03
         0.82626E-04
        -0.77865E-03
         0.40713E-04
        -0.77882E-03
         0.40439E-04
        -0.15195E-02
        -0.13230E-02
        -0.15195E-02
        -0.13231E-02
         0.98847E-03
         0.98712E-03
        -0.17325E-02
        -0.17325E-02
         0.20220E-02
         0.20217E-02
         0.18615E-02
         0.18616E-02
         0.17175E-02
         0.90940E-03
         0.17175E-02
         0.90916E-03
        -0.19800E-02
        -0.23489E-02
        -0.19800E-02
        -0.23489E-02
        -0.17074E-02
        -0.17074E-02
        -0.14894E-02
        -0.14892E-02
         0.76036E-03
         0.12477E-02
         0.75936E-03
         0.12473E-02
         0.18665E-02
         0.18664E-02
         0.29038E-02
         0.29049E-02
         0.27207E-02
         0.27212E-02
         0.24642E-02
         0.24645E-02
         0.22359E-02
         0.16503E-02
         0.22359E-02
         0.16503E-02
         0.87493E-03
         0.87466E-03
        -0.21373E-02
        -0.21373E-02
        -0.26931E-02
        -0.26931E-02
        -0.31291E-02
        -0.30382E-02
        -0.31291E-02
        -0.30382E-02
        -0.28748E-02
        -0.28748E-02
        -0.26423E-02
        -0.26420E-02
        -0.23707E-02
        -0.23705E-02
        -0.21445E-02
        -0.15105E-02
        -0.21439E-02
        -0.15106E-02
         0.93572E-03
         0.00000E+00
         0.93572E-03
         0.00000E+00
         0.18171E-02
         0.18171E-02
         0.25928E-02
         0.25928E-02
         0.32179E-02
         0.32179E-02
         0.36559E-02
         0.36559E-02
         0.38815E-02
         0.38815E-02
         0.38815E-02
         0.38815E-02
         0.36559E-02
         0.36559E-02
         0.32179E-02
         0.32179E-02
         0.25928E-02
         0.25928E-02
         0.18171E-02
         0.18171E-02
         0.93572E-03
         0.93572E-03
         0.22152E-17
        -0.47884E-18
        -0.93572E-03
        -0.93572E-03
        -0.18171E-02
        -0.18171E-02
        -0.25928E-02
        -0.25928E-02
        -0.32179E-02
        -0.32179E-02
        -0.36559E-02
        -0.36559E-02
        -0.38815E-02
        -0.38815E-02
        -0.38815E-02
        -0.38815E-02
        -0.36559E-02
        -0.36559E-02
        -0.32179E-02
        -0.32179E-02
        -0.25928E-02
        -0.25928E-02
        -0.18171E-02
        -0.18171E-02
        -0.93572E-03
        -0.93572E-03
         0.67348E-03
         0.12314E-02
         0.59203E-03
        -0.33700E-03
         0.14918E-03
        -0.67594E-03
         0.18414E-02
         0.14586E-02
         0.30048E-03
         0.11690E-02
         0.22749E-02
         0.28282E-02
         0.24239E-02
         0.21685E-02
         0.29364E-02
        -0.10035E-02
         0.79778E-04
        -0.70245E-03
        -0.71182E-03
         0.82873E-04
        -0.77848E-03
         0.40986E-04
        -0.15194E-02
        -0.13228E-02
         0.98983E-03
        -0.17324E-02
         0.20223E-02
         0.18614E-02
         0.17175E-02
         0.90964E-03
        -0.19800E-02
        -0.23489E-02
        -0.17074E-02
        -0.14896E-02
         0.76137E-03
         0.12481E-02
         0.18665E-02
         0.29027E-02
         0.27202E-02
         0.24640E-02
         0.22359E-02
         0.16503E-02
         0.87519E-03
        -0.21373E-02
        -0.26932E-02
        -0.31291E-02
        -0.30382E-02
        -0.28748E-02
        -0.26426E-02
        -0.23709E-02
        -0.21450E-02
        -0.15104E-02
         0.93572E-03
         0.00000E+00
         0.18171E-02
         0.25928E-02
         0.32179E-02
         0.36559E-02
         0.38815E-02
         0.38815E-02
         0.36559E-02
         0.32179E-02
         0.25928E-02
         0.18171E-02
         0.93572E-03
        -0.47884E-18
        -0.93572E-03
        -0.18171E-02
        -0.25928E-02
        -0.32179E-02
        -0.36559E-02
        -0.38815E-02
        -0.38815E-02
        -0.36559E-02
        -0.32179E-02
        -0.25928E-02
        -0.18171E-02
        -0.93572E-03
         0.67403E-03
         0.12321E-02
         0.59255E-03
        -0.33624E-03
         0.14955E-03
        -0.67544E-03
         0.18415E-02
         0.14596E-02
         0.30163E-03
         0.11707E-02
         0.22750E-02
         0.28277E-02
         0.24241E-02
         0.21685E-02
         0.29361E-02
        -0.10036E-02
         0.80588E-04
        -0.70173E-03
        -0.71168E-03
         0.82996E-04
        -0.77831E-03
         0.41259E-04
        -0.15194E-02
        -0.13227E-02
         0.99119E-03
        -0.17324E-02
         0.20226E-02
         0.18613E-02
         0.17175E-02
         0.90988E-03
        -0.19801E-02
        -0.23490E-02
        -0.17074E-02
        -0.14899E-02
         0.76237E-03
         0.12485E-02
         0.18666E-02
         0.29017E-02
         0.27198E-02
         0.24638E-02
         0.22359E-02
         0.16503E-02
         0.87545E-03
        -0.21374E-02
        -0.26932E-02
        -0.31291E-02
        -0.30382E-02
        -0.28748E-02
        -0.26428E-02
        -0.23711E-02
        -0.21456E-02
        -0.15103E-02
         0.93572E-03
         0.00000E+00
         0.18171E-02
         0.25928E-02
         0.32179E-02
         0.36559E-02
         0.38815E-02
         0.38815E-02
         0.36559E-02
         0.32179E-02
         0.25928E-02
         0.18171E-02
         0.93572E-03
         0.39516E-17
        -0.93572E-03
        -0.18171E-02
        -0.25928E-02
        -0.32179E-02
        -0.36559E-02
        -0.38815E-02
        -0.38815E-02
        -0.36559E-02
        -0.32179E-02
        -0.25928E-02
        -0.18171E-02
        -0.93572E-03
         0.67459E-03
         0.12328E-02
         0.59308E-03
        -0.33549E-03
         0.14991E-03
        -0.67495E-03
         0.18417E-02
         0.14606E-02
         0.30278E-03
         0.11725E-02
         0.22752E-02
         0.28273E-02
         0.24242E-02
         0.21686E-02
         0.29359E-02
        -0.10038E-02
         0.81397E-04
        -0.70100E-03
        -0.71154E-03
         0.83120E-04
        -0.77814E-03
         0.41533E-04
        -0.15193E-02
        -0.13227E-02
         0.99254E-03
        -0.17324E-02
         0.20228E-02
         0.18611E-02
         0.17175E-02
         0.91012E-03
        -0.19801E-02
        -0.23490E-02
        -0.17074E-02
        -0.14901E-02
         0.76338E-03
         0.12490E-02
         0.18666E-02
         0.29006E-02
         0.27193E-02
         0.24636E-02
         0.22359E-02
         0.16503E-02
         0.87571E-03
        -0.21374E-02
        -0.26932E-02
        -0.31291E-02
        -0.30382E-02
        -0.28748E-02
        -0.26431E-02
        -0.23713E-02
        -0.21461E-02
        -0.15102E-02
         0.93572E-03
         0.00000E+00
         0.18171E-02
         0.25928E-02
         0.32179E-02
         0.36559E-02
         0.38815E-02
         0.38815E-02
         0.36559E-02
         0.32179E-02
         0.25928E-02
         0.18171E-02
         0.93572E-03
        -0.47884E-18
        -0.93572E-03
        -0.18171E-02
        -0.25928E-02
        -0.32179E-02
        -0.36559E-02
        -0.38815E-02
        -0.38815E-02
        -0.36559E-02
        -0.32179E-02
        -0.25928E-02
        -0.18171E-02
        -0.93572E-03
         0.67514E-03
         0.12334E-02
         0.59360E-03
        -0.33474E-03
         0.15027E-03
        -0.67446E-03
         0.18419E-02
         0.14616E-02
         0.30393E-03
         0.11742E-02
         0.22753E-02
         0.28269E-02
         0.24244E-02
         0.21686E-02
         0.29356E-02
        -0.10039E-02
         0.82206E-04
        -0.70028E-03
        -0.71140E-03
         0.83243E-04
        -0.77797E-03
         0.41806E-04
        -0.15193E-02
        -0.13226E-02
         0.99390E-03
        -0.17323E-02
         0.20231E-02
         0.18610E-02
         0.17175E-02
         0.91036E-03
        -0.19801E-02
        -0.23490E-02
        -0.17074E-02
        -0.14904E-02
         0.76439E-03
         0.12494E-02
         0.18666E-02
         0.28995E-02
         0.27188E-02
         0.24633E-02
         0.22359E-02
         0.16503E-02
         0.87597E-03
        -0.21374E-02
        -0.26932E-02
        -0.31291E-02
        -0.30382E-02
        -0.28748E-02
        -0.26434E-02
        -0.23715E-02
        -0.21467E-02
        -0.15101E-02
         0.93572E-03
         0.00000E+00
         0.18171E-02
         0.25928E-02
         0.32179E-02
         0.36559E-02
         0.38815E-02
         0.38815E-02
         0.36559E-02
         0.32179E-02
         0.25928E-02
         0.18171E-02
         0.93572E-03
        -0.47884E-18
        -0.93572E-03
        -0.18171E-02
        -0.25928E-02
        -0.32179E-02
        -0.36559E-02
        -0.38815E-02
        -0.38815E-02
        -0.36559E-02
        -0.32179E-02
        -0.25928E-02
        -0.18171E-02
        -0.93572E-03
         0.67570E-03
         0.12341E-02
         0.59412E-03
        -0.33398E-03
         0.15064E-03
        -0.67396E-03
         0.18421E-02
         0.14626E-02
         0.30507E-03
         0.11760E-02
         0.22754E-02
         0.28264E-02
         0.24245E-02
         0.21686E-02
         0.29353E-02
        -0.10040E-02
         0.83015E-04
        -0.69955E-03
        -0.71126E-03
         0.83367E-04
        -0.77780E-03
         0.42080E-04
        -0.15192E-02
        -0.13224E-02
         0.99526E-03
        -0.17323E-02
         0.20234E-02
         0.18609E-02
         0.17175E-02
         0.91060E-03
        -0.19801E-02
        -0.23490E-02
        -0.17074E-02
        -0.14906E-02
         0.76539E-03
         0.12498E-02
         0.18667E-02
         0.28984E-02
         0.27184E-02
         0.24631E-02
         0.22359E-02
         0.16503E-02
         0.87623E-03
        -0.21374E-02
        -0.26932E-02
        -0.31291E-02
        -0.30382E-02
        -0.28748E-02
        -0.26436E-02
        -0.23717E-02
        -0.21472E-02
        -0.15100E-02
         0.93572E-03
         0.00000E+00
         0.18171E-02
         0.25928E-02
         0.32179E-02
         0.36559E-02
         0.38815E-02
         0.38815E-02
         0.36559E-02
         0.32179E-02
         0.25928E-02
         0.18171E-02
         0.93572E-03
        -0.47884E-18
        -0.93572E-03
        -0.18171E-02
        -0.25928E-02
        -0.32179E-02
        -0.36559E-02
        -0.38815E-02
        -0.38815E-02
        -0.36559E-02
        -0.32179E-02
        -0.25928E-02
        -0.18171E-02
        -0.93572E-03
         0.67625E-03
         0.12348E-02
         0.59465E-03
        -0.33323E-03
         0.15100E-03
        -0.67347E-03
         0.18423E-02
         0.14636E-02
         0.30622E-03
         0.11777E-02
         0.22755E-02
         0.28260E-02
         0.24247E-02
         0.21687E-02
         0.29351E-02
        -0.10042E-02
         0.83825E-04
        -0.69882E-03
        -0.71112E-03
         0.83490E-04
        -0.77763E-03
         0.42353E-04
        -0.15192E-02
        -0.13223E-02
         0.99661E-03
        -0.17322E-02
         0.20237E-02
         0.18607E-02
         0.17175E-02
         0.91084E-03
        -0.19801E-02
        -0.23491E-02
        -0.17074E-02
        -0.14909E-02
         0.76640E-03
         0.12503E-02
         0.18667E-02
         0.28974E-02
         0.27179E-02
         0.24629E-02
         0.22359E-02
         0.16503E-02
         0.87650E-03
        -0.21374E-02
        -0.26933E-02
        -0.31291E-02
        -0.30382E-02
        -0.28749E-02
        -0.26439E-02
        -0.23719E-02
        -0.21478E-02
        -0.15099E-02
         0.93572E-03
         0.00000E+00
         0.18171E-02
         0.25928E-02
         0.32179E-02
         0.36559E-02
         0.38815E-02
         0.38815E-02
         0.36559E-02
         0.32179E-02
         0.25928E-02
         0.18171E-02
         0.93572E-03
        -0.47884E-18
        -0.93572E-03
        -0.18171E-02
        -0.25928E-02
        -0.32179E-02
        -0.36559E-02
        -0.38815E-02
        -0.38815E-02
        -0.36559E-02
        -0.32179E-02
        -0.25928E-02
        -0.18171E-02
        -0.93572E-03
         0.67680E-03
         0.12354E-02
         0.59517E-03
        -0.33247E-03
         0.15136E-03
        -0.67298E-03
         0.18425E-02
         0.14646E-02
         0.30737E-03
         0.11795E-02
         0.22757E-02
         0.28255E-02
         0.24248E-02
         0.21687E-02
         0.29348E-02
        -0.10043E-02
         0.84634E-04
        -0.69810E-03
        -0.71098E-03
         0.83614E-04
        -0.77746E-03
         0.42626E-04
        -0.15191E-02
        -0.13223E-02
         0.99797E-03
        -0.17322E-02
         0.20240E-02
         0.18606E-02
         0.17175E-02
         0.91108E-03
        -0.19802E-02
        -0.23491E-02
        -0.17074E-02
        -0.14911E-02
         0.76740E-03
         0.12507E-02
         0.18668E-02
         0.28963E-02
         0.27174E-02
         0.24627E-02
         0.22358E-02
         0.16503E-02
         0.87676E-03
        -0.21374E-02
        -0.26933E-02
        -0.31291E-02
        -0.30382E-02
        -0.28749E-02
        -0.26442E-02
        -0.23721E-02
        -0.21483E-02
        -0.15097E-02
         0.93572E-03
         0.00000E+00
         0.18171E-02
         0.25928E-02
         0.32179E-02
         0.36559E-02
         0.38815E-02
         0.38815E-02
         0.36559E-02
         0.32179E-02
         0.25928E-02
         0.18171E-02
         0.93572E-03
        -0.47884E-18
        -0.93572E-03
        -0.18171E-02
        -0.25928E-02
        -0.32179E-02
        -0.36559E-02
        -0.38815E-02
        -0.38815E-02
        -0.36559E-02
        -0.32179E-02
        -0.25928E-02
        -0.18171E-02
        -0.93572E-03
         0.67736E-03
         0.12361E-02
         0.59570E-03
        -0.33172E-03
         0.15173E-03
        -0.67248E-03
         0.18427E-02
         0.14656E-02
         0.30852E-03
         0.11812E-02
         0.22758E-02
         0.28251E-02
         0.24249E-02
         0.21688E-02
         0.29345E-02
        -0.10044E-02
         0.85443E-04
        -0.69737E-03
        -0.71084E-03
         0.83737E-04
        -0.77729E-03
         0.42899E-04
        -0.15191E-02
        -0.13222E-02
         0.99932E-03
        -0.17322E-02
         0.20243E-02
         0.18605E-02
         0.17175E-02
         0.91132E-03
        -0.19802E-02
        -0.23491E-02
        -0.17074E-02
        -0.14914E-02
         0.76841E-03
         0.12511E-02
         0.18668E-02
         0.28952E-02
         0.27170E-02
         0.24624E-02
         0.22358E-02
         0.16503E-02
         0.87702E-03
        -0.21374E-02
        -0.26933E-02
        -0.31291E-02
        -0.30382E-02
        -0.28749E-02
        -0.26444E-02
        -0.23723E-02
        -0.21489E-02
        -0.15096E-02
         0.93572E-03
         0.00000E+00
         0.18171E-02
         0.25928E-02
         0.32179E-02
         0.36559E-02
         0.38815E-02
         0.38815E-02
         0.36559E-02
         0.32179E-02
         0.25928E-02
         0.18171E-02
         0.93572E-03
        -0.47884E-18
        -0.93572E-03
        -0.18171E-02
        -0.25928E-02
        -0.32179E-02
        -0.36559E-02
        -0.38815E-02
        -0.38815E-02
        -0.36559E-02
        -0.32179E-02
        -0.25928E-02
        -0.18171E-02
        -0.93572E-03
         0.67791E-03
         0.12368E-02
         0.59622E-03
        -0.33096E-03
         0.15209E-03
        -0.67199E-03
         0.18429E-02
         0.14666E-02
         0.30967E-03
         0.11830E-02
         0.22759E-02
         0.28247E-02
         0.24251E-02
         0.21688E-02
         0.29343E-02
        -0.10046E-02
         0.86253E-04
        -0.69665E-03
        -0.71070E-03
         0.83861E-04
        -0.77712E-03
         0.43173E-04
        -0.15190E-02
        -0.13220E-02
         0.10007E-02
        -0.17321E-02
         0.20245E-02
         0.18603E-02
         0.17175E-02
         0.91156E-03
        -0.19802E-02
        -0.23491E-02
        -0.17074E-02
        -0.14916E-02
         0.76941E-03
         0.12515E-02
         0.18668E-02
         0.28942E-02
         0.27165E-02
         0.24622E-02
         0.22358E-02
         0.16503E-02
         0.87728E-03
        -0.21374E-02
        -0.26933E-02
        -0.31291E-02
        -0.30382E-02
        -0.28749E-02
        -0.26447E-02
        -0.23725E-02
        -0.21494E-02
        -0.15095E-02
         0.93572E-03
         0.00000E+00
         0.18171E-02
         0.25928E-02
         0.32179E-02
         0.36559E-02
         0.38815E-02
         0.38815E-02
         0.36559E-02
         0.32179E-02
         0.25928E-02
         0.18171E-02
         0.93572E-03
        -0.47884E-18
        -0.93572E-03
        -0.18171E-02
        -0.25928E-02
        -0.32179E-02
        -0.36559E-02
        -0.38815E-02
        -0.38815E-02
        -0.36559E-02
        -0.32179E-02
        -0.25928E-02
        -0.18171E-02
        -0.93572E-03
         0.67847E-03
         0.12374E-02
         0.59674E-03
        -0.33021E-03
         0.15245E-03
        -0.67150E-03
         0.18430E-02
         0.14676E-02
         0.31081E-03
         0.11847E-02
         0.22761E-02
         0.28242E-02
         0.24252E-02
         0.21688E-02
         0.29340E-02
        -0.10047E-02
         0.87062E-04
        -0.69592E-03
        -0.71056E-03
         0.83985E-04
        -0.77695E-03
         0.43446E-04
        -0.15190E-02
        -0.13219E-02
         0.10020E-02
        -0.17321E-02
         0.20248E-02
         0.18602E-02
         0.17175E-02
         0.91180E-03
        -0.19803E-02
        -0.23491E-02
        -0.17073E-02
        -0.14919E-02
         0.77042E-03
         0.12520E-02
         0.18669E-02
         0.28931E-02
         0.27160E-02
         0.24620E-02
         0.22358E-02
         0.16503E-02
         0.87754E-03
        -0.21374E-02
        -0.26933E-02
        -0.31291E-02
        -0.30382E-02
        -0.28749E-02
        -0.26450E-02
        -0.23727E-02
        -0.21500E-02
        -0.15094E-02
         0.93572E-03
         0.00000E+00
         0.18171E-02
         0.25928E-02
         0.32179E-02
         0.36559E-02
         0.38815E-02
         0.38815E-02
         0.36559E-02
         0.32179E-02
         0.25928E-02
         0.18171E-02
         0.93572E-03
         0.39516E-17
        -0.93572E-03
        -0.18171E-02
        -0.25928E-02
        -0.32179E-02
        -0.36559E-02
        -0.38815E-02
        -0.38815E-02
        -0.36559E-02
        -0.32179E-02
        -0.25928E-02
        -0.18171E-02
        -0.93572E-03
         0.67902E-03
         0.12381E-02
         0.59727E-03
        -0.32945E-03
         0.15282E-03
        -0.67100E-03
         0.18432E-02
         0.14686E-02
         0.31196E-03
         0.11865E-02
         0.22762E-02
         0.28238E-02
         0.24254E-02
         0.21688E-02
         0.29337E-02
        -0.10049E-02
         0.87871E-04
        -0.69519E-03
        -0.71042E-03
         0.84108E-04
        -0.77678E-03
         0.43720E-04
        -0.15189E-02
        -0.13219E-02
         0.10034E-02
        -0.17320E-02
         0.20251E-02
         0.18601E-02
         0.17175E-02
         0.91204E-03
        -0.19803E-02
        -0.23492E-02
        -0.17073E-02
        -0.14921E-02
         0.77142E-03
         0.12524E-02
         0.18669E-02
         0.28920E-02
         0.27155E-02
         0.24618E-02
         0.22358E-02
         0.16503E-02
         0.87781E-03
        -0.21374E-02
        -0.26934E-02
        -0.31291E-02
        -0.30382E-02
        -0.28749E-02
        -0.26452E-02
        -0.23729E-02
        -0.21505E-02
        -0.15093E-02
         0.93572E-03
         0.00000E+00
         0.18171E-02
         0.25928E-02
         0.32179E-02
         0.36559E-02
         0.38815E-02
         0.38815E-02
         0.36559E-02
         0.32179E-02
         0.25928E-02
         0.18171E-02
         0.93572E-03
        -0.47884E-18
        -0.93572E-03
        -0.18171E-02
        -0.25928E-02
        -0.32179E-02
        -0.36559E-02
        -0.38815E-02
        -0.38815E-02
        -0.36559E-02
        -0.32179E-02
        -0.25928E-02
        -0.18171E-02
        -0.93572E-03
         0.67958E-03
         0.12387E-02
         0.59779E-03
        -0.32870E-03
         0.15318E-03
        -0.67051E-03
         0.18434E-02
         0.14696E-02
         0.31311E-03
         0.11882E-02
         0.22763E-02
         0.28233E-02
         0.24255E-02
         0.21689E-02
         0.29335E-02
        -0.10050E-02
         0.88681E-04
        -0.69447E-03
        -0.71028E-03
         0.84232E-04
        -0.77661E-03
         0.43993E-04
        -0.15189E-02
        -0.13218E-02
         0.10048E-02
        -0.17320E-02
         0.20254E-02
         0.18599E-02
         0.17175E-02
         0.91228E-03
        -0.19803E-02
        -0.23492E-02
        -0.17073E-02
        -0.14923E-02
         0.77243E-03
         0.12528E-02
         0.18670E-02
         0.28910E-02
         0.27151E-02
         0.24615E-02
         0.22358E-02
         0.16503E-02
         0.87807E-03
        -0.21374E-02
        -0.26934E-02
        -0.31291E-02
        -0.30382E-02
        -0.28749E-02
        -0.26455E-02
        -0.23732E-02
        -0.21511E-02
        -0.15092E-02
         0.93572E-03
         0.00000E+00
         0.18171E-02
         0.25928E-02
         0.32179E-02
         0.36559E-02
         0.38815E-02
         0.38815E-02
         0.36559E-02
         0.32179E-02
         0.25928E-02
         0.18171E-02
         0.93572E-03
         0.22152E-17
        -0.93572E-03
        -0.18171E-02
        -0.25928E-02
        -0.32179E-02
        -0.36559E-02
        -0.38815E-02
        -0.38815E-02
        -0.36559E-02
        -0.32179E-02
        -0.25928E-02
        -0.18171E-02
        -0.93572E-03
         0.68013E-03
         0.12394E-02
         0.59831E-03
        -0.32794E-03
         0.15354E-03
        -0.67002E-03
         0.18436E-02
         0.14706E-02
         0.31426E-03
         0.11900E-02
         0.22765E-02
         0.28229E-02
         0.24257E-02
         0.21689E-02
         0.29332E-02
        -0.10051E-02
         0.89490E-04
        -0.69374E-03
        -0.71013E-03
         0.84355E-04
        -0.77644E-03
         0.44266E-04
        -0.15188E-02
        -0.13216E-02
         0.10061E-02
        -0.17320E-02
         0.20257E-02
         0.18598E-02
         0.17175E-02
         0.91252E-03
        -0.19803E-02
        -0.23492E-02
        -0.17073E-02
        -0.14926E-02
         0.77343E-03
         0.12533E-02
         0.18670E-02
         0.28899E-02
         0.27146E-02
         0.24613E-02
         0.22358E-02
         0.16503E-02
         0.87833E-03
        -0.21374E-02
        -0.26934E-02
        -0.31291E-02
        -0.30382E-02
        -0.28750E-02
        -0.26458E-02
        -0.23734E-02
        -0.21516E-02
        -0.15091E-02
         0.93572E-03
         0.00000E+00
         0.18171E-02
         0.25928E-02
         0.32179E-02
         0.36559E-02
         0.38815E-02
         0.38815E-02
         0.36559E-02
         0.32179E-02
         0.25928E-02
         0.18171E-02
         0.93572E-03
        -0.47884E-18
        -0.93572E-03
        -0.18171E-02
        -0.25928E-02
        -0.32179E-02
        -0.36559E-02
        -0.38815E-02
        -0.38815E-02
        -0.36559E-02
        -0.32179E-02
        -0.25928E-02
        -0.18171E-02
        -0.93572E-03
         0.68068E-03
         0.12401E-02
         0.59884E-03
        -0.32719E-03
         0.15391E-03
        -0.66953E-03
         0.18438E-02
         0.14716E-02
         0.31541E-03
         0.11917E-02
         0.22766E-02
         0.28225E-02
         0.24258E-02
         0.21690E-02
         0.29330E-02
        -0.10053E-02
         0.90299E-04
        -0.69302E-03
        -0.70999E-03
         0.84479E-04
        -0.77627E-03
         0.44540E-04
        -0.15188E-02
        -0.13215E-02
         0.10075E-02
        -0.17319E-02
         0.20260E-02
         0.18597E-02
         0.17175E-02
         0.91276E-03
        -0.19804E-02
        -0.23493E-02
        -0.17073E-02
        -0.14928E-02
         0.77444E-03
         0.12537E-02
         0.18670E-02
         0.28888E-02
         0.27141E-02
         0.24611E-02
         0.22358E-02
         0.16503E-02
         0.87859E-03
        -0.21374E-02
        -0.26934E-02
        -0.31291E-02
        -0.30382E-02
        -0.28750E-02
        -0.26460E-02
        -0.23736E-02
        -0.21521E-02
        -0.15090E-02
         0.93572E-03
         0.00000E+00
         0.18171E-02
         0.25928E-02
         0.32179E-02
         0.36559E-02
         0.38815E-02
         0.38815E-02
         0.36559E-02
         0.32179E-02
         0.25928E-02
         0.18171E-02
         0.93572E-03
         0.22152E-17
        -0.93572E-03
        -0.18171E-02
        -0.25928E-02
        -0.32179E-02
        -0.36559E-02
        -0.38815E-02
        -0.38815E-02
        -0.36559E-02
        -0.32179E-02
        -0.25928E-02
        -0.18171E-02
        -0.93572E-03
         0.68124E-03
         0.12407E-02
         0.59936E-03
        -0.32643E-03
         0.15427E-03
        -0.66903E-03
         0.18440E-02
         0.14727E-02
         0.31656E-03
         0.11935E-02
         0.22767E-02
         0.28220E-02
         0.24260E-02
         0.21690E-02
         0.29327E-02
        -0.10054E-02
         0.91108E-04
        -0.69229E-03
        -0.70985E-03
         0.84602E-04
        -0.77610E-03
         0.44813E-04
        -0.15187E-02
        -0.13215E-02
         0.10088E-02
        -0.17319E-02
         0.20262E-02
         0.18595E-02
         0.17175E-02
         0.91300E-03
        -0.19804E-02
        -0.23493E-02
        -0.17073E-02
        -0.14931E-02
         0.77544E-03
         0.12541E-02
         0.18671E-02
         0.28877E-02
         0.27137E-02
         0.24609E-02
         0.22358E-02
         0.16503E-02
         0.87885E-03
        -0.21374E-02
        -0.26934E-02
        -0.31291E-02
        -0.30382E-02
        -0.28750E-02
        -0.26463E-02
        -0.23738E-02
        -0.21527E-02
        -0.15088E-02
         0.93572E-03
         0.00000E+00
         0.18171E-02
         0.25928E-02
         0.32179E-02
         0.36559E-02
         0.38815E-02
         0.38815E-02
         0.36559E-02
         0.32179E-02
         0.25928E-02
         0.18171E-02
         0.93572E-03
        -0.47884E-18
        -0.93572E-03
        -0.18171E-02
        -0.25928E-02
        -0.32179E-02
        -0.36559E-02
        -0.38815E-02
        -0.38815E-02
        -0.36559E-02
        -0.32179E-02
        -0.25928E-02
        -0.18171E-02
        -0.93572E-03
         0.68179E-03
         0.12414E-02
         0.59988E-03
        -0.32568E-03
         0.15463E-03
        -0.66854E-03
         0.18442E-02
         0.14736E-02
         0.31770E-03
         0.11952E-02
         0.22768E-02
         0.28216E-02
         0.24261E-02
         0.21690E-02
         0.29324E-02
        -0.10056E-02
         0.91918E-04
        -0.69156E-03
        -0.70971E-03
         0.84726E-04
        -0.77593E-03
         0.45086E-04
        -0.15187E-02
        -0.13213E-02
         0.10102E-02
        -0.17318E-02
         0.20265E-02
         0.18594E-02
         0.17175E-02
         0.91324E-03
        -0.19804E-02
        -0.23493E-02
        -0.17073E-02
        -0.14933E-02
         0.77645E-03
         0.12545E-02
         0.18671E-02
         0.28867E-02
         0.27132E-02
         0.24606E-02
         0.22358E-02
         0.16503E-02
         0.87912E-03
        -0.21374E-02
        -0.26935E-02
        -0.31291E-02
        -0.30381E-02
        -0.28750E-02
        -0.26466E-02
        -0.23740E-02
        -0.21533E-02
        -0.15087E-02
         0.93572E-03
         0.00000E+00
         0.18171E-02
         0.25928E-02
         0.32179E-02
         0.36559E-02
         0.38815E-02
         0.38815E-02
         0.36559E-02
         0.32179E-02
         0.25928E-02
         0.18171E-02
         0.93572E-03
        -0.47884E-18
        -0.93572E-03
        -0.18171E-02
        -0.25928E-02
        -0.32179E-02
        -0.36559E-02
        -0.38815E-02
        -0.38815E-02
        -0.36559E-02
        -0.32179E-02
        -0.25928E-02
        -0.18171E-02
        -0.93572E-03
         0.68235E-03
         0.12421E-02
         0.60041E-03
        -0.32493E-03
         0.15500E-03
        -0.66805E-03
         0.18444E-02
         0.14747E-02
         0.31885E-03
         0.11970E-02
         0.22770E-02
         0.28211E-02
         0.24262E-02
         0.21691E-02
         0.29322E-02
        -0.10057E-02
         0.92727E-04
        -0.69084E-03
        -0.70957E-03
         0.84849E-04
        -0.77576E-03
         0.45359E-04
        -0.15186E-02
        -0.13212E-02
         0.10115E-02
        -0.17318E-02
         0.20268E-02
         0.18593E-02
         0.17175E-02
         0.91347E-03
        -0.19804E-02
        -0.23493E-02
        -0.17073E-02
        -0.14936E-02
         0.77745E-03
         0.12550E-02
         0.18671E-02
         0.28856E-02
         0.27127E-02
         0.24604E-02
         0.22358E-02
         0.16503E-02
         0.87938E-03
        -0.21374E-02
        -0.26935E-02
        -0.31291E-02
        -0.30381E-02
        -0.28750E-02
        -0.26468E-02
        -0.23742E-02
        -0.21538E-02
        -0.15086E-02
         0.93572E-03
         0.00000E+00
         0.18171E-02
         0.25928E-02
         0.32179E-02
         0.36559E-02
         0.38815E-02
         0.38815E-02
         0.36559E-02
         0.32179E-02
         0.25928E-02
         0.18171E-02
         0.93572E-03
        -0.47884E-18
        -0.93572E-03
        -0.18171E-02
        -0.25928E-02
        -0.32179E-02
        -0.36559E-02
        -0.38815E-02
        -0.38815E-02
        -0.36559E-02
        -0.32179E-02
        -0.25928E-02
        -0.18171E-02
        -0.93572E-03
         0.68290E-03
         0.12427E-02
         0.60093E-03
        -0.32417E-03
         0.15536E-03
        -0.66755E-03
         0.18445E-02
         0.14757E-02
         0.32000E-03
         0.11987E-02
         0.22771E-02
         0.28207E-02
         0.24264E-02
         0.21691E-02
         0.29319E-02
        -0.10058E-02
         0.93536E-04
        -0.69011E-03
        -0.70943E-03
         0.84973E-04
        -0.77559E-03
         0.45633E-04
        -0.15186E-02
        -0.13212E-02
         0.10129E-02
        -0.17318E-02
         0.20271E-02
         0.18592E-02
         0.17175E-02
         0.91371E-03
        -0.19805E-02
        -0.23493E-02
        -0.17073E-02
        -0.14938E-02
         0.77846E-03
         0.12554E-02
         0.18672E-02
         0.28845E-02
         0.27122E-02
         0.24602E-02
         0.22358E-02
         0.16502E-02
         0.87964E-03
        -0.21374E-02
        -0.26935E-02
        -0.31291E-02
        -0.30381E-02
        -0.28750E-02
        -0.26471E-02
        -0.23744E-02
        -0.21543E-02
        -0.15085E-02
         0.93572E-03
         0.00000E+00
         0.18171E-02
         0.25928E-02
         0.32179E-02
         0.36559E-02
         0.38815E-02
         0.38815E-02
         0.36559E-02
         0.32179E-02
         0.25928E-02
         0.18171E-02
         0.93572E-03
        -0.47884E-18
        -0.93572E-03
        -0.18171E-02
        -0.25928E-02
        -0.32179E-02
        -0.36559E-02
        -0.38815E-02
        -0.38815E-02
        -0.36559E-02
        -0.32179E-02
        -0.25928E-02
        -0.18171E-02
        -0.93572E-03
         0.68346E-03
         0.12434E-02
         0.60145E-03
        -0.32342E-03
         0.15572E-03
        -0.66706E-03
         0.18447E-02
         0.14767E-02
         0.32115E-03
         0.12005E-02
         0.22772E-02
         0.28203E-02
         0.24265E-02
         0.21691E-02
         0.29316E-02
        -0.10060E-02
         0.94345E-04
        -0.68939E-03
        -0.70929E-03
         0.85096E-04
        -0.77542E-03
         0.45906E-04
        -0.15185E-02
        -0.13211E-02
         0.10142E-02
        -0.17317E-02
         0.20274E-02
         0.18590E-02
         0.17175E-02
         0.91395E-03
        -0.19805E-02
        -0.23494E-02
        -0.17073E-02
        -0.14941E-02
         0.77946E-03
         0.12558E-02
         0.18672E-02
         0.28835E-02
         0.27118E-02
         0.24600E-02
         0.22358E-02
         0.16502E-02
         0.87990E-03
        -0.21374E-02
        -0.26935E-02
        -0.31291E-02
        -0.30381E-02
        -0.28750E-02
        -0.26474E-02
        -0.23746E-02
        -0.21549E-02
        -0.15084E-02
         0.93572E-03
         0.00000E+00
         0.18171E-02
         0.25928E-02
         0.32179E-02
         0.36559E-02
         0.38815E-02
         0.38815E-02
         0.36559E-02
         0.32179E-02
         0.25928E-02
         0.18171E-02
         0.93572E-03
         0.22152E-17
        -0.93572E-03
        -0.18171E-02
        -0.25928E-02
        -0.32179E-02
        -0.36559E-02
        -0.38815E-02
        -0.38815E-02
        -0.36559E-02
        -0.32179E-02
        -0.25928E-02
        -0.18171E-02
        -0.93572E-03
         0.68401E-03
         0.12440E-02
         0.60198E-03
        -0.32266E-03
         0.15609E-03
        -0.66657E-03
         0.18449E-02
         0.14777E-02
         0.32230E-03
         0.12022E-02
         0.22774E-02
         0.28198E-02
         0.24267E-02
         0.21692E-02
         0.29314E-02
        -0.10061E-02
         0.95155E-04
        -0.68866E-03
        -0.70915E-03
         0.85220E-04
        -0.77525E-03
         0.46180E-04
        -0.15185E-02
        -0.13210E-02
         0.10156E-02
        -0.17317E-02
         0.20277E-02
         0.18589E-02
         0.17175E-02
         0.91419E-03
        -0.19805E-02
        -0.23494E-02
        -0.17073E-02
        -0.14943E-02
         0.78047E-03
         0.12563E-02
         0.18672E-02
         0.28824E-02
         0.27113E-02
         0.24597E-02
         0.22358E-02
         0.16502E-02
         0.88016E-03
        -0.21374E-02
        -0.26935E-02
        -0.31291E-02
        -0.30381E-02
        -0.28751E-02
        -0.26476E-02
        -0.23748E-02
        -0.21554E-02
        -0.15083E-02
         0.93572E-03
         0.00000E+00
         0.18171E-02
         0.25928E-02
         0.32179E-02
         0.36559E-02
         0.38815E-02
         0.38815E-02
         0.36559E-02
         0.32179E-02
         0.25928E-02
         0.18171E-02
         0.93572E-03
        -0.47884E-18
        -0.93572E-03
        -0.18171E-02
        -0.25928E-02
        -0.32179E-02
        -0.36559E-02
        -0.38815E-02
        -0.38815E-02
        -0.36559E-02
        -0.32179E-02
        -0.25928E-02
        -0.18171E-02
        -0.93572E-03
         0.68457E-03
         0.12447E-02
         0.60250E-03
        -0.32191E-03
         0.15645E-03
        -0.66607E-03
         0.18451E-02
         0.14787E-02
         0.32345E-03
         0.12040E-02
         0.22775E-02
         0.28194E-02
         0.24268E-02
         0.21692E-02
         0.29311E-02
        -0.10062E-02
         0.95964E-04
        -0.68793E-03
        -0.70901E-03
         0.85343E-04
        -0.77507E-03
         0.46453E-04
        -0.15184E-02
        -0.13209E-02
         0.10169E-02
        -0.17316E-02
         0.20280E-02
         0.18588E-02
         0.17175E-02
         0.91443E-03
        -0.19806E-02
        -0.23494E-02
        -0.17073E-02
        -0.14945E-02
         0.78148E-03
         0.12567E-02
         0.18673E-02
         0.28813E-02
         0.27108E-02
         0.24595E-02
         0.22358E-02
         0.16502E-02
         0.88043E-03
        -0.21374E-02
        -0.26936E-02
        -0.31291E-02
        -0.30381E-02
        -0.28751E-02
        -0.26479E-02
        -0.23750E-02
        -0.21560E-02
        -0.15082E-02
         0.93572E-03
         0.00000E+00
         0.18171E-02
         0.25928E-02
         0.32179E-02
         0.36559E-02
         0.38815E-02
         0.38815E-02
         0.36559E-02
         0.32179E-02
         0.25928E-02
         0.18171E-02
         0.93572E-03
        -0.47884E-18
        -0.93572E-03
        -0.18171E-02
        -0.25928E-02
        -0.32179E-02
        -0.36559E-02
        -0.38815E-02
        -0.38815E-02
        -0.36559E-02
        -0.32179E-02
        -0.25928E-02
        -0.18171E-02
        -0.93572E-03
         0.68512E-03
         0.12454E-02
         0.60302E-03
        -0.32115E-03
         0.15681E-03
        -0.66558E-03
         0.18453E-02
         0.14797E-02
         0.32459E-03
         0.12058E-02
         0.22776E-02
         0.28189E-02
         0.24270E-02
         0.21693E-02
         0.29308E-02
        -0.10064E-02
         0.96773E-04
        -0.68721E-03
        -0.70887E-03
         0.85467E-04
        -0.77490E-03
         0.46726E-04
        -0.15184E-02
        -0.13208E-02
         0.10183E-02
        -0.17316E-02
         0.20283E-02
         0.18586E-02
         0.17175E-02
         0.91467E-03
        -0.19806E-02
        -0.23494E-02
        -0.17073E-02
        -0.14948E-02
         0.78248E-03
         0.12571E-02
         0.18673E-02
         0.28802E-02
         0.27103E-02
         0.24593E-02
         0.22358E-02
         0.16502E-02
         0.88069E-03
        -0.21374E-02
        -0.26936E-02
        -0.31291E-02
        -0.30381E-02
        -0.28751E-02
        -0.26482E-02
        -0.23752E-02
        -0.21565E-02
        -0.15081E-02
         0.93572E-03
         0.00000E+00
         0.18171E-02
         0.25928E-02
         0.32179E-02
         0.36559E-02
         0.38815E-02
         0.38815E-02
         0.36559E-02
         0.32179E-02
         0.25928E-02
         0.18171E-02
         0.93572E-03
        -0.47884E-18
        -0.93572E-03
        -0.18171E-02
        -0.25928E-02
        -0.32179E-02
        -0.36559E-02
        -0.38815E-02
        -0.38815E-02
        -0.36559E-02
        -0.32179E-02
        -0.25928E-02
        -0.18171E-02
        -0.93572E-03
         0.68567E-03
         0.12460E-02
         0.60355E-03
        -0.32040E-03
         0.15718E-03
        -0.66509E-03
         0.18455E-02
         0.14807E-02
         0.32574E-03
         0.12075E-02
         0.22777E-02
         0.28185E-02
         0.24271E-02
         0.21693E-02
         0.29306E-02
        -0.10065E-02
         0.97583E-04
        -0.68648E-03
        -0.70873E-03
         0.85591E-04
        -0.77474E-03
         0.47000E-04
        -0.15183E-02
        -0.13207E-02
         0.10197E-02
        -0.17316E-02
         0.20285E-02
         0.18585E-02
         0.17175E-02
         0.91491E-03
        -0.19806E-02
        -0.23495E-02
        -0.17073E-02
        -0.14950E-02
         0.78348E-03
         0.12576E-02
         0.18674E-02
         0.28792E-02
         0.27099E-02
         0.24591E-02
         0.22358E-02
         0.16502E-02
         0.88095E-03
        -0.21374E-02
        -0.26936E-02
        -0.31290E-02
        -0.30381E-02
        -0.28751E-02
        -0.26484E-02
        -0.23754E-02
        -0.21571E-02
        -0.15080E-02
         0.93572E-03
         0.00000E+00
         0.18171E-02
         0.25928E-02
         0.32179E-02
         0.36559E-02
         0.38815E-02
         0.38815E-02
         0.36559E-02
         0.32179E-02
         0.25928E-02
         0.18171E-02
         0.93572E-03
         0.47884E-18
        -0.93572E-03
        -0.18171E-02
        -0.25928E-02
        -0.32179E-02
        -0.36559E-02
        -0.38815E-02
        -0.38815E-02
        -0.36559E-02
        -0.32179E-02
        -0.25928E-02
        -0.18171E-02
        -0.93572E-03
  
SCALARS           initial_coordinate_z  double 1
LOOKUP_TABLE default
        -0.10771E-01
        -0.10771E-01
        -0.10771E-01
        -0.10771E-01
        -0.11750E-01
        -0.11750E-01
        -0.11750E-01
        -0.11750E-01
        -0.10771E-01
        -0.10771E-01
        -0.11750E-01
        -0.11750E-01
        -0.10771E-01
        -0.10771E-01
        -0.11750E-01
        -0.11750E-01
        -0.10771E-01
        -0.10771E-01
        -0.11750E-01
        -0.11750E-01
        -0.10771E-01
        -0.10771E-01
        -0.10771E-01
        -0.11750E-01
        -0.11750E-01
        -0.11750E-01
        -0.10771E-01
        -0.10771E-01
        -0.11750E-01
        -0.11750E-01
        -0.10771E-01
        -0.10771E-01
        -0.10771E-01
        -0.11750E-01
        -0.11750E-01
        -0.11750E-01
        -0.10771E-01
        -0.10771E-01
        -0.11750E-01
        -0.11750E-01
        -0.10771E-01
        -0.10771E-01
        -0.11750E-01
        -0.11750E-01
        -0.10771E-01
        -0.10771E-01
        -0.11750E-01
        -0.11750E-01
        -0.10771E-01
        -0.11750E-01
        -0.10771E-01
        -0.11750E-01
        -0.10771E-01
        -0.11750E-01
        -0.10771E-01
        -0.11750E-01
        -0.10771E-01
        -0.10771E-01
        -0.11750E-01
        -0.11750E-01
        -0.10771E-01
        -0.10771E-01
        -0.11750E-01
        -0.11750E-01
        -0.10771E-01
        -0.11750E-01
        -0.10771E-01
        -0.11750E-01
        -0.10771E-01
        -0.10771E-01
        -0.11750E-01
        -0.11750E-01
        -0.10771E-01
        -0.11750E-01
        -0.10771E-01
        -0.11750E-01
        -0.10771E-01
        -0.11750E-01
        -0.10771E-01
        -0.11750E-01
        -0.10771E-01
        -0.10771E-01
        -0.11750E-01
        -0.11750E-01
        -0.10771E-01
        -0.11750E-01
        -0.10771E-01
        -0.11750E-01
        -0.10771E-01
        -0.11750E-01
        -0.10771E-01
        -0.10771E-01
        -0.11750E-01
        -0.11750E-01
        -0.10771E-01
        -0.11750E-01
        -0.10771E-01
        -0.11750E-01
        -0.10771E-01
        -0.11750E-01
        -0.10771E-01
        -0.10771E-01
        -0.11750E-01
        -0.11750E-01
        -0.10771E-01
        -0.10771E-01
        -0.11750E-01
        -0.11750E-01
        -0.10771E-01
        -0.11750E-01
        -0.10771E-01
        -0.11750E-01
        -0.10771E-01
        -0.11750E-01
        -0.10771E-01
        -0.11750E-01
        -0.10771E-01
        -0.11750E-01
        -0.10771E-01
        -0.11750E-01
        -0.10771E-01
        -0.11750E-01
        -0.10771E-01
        -0.11750E-01
        -0.10771E-01
        -0.11750E-01
        -0.10771E-01
        -0.11750E-01
        -0.10771E-01
        -0.11750E-01
        -0.10771E-01
        -0.11750E-01
        -0.10771E-01
        -0.11750E-01
        -0.10771E-01
        -0.11750E-01
        -0.10771E-01
        -0.11750E-01
        -0.10771E-01
        -0.11750E-01
        -0.10771E-01
        -0.11750E-01
        -0.10771E-01
        -0.11750E-01
        -0.10771E-01
        -0.11750E-01
        -0.10771E-01
        -0.11750E-01
        -0.10771E-01
        -0.11750E-01
        -0.10771E-01
        -0.11750E-01
        -0.10771E-01
        -0.11750E-01
        -0.10771E-01
        -0.11750E-01
        -0.97917E-02
        -0.97917E-02
        -0.97917E-02
        -0.97917E-02
        -0.97917E-02
        -0.97917E-02
        -0.97917E-02
        -0.97917E-02
        -0.97917E-02
        -0.97917E-02
        -0.97917E-02
        -0.97917E-02
        -0.97917E-02
        -0.97917E-02
        -0.97917E-02
        -0.97917E-02
        -0.97917E-02
        -0.97917E-02
        -0.97917E-02
        -0.97917E-02
        -0.97917E-02
        -0.97917E-02
        -0.97917E-02
        -0.97917E-02
        -0.97917E-02
        -0.97917E-02
        -0.97917E-02
        -0.97917E-02
        -0.97917E-02
        -0.97917E-02
        -0.97917E-02
        -0.97917E-02
        -0.97917E-02
        -0.97917E-02
        -0.97917E-02
        -0.97917E-02
        -0.97917E-02
        -0.97917E-02
        -0.97917E-02
        -0.97917E-02
        -0.97917E-02
        -0.97917E-02
        -0.97917E-02
        -0.97917E-02
        -0.97917E-02
        -0.97917E-02
        -0.97917E-02
        -0.97917E-02
        -0.97917E-02
        -0.97917E-02
        -0.97917E-02
        -0.97917E-02
        -0.97917E-02
        -0.97917E-02
        -0.97917E-02
        -0.97917E-02
        -0.97917E-02
        -0.97917E-02
        -0.97917E-02
        -0.97917E-02
        -0.97917E-02
        -0.97917E-02
        -0.97917E-02
        -0.97917E-02
        -0.97917E-02
        -0.97917E-02
        -0.97917E-02
        -0.97917E-02
        -0.97917E-02
        -0.97917E-02
        -0.97917E-02
        -0.97917E-02
        -0.97917E-02
        -0.97917E-02
        -0.97917E-02
        -0.97917E-02
        -0.97917E-02
        -0.97917E-02
        -0.88125E-02
        -0.88125E-02
        -0.88125E-02
        -0.88125E-02
        -0.88125E-02
        -0.88125E-02
        -0.88125E-02
        -0.88125E-02
        -0.88125E-02
        -0.88125E-02
        -0.88125E-02
        -0.88125E-02
        -0.88125E-02
        -0.88125E-02
        -0.88125E-02
        -0.88125E-02
        -0.88125E-02
        -0.88125E-02
        -0.88125E-02
        -0.88125E-02
        -0.88125E-02
        -0.88125E-02
        -0.88125E-02
        -0.88125E-02
        -0.88125E-02
        -0.88125E-02
        -0.88125E-02
        -0.88125E-02
        -0.88125E-02
        -0.88125E-02
        -0.88125E-02
        -0.88125E-02
        -0.88125E-02
        -0.88125E-02
        -0.88125E-02
        -0.88125E-02
        -0.88125E-02
        -0.88125E-02
        -0.88125E-02
        -0.88125E-02
        -0.88125E-02
        -0.88125E-02
        -0.88125E-02
        -0.88125E-02
        -0.88125E-02
        -0.88125E-02
        -0.88125E-02
        -0.88125E-02
        -0.88125E-02
        -0.88125E-02
        -0.88125E-02
        -0.88125E-02
        -0.88125E-02
        -0.88125E-02
        -0.88125E-02
        -0.88125E-02
        -0.88125E-02
        -0.88125E-02
        -0.88125E-02
        -0.88125E-02
        -0.88125E-02
        -0.88125E-02
        -0.88125E-02
        -0.88125E-02
        -0.88125E-02
        -0.88125E-02
        -0.88125E-02
        -0.88125E-02
        -0.88125E-02
        -0.88125E-02
        -0.88125E-02
        -0.88125E-02
        -0.88125E-02
        -0.88125E-02
        -0.88125E-02
        -0.88125E-02
        -0.88125E-02
        -0.88125E-02
        -0.78333E-02
        -0.78333E-02
        -0.78333E-02
        -0.78333E-02
        -0.78333E-02
        -0.78333E-02
        -0.78333E-02
        -0.78333E-02
        -0.78333E-02
        -0.78333E-02
        -0.78333E-02
        -0.78333E-02
        -0.78333E-02
        -0.78333E-02
        -0.78333E-02
        -0.78333E-02
        -0.78333E-02
        -0.78333E-02
        -0.78333E-02
        -0.78333E-02
        -0.78333E-02
        -0.78333E-02
        -0.78333E-02
        -0.78333E-02
        -0.78333E-02
        -0.78333E-02
        -0.78333E-02
        -0.78333E-02
        -0.78333E-02
        -0.78333E-02
        -0.78333E-02
        -0.78333E-02
        -0.78333E-02
        -0.78333E-02
        -0.78333E-02
        -0.78333E-02
        -0.78333E-02
        -0.78333E-02
        -0.78333E-02
        -0.78333E-02
        -0.78333E-02
        -0.78333E-02
        -0.78333E-02
        -0.78333E-02
        -0.78333E-02
        -0.78333E-02
        -0.78333E-02
        -0.78333E-02
        -0.78333E-02
        -0.78333E-02
        -0.78333E-02
        -0.78333E-02
        -0.78333E-02
        -0.78333E-02
        -0.78333E-02
        -0.78333E-02
        -0.78333E-02
        -0.78333E-02
        -0.78333E-02
        -0.78333E-02
        -0.78333E-02
        -0.78333E-02
        -0.78333E-02
        -0.78333E-02
        -0.78333E-02
        -0.78333E-02
        -0.78333E-02
        -0.78333E-02
        -0.78333E-02
        -0.78333E-02
        -0.78333E-02
        -0.78333E-02
        -0.78333E-02
        -0.78333E-02
        -0.78333E-02
        -0.78333E-02
        -0.78333E-02
        -0.78333E-02
        -0.68542E-02
        -0.68542E-02
        -0.68542E-02
        -0.68542E-02
        -0.68542E-02
        -0.68542E-02
        -0.68542E-02
        -0.68542E-02
        -0.68542E-02
        -0.68542E-02
        -0.68542E-02
        -0.68542E-02
        -0.68542E-02
        -0.68542E-02
        -0.68542E-02
        -0.68542E-02
        -0.68542E-02
        -0.68542E-02
        -0.68542E-02
        -0.68542E-02
        -0.68542E-02
        -0.68542E-02
        -0.68542E-02
        -0.68542E-02
        -0.68542E-02
        -0.68542E-02
        -0.68542E-02
        -0.68542E-02
        -0.68542E-02
        -0.68542E-02
        -0.68542E-02
        -0.68542E-02
        -0.68542E-02
        -0.68542E-02
        -0.68542E-02
        -0.68542E-02
        -0.68542E-02
        -0.68542E-02
        -0.68542E-02
        -0.68542E-02
        -0.68542E-02
        -0.68542E-02
        -0.68542E-02
        -0.68542E-02
        -0.68542E-02
        -0.68542E-02
        -0.68542E-02
        -0.68542E-02
        -0.68542E-02
        -0.68542E-02
        -0.68542E-02
        -0.68542E-02
        -0.68542E-02
        -0.68542E-02
        -0.68542E-02
        -0.68542E-02
        -0.68542E-02
        -0.68542E-02
        -0.68542E-02
        -0.68542E-02
        -0.68542E-02
        -0.68542E-02
        -0.68542E-02
        -0.68542E-02
        -0.68542E-02
        -0.68542E-02
        -0.68542E-02
        -0.68542E-02
        -0.68542E-02
        -0.68542E-02
        -0.68542E-02
        -0.68542E-02
        -0.68542E-02
        -0.68542E-02
        -0.68542E-02
        -0.68542E-02
        -0.68542E-02
        -0.68542E-02
        -0.58750E-02
        -0.58750E-02
        -0.58750E-02
        -0.58750E-02
        -0.58750E-02
        -0.58750E-02
        -0.58750E-02
        -0.58750E-02
        -0.58750E-02
        -0.58750E-02
        -0.58750E-02
        -0.58750E-02
        -0.58750E-02
        -0.58750E-02
        -0.58750E-02
        -0.58750E-02
        -0.58750E-02
        -0.58750E-02
        -0.58750E-02
        -0.58750E-02
        -0.58750E-02
        -0.58750E-02
        -0.58750E-02
        -0.58750E-02
        -0.58750E-02
        -0.58750E-02
        -0.58750E-02
        -0.58750E-02
        -0.58750E-02
        -0.58750E-02
        -0.58750E-02
        -0.58750E-02
        -0.58750E-02
        -0.58750E-02
        -0.58750E-02
        -0.58750E-02
        -0.58750E-02
        -0.58750E-02
        -0.58750E-02
        -0.58750E-02
        -0.58750E-02
        -0.58750E-02
        -0.58750E-02
        -0.58750E-02
        -0.58750E-02
        -0.58750E-02
        -0.58750E-02
        -0.58750E-02
        -0.58750E-02
        -0.58750E-02
        -0.58750E-02
        -0.58750E-02
        -0.58750E-02
        -0.58750E-02
        -0.58750E-02
        -0.58750E-02
        -0.58750E-02
        -0.58750E-02
        -0.58750E-02
        -0.58750E-02
        -0.58750E-02
        -0.58750E-02
        -0.58750E-02
        -0.58750E-02
        -0.58750E-02
        -0.58750E-02
        -0.58750E-02
        -0.58750E-02
        -0.58750E-02
        -0.58750E-02
        -0.58750E-02
        -0.58750E-02
        -0.58750E-02
        -0.58750E-02
        -0.58750E-02
        -0.58750E-02
        -0.58750E-02
        -0.58750E-02
        -0.48958E-02
        -0.48958E-02
        -0.48958E-02
        -0.48958E-02
        -0.48958E-02
        -0.48958E-02
        -0.48958E-02
        -0.48958E-02
        -0.48958E-02
        -0.48958E-02
        -0.48958E-02
        -0.48958E-02
        -0.48958E-02
        -0.48958E-02
        -0.48958E-02
        -0.48958E-02
        -0.48958E-02
        -0.48958E-02
        -0.48958E-02
        -0.48958E-02
        -0.48958E-02
        -0.48958E-02
        -0.48958E-02
        -0.48958E-02
        -0.48958E-02
        -0.48958E-02
        -0.48958E-02
        -0.48958E-02
        -0.48958E-02
        -0.48958E-02
        -0.48958E-02
        -0.48958E-02
        -0.48958E-02
        -0.48958E-02
        -0.48958E-02
        -0.48958E-02
        -0.48958E-02
        -0.48958E-02
        -0.48958E-02
        -0.48958E-02
        -0.48958E-02
        -0.48958E-02
        -0.48958E-02
        -0.48958E-02
        -0.48958E-02
        -0.48958E-02
        -0.48958E-02
        -0.48958E-02
        -0.48958E-02
        -0.48958E-02
        -0.48958E-02
        -0.48958E-02
        -0.48958E-02
        -0.48958E-02
        -0.48958E-02
        -0.48958E-02
        -0.48958E-02
        -0.48958E-02
        -0.48958E-02
        -0.48958E-02
        -0.48958E-02
        -0.48958E-02
        -0.48958E-02
        -0.48958E-02
        -0.48958E-02
        -0.48958E-02
        -0.48958E-02
        -0.48958E-02
        -0.48958E-02
        -0.48958E-02
        -0.48958E-02
        -0.48958E-02
        -0.48958E-02
        -0.48958E-02
        -0.48958E-02
        -0.48958E-02
        -0.48958E-02
        -0.48958E-02
        -0.39167E-02
        -0.39167E-02
        -0.39167E-02
        -0.39167E-02
        -0.39167E-02
        -0.39167E-02
        -0.39167E-02
        -0.39167E-02
        -0.39167E-02
        -0.39167E-02
        -0.39167E-02
        -0.39167E-02
        -0.39167E-02
        -0.39167E-02
        -0.39167E-02
        -0.39167E-02
        -0.39167E-02
        -0.39167E-02
        -0.39167E-02
        -0.39167E-02
        -0.39167E-02
        -0.39167E-02
        -0.39167E-02
        -0.39167E-02
        -0.39167E-02
        -0.39167E-02
        -0.39167E-02
        -0.39167E-02
        -0.39167E-02
        -0.39167E-02
        -0.39167E-02
        -0.39167E-02
        -0.39167E-02
        -0.39167E-02
        -0.39167E-02
        -0.39167E-02
        -0.39167E-02
        -0.39167E-02
        -0.39167E-02
        -0.39167E-02
        -0.39167E-02
        -0.39167E-02
        -0.39167E-02
        -0.39167E-02
        -0.39167E-02
        -0.39167E-02
        -0.39167E-02
        -0.39167E-02
        -0.39167E-02
        -0.39167E-02
        -0.39167E-02
        -0.39167E-02
        -0.39167E-02
        -0.39167E-02
        -0.39167E-02
        -0.39167E-02
        -0.39167E-02
        -0.39167E-02
        -0.39167E-02
        -0.39167E-02
        -0.39167E-02
        -0.39167E-02
        -0.39167E-02
        -0.39167E-02
        -0.39167E-02
        -0.39167E-02
        -0.39167E-02
        -0.39167E-02
        -0.39167E-02
        -0.39167E-02
        -0.39167E-02
        -0.39167E-02
        -0.39167E-02
        -0.39167E-02
        -0.39167E-02
        -0.39167E-02
        -0.39167E-02
        -0.39167E-02
        -0.29375E-02
        -0.29375E-02
        -0.29375E-02
        -0.29375E-02
        -0.29375E-02
        -0.29375E-02
        -0.29375E-02
        -0.29375E-02
        -0.29375E-02
        -0.29375E-02
        -0.29375E-02
        -0.29375E-02
        -0.29375E-02
        -0.29375E-02
        -0.29375E-02
        -0.29375E-02
        -0.29375E-02
        -0.29375E-02
        -0.29375E-02
        -0.29375E-02
        -0.29375E-02
        -0.29375E-02
        -0.29375E-02
        -0.29375E-02
        -0.29375E-02
        -0.29375E-02
        -0.29375E-02
        -0.29375E-02
        -0.29375E-02
        -0.29375E-02
        -0.29375E-02
        -0.29375E-02
        -0.29375E-02
        -0.29375E-02
        -0.29375E-02
        -0.29375E-02
        -0.29375E-02
        -0.29375E-02
        -0.29375E-02
        -0.29375E-02
        -0.29375E-02
        -0.29375E-02
        -0.29375E-02
        -0.29375E-02
        -0.29375E-02
        -0.29375E-02
        -0.29375E-02
        -0.29375E-02
        -0.29375E-02
        -0.29375E-02
        -0.29375E-02
        -0.29375E-02
        -0.29375E-02
        -0.29375E-02
        -0.29375E-02
        -0.29375E-02
        -0.29375E-02
        -0.29375E-02
        -0.29375E-02
        -0.29375E-02
        -0.29375E-02
        -0.29375E-02
        -0.29375E-02
        -0.29375E-02
        -0.29375E-02
        -0.29375E-02
        -0.29375E-02
        -0.29375E-02
        -0.29375E-02
        -0.29375E-02
        -0.29375E-02
        -0.29375E-02
        -0.29375E-02
        -0.29375E-02
        -0.29375E-02
        -0.29375E-02
        -0.29375E-02
        -0.29375E-02
        -0.19583E-02
        -0.19583E-02
        -0.19583E-02
        -0.19583E-02
        -0.19583E-02
        -0.19583E-02
        -0.19583E-02
        -0.19583E-02
        -0.19583E-02
        -0.19583E-02
        -0.19583E-02
        -0.19583E-02
        -0.19583E-02
        -0.19583E-02
        -0.19583E-02
        -0.19583E-02
        -0.19583E-02
        -0.19583E-02
        -0.19583E-02
        -0.19583E-02
        -0.19583E-02
        -0.19583E-02
        -0.19583E-02
        -0.19583E-02
        -0.19583E-02
        -0.19583E-02
        -0.19583E-02
        -0.19583E-02
        -0.19583E-02
        -0.19583E-02
        -0.19583E-02
        -0.19583E-02
        -0.19583E-02
        -0.19583E-02
        -0.19583E-02
        -0.19583E-02
        -0.19583E-02
        -0.19583E-02
        -0.19583E-02
        -0.19583E-02
        -0.19583E-02
        -0.19583E-02
        -0.19583E-02
        -0.19583E-02
        -0.19583E-02
        -0.19583E-02
        -0.19583E-02
        -0.19583E-02
        -0.19583E-02
        -0.19583E-02
        -0.19583E-02
        -0.19583E-02
        -0.19583E-02
        -0.19583E-02
        -0.19583E-02
        -0.19583E-02
        -0.19583E-02
        -0.19583E-02
        -0.19583E-02
        -0.19583E-02
        -0.19583E-02
        -0.19583E-02
        -0.19583E-02
        -0.19583E-02
        -0.19583E-02
        -0.19583E-02
        -0.19583E-02
        -0.19583E-02
        -0.19583E-02
        -0.19583E-02
        -0.19583E-02
        -0.19583E-02
        -0.19583E-02
        -0.19583E-02
        -0.19583E-02
        -0.19583E-02
        -0.19583E-02
        -0.19583E-02
        -0.97917E-03
        -0.97917E-03
        -0.97917E-03
        -0.97917E-03
        -0.97917E-03
        -0.97917E-03
        -0.97917E-03
        -0.97917E-03
        -0.97917E-03
        -0.97917E-03
        -0.97917E-03
        -0.97917E-03
        -0.97917E-03
        -0.97917E-03
        -0.97917E-03
        -0.97917E-03
        -0.97917E-03
        -0.97917E-03
        -0.97917E-03
        -0.97917E-03
        -0.97917E-03
        -0.97917E-03
        -0.97917E-03
        -0.97917E-03
        -0.97917E-03
        -0.97917E-03
        -0.97917E-03
        -0.97917E-03
        -0.97917E-03
        -0.97917E-03
        -0.97917E-03
        -0.97917E-03
        -0.97917E-03
        -0.97917E-03
        -0.97917E-03
        -0.97917E-03
        -0.97917E-03
        -0.97917E-03
        -0.97917E-03
        -0.97917E-03
        -0.97917E-03
        -0.97917E-03
        -0.97917E-03
        -0.97917E-03
        -0.97917E-03
        -0.97917E-03
        -0.97917E-03
        -0.97917E-03
        -0.97917E-03
        -0.97917E-03
        -0.97917E-03
        -0.97917E-03
        -0.97917E-03
        -0.97917E-03
        -0.97917E-03
        -0.97917E-03
        -0.97917E-03
        -0.97917E-03
        -0.97917E-03
        -0.97917E-03
        -0.97917E-03
        -0.97917E-03
        -0.97917E-03
        -0.97917E-03
        -0.97917E-03
        -0.97917E-03
        -0.97917E-03
        -0.97917E-03
        -0.97917E-03
        -0.97917E-03
        -0.97917E-03
        -0.97917E-03
        -0.97917E-03
        -0.97917E-03
        -0.97917E-03
        -0.97917E-03
        -0.97917E-03
        -0.97917E-03
         0.38917E-18
         0.44621E-18
         0.34485E-18
         0.23671E-18
         0.26613E-18
         0.16162E-18
         0.53980E-18
         0.50579E-18
         0.36337E-18
         0.48798E-18
         0.60712E-18
         0.67611E-18
         0.60634E-18
         0.60658E-18
         0.70997E-18
         0.20892E-18
         0.35894E-18
         0.21887E-18
         0.27638E-18
         0.38382E-18
         0.29058E-18
         0.40326E-18
         0.18564E-18
         0.19650E-18
         0.48570E-18
         0.12837E-18
         0.60589E-18
         0.60416E-18
         0.60524E-18
         0.49621E-18
         0.61582E-19
         0.32255E-19
         0.73874E-19
         0.78478E-19
         0.34514E-18
         0.42054E-18
         0.51644E-18
         0.72521E-18
         0.72233E-18
         0.70722E-18
         0.69126E-18
         0.61573E-18
         0.51484E-18
         0.91170E-19
         0.30347E-20
        -0.66516E-19
        -0.69988E-19
        -0.68643E-19
        -0.59779E-19
        -0.43507E-19
        -0.29471E-19
         0.53205E-19
         0.86819E-18
         0.00000E+00
         0.86819E-18
         0.86819E-18
         0.00000E+00
         0.00000E+00
         0.00000E+00
         0.17364E-17
         0.17364E-17
         0.17364E-17
         0.43410E-18
         0.43410E-18
         0.43410E-18
         0.00000E+00
         0.00000E+00
         0.00000E+00
         0.00000E+00
         0.00000E+00
         0.21705E-18
        -0.21705E-18
         0.00000E+00
         0.00000E+00
         0.00000E+00
        -0.32557E-18
         0.54262E-19
        -0.40697E-18
         0.97917E-03
         0.97917E-03
         0.97917E-03
         0.97917E-03
         0.97917E-03
         0.97917E-03
         0.97917E-03
         0.97917E-03
         0.97917E-03
         0.97917E-03
         0.97917E-03
         0.97917E-03
         0.97917E-03
         0.97917E-03
         0.97917E-03
         0.97917E-03
         0.97917E-03
         0.97917E-03
         0.97917E-03
         0.97917E-03
         0.97917E-03
         0.97917E-03
         0.97917E-03
         0.97917E-03
         0.97917E-03
         0.97917E-03
         0.97917E-03
         0.97917E-03
         0.97917E-03
         0.97917E-03
         0.97917E-03
         0.97917E-03
         0.97917E-03
         0.97917E-03
         0.97917E-03
         0.97917E-03
         0.97917E-03
         0.97917E-03
         0.97917E-03
         0.97917E-03
         0.97917E-03
         0.97917E-03
         0.97917E-03
         0.97917E-03
         0.97917E-03
         0.97917E-03
         0.97917E-03
         0.97917E-03
         0.97917E-03
         0.97917E-03
         0.97917E-03
         0.97917E-03
         0.97917E-03
         0.97917E-03
         0.97917E-03
         0.97917E-03
         0.97917E-03
         0.97917E-03
         0.97917E-03
         0.97917E-03
         0.97917E-03
         0.97917E-03
         0.97917E-03
         0.97917E-03
         0.97917E-03
         0.97917E-03
         0.97917E-03
         0.97917E-03
         0.97917E-03
         0.97917E-03
         0.97917E-03
         0.97917E-03
         0.97917E-03
         0.97917E-03
         0.97917E-03
         0.97917E-03
         0.97917E-03
         0.97917E-03
         0.19583E-02
         0.19583E-02
         0.19583E-02
         0.19583E-02
         0.19583E-02
         0.19583E-02
         0.19583E-02
         0.19583E-02
         0.19583E-02
         0.19583E-02
         0.19583E-02
         0.19583E-02
         0.19583E-02
         0.19583E-02
         0.19583E-02
         0.19583E-02
         0.19583E-02
         0.19583E-02
         0.19583E-02
         0.19583E-02
         0.19583E-02
         0.19583E-02
         0.19583E-02
         0.19583E-02
         0.19583E-02
         0.19583E-02
         0.19583E-02
         0.19583E-02
         0.19583E-02
         0.19583E-02
         0.19583E-02
         0.19583E-02
         0.19583E-02
         0.19583E-02
         0.19583E-02
         0.19583E-02
         0.19583E-02
         0.19583E-02
         0.19583E-02
         0.19583E-02
         0.19583E-02
         0.19583E-02
         0.19583E-02
         0.19583E-02
         0.19583E-02
         0.19583E-02
         0.19583E-02
         0.19583E-02
         0.19583E-02
         0.19583E-02
         0.19583E-02
         0.19583E-02
         0.19583E-02
         0.19583E-02
         0.19583E-02
         0.19583E-02
         0.19583E-02
         0.19583E-02
         0.19583E-02
         0.19583E-02
         0.19583E-02
         0.19583E-02
         0.19583E-02
         0.19583E-02
         0.19583E-02
         0.19583E-02
         0.19583E-02
         0.19583E-02
         0.19583E-02
         0.19583E-02
         0.19583E-02
         0.19583E-02
         0.19583E-02
         0.19583E-02
         0.19583E-02
         0.19583E-02
         0.19583E-02
         0.19583E-02
         0.29375E-02
         0.29375E-02
         0.29375E-02
         0.29375E-02
         0.29375E-02
         0.29375E-02
         0.29375E-02
         0.29375E-02
         0.29375E-02
         0.29375E-02
         0.29375E-02
         0.29375E-02
         0.29375E-02
         0.29375E-02
         0.29375E-02
         0.29375E-02
         0.29375E-02
         0.29375E-02
         0.29375E-02
         0.29375E-02
         0.29375E-02
         0.29375E-02
         0.29375E-02
         0.29375E-02
         0.29375E-02
         0.29375E-02
         0.29375E-02
         0.29375E-02
         0.29375E-02
         0.29375E-02
         0.29375E-02
         0.29375E-02
         0.29375E-02
         0.29375E-02
         0.29375E-02
         0.29375E-02
         0.29375E-02
         0.29375E-02
         0.29375E-02
         0.29375E-02
         0.29375E-02
         0.29375E-02
         0.29375E-02
         0.29375E-02
         0.29375E-02
         0.29375E-02
         0.29375E-02
         0.29375E-02
         0.29375E-02
         0.29375E-02
         0.29375E-02
         0.29375E-02
         0.29375E-02
         0.29375E-02
         0.29375E-02
         0.29375E-02
         0.29375E-02
         0.29375E-02
         0.29375E-02
         0.29375E-02
         0.29375E-02
         0.29375E-02
         0.29375E-02
         0.29375E-02
         0.29375E-02
         0.29375E-02
         0.29375E-02
         0.29375E-02
         0.29375E-02
         0.29375E-02
         0.29375E-02
         0.29375E-02
         0.29375E-02
         0.29375E-02
         0.29375E-02
         0.29375E-02
         0.29375E-02
         0.29375E-02
         0.39167E-02
         0.39167E-02
         0.39167E-02
         0.39167E-02
         0.39167E-02
         0.39167E-02
         0.39167E-02
         0.39167E-02
         0.39167E-02
         0.39167E-02
         0.39167E-02
         0.39167E-02
         0.39167E-02
         0.39167E-02
         0.39167E-02
         0.39167E-02
         0.39167E-02
         0.39167E-02
         0.39167E-02
         0.39167E-02
         0.39167E-02
         0.39167E-02
         0.39167E-02
         0.39167E-02
         0.39167E-02
         0.39167E-02
         0.39167E-02
         0.39167E-02
         0.39167E-02
         0.39167E-02
         0.39167E-02
         0.39167E-02
         0.39167E-02
         0.39167E-02
         0.39167E-02
         0.39167E-02
         0.39167E-02
         0.39167E-02
         0.39167E-02
         0.39167E-02
         0.39167E-02
         0.39167E-02
         0.39167E-02
         0.39167E-02
         0.39167E-02
         0.39167E-02
         0.39167E-02
         0.39167E-02
         0.39167E-02
         0.39167E-02
         0.39167E-02
         0.39167E-02
         0.39167E-02
         0.39167E-02
         0.39167E-02
         0.39167E-02
         0.39167E-02
         0.39167E-02
         0.39167E-02
         0.39167E-02
         0.39167E-02
         0.39167E-02
         0.39167E-02
         0.39167E-02
         0.39167E-02
         0.39167E-02
         0.39167E-02
         0.39167E-02
         0.39167E-02
         0.39167E-02
         0.39167E-02
         0.39167E-02
         0.39167E-02
         0.39167E-02
         0.39167E-02
         0.39167E-02
         0.39167E-02
         0.39167E-02
         0.48958E-02
         0.48958E-02
         0.48958E-02
         0.48958E-02
         0.48958E-02
         0.48958E-02
         0.48958E-02
         0.48958E-02
         0.48958E-02
         0.48958E-02
         0.48958E-02
         0.48958E-02
         0.48958E-02
         0.48958E-02
         0.48958E-02
         0.48958E-02
         0.48958E-02
         0.48958E-02
         0.48958E-02
         0.48958E-02
         0.48958E-02
         0.48958E-02
         0.48958E-02
         0.48958E-02
         0.48958E-02
         0.48958E-02
         0.48958E-02
         0.48958E-02
         0.48958E-02
         0.48958E-02
         0.48958E-02
         0.48958E-02
         0.48958E-02
         0.48958E-02
         0.48958E-02
         0.48958E-02
         0.48958E-02
         0.48958E-02
         0.48958E-02
         0.48958E-02
         0.48958E-02
         0.48958E-02
         0.48958E-02
         0.48958E-02
         0.48958E-02
         0.48958E-02
         0.48958E-02
         0.48958E-02
         0.48958E-02
         0.48958E-02
         0.48958E-02
         0.48958E-02
         0.48958E-02
         0.48958E-02
         0.48958E-02
         0.48958E-02
         0.48958E-02
         0.48958E-02
         0.48958E-02
         0.48958E-02
         0.48958E-02
         0.48958E-02
         0.48958E-02
         0.48958E-02
         0.48958E-02
         0.48958E-02
         0.48958E-02
         0.48958E-02
         0.48958E-02
         0.48958E-02
         0.48958E-02
         0.48958E-02
         0.48958E-02
         0.48958E-02
         0.48958E-02
         0.48958E-02
         0.48958E-02
         0.48958E-02
         0.58750E-02
         0.58750E-02
         0.58750E-02
         0.58750E-02
         0.58750E-02
         0.58750E-02
         0.58750E-02
         0.58750E-02
         0.58750E-02
         0.58750E-02
         0.58750E-02
         0.58750E-02
         0.58750E-02
         0.58750E-02
         0.58750E-02
         0.58750E-02
         0.58750E-02
         0.58750E-02
         0.58750E-02
         0.58750E-02
         0.58750E-02
         0.58750E-02
         0.58750E-02
         0.58750E-02
         0.58750E-02
         0.58750E-02
         0.58750E-02
         0.58750E-02
         0.58750E-02
         0.58750E-02
         0.58750E-02
         0.58750E-02
         0.58750E-02
         0.58750E-02
         0.58750E-02
         0.58750E-02
         0.58750E-02
         0.58750E-02
         0.58750E-02
         0.58750E-02
         0.58750E-02
         0.58750E-02
         0.58750E-02
         0.58750E-02
         0.58750E-02
         0.58750E-02
         0.58750E-02
         0.58750E-02
         0.58750E-02
         0.58750E-02
         0.58750E-02
         0.58750E-02
         0.58750E-02
         0.58750E-02
         0.58750E-02
         0.58750E-02
         0.58750E-02
         0.58750E-02
         0.58750E-02
         0.58750E-02
         0.58750E-02
         0.58750E-02
         0.58750E-02
         0.58750E-02
         0.58750E-02
         0.58750E-02
         0.58750E-02
         0.58750E-02
         0.58750E-02
         0.58750E-02
         0.58750E-02
         0.58750E-02
         0.58750E-02
         0.58750E-02
         0.58750E-02
         0.58750E-02
         0.58750E-02
         0.58750E-02
         0.68542E-02
         0.68542E-02
         0.68542E-02
         0.68542E-02
         0.68542E-02
         0.68542E-02
         0.68542E-02
         0.68542E-02
         0.68542E-02
         0.68542E-02
         0.68542E-02
         0.68542E-02
         0.68542E-02
         0.68542E-02
         0.68542E-02
         0.68542E-02
         0.68542E-02
         0.68542E-02
         0.68542E-02
         0.68542E-02
         0.68542E-02
         0.68542E-02
         0.68542E-02
         0.68542E-02
         0.68542E-02
         0.68542E-02
         0.68542E-02
         0.68542E-02
         0.68542E-02
         0.68542E-02
         0.68542E-02
         0.68542E-02
         0.68542E-02
         0.68542E-02
         0.68542E-02
         0.68542E-02
         0.68542E-02
         0.68542E-02
         0.68542E-02
         0.68542E-02
         0.68542E-02
         0.68542E-02
         0.68542E-02
         0.68542E-02
         0.68542E-02
         0.68542E-02
         0.68542E-02
         0.68542E-02
         0.68542E-02
         0.68542E-02
         0.68542E-02
         0.68542E-02
         0.68542E-02
         0.68542E-02
         0.68542E-02
         0.68542E-02
         0.68542E-02
         0.68542E-02
         0.68542E-02
         0.68542E-02
         0.68542E-02
         0.68542E-02
         0.68542E-02
         0.68542E-02
         0.68542E-02
         0.68542E-02
         0.68542E-02
         0.68542E-02
         0.68542E-02
         0.68542E-02
         0.68542E-02
         0.68542E-02
         0.68542E-02
         0.68542E-02
         0.68542E-02
         0.68542E-02
         0.68542E-02
         0.68542E-02
         0.78333E-02
         0.78333E-02
         0.78333E-02
         0.78333E-02
         0.78333E-02
         0.78333E-02
         0.78333E-02
         0.78333E-02
         0.78333E-02
         0.78333E-02
         0.78333E-02
         0.78333E-02
         0.78333E-02
         0.78333E-02
         0.78333E-02
         0.78333E-02
         0.78333E-02
         0.78333E-02
         0.78333E-02
         0.78333E-02
         0.78333E-02
         0.78333E-02
         0.78333E-02
         0.78333E-02
         0.78333E-02
         0.78333E-02
         0.78333E-02
         0.78333E-02
         0.78333E-02
         0.78333E-02
         0.78333E-02
         0.78333E-02
         0.78333E-02
         0.78333E-02
         0.78333E-02
         0.78333E-02
         0.78333E-02
         0.78333E-02
         0.78333E-02
         0.78333E-02
         0.78333E-02
         0.78333E-02
         0.78333E-02
         0.78333E-02
         0.78333E-02
         0.78333E-02
         0.78333E-02
         0.78333E-02
         0.78333E-02
         0.78333E-02
         0.78333E-02
         0.78333E-02
         0.78333E-02
         0.78333E-02
         0.78333E-02
         0.78333E-02
         0.78333E-02
         0.78333E-02
         0.78333E-02
         0.78333E-02
         0.78333E-02
         0.78333E-02
         0.78333E-02
         0.78333E-02
         0.78333E-02
         0.78333E-02
         0.78333E-02
         0.78333E-02
         0.78333E-02
         0.78333E-02
         0.78333E-02
         0.78333E-02
         0.78333E-02
         0.78333E-02
         0.78333E-02
         0.78333E-02
         0.78333E-02
         0.78333E-02
         0.88125E-02
         0.88125E-02
         0.88125E-02
         0.88125E-02
         0.88125E-02
         0.88125E-02
         0.88125E-02
         0.88125E-02
         0.88125E-02
         0.88125E-02
         0.88125E-02
         0.88125E-02
         0.88125E-02
         0.88125E-02
         0.88125E-02
         0.88125E-02
         0.88125E-02
         0.88125E-02
         0.88125E-02
         0.88125E-02
         0.88125E-02
         0.88125E-02
         0.88125E-02
         0.88125E-02
         0.88125E-02
         0.88125E-02
         0.88125E-02
         0.88125E-02
         0.88125E-02
         0.88125E-02
         0.88125E-02
         0.88125E-02
         0.88125E-02
         0.88125E-02
         0.88125E-02
         0.88125E-02
         0.88125E-02
         0.88125E-02
         0.88125E-02
         0.88125E-02
         0.88125E-02
         0.88125E-02
         0.88125E-02
         0.88125E-02
         0.88125E-02
         0.88125E-02
         0.88125E-02
         0.88125E-02
         0.88125E-02
         0.88125E-02
         0.88125E-02
         0.88125E-02
         0.88125E-02
         0.88125E-02
         0.88125E-02
         0.88125E-02
         0.88125E-02
         0.88125E-02
         0.88125E-02
         0.88125E-02
         0.88125E-02
         0.88125E-02
         0.88125E-02
         0.88125E-02
         0.88125E-02
         0.88125E-02
         0.88125E-02
         0.88125E-02
         0.88125E-02
         0.88125E-02
         0.88125E-02
         0.88125E-02
         0.88125E-02
         0.88125E-02
         0.88125E-02
         0.88125E-02
         0.88125E-02
         0.88125E-02
         0.97917E-02
         0.97917E-02
         0.97917E-02
         0.97917E-02
         0.97917E-02
         0.97917E-02
         0.97917E-02
         0.97917E-02
         0.97917E-02
         0.97917E-02
         0.97917E-02
         0.97917E-02
         0.97917E-02
         0.97917E-02
         0.97917E-02
         0.97917E-02
         0.97917E-02
         0.97917E-02
         0.97917E-02
         0.97917E-02
         0.97917E-02
         0.97917E-02
         0.97917E-02
         0.97917E-02
         0.97917E-02
         0.97917E-02
         0.97917E-02
         0.97917E-02
         0.97917E-02
         0.97917E-02
         0.97917E-02
         0.97917E-02
         0.97917E-02
         0.97917E-02
         0.97917E-02
         0.97917E-02
         0.97917E-02
         0.97917E-02
         0.97917E-02
         0.97917E-02
         0.97917E-02
         0.97917E-02
         0.97917E-02
         0.97917E-02
         0.97917E-02
         0.97917E-02
         0.97917E-02
         0.97917E-02
         0.97917E-02
         0.97917E-02
         0.97917E-02
         0.97917E-02
         0.97917E-02
         0.97917E-02
         0.97917E-02
         0.97917E-02
         0.97917E-02
         0.97917E-02
         0.97917E-02
         0.97917E-02
         0.97917E-02
         0.97917E-02
         0.97917E-02
         0.97917E-02
         0.97917E-02
         0.97917E-02
         0.97917E-02
         0.97917E-02
         0.97917E-02
         0.97917E-02
         0.97917E-02
         0.97917E-02
         0.97917E-02
         0.97917E-02
         0.97917E-02
         0.97917E-02
         0.97917E-02
         0.97917E-02
         0.10771E-01
         0.10771E-01
         0.10771E-01
         0.10771E-01
         0.10771E-01
         0.10771E-01
         0.10771E-01
         0.10771E-01
         0.10771E-01
         0.10771E-01
         0.10771E-01
         0.10771E-01
         0.10771E-01
         0.10771E-01
         0.10771E-01
         0.10771E-01
         0.10771E-01
         0.10771E-01
         0.10771E-01
         0.10771E-01
         0.10771E-01
         0.10771E-01
         0.10771E-01
         0.10771E-01
         0.10771E-01
         0.10771E-01
         0.10771E-01
         0.10771E-01
         0.10771E-01
         0.10771E-01
         0.10771E-01
         0.10771E-01
         0.10771E-01
         0.10771E-01
         0.10771E-01
         0.10771E-01
         0.10771E-01
         0.10771E-01
         0.10771E-01
         0.10771E-01
         0.10771E-01
         0.10771E-01
         0.10771E-01
         0.10771E-01
         0.10771E-01
         0.10771E-01
         0.10771E-01
         0.10771E-01
         0.10771E-01
         0.10771E-01
         0.10771E-01
         0.10771E-01
         0.10771E-01
         0.10771E-01
         0.10771E-01
         0.10771E-01
         0.10771E-01
         0.10771E-01
         0.10771E-01
         0.10771E-01
         0.10771E-01
         0.10771E-01
         0.10771E-01
         0.10771E-01
         0.10771E-01
         0.10771E-01
         0.10771E-01
         0.10771E-01
         0.10771E-01
         0.10771E-01
         0.10771E-01
         0.10771E-01
         0.10771E-01
         0.10771E-01
         0.10771E-01
         0.10771E-01
         0.10771E-01
         0.10771E-01
         0.11750E-01
         0.11750E-01
         0.11750E-01
         0.11750E-01
         0.11750E-01
         0.11750E-01
         0.11750E-01
         0.11750E-01
         0.11750E-01
         0.11750E-01
         0.11750E-01
         0.11750E-01
         0.11750E-01
         0.11750E-01
         0.11750E-01
         0.11750E-01
         0.11750E-01
         0.11750E-01
         0.11750E-01
         0.11750E-01
         0.11750E-01
         0.11750E-01
         0.11750E-01
         0.11750E-01
         0.11750E-01
         0.11750E-01
         0.11750E-01
         0.11750E-01
         0.11750E-01
         0.11750E-01
         0.11750E-01
         0.11750E-01
         0.11750E-01
         0.11750E-01
         0.11750E-01
         0.11750E-01
         0.11750E-01
         0.11750E-01
         0.11750E-01
         0.11750E-01
         0.11750E-01
         0.11750E-01
         0.11750E-01
         0.11750E-01
         0.11750E-01
         0.11750E-01
         0.11750E-01
         0.11750E-01
         0.11750E-01
         0.11750E-01
         0.11750E-01
         0.11750E-01
         0.11750E-01
         0.11750E-01
         0.11750E-01
         0.11750E-01
         0.11750E-01
         0.11750E-01
         0.11750E-01
         0.11750E-01
         0.11750E-01
         0.11750E-01
         0.11750E-01
         0.11750E-01
         0.11750E-01
         0.11750E-01
         0.11750E-01
         0.11750E-01
         0.11750E-01
         0.11750E-01
         0.11750E-01
         0.11750E-01
         0.11750E-01
         0.11750E-01
         0.11750E-01
         0.11750E-01
         0.11750E-01
         0.11750E-01
  
SCALARS                init_velocity_x  double 1
LOOKUP_TABLE default
         0.00000E+00
         0.00000E+00
         0.00000E+00
         0.00000E+00
         0.00000E+00
         0.00000E+00
         0.00000E+00
         0.00000E+00
         0.00000E+00
         0.00000E+00
         0.00000E+00
         0.00000E+00
         0.00000E+00
         0.00000E+00
         0.00000E+00
         0.00000E+00
         0.00000E+00
         0.00000E+00
         0.00000E+00
         0.00000E+00
         0.00000E+00
         0.00000E+00
         0.00000E+00
         0.00000E+00
         0.00000E+00
         0.00000E+00
         0.00000E+00
         0.00000E+00
         0.00000E+00
         0.00000E+00
         0.00000E+00
         0.00000E+00
         0.00000E+00
         0.00000E+00
         0.00000E+00
         0.00000E+00
         0.00000E+00
         0.00000E+00
         0.00000E+00
         0.00000E+00
         0.00000E+00
         0.00000E+00
         0.00000E+00
         0.00000E+00
         0.00000E+00
         0.00000E+00
         0.00000E+00
         0.00000E+00
         0.00000E+00
         0.00000E+00
         0.00000E+00
         0.00000E+00
         0.00000E+00
         0.00000E+00
         0.00000E+00
         0.00000E+00
         0.00000E+00
         0.00000E+00
         0.00000E+00
         0.00000E+00
         0.00000E+00
         0.00000E+00
         0.00000E+00
         0.00000E+00
         0.00000E+00
         0.00000E+00
         0.00000E+00
         0.00000E+00
         0.00000E+00
         0.00000E+00
         0.00000E+00
         0.00000E+00
         0.00000E+00
         0.00000E+00
         0.00000E+00
         0.00000E+00
         0.00000E+00
         0.00000E+00
         0.00000E+00
         0.00000E+00
         0.00000E+00
         0.00000E+00
         0.00000E+00
         0.00000E+00
         0.00000E+00
         0.00000E+00
         0.00000E+00
         0.00000E+00
         0.00000E+00
         0.00000E+00
         0.00000E+00
         0.00000E+00
         0.00000E+00
         0.00000E+00
         0.00000E+00
         0.00000E+00
         0.00000E+00
         0.00000E+00
         0.00000E+00
         0.00000E+00
         0.00000E+00
         0.00000E+00
         0.00000E+00
         0.00000E+00
         0.00000E+00
         0.00000E+00
         0.00000E+00
         0.00000E+00
         0.00000E+00
         0.00000E+00
         0.00000E+00
         0.00000E+00
         0.00000E+00
         0.00000E+00
         0.00000E+00
         0.00000E+00
         0.00000E+00
         0.00000E+00
         0.00000E+00
         0.00000E+00
         0.00000E+00
         0.00000E+00
         0.00000E+00
         0.00000E+00
         0.00000E+00
         0.00000E+00
         0.00000E+00
         0.00000E+00
         0.00000E+00
         0.00000E+00
         0.00000E+00
         0.00000E+00
         0.00000E+00
         0.00000E+00
         0.00000E+00
         0.00000E+00
         0.00000E+00
         0.00000E+00
         0.00000E+00
         0.00000E+00
         0.00000E+00
         0.00000E+00
         0.00000E+00
         0.00000E+00
         0.00000E+00
         0.00000E+00
         0.00000E+00
         0.00000E+00
         0.00000E+00
         0.00000E+00
         0.00000E+00
         0.00000E+00
         0.00000E+00
         0.00000E+00
         0.00000E+00
         0.00000E+00
         0.00000E+00
         0.00000E+00
         0.00000E+00
         0.00000E+00
         0.00000E+00
         0.00000E+00
         0.00000E+00
         0.00000E+00
         0.00000E+00
         0.00000E+00
         0.00000E+00
         0.00000E+00
         0.00000E+00
         0.00000E+00
         0.00000E+00
         0.00000E+00
         0.00000E+00
         0.00000E+00
         0.00000E+00
         0.00000E+00
         0.00000E+00
         0.00000E+00
         0.00000E+00
         0.00000E+00
         0.00000E+00
         0.00000E+00
         0.00000E+00
         0.00000E+00
         0.00000E+00
         0.00000E+00
         0.00000E+00
         0.00000E+00
         0.00000E+00
         0.00000E+00
         0.00000E+00
         0.00000E+00
         0.00000E+00
         0.00000E+00
         0.00000E+00
         0.00000E+00
         0.00000E+00
         0.00000E+00
         0.00000E+00
         0.00000E+00
         0.00000E+00
         0.00000E+00
         0.00000E+00
         0.00000E+00
         0.00000E+00
         0.00000E+00
         0.00000E+00
         0.00000E+00
         0.00000E+00
         0.00000E+00
         0.00000E+00
         0.00000E+00
         0.00000E+00
         0.00000E+00
         0.00000E+00
         0.00000E+00
         0.00000E+00
         0.00000E+00
         0.00000E+00
         0.00000E+00
         0.00000E+00
         0.00000E+00
         0.00000E+00
         0.00000E+00
         0.00000E+00
         0.00000E+00
         0.00000E+00
         0.00000E+00
         0.00000E+00
         0.00000E+00
         0.00000E+00
         0.00000E+00
         0.00000E+00
         0.00000E+00
         0.00000E+00
         0.00000E+00
         0.00000E+00
         0.00000E+00
         0.00000E+00
         0.00000E+00
         0.00000E+00
         0.00000E+00
         0.00000E+00
         0.00000E+00
         0.00000E+00
         0.00000E+00
         0.00000E+00
         0.00000E+00
         0.00000E+00
         0.00000E+00
         0.00000E+00
         0.00000E+00
         0.00000E+00
         0.00000E+00
         0.00000E+00
         0.00000E+00
         0.00000E+00
         0.00000E+00
         0.00000E+00
         0.00000E+00
         0.00000E+00
         0.00000E+00
         0.00000E+00
         0.00000E+00
         0.00000E+00
         0.00000E+00
         0.00000E+00
         0.00000E+00
         0.00000E+00
         0.00000E+00
         0.00000E+00
         0.00000E+00
         0.00000E+00
         0.00000E+00
         0.00000E+00
         0.00000E+00
         0.00000E+00
         0.00000E+00
         0.00000E+00
         0.00000E+00
         0.00000E+00
         0.00000E+00
         0.00000E+00
         0.00000E+00
         0.00000E+00
         0.00000E+00
         0.00000E+00
         0.00000E+00
         0.00000E+00
         0.00000E+00
         0.00000E+00
         0.00000E+00
         0.00000E+00
         0.00000E+00
         0.00000E+00
         0.00000E+00
         0.00000E+00
         0.00000E+00
         0.00000E+00
         0.00000E+00
         0.00000E+00
         0.00000E+00
         0.00000E+00
         0.00000E+00
         0.00000E+00
         0.00000E+00
         0.00000E+00
         0.00000E+00
         0.00000E+00
         0.00000E+00
         0.00000E+00
         0.00000E+00
         0.00000E+00
         0.00000E+00
         0.00000E+00
         0.00000E+00
         0.00000E+00
         0.00000E+00
         0.00000E+00
         0.00000E+00
         0.00000E+00
         0.00000E+00
         0.00000E+00
         0.00000E+00
         0.00000E+00
         0.00000E+00
         0.00000E+00
         0.00000E+00
         0.00000E+00
         0.00000E+00
         0.00000E+00
         0.00000E+00
         0.00000E+00
         0.00000E+00
         0.00000E+00
         0.00000E+00
         0.00000E+00
         0.00000E+00
         0.00000E+00
         0.00000E+00
         0.00000E+00
         0.00000E+00
         0.00000E+00
         0.00000E+00
         0.00000E+00
         0.00000E+00
         0.00000E+00
         0.00000E+00
         0.00000E+00
         0.00000E+00
         0.00000E+00
         0.00000E+00
         0.00000E+00
         0.00000E+00
         0.00000E+00
         0.00000E+00
         0.00000E+00
         0.00000E+00
         0.00000E+00
         0.00000E+00
         0.00000E+00
         0.00000E+00
         0.00000E+00
         0.00000E+00
         0.00000E+00
         0.00000E+00
         0.00000E+00
         0.00000E+00
         0.00000E+00
         0.00000E+00
         0.00000E+00
         0.00000E+00
         0.00000E+00
         0.00000E+00
         0.00000E+00
         0.00000E+00
         0.00000E+00
         0.00000E+00
         0.00000E+00
         0.00000E+00
         0.00000E+00
         0.00000E+00
         0.00000E+00
         0.00000E+00
         0.00000E+00
         0.00000E+00
         0.00000E+00
         0.00000E+00
         0.00000E+00
         0.00000E+00
         0.00000E+00
         0.00000E+00
         0.00000E+00
         0.00000E+00
         0.00000E+00
         0.00000E+00
         0.00000E+00
         0.00000E+00
         0.00000E+00
         0.00000E+00
         0.00000E+00
         0.00000E+00
         0.00000E+00
         0.00000E+00
         0.00000E+00
         0.00000E+00
         0.00000E+00
         0.00000E+00
         0.00000E+00
         0.00000E+00
         0.00000E+00
         0.00000E+00
         0.00000E+00
         0.00000E+00
         0.00000E+00
         0.00000E+00
         0.00000E+00
         0.00000E+00
         0.00000E+00
         0.00000E+00
         0.00000E+00
         0.00000E+00
         0.00000E+00
         0.00000E+00
         0.00000E+00
         0.00000E+00
         0.00000E+00
         0.00000E+00
         0.00000E+00
         0.00000E+00
         0.00000E+00
         0.00000E+00
         0.00000E+00
         0.00000E+00
         0.00000E+00
         0.00000E+00
         0.00000E+00
         0.00000E+00
         0.00000E+00
         0.00000E+00
         0.00000E+00
         0.00000E+00
         0.00000E+00
         0.00000E+00
         0.00000E+00
         0.00000E+00
         0.00000E+00
         0.00000E+00
         0.00000E+00
         0.00000E+00
         0.00000E+00
         0.00000E+00
         0.00000E+00
         0.00000E+00
         0.00000E+00
         0.00000E+00
         0.00000E+00
         0.00000E+00
         0.00000E+00
         0.00000E+00
         0.00000E+00
         0.00000E+00
         0.00000E+00
         0.00000E+00
         0.00000E+00
         0.00000E+00
         0.00000E+00
         0.00000E+00
         0.00000E+00
         0.00000E+00
         0.00000E+00
         0.00000E+00
         0.00000E+00
         0.00000E+00
         0.00000E+00
         0.00000E+00
         0.00000E+00
         0.00000E+00
         0.00000E+00
         0.00000E+00
         0.00000E+00
         0.00000E+00
         0.00000E+00
         0.00000E+00
         0.00000E+00
         0.00000E+00
         0.00000E+00
         0.00000E+00
         0.00000E+00
         0.00000E+00
         0.00000E+00
         0.00000E+00
         0.00000E+00
         0.00000E+00
         0.00000E+00
         0.00000E+00
         0.00000E+00
         0.00000E+00
         0.00000E+00
         0.00000E+00
         0.00000E+00
         0.00000E+00
         0.00000E+00
         0.00000E+00
         0.00000E+00
         0.00000E+00
         0.00000E+00
         0.00000E+00
         0.00000E+00
         0.00000E+00
         0.00000E+00
         0.00000E+00
         0.00000E+00
         0.00000E+00
         0.00000E+00
         0.00000E+00
         0.00000E+00
         0.00000E+00
         0.00000E+00
         0.00000E+00
         0.00000E+00
         0.00000E+00
         0.00000E+00
         0.00000E+00
         0.00000E+00
         0.00000E+00
         0.00000E+00
         0.00000E+00
         0.00000E+00
         0.00000E+00
         0.00000E+00
         0.00000E+00
         0.00000E+00
         0.00000E+00
         0.00000E+00
         0.00000E+00
         0.00000E+00
         0.00000E+00
         0.00000E+00
         0.00000E+00
         0.00000E+00
         0.00000E+00
         0.00000E+00
         0.00000E+00
         0.00000E+00
         0.00000E+00
         0.00000E+00
         0.00000E+00
         0.00000E+00
         0.00000E+00
         0.00000E+00
         0.00000E+00
         0.00000E+00
         0.00000E+00
         0.00000E+00
         0.00000E+00
         0.00000E+00
         0.00000E+00
         0.00000E+00
         0.00000E+00
         0.00000E+00
         0.00000E+00
         0.00000E+00
         0.00000E+00
         0.00000E+00
         0.00000E+00
         0.00000E+00
         0.00000E+00
         0.00000E+00
         0.00000E+00
         0.00000E+00
         0.00000E+00
         0.00000E+00
         0.00000E+00
         0.00000E+00
         0.00000E+00
         0.00000E+00
         0.00000E+00
         0.00000E+00
         0.00000E+00
         0.00000E+00
         0.00000E+00
         0.00000E+00
         0.00000E+00
         0.00000E+00
         0.00000E+00
         0.00000E+00
         0.00000E+00
         0.00000E+00
         0.00000E+00
         0.00000E+00
         0.00000E+00
         0.00000E+00
         0.00000E+00
         0.00000E+00
         0.00000E+00
         0.00000E+00
         0.00000E+00
         0.00000E+00
         0.00000E+00
         0.00000E+00
         0.00000E+00
         0.00000E+00
         0.00000E+00
         0.00000E+00
         0.00000E+00
         0.00000E+00
         0.00000E+00
         0.00000E+00
         0.00000E+00
         0.00000E+00
         0.00000E+00
         0.00000E+00
         0.00000E+00
         0.00000E+00
         0.00000E+00
         0.00000E+00
         0.00000E+00
         0.00000E+00
         0.00000E+00
         0.00000E+00
         0.00000E+00
         0.00000E+00
         0.00000E+00
         0.00000E+00
         0.00000E+00
         0.00000E+00
         0.00000E+00
         0.00000E+00
         0.00000E+00
         0.00000E+00
         0.00000E+00
         0.00000E+00
         0.00000E+00
         0.00000E+00
         0.00000E+00
         0.00000E+00
         0.00000E+00
         0.00000E+00
         0.00000E+00
         0.00000E+00
         0.00000E+00
         0.00000E+00
         0.00000E+00
         0.00000E+00
         0.00000E+00
         0.00000E+00
         0.00000E+00
         0.00000E+00
         0.00000E+00
         0.00000E+00
         0.00000E+00
         0.00000E+00
         0.00000E+00
         0.00000E+00
         0.00000E+00
         0.00000E+00
         0.00000E+00
         0.00000E+00
         0.00000E+00
         0.00000E+00
         0.00000E+00
         0.00000E+00
         0.00000E+00
         0.00000E+00
         0.00000E+00
         0.00000E+00
         0.00000E+00
         0.00000E+00
         0.00000E+00
         0.00000E+00
         0.00000E+00
         0.00000E+00
         0.00000E+00
         0.00000E+00
         0.00000E+00
         0.00000E+00
         0.00000E+00
         0.00000E+00
         0.00000E+00
         0.00000E+00
         0.00000E+00
         0.00000E+00
         0.00000E+00
         0.00000E+00
         0.00000E+00
         0.00000E+00
         0.00000E+00
         0.00000E+00
         0.00000E+00
         0.00000E+00
         0.00000E+00
         0.00000E+00
         0.00000E+00
         0.00000E+00
         0.00000E+00
         0.00000E+00
         0.00000E+00
         0.00000E+00
         0.00000E+00
         0.00000E+00
         0.00000E+00
         0.00000E+00
         0.00000E+00
         0.00000E+00
         0.00000E+00
         0.00000E+00
         0.00000E+00
         0.00000E+00
         0.00000E+00
         0.00000E+00
         0.00000E+00
         0.00000E+00
         0.00000E+00
         0.00000E+00
         0.00000E+00
         0.00000E+00
         0.00000E+00
         0.00000E+00
         0.00000E+00
         0.00000E+00
         0.00000E+00
         0.00000E+00
         0.00000E+00
         0.00000E+00
         0.00000E+00
         0.00000E+00
         0.00000E+00
         0.00000E+00
         0.00000E+00
         0.00000E+00
         0.00000E+00
         0.00000E+00
         0.00000E+00
         0.00000E+00
         0.00000E+00
         0.00000E+00
         0.00000E+00
         0.00000E+00
         0.00000E+00
         0.00000E+00
         0.00000E+00
         0.00000E+00
         0.00000E+00
         0.00000E+00
         0.00000E+00
         0.00000E+00
         0.00000E+00
         0.00000E+00
         0.00000E+00
         0.00000E+00
         0.00000E+00
         0.00000E+00
         0.00000E+00
         0.00000E+00
         0.00000E+00
         0.00000E+00
         0.00000E+00
         0.00000E+00
         0.00000E+00
         0.00000E+00
         0.00000E+00
         0.00000E+00
         0.00000E+00
         0.00000E+00
         0.00000E+00
         0.00000E+00
         0.00000E+00
         0.00000E+00
         0.00000E+00
         0.00000E+00
         0.00000E+00
         0.00000E+00
         0.00000E+00
         0.00000E+00
         0.00000E+00
         0.00000E+00
         0.00000E+00
         0.00000E+00
         0.00000E+00
         0.00000E+00
         0.00000E+00
         0.00000E+00
         0.00000E+00
         0.00000E+00
         0.00000E+00
         0.00000E+00
         0.00000E+00
         0.00000E+00
         0.00000E+00
         0.00000E+00
         0.00000E+00
         0.00000E+00
         0.00000E+00
         0.00000E+00
         0.00000E+00
         0.00000E+00
         0.00000E+00
         0.00000E+00
         0.00000E+00
         0.00000E+00
         0.00000E+00
         0.00000E+00
         0.00000E+00
         0.00000E+00
         0.00000E+00
         0.00000E+00
         0.00000E+00
         0.00000E+00
         0.00000E+00
         0.00000E+00
         0.00000E+00
         0.00000E+00
         0.00000E+00
         0.00000E+00
         0.00000E+00
         0.00000E+00
         0.00000E+00
         0.00000E+00
         0.00000E+00
         0.00000E+00
         0.00000E+00
         0.00000E+00
         0.00000E+00
         0.00000E+00
         0.00000E+00
         0.00000E+00
         0.00000E+00
         0.00000E+00
         0.00000E+00
         0.00000E+00
         0.00000E+00
         0.00000E+00
         0.00000E+00
         0.00000E+00
         0.00000E+00
         0.00000E+00
         0.00000E+00
         0.00000E+00
         0.00000E+00
         0.00000E+00
         0.00000E+00
         0.00000E+00
         0.00000E+00
         0.00000E+00
         0.00000E+00
         0.00000E+00
         0.00000E+00
         0.00000E+00
         0.00000E+00
         0.00000E+00
         0.00000E+00
         0.00000E+00
         0.00000E+00
         0.00000E+00
         0.00000E+00
         0.00000E+00
         0.00000E+00
         0.00000E+00
         0.00000E+00
         0.00000E+00
         0.00000E+00
         0.00000E+00
         0.00000E+00
         0.00000E+00
         0.00000E+00
         0.00000E+00
         0.00000E+00
         0.00000E+00
         0.00000E+00
         0.00000E+00
         0.00000E+00
         0.00000E+00
         0.00000E+00
         0.00000E+00
         0.00000E+00
         0.00000E+00
         0.00000E+00
         0.00000E+00
         0.00000E+00
         0.00000E+00
         0.00000E+00
         0.00000E+00
         0.00000E+00
         0.00000E+00
         0.00000E+00
         0.00000E+00
         0.00000E+00
         0.00000E+00
         0.00000E+00
         0.00000E+00
         0.00000E+00
         0.00000E+00
         0.00000E+00
         0.00000E+00
         0.00000E+00
         0.00000E+00
         0.00000E+00
         0.00000E+00
         0.00000E+00
         0.00000E+00
         0.00000E+00
         0.00000E+00
         0.00000E+00
         0.00000E+00
         0.00000E+00
         0.00000E+00
         0.00000E+00
         0.00000E+00
         0.00000E+00
         0.00000E+00
         0.00000E+00
         0.00000E+00
         0.00000E+00
         0.00000E+00
         0.00000E+00
         0.00000E+00
         0.00000E+00
         0.00000E+00
         0.00000E+00
         0.00000E+00
         0.00000E+00
         0.00000E+00
         0.00000E+00
         0.00000E+00
         0.00000E+00
         0.00000E+00
         0.00000E+00
         0.00000E+00
         0.00000E+00
         0.00000E+00
         0.00000E+00
         0.00000E+00
         0.00000E+00
         0.00000E+00
         0.00000E+00
         0.00000E+00
         0.00000E+00
         0.00000E+00
         0.00000E+00
         0.00000E+00
         0.00000E+00
         0.00000E+00
         0.00000E+00
         0.00000E+00
         0.00000E+00
         0.00000E+00
         0.00000E+00
         0.00000E+00
         0.00000E+00
         0.00000E+00
         0.00000E+00
         0.00000E+00
         0.00000E+00
         0.00000E+00
         0.00000E+00
         0.00000E+00
         0.00000E+00
         0.00000E+00
         0.00000E+00
         0.00000E+00
         0.00000E+00
         0.00000E+00
         0.00000E+00
         0.00000E+00
         0.00000E+00
         0.00000E+00
         0.00000E+00
         0.00000E+00
         0.00000E+00
         0.00000E+00
         0.00000E+00
         0.00000E+00
         0.00000E+00
         0.00000E+00
         0.00000E+00
         0.00000E+00
         0.00000E+00
         0.00000E+00
         0.00000E+00
         0.00000E+00
         0.00000E+00
         0.00000E+00
         0.00000E+00
         0.00000E+00
         0.00000E+00
         0.00000E+00
         0.00000E+00
         0.00000E+00
         0.00000E+00
         0.00000E+00
         0.00000E+00
         0.00000E+00
         0.00000E+00
         0.00000E+00
         0.00000E+00
         0.00000E+00
         0.00000E+00
         0.00000E+00
         0.00000E+00
         0.00000E+00
         0.00000E+00
         0.00000E+00
         0.00000E+00
         0.00000E+00
         0.00000E+00
         0.00000E+00
         0.00000E+00
         0.00000E+00
         0.00000E+00
         0.00000E+00
         0.00000E+00
         0.00000E+00
         0.00000E+00
         0.00000E+00
         0.00000E+00
         0.00000E+00
         0.00000E+00
         0.00000E+00
         0.00000E+00
         0.00000E+00
         0.00000E+00
         0.00000E+00
         0.00000E+00
         0.00000E+00
         0.00000E+00
         0.00000E+00
         0.00000E+00
         0.00000E+00
         0.00000E+00
         0.00000E+00
         0.00000E+00
         0.00000E+00
         0.00000E+00
         0.00000E+00
         0.00000E+00
         0.00000E+00
         0.00000E+00
         0.00000E+00
         0.00000E+00
         0.00000E+00
         0.00000E+00
         0.00000E+00
         0.00000E+00
         0.00000E+00
         0.00000E+00
         0.00000E+00
         0.00000E+00
         0.00000E+00
         0.00000E+00
         0.00000E+00
         0.00000E+00
         0.00000E+00
         0.00000E+00
         0.00000E+00
         0.00000E+00
         0.00000E+00
         0.00000E+00
         0.00000E+00
         0.00000E+00
         0.00000E+00
         0.00000E+00
         0.00000E+00
         0.00000E+00
         0.00000E+00
         0.00000E+00
         0.00000E+00
         0.00000E+00
         0.00000E+00
         0.00000E+00
         0.00000E+00
         0.00000E+00
         0.00000E+00
         0.00000E+00
         0.00000E+00
         0.00000E+00
         0.00000E+00
         0.00000E+00
         0.00000E+00
         0.00000E+00
         0.00000E+00
         0.00000E+00
         0.00000E+00
         0.00000E+00
         0.00000E+00
         0.00000E+00
         0.00000E+00
         0.00000E+00
         0.00000E+00
         0.00000E+00
         0.00000E+00
         0.00000E+00
         0.00000E+00
         0.00000E+00
         0.00000E+00
         0.00000E+00
         0.00000E+00
         0.00000E+00
         0.00000E+00
         0.00000E+00
         0.00000E+00
         0.00000E+00
         0.00000E+00
         0.00000E+00
         0.00000E+00
         0.00000E+00
         0.00000E+00
         0.00000E+00
         0.00000E+00
         0.00000E+00
         0.00000E+00
         0.00000E+00
         0.00000E+00
         0.00000E+00
         0.00000E+00
         0.00000E+00
         0.00000E+00
         0.00000E+00
         0.00000E+00
         0.00000E+00
         0.00000E+00
         0.00000E+00
         0.00000E+00
         0.00000E+00
         0.00000E+00
         0.00000E+00
         0.00000E+00
         0.00000E+00
         0.00000E+00
         0.00000E+00
         0.00000E+00
         0.00000E+00
         0.00000E+00
         0.00000E+00
         0.00000E+00
         0.00000E+00
         0.00000E+00
         0.00000E+00
         0.00000E+00
         0.00000E+00
         0.00000E+00
         0.00000E+00
         0.00000E+00
         0.00000E+00
         0.00000E+00
         0.00000E+00
         0.00000E+00
         0.00000E+00
         0.00000E+00
         0.00000E+00
         0.00000E+00
         0.00000E+00
         0.00000E+00
         0.00000E+00
         0.00000E+00
         0.00000E+00
         0.00000E+00
         0.00000E+00
         0.00000E+00
         0.00000E+00
         0.00000E+00
         0.00000E+00
         0.00000E+00
         0.00000E+00
         0.00000E+00
         0.00000E+00
         0.00000E+00
         0.00000E+00
         0.00000E+00
         0.00000E+00
         0.00000E+00
         0.00000E+00
         0.00000E+00
         0.00000E+00
         0.00000E+00
         0.00000E+00
         0.00000E+00
         0.00000E+00
         0.00000E+00
         0.00000E+00
         0.00000E+00
         0.00000E+00
         0.00000E+00
         0.00000E+00
         0.00000E+00
         0.00000E+00
         0.00000E+00
         0.00000E+00
         0.00000E+00
         0.00000E+00
         0.00000E+00
         0.00000E+00
         0.00000E+00
         0.00000E+00
         0.00000E+00
         0.00000E+00
         0.00000E+00
         0.00000E+00
         0.00000E+00
         0.00000E+00
         0.00000E+00
         0.00000E+00
         0.00000E+00
         0.00000E+00
         0.00000E+00
         0.00000E+00
         0.00000E+00
         0.00000E+00
         0.00000E+00
         0.00000E+00
         0.00000E+00
         0.00000E+00
         0.00000E+00
         0.00000E+00
         0.00000E+00
         0.00000E+00
         0.00000E+00
         0.00000E+00
         0.00000E+00
         0.00000E+00
         0.00000E+00
         0.00000E+00
         0.00000E+00
         0.00000E+00
         0.00000E+00
         0.00000E+00
         0.00000E+00
         0.00000E+00
         0.00000E+00
         0.00000E+00
         0.00000E+00
         0.00000E+00
         0.00000E+00
         0.00000E+00
         0.00000E+00
         0.00000E+00
         0.00000E+00
         0.00000E+00
         0.00000E+00
         0.00000E+00
         0.00000E+00
         0.00000E+00
         0.00000E+00
         0.00000E+00
         0.00000E+00
         0.00000E+00
         0.00000E+00
         0.00000E+00
         0.00000E+00
         0.00000E+00
         0.00000E+00
         0.00000E+00
         0.00000E+00
         0.00000E+00
         0.00000E+00
         0.00000E+00
         0.00000E+00
         0.00000E+00
         0.00000E+00
         0.00000E+00
         0.00000E+00
         0.00000E+00
         0.00000E+00
         0.00000E+00
         0.00000E+00
         0.00000E+00
         0.00000E+00
         0.00000E+00
         0.00000E+00
         0.00000E+00
         0.00000E+00
         0.00000E+00
         0.00000E+00
         0.00000E+00
         0.00000E+00
         0.00000E+00
         0.00000E+00
         0.00000E+00
         0.00000E+00
         0.00000E+00
         0.00000E+00
         0.00000E+00
         0.00000E+00
         0.00000E+00
         0.00000E+00
         0.00000E+00
         0.00000E+00
         0.00000E+00
         0.00000E+00
         0.00000E+00
         0.00000E+00
         0.00000E+00
         0.00000E+00
         0.00000E+00
         0.00000E+00
         0.00000E+00
         0.00000E+00
         0.00000E+00
         0.00000E+00
         0.00000E+00
         0.00000E+00
         0.00000E+00
         0.00000E+00
         0.00000E+00
         0.00000E+00
         0.00000E+00
         0.00000E+00
         0.00000E+00
         0.00000E+00
         0.00000E+00
         0.00000E+00
         0.00000E+00
         0.00000E+00
         0.00000E+00
         0.00000E+00
         0.00000E+00
         0.00000E+00
         0.00000E+00
         0.00000E+00
         0.00000E+00
         0.00000E+00
         0.00000E+00
         0.00000E+00
         0.00000E+00
         0.00000E+00
         0.00000E+00
         0.00000E+00
         0.00000E+00
         0.00000E+00
         0.00000E+00
         0.00000E+00
         0.00000E+00
         0.00000E+00
         0.00000E+00
         0.00000E+00
         0.00000E+00
         0.00000E+00
         0.00000E+00
         0.00000E+00
         0.00000E+00
         0.00000E+00
         0.00000E+00
         0.00000E+00
         0.00000E+00
         0.00000E+00
         0.00000E+00
         0.00000E+00
         0.00000E+00
         0.00000E+00
         0.00000E+00
         0.00000E+00
         0.00000E+00
         0.00000E+00
         0.00000E+00
         0.00000E+00
         0.00000E+00
         0.00000E+00
         0.00000E+00
         0.00000E+00
         0.00000E+00
         0.00000E+00
         0.00000E+00
         0.00000E+00
         0.00000E+00
         0.00000E+00
         0.00000E+00
         0.00000E+00
         0.00000E+00
         0.00000E+00
         0.00000E+00
         0.00000E+00
         0.00000E+00
         0.00000E+00
         0.00000E+00
         0.00000E+00
         0.00000E+00
         0.00000E+00
         0.00000E+00
         0.00000E+00
         0.00000E+00
         0.00000E+00
         0.00000E+00
         0.00000E+00
         0.00000E+00
         0.00000E+00
         0.00000E+00
         0.00000E+00
         0.00000E+00
         0.00000E+00
         0.00000E+00
         0.00000E+00
         0.00000E+00
         0.00000E+00
         0.00000E+00
         0.00000E+00
         0.00000E+00
         0.00000E+00
         0.00000E+00
         0.00000E+00
         0.00000E+00
         0.00000E+00
         0.00000E+00
         0.00000E+00
         0.00000E+00
         0.00000E+00
         0.00000E+00
         0.00000E+00
         0.00000E+00
         0.00000E+00
         0.00000E+00
         0.00000E+00
         0.00000E+00
         0.00000E+00
         0.00000E+00
         0.00000E+00
         0.00000E+00
         0.00000E+00
         0.00000E+00
         0.00000E+00
         0.00000E+00
         0.00000E+00
         0.00000E+00
         0.00000E+00
         0.00000E+00
         0.00000E+00
         0.00000E+00
         0.00000E+00
         0.00000E+00
         0.00000E+00
         0.00000E+00
         0.00000E+00
         0.00000E+00
         0.00000E+00
         0.00000E+00
         0.00000E+00
         0.00000E+00
         0.00000E+00
         0.00000E+00
         0.00000E+00
         0.00000E+00
         0.00000E+00
         0.00000E+00
         0.00000E+00
         0.00000E+00
         0.00000E+00
         0.00000E+00
         0.00000E+00
         0.00000E+00
         0.00000E+00
         0.00000E+00
         0.00000E+00
         0.00000E+00
         0.00000E+00
         0.00000E+00
         0.00000E+00
         0.00000E+00
         0.00000E+00
         0.00000E+00
         0.00000E+00
         0.00000E+00
         0.00000E+00
         0.00000E+00
         0.00000E+00
         0.00000E+00
         0.00000E+00
         0.00000E+00
         0.00000E+00
         0.00000E+00
         0.00000E+00
         0.00000E+00
         0.00000E+00
         0.00000E+00
         0.00000E+00
         0.00000E+00
         0.00000E+00
         0.00000E+00
         0.00000E+00
         0.00000E+00
         0.00000E+00
         0.00000E+00
         0.00000E+00
         0.00000E+00
         0.00000E+00
         0.00000E+00
         0.00000E+00
         0.00000E+00
         0.00000E+00
         0.00000E+00
         0.00000E+00
         0.00000E+00
         0.00000E+00
         0.00000E+00
         0.00000E+00
         0.00000E+00
         0.00000E+00
         0.00000E+00
         0.00000E+00
         0.00000E+00
         0.00000E+00
         0.00000E+00
         0.00000E+00
         0.00000E+00
         0.00000E+00
         0.00000E+00
         0.00000E+00
         0.00000E+00
         0.00000E+00
         0.00000E+00
         0.00000E+00
         0.00000E+00
         0.00000E+00
         0.00000E+00
         0.00000E+00
         0.00000E+00
         0.00000E+00
         0.00000E+00
         0.00000E+00
         0.00000E+00
         0.00000E+00
         0.00000E+00
         0.00000E+00
         0.00000E+00
         0.00000E+00
         0.00000E+00
         0.00000E+00
         0.00000E+00
         0.00000E+00
         0.00000E+00
         0.00000E+00
         0.00000E+00
         0.00000E+00
         0.00000E+00
         0.00000E+00
         0.00000E+00
         0.00000E+00
         0.00000E+00
         0.00000E+00
         0.00000E+00
         0.00000E+00
         0.00000E+00
         0.00000E+00
         0.00000E+00
         0.00000E+00
         0.00000E+00
         0.00000E+00
         0.00000E+00
         0.00000E+00
         0.00000E+00
         0.00000E+00
         0.00000E+00
         0.00000E+00
         0.00000E+00
         0.00000E+00
         0.00000E+00
         0.00000E+00
         0.00000E+00
         0.00000E+00
         0.00000E+00
         0.00000E+00
         0.00000E+00
         0.00000E+00
         0.00000E+00
         0.00000E+00
         0.00000E+00
         0.00000E+00
         0.00000E+00
         0.00000E+00
         0.00000E+00
         0.00000E+00
         0.00000E+00
         0.00000E+00
         0.00000E+00
         0.00000E+00
         0.00000E+00
         0.00000E+00
         0.00000E+00
         0.00000E+00
         0.00000E+00
         0.00000E+00
         0.00000E+00
         0.00000E+00
         0.00000E+00
         0.00000E+00
         0.00000E+00
         0.00000E+00
         0.00000E+00
         0.00000E+00
         0.00000E+00
         0.00000E+00
         0.00000E+00
         0.00000E+00
         0.00000E+00
         0.00000E+00
         0.00000E+00
         0.00000E+00
         0.00000E+00
         0.00000E+00
         0.00000E+00
         0.00000E+00
         0.00000E+00
         0.00000E+00
         0.00000E+00
         0.00000E+00
         0.00000E+00
         0.00000E+00
         0.00000E+00
         0.00000E+00
         0.00000E+00
         0.00000E+00
         0.00000E+00
         0.00000E+00
         0.00000E+00
         0.00000E+00
         0.00000E+00
         0.00000E+00
         0.00000E+00
         0.00000E+00
         0.00000E+00
         0.00000E+00
         0.00000E+00
         0.00000E+00
         0.00000E+00
         0.00000E+00
         0.00000E+00
         0.00000E+00
         0.00000E+00
         0.00000E+00
         0.00000E+00
         0.00000E+00
         0.00000E+00
         0.00000E+00
         0.00000E+00
         0.00000E+00
         0.00000E+00
         0.00000E+00
         0.00000E+00
         0.00000E+00
         0.00000E+00
         0.00000E+00
         0.00000E+00
         0.00000E+00
         0.00000E+00
         0.00000E+00
         0.00000E+00
         0.00000E+00
         0.00000E+00
         0.00000E+00
         0.00000E+00
         0.00000E+00
         0.00000E+00
         0.00000E+00
         0.00000E+00
         0.00000E+00
         0.00000E+00
         0.00000E+00
         0.00000E+00
         0.00000E+00
         0.00000E+00
         0.00000E+00
         0.00000E+00
         0.00000E+00
         0.00000E+00
         0.00000E+00
         0.00000E+00
         0.00000E+00
         0.00000E+00
         0.00000E+00
         0.00000E+00
         0.00000E+00
         0.00000E+00
         0.00000E+00
         0.00000E+00
         0.00000E+00
         0.00000E+00
         0.00000E+00
         0.00000E+00
         0.00000E+00
         0.00000E+00
         0.00000E+00
         0.00000E+00
         0.00000E+00
         0.00000E+00
         0.00000E+00
         0.00000E+00
         0.00000E+00
         0.00000E+00
         0.00000E+00
         0.00000E+00
         0.00000E+00
         0.00000E+00
         0.00000E+00
         0.00000E+00
         0.00000E+00
         0.00000E+00
         0.00000E+00
         0.00000E+00
         0.00000E+00
         0.00000E+00
         0.00000E+00
         0.00000E+00
         0.00000E+00
         0.00000E+00
         0.00000E+00
         0.00000E+00
         0.00000E+00
         0.00000E+00
         0.00000E+00
         0.00000E+00
         0.00000E+00
         0.00000E+00
         0.00000E+00
         0.00000E+00
         0.00000E+00
         0.00000E+00
         0.00000E+00
         0.00000E+00
         0.00000E+00
         0.00000E+00
         0.00000E+00
         0.00000E+00
         0.00000E+00
         0.00000E+00
         0.00000E+00
         0.00000E+00
         0.00000E+00
         0.00000E+00
         0.00000E+00
         0.00000E+00
         0.00000E+00
         0.00000E+00
         0.00000E+00
         0.00000E+00
         0.00000E+00
         0.00000E+00
         0.00000E+00
         0.00000E+00
         0.00000E+00
         0.00000E+00
         0.00000E+00
         0.00000E+00
         0.00000E+00
         0.00000E+00
         0.00000E+00
         0.00000E+00
         0.00000E+00
         0.00000E+00
         0.00000E+00
         0.00000E+00
         0.00000E+00
         0.00000E+00
         0.00000E+00
         0.00000E+00
         0.00000E+00
         0.00000E+00
         0.00000E+00
         0.00000E+00
         0.00000E+00
         0.00000E+00
         0.00000E+00
         0.00000E+00
         0.00000E+00
         0.00000E+00
         0.00000E+00
         0.00000E+00
         0.00000E+00
         0.00000E+00
         0.00000E+00
         0.00000E+00
         0.00000E+00
         0.00000E+00
         0.00000E+00
         0.00000E+00
         0.00000E+00
         0.00000E+00
         0.00000E+00
         0.00000E+00
         0.00000E+00
         0.00000E+00
         0.00000E+00
         0.00000E+00
         0.00000E+00
         0.00000E+00
         0.00000E+00
         0.00000E+00
         0.00000E+00
         0.00000E+00
         0.00000E+00
         0.00000E+00
         0.00000E+00
         0.00000E+00
         0.00000E+00
         0.00000E+00
         0.00000E+00
         0.00000E+00
         0.00000E+00
         0.00000E+00
         0.00000E+00
         0.00000E+00
         0.00000E+00
         0.00000E+00
         0.00000E+00
         0.00000E+00
         0.00000E+00
         0.00000E+00
         0.00000E+00
         0.00000E+00
         0.00000E+00
         0.00000E+00
         0.00000E+00
         0.00000E+00
         0.00000E+00
         0.00000E+00
         0.00000E+00
         0.00000E+00
         0.00000E+00
         0.00000E+00
         0.00000E+00
         0.00000E+00
         0.00000E+00
         0.00000E+00
         0.00000E+00
         0.00000E+00
         0.00000E+00
         0.00000E+00
         0.00000E+00
         0.00000E+00
         0.00000E+00
         0.00000E+00
         0.00000E+00
         0.00000E+00
         0.00000E+00
         0.00000E+00
         0.00000E+00
         0.00000E+00
         0.00000E+00
         0.00000E+00
         0.00000E+00
         0.00000E+00
         0.00000E+00
         0.00000E+00
         0.00000E+00
         0.00000E+00
         0.00000E+00
         0.00000E+00
         0.00000E+00
         0.00000E+00
         0.00000E+00
         0.00000E+00
         0.00000E+00
         0.00000E+00
         0.00000E+00
         0.00000E+00
         0.00000E+00
         0.00000E+00
         0.00000E+00
         0.00000E+00
         0.00000E+00
         0.00000E+00
         0.00000E+00
         0.00000E+00
         0.00000E+00
         0.00000E+00
         0.00000E+00
         0.00000E+00
         0.00000E+00
         0.00000E+00
         0.00000E+00
         0.00000E+00
         0.00000E+00
         0.00000E+00
         0.00000E+00
         0.00000E+00
         0.00000E+00
         0.00000E+00
         0.00000E+00
         0.00000E+00
         0.00000E+00
         0.00000E+00
         0.00000E+00
         0.00000E+00
         0.00000E+00
         0.00000E+00
         0.00000E+00
         0.00000E+00
         0.00000E+00
         0.00000E+00
         0.00000E+00
         0.00000E+00
         0.00000E+00
         0.00000E+00
         0.00000E+00
         0.00000E+00
         0.00000E+00
         0.00000E+00
         0.00000E+00
         0.00000E+00
         0.00000E+00
         0.00000E+00
         0.00000E+00
         0.00000E+00
         0.00000E+00
         0.00000E+00
         0.00000E+00
         0.00000E+00
         0.00000E+00
         0.00000E+00
         0.00000E+00
         0.00000E+00
         0.00000E+00
         0.00000E+00
         0.00000E+00
         0.00000E+00
         0.00000E+00
         0.00000E+00
         0.00000E+00
         0.00000E+00
         0.00000E+00
         0.00000E+00
         0.00000E+00
         0.00000E+00
         0.00000E+00
         0.00000E+00
         0.00000E+00
         0.00000E+00
         0.00000E+00
         0.00000E+00
         0.00000E+00
         0.00000E+00
         0.00000E+00
         0.00000E+00
         0.00000E+00
         0.00000E+00
         0.00000E+00
         0.00000E+00
         0.00000E+00
         0.00000E+00
         0.00000E+00
         0.00000E+00
         0.00000E+00
         0.00000E+00
         0.00000E+00
         0.00000E+00
         0.00000E+00
         0.00000E+00
         0.00000E+00
         0.00000E+00
         0.00000E+00
         0.00000E+00
         0.00000E+00
         0.00000E+00
  
SCALARS                init_velocity_y  double 1
LOOKUP_TABLE default
         0.00000E+00
         0.00000E+00
         0.00000E+00
         0.00000E+00
         0.00000E+00
         0.00000E+00
         0.00000E+00
         0.00000E+00
         0.00000E+00
         0.00000E+00
         0.00000E+00
         0.00000E+00
         0.00000E+00
         0.00000E+00
         0.00000E+00
         0.00000E+00
         0.00000E+00
         0.00000E+00
         0.00000E+00
         0.00000E+00
         0.00000E+00
         0.00000E+00
         0.00000E+00
         0.00000E+00
         0.00000E+00
         0.00000E+00
         0.00000E+00
         0.00000E+00
         0.00000E+00
         0.00000E+00
         0.00000E+00
         0.00000E+00
         0.00000E+00
         0.00000E+00
         0.00000E+00
         0.00000E+00
         0.00000E+00
         0.00000E+00
         0.00000E+00
         0.00000E+00
         0.00000E+00
         0.00000E+00
         0.00000E+00
         0.00000E+00
         0.00000E+00
         0.00000E+00
         0.00000E+00
         0.00000E+00
         0.00000E+00
         0.00000E+00
         0.00000E+00
         0.00000E+00
         0.00000E+00
         0.00000E+00
         0.00000E+00
         0.00000E+00
         0.00000E+00
         0.00000E+00
         0.00000E+00
         0.00000E+00
         0.00000E+00
         0.00000E+00
         0.00000E+00
         0.00000E+00
         0.00000E+00
         0.00000E+00
         0.00000E+00
         0.00000E+00
         0.00000E+00
         0.00000E+00
         0.00000E+00
         0.00000E+00
         0.00000E+00
         0.00000E+00
         0.00000E+00
         0.00000E+00
         0.00000E+00
         0.00000E+00
         0.00000E+00
         0.00000E+00
         0.00000E+00
         0.00000E+00
         0.00000E+00
         0.00000E+00
         0.00000E+00
         0.00000E+00
         0.00000E+00
         0.00000E+00
         0.00000E+00
         0.00000E+00
         0.00000E+00
         0.00000E+00
         0.00000E+00
         0.00000E+00
         0.00000E+00
         0.00000E+00
         0.00000E+00
         0.00000E+00
         0.00000E+00
         0.00000E+00
         0.00000E+00
         0.00000E+00
         0.00000E+00
         0.00000E+00
         0.00000E+00
         0.00000E+00
         0.00000E+00
         0.00000E+00
         0.00000E+00
         0.00000E+00
         0.00000E+00
         0.00000E+00
         0.00000E+00
         0.00000E+00
         0.00000E+00
         0.00000E+00
         0.00000E+00
         0.00000E+00
         0.00000E+00
         0.00000E+00
         0.00000E+00
         0.00000E+00
         0.00000E+00
         0.00000E+00
         0.00000E+00
         0.00000E+00
         0.00000E+00
         0.00000E+00
         0.00000E+00
         0.00000E+00
         0.00000E+00
         0.00000E+00
         0.00000E+00
         0.00000E+00
         0.00000E+00
         0.00000E+00
         0.00000E+00
         0.00000E+00
         0.00000E+00
         0.00000E+00
         0.00000E+00
         0.00000E+00
         0.00000E+00
         0.00000E+00
         0.00000E+00
         0.00000E+00
         0.00000E+00
         0.00000E+00
         0.00000E+00
         0.00000E+00
         0.00000E+00
         0.00000E+00
         0.00000E+00
         0.00000E+00
         0.00000E+00
         0.00000E+00
         0.00000E+00
         0.00000E+00
         0.00000E+00
         0.00000E+00
         0.00000E+00
         0.00000E+00
         0.00000E+00
         0.00000E+00
         0.00000E+00
         0.00000E+00
         0.00000E+00
         0.00000E+00
         0.00000E+00
         0.00000E+00
         0.00000E+00
         0.00000E+00
         0.00000E+00
         0.00000E+00
         0.00000E+00
         0.00000E+00
         0.00000E+00
         0.00000E+00
         0.00000E+00
         0.00000E+00
         0.00000E+00
         0.00000E+00
         0.00000E+00
         0.00000E+00
         0.00000E+00
         0.00000E+00
         0.00000E+00
         0.00000E+00
         0.00000E+00
         0.00000E+00
         0.00000E+00
         0.00000E+00
         0.00000E+00
         0.00000E+00
         0.00000E+00
         0.00000E+00
         0.00000E+00
         0.00000E+00
         0.00000E+00
         0.00000E+00
         0.00000E+00
         0.00000E+00
         0.00000E+00
         0.00000E+00
         0.00000E+00
         0.00000E+00
         0.00000E+00
         0.00000E+00
         0.00000E+00
         0.00000E+00
         0.00000E+00
         0.00000E+00
         0.00000E+00
         0.00000E+00
         0.00000E+00
         0.00000E+00
         0.00000E+00
         0.00000E+00
         0.00000E+00
         0.00000E+00
         0.00000E+00
         0.00000E+00
         0.00000E+00
         0.00000E+00
         0.00000E+00
         0.00000E+00
         0.00000E+00
         0.00000E+00
         0.00000E+00
         0.00000E+00
         0.00000E+00
         0.00000E+00
         0.00000E+00
         0.00000E+00
         0.00000E+00
         0.00000E+00
         0.00000E+00
         0.00000E+00
         0.00000E+00
         0.00000E+00
         0.00000E+00
         0.00000E+00
         0.00000E+00
         0.00000E+00
         0.00000E+00
         0.00000E+00
         0.00000E+00
         0.00000E+00
         0.00000E+00
         0.00000E+00
         0.00000E+00
         0.00000E+00
         0.00000E+00
         0.00000E+00
         0.00000E+00
         0.00000E+00
         0.00000E+00
         0.00000E+00
         0.00000E+00
         0.00000E+00
         0.00000E+00
         0.00000E+00
         0.00000E+00
         0.00000E+00
         0.00000E+00
         0.00000E+00
         0.00000E+00
         0.00000E+00
         0.00000E+00
         0.00000E+00
         0.00000E+00
         0.00000E+00
         0.00000E+00
         0.00000E+00
         0.00000E+00
         0.00000E+00
         0.00000E+00
         0.00000E+00
         0.00000E+00
         0.00000E+00
         0.00000E+00
         0.00000E+00
         0.00000E+00
         0.00000E+00
         0.00000E+00
         0.00000E+00
         0.00000E+00
         0.00000E+00
         0.00000E+00
         0.00000E+00
         0.00000E+00
         0.00000E+00
         0.00000E+00
         0.00000E+00
         0.00000E+00
         0.00000E+00
         0.00000E+00
         0.00000E+00
         0.00000E+00
         0.00000E+00
         0.00000E+00
         0.00000E+00
         0.00000E+00
         0.00000E+00
         0.00000E+00
         0.00000E+00
         0.00000E+00
         0.00000E+00
         0.00000E+00
         0.00000E+00
         0.00000E+00
         0.00000E+00
         0.00000E+00
         0.00000E+00
         0.00000E+00
         0.00000E+00
         0.00000E+00
         0.00000E+00
         0.00000E+00
         0.00000E+00
         0.00000E+00
         0.00000E+00
         0.00000E+00
         0.00000E+00
         0.00000E+00
         0.00000E+00
         0.00000E+00
         0.00000E+00
         0.00000E+00
         0.00000E+00
         0.00000E+00
         0.00000E+00
         0.00000E+00
         0.00000E+00
         0.00000E+00
         0.00000E+00
         0.00000E+00
         0.00000E+00
         0.00000E+00
         0.00000E+00
         0.00000E+00
         0.00000E+00
         0.00000E+00
         0.00000E+00
         0.00000E+00
         0.00000E+00
         0.00000E+00
         0.00000E+00
         0.00000E+00
         0.00000E+00
         0.00000E+00
         0.00000E+00
         0.00000E+00
         0.00000E+00
         0.00000E+00
         0.00000E+00
         0.00000E+00
         0.00000E+00
         0.00000E+00
         0.00000E+00
         0.00000E+00
         0.00000E+00
         0.00000E+00
         0.00000E+00
         0.00000E+00
         0.00000E+00
         0.00000E+00
         0.00000E+00
         0.00000E+00
         0.00000E+00
         0.00000E+00
         0.00000E+00
         0.00000E+00
         0.00000E+00
         0.00000E+00
         0.00000E+00
         0.00000E+00
         0.00000E+00
         0.00000E+00
         0.00000E+00
         0.00000E+00
         0.00000E+00
         0.00000E+00
         0.00000E+00
         0.00000E+00
         0.00000E+00
         0.00000E+00
         0.00000E+00
         0.00000E+00
         0.00000E+00
         0.00000E+00
         0.00000E+00
         0.00000E+00
         0.00000E+00
         0.00000E+00
         0.00000E+00
         0.00000E+00
         0.00000E+00
         0.00000E+00
         0.00000E+00
         0.00000E+00
         0.00000E+00
         0.00000E+00
         0.00000E+00
         0.00000E+00
         0.00000E+00
         0.00000E+00
         0.00000E+00
         0.00000E+00
         0.00000E+00
         0.00000E+00
         0.00000E+00
         0.00000E+00
         0.00000E+00
         0.00000E+00
         0.00000E+00
         0.00000E+00
         0.00000E+00
         0.00000E+00
         0.00000E+00
         0.00000E+00
         0.00000E+00
         0.00000E+00
         0.00000E+00
         0.00000E+00
         0.00000E+00
         0.00000E+00
         0.00000E+00
         0.00000E+00
         0.00000E+00
         0.00000E+00
         0.00000E+00
         0.00000E+00
         0.00000E+00
         0.00000E+00
         0.00000E+00
         0.00000E+00
         0.00000E+00
         0.00000E+00
         0.00000E+00
         0.00000E+00
         0.00000E+00
         0.00000E+00
         0.00000E+00
         0.00000E+00
         0.00000E+00
         0.00000E+00
         0.00000E+00
         0.00000E+00
         0.00000E+00
         0.00000E+00
         0.00000E+00
         0.00000E+00
         0.00000E+00
         0.00000E+00
         0.00000E+00
         0.00000E+00
         0.00000E+00
         0.00000E+00
         0.00000E+00
         0.00000E+00
         0.00000E+00
         0.00000E+00
         0.00000E+00
         0.00000E+00
         0.00000E+00
         0.00000E+00
         0.00000E+00
         0.00000E+00
         0.00000E+00
         0.00000E+00
         0.00000E+00
         0.00000E+00
         0.00000E+00
         0.00000E+00
         0.00000E+00
         0.00000E+00
         0.00000E+00
         0.00000E+00
         0.00000E+00
         0.00000E+00
         0.00000E+00
         0.00000E+00
         0.00000E+00
         0.00000E+00
         0.00000E+00
         0.00000E+00
         0.00000E+00
         0.00000E+00
         0.00000E+00
         0.00000E+00
         0.00000E+00
         0.00000E+00
         0.00000E+00
         0.00000E+00
         0.00000E+00
         0.00000E+00
         0.00000E+00
         0.00000E+00
         0.00000E+00
         0.00000E+00
         0.00000E+00
         0.00000E+00
         0.00000E+00
         0.00000E+00
         0.00000E+00
         0.00000E+00
         0.00000E+00
         0.00000E+00
         0.00000E+00
         0.00000E+00
         0.00000E+00
         0.00000E+00
         0.00000E+00
         0.00000E+00
         0.00000E+00
         0.00000E+00
         0.00000E+00
         0.00000E+00
         0.00000E+00
         0.00000E+00
         0.00000E+00
         0.00000E+00
         0.00000E+00
         0.00000E+00
         0.00000E+00
         0.00000E+00
         0.00000E+00
         0.00000E+00
         0.00000E+00
         0.00000E+00
         0.00000E+00
         0.00000E+00
         0.00000E+00
         0.00000E+00
         0.00000E+00
         0.00000E+00
         0.00000E+00
         0.00000E+00
         0.00000E+00
         0.00000E+00
         0.00000E+00
         0.00000E+00
         0.00000E+00
         0.00000E+00
         0.00000E+00
         0.00000E+00
         0.00000E+00
         0.00000E+00
         0.00000E+00
         0.00000E+00
         0.00000E+00
         0.00000E+00
         0.00000E+00
         0.00000E+00
         0.00000E+00
         0.00000E+00
         0.00000E+00
         0.00000E+00
         0.00000E+00
         0.00000E+00
         0.00000E+00
         0.00000E+00
         0.00000E+00
         0.00000E+00
         0.00000E+00
         0.00000E+00
         0.00000E+00
         0.00000E+00
         0.00000E+00
         0.00000E+00
         0.00000E+00
         0.00000E+00
         0.00000E+00
         0.00000E+00
         0.00000E+00
         0.00000E+00
         0.00000E+00
         0.00000E+00
         0.00000E+00
         0.00000E+00
         0.00000E+00
         0.00000E+00
         0.00000E+00
         0.00000E+00
         0.00000E+00
         0.00000E+00
         0.00000E+00
         0.00000E+00
         0.00000E+00
         0.00000E+00
         0.00000E+00
         0.00000E+00
         0.00000E+00
         0.00000E+00
         0.00000E+00
         0.00000E+00
         0.00000E+00
         0.00000E+00
         0.00000E+00
         0.00000E+00
         0.00000E+00
         0.00000E+00
         0.00000E+00
         0.00000E+00
         0.00000E+00
         0.00000E+00
         0.00000E+00
         0.00000E+00
         0.00000E+00
         0.00000E+00
         0.00000E+00
         0.00000E+00
         0.00000E+00
         0.00000E+00
         0.00000E+00
         0.00000E+00
         0.00000E+00
         0.00000E+00
         0.00000E+00
         0.00000E+00
         0.00000E+00
         0.00000E+00
         0.00000E+00
         0.00000E+00
         0.00000E+00
         0.00000E+00
         0.00000E+00
         0.00000E+00
         0.00000E+00
         0.00000E+00
         0.00000E+00
         0.00000E+00
         0.00000E+00
         0.00000E+00
         0.00000E+00
         0.00000E+00
         0.00000E+00
         0.00000E+00
         0.00000E+00
         0.00000E+00
         0.00000E+00
         0.00000E+00
         0.00000E+00
         0.00000E+00
         0.00000E+00
         0.00000E+00
         0.00000E+00
         0.00000E+00
         0.00000E+00
         0.00000E+00
         0.00000E+00
         0.00000E+00
         0.00000E+00
         0.00000E+00
         0.00000E+00
         0.00000E+00
         0.00000E+00
         0.00000E+00
         0.00000E+00
         0.00000E+00
         0.00000E+00
         0.00000E+00
         0.00000E+00
         0.00000E+00
         0.00000E+00
         0.00000E+00
         0.00000E+00
         0.00000E+00
         0.00000E+00
         0.00000E+00
         0.00000E+00
         0.00000E+00
         0.00000E+00
         0.00000E+00
         0.00000E+00
         0.00000E+00
         0.00000E+00
         0.00000E+00
         0.00000E+00
         0.00000E+00
         0.00000E+00
         0.00000E+00
         0.00000E+00
         0.00000E+00
         0.00000E+00
         0.00000E+00
         0.00000E+00
         0.00000E+00
         0.00000E+00
         0.00000E+00
         0.00000E+00
         0.00000E+00
         0.00000E+00
         0.00000E+00
         0.00000E+00
         0.00000E+00
         0.00000E+00
         0.00000E+00
         0.00000E+00
         0.00000E+00
         0.00000E+00
         0.00000E+00
         0.00000E+00
         0.00000E+00
         0.00000E+00
         0.00000E+00
         0.00000E+00
         0.00000E+00
         0.00000E+00
         0.00000E+00
         0.00000E+00
         0.00000E+00
         0.00000E+00
         0.00000E+00
         0.00000E+00
         0.00000E+00
         0.00000E+00
         0.00000E+00
         0.00000E+00
         0.00000E+00
         0.00000E+00
         0.00000E+00
         0.00000E+00
         0.00000E+00
         0.00000E+00
         0.00000E+00
         0.00000E+00
         0.00000E+00
         0.00000E+00
         0.00000E+00
         0.00000E+00
         0.00000E+00
         0.00000E+00
         0.00000E+00
         0.00000E+00
         0.00000E+00
         0.00000E+00
         0.00000E+00
         0.00000E+00
         0.00000E+00
         0.00000E+00
         0.00000E+00
         0.00000E+00
         0.00000E+00
         0.00000E+00
         0.00000E+00
         0.00000E+00
         0.00000E+00
         0.00000E+00
         0.00000E+00
         0.00000E+00
         0.00000E+00
         0.00000E+00
         0.00000E+00
         0.00000E+00
         0.00000E+00
         0.00000E+00
         0.00000E+00
         0.00000E+00
         0.00000E+00
         0.00000E+00
         0.00000E+00
         0.00000E+00
         0.00000E+00
         0.00000E+00
         0.00000E+00
         0.00000E+00
         0.00000E+00
         0.00000E+00
         0.00000E+00
         0.00000E+00
         0.00000E+00
         0.00000E+00
         0.00000E+00
         0.00000E+00
         0.00000E+00
         0.00000E+00
         0.00000E+00
         0.00000E+00
         0.00000E+00
         0.00000E+00
         0.00000E+00
         0.00000E+00
         0.00000E+00
         0.00000E+00
         0.00000E+00
         0.00000E+00
         0.00000E+00
         0.00000E+00
         0.00000E+00
         0.00000E+00
         0.00000E+00
         0.00000E+00
         0.00000E+00
         0.00000E+00
         0.00000E+00
         0.00000E+00
         0.00000E+00
         0.00000E+00
         0.00000E+00
         0.00000E+00
         0.00000E+00
         0.00000E+00
         0.00000E+00
         0.00000E+00
         0.00000E+00
         0.00000E+00
         0.00000E+00
         0.00000E+00
         0.00000E+00
         0.00000E+00
         0.00000E+00
         0.00000E+00
         0.00000E+00
         0.00000E+00
         0.00000E+00
         0.00000E+00
         0.00000E+00
         0.00000E+00
         0.00000E+00
         0.00000E+00
         0.00000E+00
         0.00000E+00
         0.00000E+00
         0.00000E+00
         0.00000E+00
         0.00000E+00
         0.00000E+00
         0.00000E+00
         0.00000E+00
         0.00000E+00
         0.00000E+00
         0.00000E+00
         0.00000E+00
         0.00000E+00
         0.00000E+00
         0.00000E+00
         0.00000E+00
         0.00000E+00
         0.00000E+00
         0.00000E+00
         0.00000E+00
         0.00000E+00
         0.00000E+00
         0.00000E+00
         0.00000E+00
         0.00000E+00
         0.00000E+00
         0.00000E+00
         0.00000E+00
         0.00000E+00
         0.00000E+00
         0.00000E+00
         0.00000E+00
         0.00000E+00
         0.00000E+00
         0.00000E+00
         0.00000E+00
         0.00000E+00
         0.00000E+00
         0.00000E+00
         0.00000E+00
         0.00000E+00
         0.00000E+00
         0.00000E+00
         0.00000E+00
         0.00000E+00
         0.00000E+00
         0.00000E+00
         0.00000E+00
         0.00000E+00
         0.00000E+00
         0.00000E+00
         0.00000E+00
         0.00000E+00
         0.00000E+00
         0.00000E+00
         0.00000E+00
         0.00000E+00
         0.00000E+00
         0.00000E+00
         0.00000E+00
         0.00000E+00
         0.00000E+00
         0.00000E+00
         0.00000E+00
         0.00000E+00
         0.00000E+00
         0.00000E+00
         0.00000E+00
         0.00000E+00
         0.00000E+00
         0.00000E+00
         0.00000E+00
         0.00000E+00
         0.00000E+00
         0.00000E+00
         0.00000E+00
         0.00000E+00
         0.00000E+00
         0.00000E+00
         0.00000E+00
         0.00000E+00
         0.00000E+00
         0.00000E+00
         0.00000E+00
         0.00000E+00
         0.00000E+00
         0.00000E+00
         0.00000E+00
         0.00000E+00
         0.00000E+00
         0.00000E+00
         0.00000E+00
         0.00000E+00
         0.00000E+00
         0.00000E+00
         0.00000E+00
         0.00000E+00
         0.00000E+00
         0.00000E+00
         0.00000E+00
         0.00000E+00
         0.00000E+00
         0.00000E+00
         0.00000E+00
         0.00000E+00
         0.00000E+00
         0.00000E+00
         0.00000E+00
         0.00000E+00
         0.00000E+00
         0.00000E+00
         0.00000E+00
         0.00000E+00
         0.00000E+00
         0.00000E+00
         0.00000E+00
         0.00000E+00
         0.00000E+00
         0.00000E+00
         0.00000E+00
         0.00000E+00
         0.00000E+00
         0.00000E+00
         0.00000E+00
         0.00000E+00
         0.00000E+00
         0.00000E+00
         0.00000E+00
         0.00000E+00
         0.00000E+00
         0.00000E+00
         0.00000E+00
         0.00000E+00
         0.00000E+00
         0.00000E+00
         0.00000E+00
         0.00000E+00
         0.00000E+00
         0.00000E+00
         0.00000E+00
         0.00000E+00
         0.00000E+00
         0.00000E+00
         0.00000E+00
         0.00000E+00
         0.00000E+00
         0.00000E+00
         0.00000E+00
         0.00000E+00
         0.00000E+00
         0.00000E+00
         0.00000E+00
         0.00000E+00
         0.00000E+00
         0.00000E+00
         0.00000E+00
         0.00000E+00
         0.00000E+00
         0.00000E+00
         0.00000E+00
         0.00000E+00
         0.00000E+00
         0.00000E+00
         0.00000E+00
         0.00000E+00
         0.00000E+00
         0.00000E+00
         0.00000E+00
         0.00000E+00
         0.00000E+00
         0.00000E+00
         0.00000E+00
         0.00000E+00
         0.00000E+00
         0.00000E+00
         0.00000E+00
         0.00000E+00
         0.00000E+00
         0.00000E+00
         0.00000E+00
         0.00000E+00
         0.00000E+00
         0.00000E+00
         0.00000E+00
         0.00000E+00
         0.00000E+00
         0.00000E+00
         0.00000E+00
         0.00000E+00
         0.00000E+00
         0.00000E+00
         0.00000E+00
         0.00000E+00
         0.00000E+00
         0.00000E+00
         0.00000E+00
         0.00000E+00
         0.00000E+00
         0.00000E+00
         0.00000E+00
         0.00000E+00
         0.00000E+00
         0.00000E+00
         0.00000E+00
         0.00000E+00
         0.00000E+00
         0.00000E+00
         0.00000E+00
         0.00000E+00
         0.00000E+00
         0.00000E+00
         0.00000E+00
         0.00000E+00
         0.00000E+00
         0.00000E+00
         0.00000E+00
         0.00000E+00
         0.00000E+00
         0.00000E+00
         0.00000E+00
         0.00000E+00
         0.00000E+00
         0.00000E+00
         0.00000E+00
         0.00000E+00
         0.00000E+00
         0.00000E+00
         0.00000E+00
         0.00000E+00
         0.00000E+00
         0.00000E+00
         0.00000E+00
         0.00000E+00
         0.00000E+00
         0.00000E+00
         0.00000E+00
         0.00000E+00
         0.00000E+00
         0.00000E+00
         0.00000E+00
         0.00000E+00
         0.00000E+00
         0.00000E+00
         0.00000E+00
         0.00000E+00
         0.00000E+00
         0.00000E+00
         0.00000E+00
         0.00000E+00
         0.00000E+00
         0.00000E+00
         0.00000E+00
         0.00000E+00
         0.00000E+00
         0.00000E+00
         0.00000E+00
         0.00000E+00
         0.00000E+00
         0.00000E+00
         0.00000E+00
         0.00000E+00
         0.00000E+00
         0.00000E+00
         0.00000E+00
         0.00000E+00
         0.00000E+00
         0.00000E+00
         0.00000E+00
         0.00000E+00
         0.00000E+00
         0.00000E+00
         0.00000E+00
         0.00000E+00
         0.00000E+00
         0.00000E+00
         0.00000E+00
         0.00000E+00
         0.00000E+00
         0.00000E+00
         0.00000E+00
         0.00000E+00
         0.00000E+00
         0.00000E+00
         0.00000E+00
         0.00000E+00
         0.00000E+00
         0.00000E+00
         0.00000E+00
         0.00000E+00
         0.00000E+00
         0.00000E+00
         0.00000E+00
         0.00000E+00
         0.00000E+00
         0.00000E+00
         0.00000E+00
         0.00000E+00
         0.00000E+00
         0.00000E+00
         0.00000E+00
         0.00000E+00
         0.00000E+00
         0.00000E+00
         0.00000E+00
         0.00000E+00
         0.00000E+00
         0.00000E+00
         0.00000E+00
         0.00000E+00
         0.00000E+00
         0.00000E+00
         0.00000E+00
         0.00000E+00
         0.00000E+00
         0.00000E+00
         0.00000E+00
         0.00000E+00
         0.00000E+00
         0.00000E+00
         0.00000E+00
         0.00000E+00
         0.00000E+00
         0.00000E+00
         0.00000E+00
         0.00000E+00
         0.00000E+00
         0.00000E+00
         0.00000E+00
         0.00000E+00
         0.00000E+00
         0.00000E+00
         0.00000E+00
         0.00000E+00
         0.00000E+00
         0.00000E+00
         0.00000E+00
         0.00000E+00
         0.00000E+00
         0.00000E+00
         0.00000E+00
         0.00000E+00
         0.00000E+00
         0.00000E+00
         0.00000E+00
         0.00000E+00
         0.00000E+00
         0.00000E+00
         0.00000E+00
         0.00000E+00
         0.00000E+00
         0.00000E+00
         0.00000E+00
         0.00000E+00
         0.00000E+00
         0.00000E+00
         0.00000E+00
         0.00000E+00
         0.00000E+00
         0.00000E+00
         0.00000E+00
         0.00000E+00
         0.00000E+00
         0.00000E+00
         0.00000E+00
         0.00000E+00
         0.00000E+00
         0.00000E+00
         0.00000E+00
         0.00000E+00
         0.00000E+00
         0.00000E+00
         0.00000E+00
         0.00000E+00
         0.00000E+00
         0.00000E+00
         0.00000E+00
         0.00000E+00
         0.00000E+00
         0.00000E+00
         0.00000E+00
         0.00000E+00
         0.00000E+00
         0.00000E+00
         0.00000E+00
         0.00000E+00
         0.00000E+00
         0.00000E+00
         0.00000E+00
         0.00000E+00
         0.00000E+00
         0.00000E+00
         0.00000E+00
         0.00000E+00
         0.00000E+00
         0.00000E+00
         0.00000E+00
         0.00000E+00
         0.00000E+00
         0.00000E+00
         0.00000E+00
         0.00000E+00
         0.00000E+00
         0.00000E+00
         0.00000E+00
         0.00000E+00
         0.00000E+00
         0.00000E+00
         0.00000E+00
         0.00000E+00
         0.00000E+00
         0.00000E+00
         0.00000E+00
         0.00000E+00
         0.00000E+00
         0.00000E+00
         0.00000E+00
         0.00000E+00
         0.00000E+00
         0.00000E+00
         0.00000E+00
         0.00000E+00
         0.00000E+00
         0.00000E+00
         0.00000E+00
         0.00000E+00
         0.00000E+00
         0.00000E+00
         0.00000E+00
         0.00000E+00
         0.00000E+00
         0.00000E+00
         0.00000E+00
         0.00000E+00
         0.00000E+00
         0.00000E+00
         0.00000E+00
         0.00000E+00
         0.00000E+00
         0.00000E+00
         0.00000E+00
         0.00000E+00
         0.00000E+00
         0.00000E+00
         0.00000E+00
         0.00000E+00
         0.00000E+00
         0.00000E+00
         0.00000E+00
         0.00000E+00
         0.00000E+00
         0.00000E+00
         0.00000E+00
         0.00000E+00
         0.00000E+00
         0.00000E+00
         0.00000E+00
         0.00000E+00
         0.00000E+00
         0.00000E+00
         0.00000E+00
         0.00000E+00
         0.00000E+00
         0.00000E+00
         0.00000E+00
         0.00000E+00
         0.00000E+00
         0.00000E+00
         0.00000E+00
         0.00000E+00
         0.00000E+00
         0.00000E+00
         0.00000E+00
         0.00000E+00
         0.00000E+00
         0.00000E+00
         0.00000E+00
         0.00000E+00
         0.00000E+00
         0.00000E+00
         0.00000E+00
         0.00000E+00
         0.00000E+00
         0.00000E+00
         0.00000E+00
         0.00000E+00
         0.00000E+00
         0.00000E+00
         0.00000E+00
         0.00000E+00
         0.00000E+00
         0.00000E+00
         0.00000E+00
         0.00000E+00
         0.00000E+00
         0.00000E+00
         0.00000E+00
         0.00000E+00
         0.00000E+00
         0.00000E+00
         0.00000E+00
         0.00000E+00
         0.00000E+00
         0.00000E+00
         0.00000E+00
         0.00000E+00
         0.00000E+00
         0.00000E+00
         0.00000E+00
         0.00000E+00
         0.00000E+00
         0.00000E+00
         0.00000E+00
         0.00000E+00
         0.00000E+00
         0.00000E+00
         0.00000E+00
         0.00000E+00
         0.00000E+00
         0.00000E+00
         0.00000E+00
         0.00000E+00
         0.00000E+00
         0.00000E+00
         0.00000E+00
         0.00000E+00
         0.00000E+00
         0.00000E+00
         0.00000E+00
         0.00000E+00
         0.00000E+00
         0.00000E+00
         0.00000E+00
         0.00000E+00
         0.00000E+00
         0.00000E+00
         0.00000E+00
         0.00000E+00
         0.00000E+00
         0.00000E+00
         0.00000E+00
         0.00000E+00
         0.00000E+00
         0.00000E+00
         0.00000E+00
         0.00000E+00
         0.00000E+00
         0.00000E+00
         0.00000E+00
         0.00000E+00
         0.00000E+00
         0.00000E+00
         0.00000E+00
         0.00000E+00
         0.00000E+00
         0.00000E+00
         0.00000E+00
         0.00000E+00
         0.00000E+00
         0.00000E+00
         0.00000E+00
         0.00000E+00
         0.00000E+00
         0.00000E+00
         0.00000E+00
         0.00000E+00
         0.00000E+00
         0.00000E+00
         0.00000E+00
         0.00000E+00
         0.00000E+00
         0.00000E+00
         0.00000E+00
         0.00000E+00
         0.00000E+00
         0.00000E+00
         0.00000E+00
         0.00000E+00
         0.00000E+00
         0.00000E+00
         0.00000E+00
         0.00000E+00
         0.00000E+00
         0.00000E+00
         0.00000E+00
         0.00000E+00
         0.00000E+00
         0.00000E+00
         0.00000E+00
         0.00000E+00
         0.00000E+00
         0.00000E+00
         0.00000E+00
         0.00000E+00
         0.00000E+00
         0.00000E+00
         0.00000E+00
         0.00000E+00
         0.00000E+00
         0.00000E+00
         0.00000E+00
         0.00000E+00
         0.00000E+00
         0.00000E+00
         0.00000E+00
         0.00000E+00
         0.00000E+00
         0.00000E+00
         0.00000E+00
         0.00000E+00
         0.00000E+00
         0.00000E+00
         0.00000E+00
         0.00000E+00
         0.00000E+00
         0.00000E+00
         0.00000E+00
         0.00000E+00
         0.00000E+00
         0.00000E+00
         0.00000E+00
         0.00000E+00
         0.00000E+00
         0.00000E+00
         0.00000E+00
         0.00000E+00
         0.00000E+00
         0.00000E+00
         0.00000E+00
         0.00000E+00
         0.00000E+00
         0.00000E+00
         0.00000E+00
         0.00000E+00
         0.00000E+00
         0.00000E+00
         0.00000E+00
         0.00000E+00
         0.00000E+00
         0.00000E+00
         0.00000E+00
         0.00000E+00
         0.00000E+00
         0.00000E+00
         0.00000E+00
         0.00000E+00
         0.00000E+00
         0.00000E+00
         0.00000E+00
         0.00000E+00
         0.00000E+00
         0.00000E+00
         0.00000E+00
         0.00000E+00
         0.00000E+00
         0.00000E+00
         0.00000E+00
         0.00000E+00
         0.00000E+00
         0.00000E+00
         0.00000E+00
         0.00000E+00
         0.00000E+00
         0.00000E+00
         0.00000E+00
         0.00000E+00
         0.00000E+00
         0.00000E+00
         0.00000E+00
         0.00000E+00
         0.00000E+00
         0.00000E+00
         0.00000E+00
         0.00000E+00
         0.00000E+00
         0.00000E+00
         0.00000E+00
         0.00000E+00
         0.00000E+00
         0.00000E+00
         0.00000E+00
         0.00000E+00
         0.00000E+00
         0.00000E+00
         0.00000E+00
         0.00000E+00
         0.00000E+00
         0.00000E+00
         0.00000E+00
         0.00000E+00
         0.00000E+00
         0.00000E+00
         0.00000E+00
         0.00000E+00
         0.00000E+00
         0.00000E+00
         0.00000E+00
         0.00000E+00
         0.00000E+00
         0.00000E+00
         0.00000E+00
         0.00000E+00
         0.00000E+00
         0.00000E+00
         0.00000E+00
         0.00000E+00
         0.00000E+00
         0.00000E+00
         0.00000E+00
         0.00000E+00
         0.00000E+00
         0.00000E+00
         0.00000E+00
         0.00000E+00
         0.00000E+00
         0.00000E+00
         0.00000E+00
         0.00000E+00
         0.00000E+00
         0.00000E+00
         0.00000E+00
         0.00000E+00
         0.00000E+00
         0.00000E+00
         0.00000E+00
         0.00000E+00
         0.00000E+00
         0.00000E+00
         0.00000E+00
         0.00000E+00
         0.00000E+00
         0.00000E+00
         0.00000E+00
         0.00000E+00
         0.00000E+00
         0.00000E+00
         0.00000E+00
         0.00000E+00
         0.00000E+00
         0.00000E+00
         0.00000E+00
         0.00000E+00
         0.00000E+00
         0.00000E+00
         0.00000E+00
         0.00000E+00
         0.00000E+00
         0.00000E+00
         0.00000E+00
         0.00000E+00
         0.00000E+00
         0.00000E+00
         0.00000E+00
         0.00000E+00
         0.00000E+00
         0.00000E+00
         0.00000E+00
         0.00000E+00
         0.00000E+00
         0.00000E+00
         0.00000E+00
         0.00000E+00
         0.00000E+00
         0.00000E+00
         0.00000E+00
         0.00000E+00
         0.00000E+00
         0.00000E+00
         0.00000E+00
         0.00000E+00
         0.00000E+00
         0.00000E+00
         0.00000E+00
         0.00000E+00
         0.00000E+00
         0.00000E+00
         0.00000E+00
         0.00000E+00
         0.00000E+00
         0.00000E+00
         0.00000E+00
         0.00000E+00
         0.00000E+00
         0.00000E+00
         0.00000E+00
         0.00000E+00
         0.00000E+00
         0.00000E+00
         0.00000E+00
         0.00000E+00
         0.00000E+00
         0.00000E+00
         0.00000E+00
         0.00000E+00
         0.00000E+00
         0.00000E+00
         0.00000E+00
         0.00000E+00
         0.00000E+00
         0.00000E+00
         0.00000E+00
         0.00000E+00
         0.00000E+00
         0.00000E+00
         0.00000E+00
         0.00000E+00
         0.00000E+00
         0.00000E+00
         0.00000E+00
         0.00000E+00
         0.00000E+00
         0.00000E+00
         0.00000E+00
         0.00000E+00
         0.00000E+00
         0.00000E+00
         0.00000E+00
         0.00000E+00
         0.00000E+00
         0.00000E+00
         0.00000E+00
         0.00000E+00
         0.00000E+00
         0.00000E+00
         0.00000E+00
         0.00000E+00
         0.00000E+00
         0.00000E+00
         0.00000E+00
         0.00000E+00
         0.00000E+00
         0.00000E+00
         0.00000E+00
         0.00000E+00
         0.00000E+00
         0.00000E+00
         0.00000E+00
         0.00000E+00
         0.00000E+00
         0.00000E+00
         0.00000E+00
         0.00000E+00
         0.00000E+00
         0.00000E+00
         0.00000E+00
         0.00000E+00
         0.00000E+00
         0.00000E+00
         0.00000E+00
         0.00000E+00
         0.00000E+00
         0.00000E+00
         0.00000E+00
         0.00000E+00
         0.00000E+00
         0.00000E+00
         0.00000E+00
         0.00000E+00
         0.00000E+00
         0.00000E+00
         0.00000E+00
         0.00000E+00
         0.00000E+00
         0.00000E+00
         0.00000E+00
         0.00000E+00
         0.00000E+00
         0.00000E+00
         0.00000E+00
         0.00000E+00
         0.00000E+00
         0.00000E+00
         0.00000E+00
         0.00000E+00
         0.00000E+00
         0.00000E+00
         0.00000E+00
         0.00000E+00
         0.00000E+00
         0.00000E+00
         0.00000E+00
         0.00000E+00
         0.00000E+00
         0.00000E+00
         0.00000E+00
         0.00000E+00
         0.00000E+00
         0.00000E+00
         0.00000E+00
         0.00000E+00
         0.00000E+00
         0.00000E+00
         0.00000E+00
         0.00000E+00
         0.00000E+00
         0.00000E+00
         0.00000E+00
         0.00000E+00
         0.00000E+00
         0.00000E+00
         0.00000E+00
         0.00000E+00
         0.00000E+00
         0.00000E+00
         0.00000E+00
         0.00000E+00
         0.00000E+00
         0.00000E+00
         0.00000E+00
         0.00000E+00
         0.00000E+00
         0.00000E+00
         0.00000E+00
         0.00000E+00
         0.00000E+00
         0.00000E+00
         0.00000E+00
         0.00000E+00
         0.00000E+00
         0.00000E+00
         0.00000E+00
         0.00000E+00
         0.00000E+00
         0.00000E+00
         0.00000E+00
         0.00000E+00
         0.00000E+00
         0.00000E+00
         0.00000E+00
         0.00000E+00
         0.00000E+00
         0.00000E+00
         0.00000E+00
         0.00000E+00
         0.00000E+00
         0.00000E+00
         0.00000E+00
         0.00000E+00
         0.00000E+00
         0.00000E+00
         0.00000E+00
         0.00000E+00
         0.00000E+00
         0.00000E+00
         0.00000E+00
         0.00000E+00
         0.00000E+00
         0.00000E+00
         0.00000E+00
         0.00000E+00
         0.00000E+00
         0.00000E+00
         0.00000E+00
         0.00000E+00
         0.00000E+00
         0.00000E+00
         0.00000E+00
         0.00000E+00
         0.00000E+00
         0.00000E+00
         0.00000E+00
         0.00000E+00
         0.00000E+00
         0.00000E+00
         0.00000E+00
         0.00000E+00
         0.00000E+00
         0.00000E+00
         0.00000E+00
         0.00000E+00
         0.00000E+00
         0.00000E+00
         0.00000E+00
         0.00000E+00
         0.00000E+00
         0.00000E+00
         0.00000E+00
         0.00000E+00
         0.00000E+00
         0.00000E+00
         0.00000E+00
         0.00000E+00
         0.00000E+00
         0.00000E+00
         0.00000E+00
         0.00000E+00
         0.00000E+00
         0.00000E+00
         0.00000E+00
         0.00000E+00
         0.00000E+00
         0.00000E+00
         0.00000E+00
         0.00000E+00
         0.00000E+00
         0.00000E+00
         0.00000E+00
         0.00000E+00
         0.00000E+00
         0.00000E+00
         0.00000E+00
         0.00000E+00
         0.00000E+00
         0.00000E+00
         0.00000E+00
         0.00000E+00
         0.00000E+00
         0.00000E+00
         0.00000E+00
         0.00000E+00
         0.00000E+00
         0.00000E+00
         0.00000E+00
         0.00000E+00
         0.00000E+00
         0.00000E+00
         0.00000E+00
         0.00000E+00
         0.00000E+00
         0.00000E+00
         0.00000E+00
         0.00000E+00
         0.00000E+00
         0.00000E+00
         0.00000E+00
         0.00000E+00
         0.00000E+00
         0.00000E+00
         0.00000E+00
         0.00000E+00
         0.00000E+00
         0.00000E+00
         0.00000E+00
         0.00000E+00
         0.00000E+00
         0.00000E+00
         0.00000E+00
         0.00000E+00
         0.00000E+00
         0.00000E+00
         0.00000E+00
         0.00000E+00
         0.00000E+00
         0.00000E+00
         0.00000E+00
         0.00000E+00
         0.00000E+00
         0.00000E+00
         0.00000E+00
         0.00000E+00
         0.00000E+00
         0.00000E+00
         0.00000E+00
         0.00000E+00
         0.00000E+00
         0.00000E+00
         0.00000E+00
         0.00000E+00
         0.00000E+00
         0.00000E+00
         0.00000E+00
         0.00000E+00
         0.00000E+00
         0.00000E+00
         0.00000E+00
         0.00000E+00
         0.00000E+00
         0.00000E+00
         0.00000E+00
         0.00000E+00
         0.00000E+00
         0.00000E+00
         0.00000E+00
         0.00000E+00
         0.00000E+00
         0.00000E+00
         0.00000E+00
         0.00000E+00
         0.00000E+00
         0.00000E+00
         0.00000E+00
         0.00000E+00
         0.00000E+00
         0.00000E+00
         0.00000E+00
         0.00000E+00
         0.00000E+00
         0.00000E+00
         0.00000E+00
         0.00000E+00
         0.00000E+00
         0.00000E+00
         0.00000E+00
         0.00000E+00
         0.00000E+00
         0.00000E+00
         0.00000E+00
         0.00000E+00
         0.00000E+00
         0.00000E+00
         0.00000E+00
         0.00000E+00
         0.00000E+00
         0.00000E+00
         0.00000E+00
         0.00000E+00
         0.00000E+00
         0.00000E+00
         0.00000E+00
         0.00000E+00
         0.00000E+00
         0.00000E+00
         0.00000E+00
         0.00000E+00
         0.00000E+00
         0.00000E+00
         0.00000E+00
         0.00000E+00
         0.00000E+00
         0.00000E+00
         0.00000E+00
         0.00000E+00
         0.00000E+00
         0.00000E+00
         0.00000E+00
         0.00000E+00
         0.00000E+00
         0.00000E+00
  
SCALARS                init_velocity_z  double 1
LOOKUP_TABLE default
        -0.37300E+03
        -0.37300E+03
        -0.37300E+03
        -0.37300E+03
        -0.37300E+03
        -0.37300E+03
        -0.37300E+03
        -0.37300E+03
        -0.37300E+03
        -0.37300E+03
        -0.37300E+03
        -0.37300E+03
        -0.37300E+03
        -0.37300E+03
        -0.37300E+03
        -0.37300E+03
        -0.37300E+03
        -0.37300E+03
        -0.37300E+03
        -0.37300E+03
        -0.37300E+03
        -0.37300E+03
        -0.37300E+03
        -0.37300E+03
        -0.37300E+03
        -0.37300E+03
        -0.37300E+03
        -0.37300E+03
        -0.37300E+03
        -0.37300E+03
        -0.37300E+03
        -0.37300E+03
        -0.37300E+03
        -0.37300E+03
        -0.37300E+03
        -0.37300E+03
        -0.37300E+03
        -0.37300E+03
        -0.37300E+03
        -0.37300E+03
        -0.37300E+03
        -0.37300E+03
        -0.37300E+03
        -0.37300E+03
        -0.37300E+03
        -0.37300E+03
        -0.37300E+03
        -0.37300E+03
        -0.37300E+03
        -0.37300E+03
        -0.37300E+03
        -0.37300E+03
        -0.37300E+03
        -0.37300E+03
        -0.37300E+03
        -0.37300E+03
        -0.37300E+03
        -0.37300E+03
        -0.37300E+03
        -0.37300E+03
        -0.37300E+03
        -0.37300E+03
        -0.37300E+03
        -0.37300E+03
        -0.37300E+03
        -0.37300E+03
        -0.37300E+03
        -0.37300E+03
        -0.37300E+03
        -0.37300E+03
        -0.37300E+03
        -0.37300E+03
        -0.37300E+03
        -0.37300E+03
        -0.37300E+03
        -0.37300E+03
        -0.37300E+03
        -0.37300E+03
        -0.37300E+03
        -0.37300E+03
        -0.37300E+03
        -0.37300E+03
        -0.37300E+03
        -0.37300E+03
        -0.37300E+03
        -0.37300E+03
        -0.37300E+03
        -0.37300E+03
        -0.37300E+03
        -0.37300E+03
        -0.37300E+03
        -0.37300E+03
        -0.37300E+03
        -0.37300E+03
        -0.37300E+03
        -0.37300E+03
        -0.37300E+03
        -0.37300E+03
        -0.37300E+03
        -0.37300E+03
        -0.37300E+03
        -0.37300E+03
        -0.37300E+03
        -0.37300E+03
        -0.37300E+03
        -0.37300E+03
        -0.37300E+03
        -0.37300E+03
        -0.37300E+03
        -0.37300E+03
        -0.37300E+03
        -0.37300E+03
        -0.37300E+03
        -0.37300E+03
        -0.37300E+03
        -0.37300E+03
        -0.37300E+03
        -0.37300E+03
        -0.37300E+03
        -0.37300E+03
        -0.37300E+03
        -0.37300E+03
        -0.37300E+03
        -0.37300E+03
        -0.37300E+03
        -0.37300E+03
        -0.37300E+03
        -0.37300E+03
        -0.37300E+03
        -0.37300E+03
        -0.37300E+03
        -0.37300E+03
        -0.37300E+03
        -0.37300E+03
        -0.37300E+03
        -0.37300E+03
        -0.37300E+03
        -0.37300E+03
        -0.37300E+03
        -0.37300E+03
        -0.37300E+03
        -0.37300E+03
        -0.37300E+03
        -0.37300E+03
        -0.37300E+03
        -0.37300E+03
        -0.37300E+03
        -0.37300E+03
        -0.37300E+03
        -0.37300E+03
        -0.37300E+03
        -0.37300E+03
        -0.37300E+03
        -0.37300E+03
        -0.37300E+03
        -0.37300E+03
        -0.37300E+03
        -0.37300E+03
        -0.37300E+03
        -0.37300E+03
        -0.37300E+03
        -0.37300E+03
        -0.37300E+03
        -0.37300E+03
        -0.37300E+03
        -0.37300E+03
        -0.37300E+03
        -0.37300E+03
        -0.37300E+03
        -0.37300E+03
        -0.37300E+03
        -0.37300E+03
        -0.37300E+03
        -0.37300E+03
        -0.37300E+03
        -0.37300E+03
        -0.37300E+03
        -0.37300E+03
        -0.37300E+03
        -0.37300E+03
        -0.37300E+03
        -0.37300E+03
        -0.37300E+03
        -0.37300E+03
        -0.37300E+03
        -0.37300E+03
        -0.37300E+03
        -0.37300E+03
        -0.37300E+03
        -0.37300E+03
        -0.37300E+03
        -0.37300E+03
        -0.37300E+03
        -0.37300E+03
        -0.37300E+03
        -0.37300E+03
        -0.37300E+03
        -0.37300E+03
        -0.37300E+03
        -0.37300E+03
        -0.37300E+03
        -0.37300E+03
        -0.37300E+03
        -0.37300E+03
        -0.37300E+03
        -0.37300E+03
        -0.37300E+03
        -0.37300E+03
        -0.37300E+03
        -0.37300E+03
        -0.37300E+03
        -0.37300E+03
        -0.37300E+03
        -0.37300E+03
        -0.37300E+03
        -0.37300E+03
        -0.37300E+03
        -0.37300E+03
        -0.37300E+03
        -0.37300E+03
        -0.37300E+03
        -0.37300E+03
        -0.37300E+03
        -0.37300E+03
        -0.37300E+03
        -0.37300E+03
        -0.37300E+03
        -0.37300E+03
        -0.37300E+03
        -0.37300E+03
        -0.37300E+03
        -0.37300E+03
        -0.37300E+03
        -0.37300E+03
        -0.37300E+03
        -0.37300E+03
        -0.37300E+03
        -0.37300E+03
        -0.37300E+03
        -0.37300E+03
        -0.37300E+03
        -0.37300E+03
        -0.37300E+03
        -0.37300E+03
        -0.37300E+03
        -0.37300E+03
        -0.37300E+03
        -0.37300E+03
        -0.37300E+03
        -0.37300E+03
        -0.37300E+03
        -0.37300E+03
        -0.37300E+03
        -0.37300E+03
        -0.37300E+03
        -0.37300E+03
        -0.37300E+03
        -0.37300E+03
        -0.37300E+03
        -0.37300E+03
        -0.37300E+03
        -0.37300E+03
        -0.37300E+03
        -0.37300E+03
        -0.37300E+03
        -0.37300E+03
        -0.37300E+03
        -0.37300E+03
        -0.37300E+03
        -0.37300E+03
        -0.37300E+03
        -0.37300E+03
        -0.37300E+03
        -0.37300E+03
        -0.37300E+03
        -0.37300E+03
        -0.37300E+03
        -0.37300E+03
        -0.37300E+03
        -0.37300E+03
        -0.37300E+03
        -0.37300E+03
        -0.37300E+03
        -0.37300E+03
        -0.37300E+03
        -0.37300E+03
        -0.37300E+03
        -0.37300E+03
        -0.37300E+03
        -0.37300E+03
        -0.37300E+03
        -0.37300E+03
        -0.37300E+03
        -0.37300E+03
        -0.37300E+03
        -0.37300E+03
        -0.37300E+03
        -0.37300E+03
        -0.37300E+03
        -0.37300E+03
        -0.37300E+03
        -0.37300E+03
        -0.37300E+03
        -0.37300E+03
        -0.37300E+03
        -0.37300E+03
        -0.37300E+03
        -0.37300E+03
        -0.37300E+03
        -0.37300E+03
        -0.37300E+03
        -0.37300E+03
        -0.37300E+03
        -0.37300E+03
        -0.37300E+03
        -0.37300E+03
        -0.37300E+03
        -0.37300E+03
        -0.37300E+03
        -0.37300E+03
        -0.37300E+03
        -0.37300E+03
        -0.37300E+03
        -0.37300E+03
        -0.37300E+03
        -0.37300E+03
        -0.37300E+03
        -0.37300E+03
        -0.37300E+03
        -0.37300E+03
        -0.37300E+03
        -0.37300E+03
        -0.37300E+03
        -0.37300E+03
        -0.37300E+03
        -0.37300E+03
        -0.37300E+03
        -0.37300E+03
        -0.37300E+03
        -0.37300E+03
        -0.37300E+03
        -0.37300E+03
        -0.37300E+03
        -0.37300E+03
        -0.37300E+03
        -0.37300E+03
        -0.37300E+03
        -0.37300E+03
        -0.37300E+03
        -0.37300E+03
        -0.37300E+03
        -0.37300E+03
        -0.37300E+03
        -0.37300E+03
        -0.37300E+03
        -0.37300E+03
        -0.37300E+03
        -0.37300E+03
        -0.37300E+03
        -0.37300E+03
        -0.37300E+03
        -0.37300E+03
        -0.37300E+03
        -0.37300E+03
        -0.37300E+03
        -0.37300E+03
        -0.37300E+03
        -0.37300E+03
        -0.37300E+03
        -0.37300E+03
        -0.37300E+03
        -0.37300E+03
        -0.37300E+03
        -0.37300E+03
        -0.37300E+03
        -0.37300E+03
        -0.37300E+03
        -0.37300E+03
        -0.37300E+03
        -0.37300E+03
        -0.37300E+03
        -0.37300E+03
        -0.37300E+03
        -0.37300E+03
        -0.37300E+03
        -0.37300E+03
        -0.37300E+03
        -0.37300E+03
        -0.37300E+03
        -0.37300E+03
        -0.37300E+03
        -0.37300E+03
        -0.37300E+03
        -0.37300E+03
        -0.37300E+03
        -0.37300E+03
        -0.37300E+03
        -0.37300E+03
        -0.37300E+03
        -0.37300E+03
        -0.37300E+03
        -0.37300E+03
        -0.37300E+03
        -0.37300E+03
        -0.37300E+03
        -0.37300E+03
        -0.37300E+03
        -0.37300E+03
        -0.37300E+03
        -0.37300E+03
        -0.37300E+03
        -0.37300E+03
        -0.37300E+03
        -0.37300E+03
        -0.37300E+03
        -0.37300E+03
        -0.37300E+03
        -0.37300E+03
        -0.37300E+03
        -0.37300E+03
        -0.37300E+03
        -0.37300E+03
        -0.37300E+03
        -0.37300E+03
        -0.37300E+03
        -0.37300E+03
        -0.37300E+03
        -0.37300E+03
        -0.37300E+03
        -0.37300E+03
        -0.37300E+03
        -0.37300E+03
        -0.37300E+03
        -0.37300E+03
        -0.37300E+03
        -0.37300E+03
        -0.37300E+03
        -0.37300E+03
        -0.37300E+03
        -0.37300E+03
        -0.37300E+03
        -0.37300E+03
        -0.37300E+03
        -0.37300E+03
        -0.37300E+03
        -0.37300E+03
        -0.37300E+03
        -0.37300E+03
        -0.37300E+03
        -0.37300E+03
        -0.37300E+03
        -0.37300E+03
        -0.37300E+03
        -0.37300E+03
        -0.37300E+03
        -0.37300E+03
        -0.37300E+03
        -0.37300E+03
        -0.37300E+03
        -0.37300E+03
        -0.37300E+03
        -0.37300E+03
        -0.37300E+03
        -0.37300E+03
        -0.37300E+03
        -0.37300E+03
        -0.37300E+03
        -0.37300E+03
        -0.37300E+03
        -0.37300E+03
        -0.37300E+03
        -0.37300E+03
        -0.37300E+03
        -0.37300E+03
        -0.37300E+03
        -0.37300E+03
        -0.37300E+03
        -0.37300E+03
        -0.37300E+03
        -0.37300E+03
        -0.37300E+03
        -0.37300E+03
        -0.37300E+03
        -0.37300E+03
        -0.37300E+03
        -0.37300E+03
        -0.37300E+03
        -0.37300E+03
        -0.37300E+03
        -0.37300E+03
        -0.37300E+03
        -0.37300E+03
        -0.37300E+03
        -0.37300E+03
        -0.37300E+03
        -0.37300E+03
        -0.37300E+03
        -0.37300E+03
        -0.37300E+03
        -0.37300E+03
        -0.37300E+03
        -0.37300E+03
        -0.37300E+03
        -0.37300E+03
        -0.37300E+03
        -0.37300E+03
        -0.37300E+03
        -0.37300E+03
        -0.37300E+03
        -0.37300E+03
        -0.37300E+03
        -0.37300E+03
        -0.37300E+03
        -0.37300E+03
        -0.37300E+03
        -0.37300E+03
        -0.37300E+03
        -0.37300E+03
        -0.37300E+03
        -0.37300E+03
        -0.37300E+03
        -0.37300E+03
        -0.37300E+03
        -0.37300E+03
        -0.37300E+03
        -0.37300E+03
        -0.37300E+03
        -0.37300E+03
        -0.37300E+03
        -0.37300E+03
        -0.37300E+03
        -0.37300E+03
        -0.37300E+03
        -0.37300E+03
        -0.37300E+03
        -0.37300E+03
        -0.37300E+03
        -0.37300E+03
        -0.37300E+03
        -0.37300E+03
        -0.37300E+03
        -0.37300E+03
        -0.37300E+03
        -0.37300E+03
        -0.37300E+03
        -0.37300E+03
        -0.37300E+03
        -0.37300E+03
        -0.37300E+03
        -0.37300E+03
        -0.37300E+03
        -0.37300E+03
        -0.37300E+03
        -0.37300E+03
        -0.37300E+03
        -0.37300E+03
        -0.37300E+03
        -0.37300E+03
        -0.37300E+03
        -0.37300E+03
        -0.37300E+03
        -0.37300E+03
        -0.37300E+03
        -0.37300E+03
        -0.37300E+03
        -0.37300E+03
        -0.37300E+03
        -0.37300E+03
        -0.37300E+03
        -0.37300E+03
        -0.37300E+03
        -0.37300E+03
        -0.37300E+03
        -0.37300E+03
        -0.37300E+03
        -0.37300E+03
        -0.37300E+03
        -0.37300E+03
        -0.37300E+03
        -0.37300E+03
        -0.37300E+03
        -0.37300E+03
        -0.37300E+03
        -0.37300E+03
        -0.37300E+03
        -0.37300E+03
        -0.37300E+03
        -0.37300E+03
        -0.37300E+03
        -0.37300E+03
        -0.37300E+03
        -0.37300E+03
        -0.37300E+03
        -0.37300E+03
        -0.37300E+03
        -0.37300E+03
        -0.37300E+03
        -0.37300E+03
        -0.37300E+03
        -0.37300E+03
        -0.37300E+03
        -0.37300E+03
        -0.37300E+03
        -0.37300E+03
        -0.37300E+03
        -0.37300E+03
        -0.37300E+03
        -0.37300E+03
        -0.37300E+03
        -0.37300E+03
        -0.37300E+03
        -0.37300E+03
        -0.37300E+03
        -0.37300E+03
        -0.37300E+03
        -0.37300E+03
        -0.37300E+03
        -0.37300E+03
        -0.37300E+03
        -0.37300E+03
        -0.37300E+03
        -0.37300E+03
        -0.37300E+03
        -0.37300E+03
        -0.37300E+03
        -0.37300E+03
        -0.37300E+03
        -0.37300E+03
        -0.37300E+03
        -0.37300E+03
        -0.37300E+03
        -0.37300E+03
        -0.37300E+03
        -0.37300E+03
        -0.37300E+03
        -0.37300E+03
        -0.37300E+03
        -0.37300E+03
        -0.37300E+03
        -0.37300E+03
        -0.37300E+03
        -0.37300E+03
        -0.37300E+03
        -0.37300E+03
        -0.37300E+03
        -0.37300E+03
        -0.37300E+03
        -0.37300E+03
        -0.37300E+03
        -0.37300E+03
        -0.37300E+03
        -0.37300E+03
        -0.37300E+03
        -0.37300E+03
        -0.37300E+03
        -0.37300E+03
        -0.37300E+03
        -0.37300E+03
        -0.37300E+03
        -0.37300E+03
        -0.37300E+03
        -0.37300E+03
        -0.37300E+03
        -0.37300E+03
        -0.37300E+03
        -0.37300E+03
        -0.37300E+03
        -0.37300E+03
        -0.37300E+03
        -0.37300E+03
        -0.37300E+03
        -0.37300E+03
        -0.37300E+03
        -0.37300E+03
        -0.37300E+03
        -0.37300E+03
        -0.37300E+03
        -0.37300E+03
        -0.37300E+03
        -0.37300E+03
        -0.37300E+03
        -0.37300E+03
        -0.37300E+03
        -0.37300E+03
        -0.37300E+03
        -0.37300E+03
        -0.37300E+03
        -0.37300E+03
        -0.37300E+03
        -0.37300E+03
        -0.37300E+03
        -0.37300E+03
        -0.37300E+03
        -0.37300E+03
        -0.37300E+03
        -0.37300E+03
        -0.37300E+03
        -0.37300E+03
        -0.37300E+03
        -0.37300E+03
        -0.37300E+03
        -0.37300E+03
        -0.37300E+03
        -0.37300E+03
        -0.37300E+03
        -0.37300E+03
        -0.37300E+03
        -0.37300E+03
        -0.37300E+03
        -0.37300E+03
        -0.37300E+03
        -0.37300E+03
        -0.37300E+03
        -0.37300E+03
        -0.37300E+03
        -0.37300E+03
        -0.37300E+03
        -0.37300E+03
        -0.37300E+03
        -0.37300E+03
        -0.37300E+03
        -0.37300E+03
        -0.37300E+03
        -0.37300E+03
        -0.37300E+03
        -0.37300E+03
        -0.37300E+03
        -0.37300E+03
        -0.37300E+03
        -0.37300E+03
        -0.37300E+03
        -0.37300E+03
        -0.37300E+03
        -0.37300E+03
        -0.37300E+03
        -0.37300E+03
        -0.37300E+03
        -0.37300E+03
        -0.37300E+03
        -0.37300E+03
        -0.37300E+03
        -0.37300E+03
        -0.37300E+03
        -0.37300E+03
        -0.37300E+03
        -0.37300E+03
        -0.37300E+03
        -0.37300E+03
        -0.37300E+03
        -0.37300E+03
        -0.37300E+03
        -0.37300E+03
        -0.37300E+03
        -0.37300E+03
        -0.37300E+03
        -0.37300E+03
        -0.37300E+03
        -0.37300E+03
        -0.37300E+03
        -0.37300E+03
        -0.37300E+03
        -0.37300E+03
        -0.37300E+03
        -0.37300E+03
        -0.37300E+03
        -0.37300E+03
        -0.37300E+03
        -0.37300E+03
        -0.37300E+03
        -0.37300E+03
        -0.37300E+03
        -0.37300E+03
        -0.37300E+03
        -0.37300E+03
        -0.37300E+03
        -0.37300E+03
        -0.37300E+03
        -0.37300E+03
        -0.37300E+03
        -0.37300E+03
        -0.37300E+03
        -0.37300E+03
        -0.37300E+03
        -0.37300E+03
        -0.37300E+03
        -0.37300E+03
        -0.37300E+03
        -0.37300E+03
        -0.37300E+03
        -0.37300E+03
        -0.37300E+03
        -0.37300E+03
        -0.37300E+03
        -0.37300E+03
        -0.37300E+03
        -0.37300E+03
        -0.37300E+03
        -0.37300E+03
        -0.37300E+03
        -0.37300E+03
        -0.37300E+03
        -0.37300E+03
        -0.37300E+03
        -0.37300E+03
        -0.37300E+03
        -0.37300E+03
        -0.37300E+03
        -0.37300E+03
        -0.37300E+03
        -0.37300E+03
        -0.37300E+03
        -0.37300E+03
        -0.37300E+03
        -0.37300E+03
        -0.37300E+03
        -0.37300E+03
        -0.37300E+03
        -0.37300E+03
        -0.37300E+03
        -0.37300E+03
        -0.37300E+03
        -0.37300E+03
        -0.37300E+03
        -0.37300E+03
        -0.37300E+03
        -0.37300E+03
        -0.37300E+03
        -0.37300E+03
        -0.37300E+03
        -0.37300E+03
        -0.37300E+03
        -0.37300E+03
        -0.37300E+03
        -0.37300E+03
        -0.37300E+03
        -0.37300E+03
        -0.37300E+03
        -0.37300E+03
        -0.37300E+03
        -0.37300E+03
        -0.37300E+03
        -0.37300E+03
        -0.37300E+03
        -0.37300E+03
        -0.37300E+03
        -0.37300E+03
        -0.37300E+03
        -0.37300E+03
        -0.37300E+03
        -0.37300E+03
        -0.37300E+03
        -0.37300E+03
        -0.37300E+03
        -0.37300E+03
        -0.37300E+03
        -0.37300E+03
        -0.37300E+03
        -0.37300E+03
        -0.37300E+03
        -0.37300E+03
        -0.37300E+03
        -0.37300E+03
        -0.37300E+03
        -0.37300E+03
        -0.37300E+03
        -0.37300E+03
        -0.37300E+03
        -0.37300E+03
        -0.37300E+03
        -0.37300E+03
        -0.37300E+03
        -0.37300E+03
        -0.37300E+03
        -0.37300E+03
        -0.37300E+03
        -0.37300E+03
        -0.37300E+03
        -0.37300E+03
        -0.37300E+03
        -0.37300E+03
        -0.37300E+03
        -0.37300E+03
        -0.37300E+03
        -0.37300E+03
        -0.37300E+03
        -0.37300E+03
        -0.37300E+03
        -0.37300E+03
        -0.37300E+03
        -0.37300E+03
        -0.37300E+03
        -0.37300E+03
        -0.37300E+03
        -0.37300E+03
        -0.37300E+03
        -0.37300E+03
        -0.37300E+03
        -0.37300E+03
        -0.37300E+03
        -0.37300E+03
        -0.37300E+03
        -0.37300E+03
        -0.37300E+03
        -0.37300E+03
        -0.37300E+03
        -0.37300E+03
        -0.37300E+03
        -0.37300E+03
        -0.37300E+03
        -0.37300E+03
        -0.37300E+03
        -0.37300E+03
        -0.37300E+03
        -0.37300E+03
        -0.37300E+03
        -0.37300E+03
        -0.37300E+03
        -0.37300E+03
        -0.37300E+03
        -0.37300E+03
        -0.37300E+03
        -0.37300E+03
        -0.37300E+03
        -0.37300E+03
        -0.37300E+03
        -0.37300E+03
        -0.37300E+03
        -0.37300E+03
        -0.37300E+03
        -0.37300E+03
        -0.37300E+03
        -0.37300E+03
        -0.37300E+03
        -0.37300E+03
        -0.37300E+03
        -0.37300E+03
        -0.37300E+03
        -0.37300E+03
        -0.37300E+03
        -0.37300E+03
        -0.37300E+03
        -0.37300E+03
        -0.37300E+03
        -0.37300E+03
        -0.37300E+03
        -0.37300E+03
        -0.37300E+03
        -0.37300E+03
        -0.37300E+03
        -0.37300E+03
        -0.37300E+03
        -0.37300E+03
        -0.37300E+03
        -0.37300E+03
        -0.37300E+03
        -0.37300E+03
        -0.37300E+03
        -0.37300E+03
        -0.37300E+03
        -0.37300E+03
        -0.37300E+03
        -0.37300E+03
        -0.37300E+03
        -0.37300E+03
        -0.37300E+03
        -0.37300E+03
        -0.37300E+03
        -0.37300E+03
        -0.37300E+03
        -0.37300E+03
        -0.37300E+03
        -0.37300E+03
        -0.37300E+03
        -0.37300E+03
        -0.37300E+03
        -0.37300E+03
        -0.37300E+03
        -0.37300E+03
        -0.37300E+03
        -0.37300E+03
        -0.37300E+03
        -0.37300E+03
        -0.37300E+03
        -0.37300E+03
        -0.37300E+03
        -0.37300E+03
        -0.37300E+03
        -0.37300E+03
        -0.37300E+03
        -0.37300E+03
        -0.37300E+03
        -0.37300E+03
        -0.37300E+03
        -0.37300E+03
        -0.37300E+03
        -0.37300E+03
        -0.37300E+03
        -0.37300E+03
        -0.37300E+03
        -0.37300E+03
        -0.37300E+03
        -0.37300E+03
        -0.37300E+03
        -0.37300E+03
        -0.37300E+03
        -0.37300E+03
        -0.37300E+03
        -0.37300E+03
        -0.37300E+03
        -0.37300E+03
        -0.37300E+03
        -0.37300E+03
        -0.37300E+03
        -0.37300E+03
        -0.37300E+03
        -0.37300E+03
        -0.37300E+03
        -0.37300E+03
        -0.37300E+03
        -0.37300E+03
        -0.37300E+03
        -0.37300E+03
        -0.37300E+03
        -0.37300E+03
        -0.37300E+03
        -0.37300E+03
        -0.37300E+03
        -0.37300E+03
        -0.37300E+03
        -0.37300E+03
        -0.37300E+03
        -0.37300E+03
        -0.37300E+03
        -0.37300E+03
        -0.37300E+03
        -0.37300E+03
        -0.37300E+03
        -0.37300E+03
        -0.37300E+03
        -0.37300E+03
        -0.37300E+03
        -0.37300E+03
        -0.37300E+03
        -0.37300E+03
        -0.37300E+03
        -0.37300E+03
        -0.37300E+03
        -0.37300E+03
        -0.37300E+03
        -0.37300E+03
        -0.37300E+03
        -0.37300E+03
        -0.37300E+03
        -0.37300E+03
        -0.37300E+03
        -0.37300E+03
        -0.37300E+03
        -0.37300E+03
        -0.37300E+03
        -0.37300E+03
        -0.37300E+03
        -0.37300E+03
        -0.37300E+03
        -0.37300E+03
        -0.37300E+03
        -0.37300E+03
        -0.37300E+03
        -0.37300E+03
        -0.37300E+03
        -0.37300E+03
        -0.37300E+03
        -0.37300E+03
        -0.37300E+03
        -0.37300E+03
        -0.37300E+03
        -0.37300E+03
        -0.37300E+03
        -0.37300E+03
        -0.37300E+03
        -0.37300E+03
        -0.37300E+03
        -0.37300E+03
        -0.37300E+03
        -0.37300E+03
        -0.37300E+03
        -0.37300E+03
        -0.37300E+03
        -0.37300E+03
        -0.37300E+03
        -0.37300E+03
        -0.37300E+03
        -0.37300E+03
        -0.37300E+03
        -0.37300E+03
        -0.37300E+03
        -0.37300E+03
        -0.37300E+03
        -0.37300E+03
        -0.37300E+03
        -0.37300E+03
        -0.37300E+03
        -0.37300E+03
        -0.37300E+03
        -0.37300E+03
        -0.37300E+03
        -0.37300E+03
        -0.37300E+03
        -0.37300E+03
        -0.37300E+03
        -0.37300E+03
        -0.37300E+03
        -0.37300E+03
        -0.37300E+03
        -0.37300E+03
        -0.37300E+03
        -0.37300E+03
        -0.37300E+03
        -0.37300E+03
        -0.37300E+03
        -0.37300E+03
        -0.37300E+03
        -0.37300E+03
        -0.37300E+03
        -0.37300E+03
        -0.37300E+03
        -0.37300E+03
        -0.37300E+03
        -0.37300E+03
        -0.37300E+03
        -0.37300E+03
        -0.37300E+03
        -0.37300E+03
        -0.37300E+03
        -0.37300E+03
        -0.37300E+03
        -0.37300E+03
        -0.37300E+03
        -0.37300E+03
        -0.37300E+03
        -0.37300E+03
        -0.37300E+03
        -0.37300E+03
        -0.37300E+03
        -0.37300E+03
        -0.37300E+03
        -0.37300E+03
        -0.37300E+03
        -0.37300E+03
        -0.37300E+03
        -0.37300E+03
        -0.37300E+03
        -0.37300E+03
        -0.37300E+03
        -0.37300E+03
        -0.37300E+03
        -0.37300E+03
        -0.37300E+03
        -0.37300E+03
        -0.37300E+03
        -0.37300E+03
        -0.37300E+03
        -0.37300E+03
        -0.37300E+03
        -0.37300E+03
        -0.37300E+03
        -0.37300E+03
        -0.37300E+03
        -0.37300E+03
        -0.37300E+03
        -0.37300E+03
        -0.37300E+03
        -0.37300E+03
        -0.37300E+03
        -0.37300E+03
        -0.37300E+03
        -0.37300E+03
        -0.37300E+03
        -0.37300E+03
        -0.37300E+03
        -0.37300E+03
        -0.37300E+03
        -0.37300E+03
        -0.37300E+03
        -0.37300E+03
        -0.37300E+03
        -0.37300E+03
        -0.37300E+03
        -0.37300E+03
        -0.37300E+03
        -0.37300E+03
        -0.37300E+03
        -0.37300E+03
        -0.37300E+03
        -0.37300E+03
        -0.37300E+03
        -0.37300E+03
        -0.37300E+03
        -0.37300E+03
        -0.37300E+03
        -0.37300E+03
        -0.37300E+03
        -0.37300E+03
        -0.37300E+03
        -0.37300E+03
        -0.37300E+03
        -0.37300E+03
        -0.37300E+03
        -0.37300E+03
        -0.37300E+03
        -0.37300E+03
        -0.37300E+03
        -0.37300E+03
        -0.37300E+03
        -0.37300E+03
        -0.37300E+03
        -0.37300E+03
        -0.37300E+03
        -0.37300E+03
        -0.37300E+03
        -0.37300E+03
        -0.37300E+03
        -0.37300E+03
        -0.37300E+03
        -0.37300E+03
        -0.37300E+03
        -0.37300E+03
        -0.37300E+03
        -0.37300E+03
        -0.37300E+03
        -0.37300E+03
        -0.37300E+03
        -0.37300E+03
        -0.37300E+03
        -0.37300E+03
        -0.37300E+03
        -0.37300E+03
        -0.37300E+03
        -0.37300E+03
        -0.37300E+03
        -0.37300E+03
        -0.37300E+03
        -0.37300E+03
        -0.37300E+03
        -0.37300E+03
        -0.37300E+03
        -0.37300E+03
        -0.37300E+03
        -0.37300E+03
        -0.37300E+03
        -0.37300E+03
        -0.37300E+03
        -0.37300E+03
        -0.37300E+03
        -0.37300E+03
        -0.37300E+03
        -0.37300E+03
        -0.37300E+03
        -0.37300E+03
        -0.37300E+03
        -0.37300E+03
        -0.37300E+03
        -0.37300E+03
        -0.37300E+03
        -0.37300E+03
        -0.37300E+03
        -0.37300E+03
        -0.37300E+03
        -0.37300E+03
        -0.37300E+03
        -0.37300E+03
        -0.37300E+03
        -0.37300E+03
        -0.37300E+03
        -0.37300E+03
        -0.37300E+03
        -0.37300E+03
        -0.37300E+03
        -0.37300E+03
        -0.37300E+03
        -0.37300E+03
        -0.37300E+03
        -0.37300E+03
        -0.37300E+03
        -0.37300E+03
        -0.37300E+03
        -0.37300E+03
        -0.37300E+03
        -0.37300E+03
        -0.37300E+03
        -0.37300E+03
        -0.37300E+03
        -0.37300E+03
        -0.37300E+03
        -0.37300E+03
        -0.37300E+03
        -0.37300E+03
        -0.37300E+03
        -0.37300E+03
        -0.37300E+03
        -0.37300E+03
        -0.37300E+03
        -0.37300E+03
        -0.37300E+03
        -0.37300E+03
        -0.37300E+03
        -0.37300E+03
        -0.37300E+03
        -0.37300E+03
        -0.37300E+03
        -0.37300E+03
        -0.37300E+03
        -0.37300E+03
        -0.37300E+03
        -0.37300E+03
        -0.37300E+03
        -0.37300E+03
        -0.37300E+03
        -0.37300E+03
        -0.37300E+03
        -0.37300E+03
        -0.37300E+03
        -0.37300E+03
        -0.37300E+03
        -0.37300E+03
        -0.37300E+03
        -0.37300E+03
        -0.37300E+03
        -0.37300E+03
        -0.37300E+03
        -0.37300E+03
        -0.37300E+03
        -0.37300E+03
        -0.37300E+03
        -0.37300E+03
        -0.37300E+03
        -0.37300E+03
        -0.37300E+03
        -0.37300E+03
        -0.37300E+03
        -0.37300E+03
        -0.37300E+03
        -0.37300E+03
        -0.37300E+03
        -0.37300E+03
        -0.37300E+03
        -0.37300E+03
        -0.37300E+03
        -0.37300E+03
        -0.37300E+03
        -0.37300E+03
        -0.37300E+03
        -0.37300E+03
        -0.37300E+03
        -0.37300E+03
        -0.37300E+03
        -0.37300E+03
        -0.37300E+03
        -0.37300E+03
        -0.37300E+03
        -0.37300E+03
        -0.37300E+03
        -0.37300E+03
        -0.37300E+03
        -0.37300E+03
        -0.37300E+03
        -0.37300E+03
        -0.37300E+03
        -0.37300E+03
        -0.37300E+03
        -0.37300E+03
        -0.37300E+03
        -0.37300E+03
        -0.37300E+03
        -0.37300E+03
        -0.37300E+03
        -0.37300E+03
        -0.37300E+03
        -0.37300E+03
        -0.37300E+03
        -0.37300E+03
        -0.37300E+03
        -0.37300E+03
        -0.37300E+03
        -0.37300E+03
        -0.37300E+03
        -0.37300E+03
        -0.37300E+03
        -0.37300E+03
        -0.37300E+03
        -0.37300E+03
        -0.37300E+03
        -0.37300E+03
        -0.37300E+03
        -0.37300E+03
        -0.37300E+03
        -0.37300E+03
        -0.37300E+03
        -0.37300E+03
        -0.37300E+03
        -0.37300E+03
        -0.37300E+03
        -0.37300E+03
        -0.37300E+03
        -0.37300E+03
        -0.37300E+03
        -0.37300E+03
        -0.37300E+03
        -0.37300E+03
        -0.37300E+03
        -0.37300E+03
        -0.37300E+03
        -0.37300E+03
        -0.37300E+03
        -0.37300E+03
        -0.37300E+03
        -0.37300E+03
        -0.37300E+03
        -0.37300E+03
        -0.37300E+03
        -0.37300E+03
        -0.37300E+03
        -0.37300E+03
        -0.37300E+03
        -0.37300E+03
        -0.37300E+03
        -0.37300E+03
        -0.37300E+03
        -0.37300E+03
        -0.37300E+03
        -0.37300E+03
        -0.37300E+03
        -0.37300E+03
        -0.37300E+03
        -0.37300E+03
        -0.37300E+03
        -0.37300E+03
        -0.37300E+03
        -0.37300E+03
        -0.37300E+03
        -0.37300E+03
        -0.37300E+03
        -0.37300E+03
        -0.37300E+03
        -0.37300E+03
        -0.37300E+03
        -0.37300E+03
        -0.37300E+03
        -0.37300E+03
        -0.37300E+03
        -0.37300E+03
        -0.37300E+03
        -0.37300E+03
        -0.37300E+03
        -0.37300E+03
        -0.37300E+03
        -0.37300E+03
        -0.37300E+03
        -0.37300E+03
        -0.37300E+03
        -0.37300E+03
        -0.37300E+03
        -0.37300E+03
        -0.37300E+03
        -0.37300E+03
        -0.37300E+03
        -0.37300E+03
        -0.37300E+03
        -0.37300E+03
        -0.37300E+03
        -0.37300E+03
        -0.37300E+03
        -0.37300E+03
        -0.37300E+03
        -0.37300E+03
        -0.37300E+03
        -0.37300E+03
        -0.37300E+03
        -0.37300E+03
        -0.37300E+03
        -0.37300E+03
        -0.37300E+03
        -0.37300E+03
        -0.37300E+03
        -0.37300E+03
        -0.37300E+03
        -0.37300E+03
        -0.37300E+03
        -0.37300E+03
        -0.37300E+03
        -0.37300E+03
        -0.37300E+03
        -0.37300E+03
        -0.37300E+03
        -0.37300E+03
        -0.37300E+03
        -0.37300E+03
        -0.37300E+03
        -0.37300E+03
        -0.37300E+03
        -0.37300E+03
        -0.37300E+03
        -0.37300E+03
        -0.37300E+03
        -0.37300E+03
        -0.37300E+03
        -0.37300E+03
        -0.37300E+03
        -0.37300E+03
        -0.37300E+03
        -0.37300E+03
        -0.37300E+03
        -0.37300E+03
        -0.37300E+03
        -0.37300E+03
        -0.37300E+03
        -0.37300E+03
        -0.37300E+03
        -0.37300E+03
        -0.37300E+03
        -0.37300E+03
        -0.37300E+03
        -0.37300E+03
        -0.37300E+03
        -0.37300E+03
        -0.37300E+03
        -0.37300E+03
        -0.37300E+03
        -0.37300E+03
        -0.37300E+03
        -0.37300E+03
        -0.37300E+03
        -0.37300E+03
        -0.37300E+03
        -0.37300E+03
        -0.37300E+03
        -0.37300E+03
        -0.37300E+03
        -0.37300E+03
        -0.37300E+03
        -0.37300E+03
        -0.37300E+03
        -0.37300E+03
        -0.37300E+03
        -0.37300E+03
        -0.37300E+03
        -0.37300E+03
        -0.37300E+03
        -0.37300E+03
        -0.37300E+03
        -0.37300E+03
        -0.37300E+03
        -0.37300E+03
        -0.37300E+03
        -0.37300E+03
        -0.37300E+03
        -0.37300E+03
        -0.37300E+03
        -0.37300E+03
        -0.37300E+03
        -0.37300E+03
        -0.37300E+03
        -0.37300E+03
        -0.37300E+03
        -0.37300E+03
        -0.37300E+03
        -0.37300E+03
        -0.37300E+03
        -0.37300E+03
        -0.37300E+03
        -0.37300E+03
        -0.37300E+03
        -0.37300E+03
        -0.37300E+03
        -0.37300E+03
        -0.37300E+03
        -0.37300E+03
        -0.37300E+03
        -0.37300E+03
        -0.37300E+03
        -0.37300E+03
        -0.37300E+03
        -0.37300E+03
        -0.37300E+03
        -0.37300E+03
        -0.37300E+03
        -0.37300E+03
        -0.37300E+03
        -0.37300E+03
        -0.37300E+03
        -0.37300E+03
        -0.37300E+03
        -0.37300E+03
        -0.37300E+03
        -0.37300E+03
        -0.37300E+03
        -0.37300E+03
        -0.37300E+03
        -0.37300E+03
        -0.37300E+03
        -0.37300E+03
        -0.37300E+03
        -0.37300E+03
        -0.37300E+03
        -0.37300E+03
        -0.37300E+03
        -0.37300E+03
        -0.37300E+03
        -0.37300E+03
        -0.37300E+03
        -0.37300E+03
        -0.37300E+03
        -0.37300E+03
        -0.37300E+03
        -0.37300E+03
        -0.37300E+03
        -0.37300E+03
        -0.37300E+03
        -0.37300E+03
        -0.37300E+03
        -0.37300E+03
        -0.37300E+03
        -0.37300E+03
        -0.37300E+03
        -0.37300E+03
        -0.37300E+03
        -0.37300E+03
        -0.37300E+03
        -0.37300E+03
        -0.37300E+03
        -0.37300E+03
        -0.37300E+03
        -0.37300E+03
        -0.37300E+03
        -0.37300E+03
        -0.37300E+03
        -0.37300E+03
        -0.37300E+03
        -0.37300E+03
        -0.37300E+03
        -0.37300E+03
        -0.37300E+03
        -0.37300E+03
        -0.37300E+03
        -0.37300E+03
        -0.37300E+03
        -0.37300E+03
        -0.37300E+03
        -0.37300E+03
        -0.37300E+03
        -0.37300E+03
        -0.37300E+03
        -0.37300E+03
        -0.37300E+03
        -0.37300E+03
        -0.37300E+03
        -0.37300E+03
        -0.37300E+03
        -0.37300E+03
        -0.37300E+03
        -0.37300E+03
        -0.37300E+03
        -0.37300E+03
        -0.37300E+03
        -0.37300E+03
        -0.37300E+03
        -0.37300E+03
        -0.37300E+03
        -0.37300E+03
        -0.37300E+03
        -0.37300E+03
        -0.37300E+03
        -0.37300E+03
        -0.37300E+03
        -0.37300E+03
        -0.37300E+03
        -0.37300E+03
        -0.37300E+03
        -0.37300E+03
        -0.37300E+03
        -0.37300E+03
        -0.37300E+03
        -0.37300E+03
        -0.37300E+03
        -0.37300E+03
        -0.37300E+03
        -0.37300E+03
        -0.37300E+03
        -0.37300E+03
        -0.37300E+03
        -0.37300E+03
        -0.37300E+03
        -0.37300E+03
        -0.37300E+03
        -0.37300E+03
        -0.37300E+03
        -0.37300E+03
        -0.37300E+03
        -0.37300E+03
        -0.37300E+03
        -0.37300E+03
        -0.37300E+03
        -0.37300E+03
        -0.37300E+03
        -0.37300E+03
        -0.37300E+03
        -0.37300E+03
        -0.37300E+03
        -0.37300E+03
        -0.37300E+03
        -0.37300E+03
        -0.37300E+03
        -0.37300E+03
        -0.37300E+03
        -0.37300E+03
        -0.37300E+03
        -0.37300E+03
        -0.37300E+03
        -0.37300E+03
        -0.37300E+03
        -0.37300E+03
        -0.37300E+03
        -0.37300E+03
        -0.37300E+03
        -0.37300E+03
        -0.37300E+03
        -0.37300E+03
        -0.37300E+03
        -0.37300E+03
        -0.37300E+03
        -0.37300E+03
        -0.37300E+03
        -0.37300E+03
        -0.37300E+03
        -0.37300E+03
        -0.37300E+03
        -0.37300E+03
        -0.37300E+03
        -0.37300E+03
        -0.37300E+03
        -0.37300E+03
        -0.37300E+03
        -0.37300E+03
        -0.37300E+03
        -0.37300E+03
        -0.37300E+03
        -0.37300E+03
        -0.37300E+03
        -0.37300E+03
        -0.37300E+03
        -0.37300E+03
        -0.37300E+03
        -0.37300E+03
        -0.37300E+03
        -0.37300E+03
        -0.37300E+03
        -0.37300E+03
        -0.37300E+03
        -0.37300E+03
        -0.37300E+03
        -0.37300E+03
        -0.37300E+03
        -0.37300E+03
        -0.37300E+03
        -0.37300E+03
        -0.37300E+03
        -0.37300E+03
        -0.37300E+03
        -0.37300E+03
        -0.37300E+03
        -0.37300E+03
        -0.37300E+03
        -0.37300E+03
        -0.37300E+03
        -0.37300E+03
        -0.37300E+03
        -0.37300E+03
        -0.37300E+03
        -0.37300E+03
        -0.37300E+03
        -0.37300E+03
        -0.37300E+03
        -0.37300E+03
        -0.37300E+03
        -0.37300E+03
        -0.37300E+03
        -0.37300E+03
        -0.37300E+03
        -0.37300E+03
        -0.37300E+03
        -0.37300E+03
        -0.37300E+03
        -0.37300E+03
        -0.37300E+03
        -0.37300E+03
        -0.37300E+03
        -0.37300E+03
        -0.37300E+03
        -0.37300E+03
        -0.37300E+03
        -0.37300E+03
        -0.37300E+03
        -0.37300E+03
        -0.37300E+03
        -0.37300E+03
        -0.37300E+03
        -0.37300E+03
        -0.37300E+03
        -0.37300E+03
        -0.37300E+03
        -0.37300E+03
        -0.37300E+03
        -0.37300E+03
        -0.37300E+03
        -0.37300E+03
        -0.37300E+03
        -0.37300E+03
        -0.37300E+03
        -0.37300E+03
        -0.37300E+03
        -0.37300E+03
        -0.37300E+03
        -0.37300E+03
        -0.37300E+03
        -0.37300E+03
        -0.37300E+03
        -0.37300E+03
        -0.37300E+03
        -0.37300E+03
        -0.37300E+03
        -0.37300E+03
        -0.37300E+03
        -0.37300E+03
        -0.37300E+03
        -0.37300E+03
        -0.37300E+03
        -0.37300E+03
        -0.37300E+03
        -0.37300E+03
        -0.37300E+03
        -0.37300E+03
        -0.37300E+03
        -0.37300E+03
        -0.37300E+03
        -0.37300E+03
        -0.37300E+03
        -0.37300E+03
        -0.37300E+03
        -0.37300E+03
        -0.37300E+03
        -0.37300E+03
        -0.37300E+03
        -0.37300E+03
        -0.37300E+03
        -0.37300E+03
        -0.37300E+03
        -0.37300E+03
        -0.37300E+03
        -0.37300E+03
        -0.37300E+03
        -0.37300E+03
        -0.37300E+03
        -0.37300E+03
        -0.37300E+03
        -0.37300E+03
        -0.37300E+03
        -0.37300E+03
        -0.37300E+03
        -0.37300E+03
        -0.37300E+03
        -0.37300E+03
        -0.37300E+03
        -0.37300E+03
        -0.37300E+03
        -0.37300E+03
        -0.37300E+03
        -0.37300E+03
        -0.37300E+03
        -0.37300E+03
        -0.37300E+03
        -0.37300E+03
        -0.37300E+03
        -0.37300E+03
        -0.37300E+03
        -0.37300E+03
        -0.37300E+03
        -0.37300E+03
        -0.37300E+03
        -0.37300E+03
        -0.37300E+03
        -0.37300E+03
        -0.37300E+03
        -0.37300E+03
        -0.37300E+03
        -0.37300E+03
        -0.37300E+03
        -0.37300E+03
        -0.37300E+03
        -0.37300E+03
        -0.37300E+03
        -0.37300E+03
        -0.37300E+03
        -0.37300E+03
        -0.37300E+03
        -0.37300E+03
        -0.37300E+03
        -0.37300E+03
        -0.37300E+03
        -0.37300E+03
        -0.37300E+03
        -0.37300E+03
        -0.37300E+03
        -0.37300E+03
        -0.37300E+03
        -0.37300E+03
        -0.37300E+03
        -0.37300E+03
        -0.37300E+03
        -0.37300E+03
        -0.37300E+03
        -0.37300E+03
        -0.37300E+03
        -0.37300E+03
        -0.37300E+03
        -0.37300E+03
        -0.37300E+03
        -0.37300E+03
        -0.37300E+03
        -0.37300E+03
        -0.37300E+03
        -0.37300E+03
        -0.37300E+03
        -0.37300E+03
        -0.37300E+03
        -0.37300E+03
        -0.37300E+03
        -0.37300E+03
        -0.37300E+03
        -0.37300E+03
        -0.37300E+03
        -0.37300E+03
        -0.37300E+03
        -0.37300E+03
        -0.37300E+03
        -0.37300E+03
        -0.37300E+03
        -0.37300E+03
        -0.37300E+03
        -0.37300E+03
        -0.37300E+03
        -0.37300E+03
  
SCALARS              normalized_window  double 1
LOOKUP_TABLE default
         0.27500E+01
         0.27500E+01
         0.27500E+01
         0.27500E+01
         0.27500E+01
         0.27500E+01
         0.27500E+01
         0.27500E+01
         0.27500E+01
         0.27500E+01
         0.27500E+01
         0.27500E+01
         0.27500E+01
         0.27500E+01
         0.27500E+01
         0.27500E+01
         0.27500E+01
         0.27500E+01
         0.27500E+01
         0.27500E+01
         0.27500E+01
         0.27500E+01
         0.27500E+01
         0.27500E+01
         0.27500E+01
         0.27500E+01
         0.27500E+01
         0.27500E+01
         0.27500E+01
         0.27500E+01
         0.27500E+01
         0.27500E+01
         0.27500E+01
         0.27500E+01
         0.27500E+01
         0.27500E+01
         0.27500E+01
         0.27500E+01
         0.27500E+01
         0.27500E+01
         0.27500E+01
         0.27500E+01
         0.27500E+01
         0.27500E+01
         0.27500E+01
         0.27500E+01
         0.27500E+01
         0.27500E+01
         0.27500E+01
         0.27500E+01
         0.27500E+01
         0.27500E+01
         0.27500E+01
         0.27500E+01
         0.27500E+01
         0.27500E+01
         0.27500E+01
         0.27500E+01
         0.27500E+01
         0.27500E+01
         0.27500E+01
         0.27500E+01
         0.27500E+01
         0.27500E+01
         0.27500E+01
         0.27500E+01
         0.27500E+01
         0.27500E+01
         0.27500E+01
         0.27500E+01
         0.27500E+01
         0.27500E+01
         0.27500E+01
         0.27500E+01
         0.27500E+01
         0.27500E+01
         0.27500E+01
         0.27500E+01
         0.27500E+01
         0.27500E+01
         0.27500E+01
         0.27500E+01
         0.27500E+01
         0.27500E+01
         0.27500E+01
         0.27500E+01
         0.27500E+01
         0.27500E+01
         0.27500E+01
         0.27500E+01
         0.27500E+01
         0.27500E+01
         0.27500E+01
         0.27500E+01
         0.27500E+01
         0.27500E+01
         0.27500E+01
         0.27500E+01
         0.27500E+01
         0.27500E+01
         0.27500E+01
         0.27500E+01
         0.27500E+01
         0.27500E+01
         0.27500E+01
         0.27500E+01
         0.27500E+01
         0.27500E+01
         0.27500E+01
         0.27500E+01
         0.27500E+01
         0.27500E+01
         0.27500E+01
         0.27500E+01
         0.27500E+01
         0.27500E+01
         0.27500E+01
         0.27500E+01
         0.27500E+01
         0.27500E+01
         0.27500E+01
         0.27500E+01
         0.27500E+01
         0.27500E+01
         0.27500E+01
         0.27500E+01
         0.27500E+01
         0.27500E+01
         0.27500E+01
         0.27500E+01
         0.27500E+01
         0.27500E+01
         0.27500E+01
         0.27500E+01
         0.27500E+01
         0.27500E+01
         0.27500E+01
         0.27500E+01
         0.27500E+01
         0.27500E+01
         0.27500E+01
         0.27500E+01
         0.27500E+01
         0.27500E+01
         0.27500E+01
         0.27500E+01
         0.27500E+01
         0.27500E+01
         0.27500E+01
         0.27500E+01
         0.27500E+01
         0.27500E+01
         0.27500E+01
         0.27500E+01
         0.27500E+01
         0.27500E+01
         0.27500E+01
         0.27500E+01
         0.27500E+01
         0.27500E+01
         0.27500E+01
         0.27500E+01
         0.27500E+01
         0.27500E+01
         0.27500E+01
         0.27500E+01
         0.27500E+01
         0.27500E+01
         0.27500E+01
         0.27500E+01
         0.27500E+01
         0.27500E+01
         0.27500E+01
         0.27500E+01
         0.27500E+01
         0.27500E+01
         0.27500E+01
         0.27500E+01
         0.27500E+01
         0.27500E+01
         0.27500E+01
         0.27500E+01
         0.27500E+01
         0.27500E+01
         0.27500E+01
         0.27500E+01
         0.27500E+01
         0.27500E+01
         0.27500E+01
         0.27500E+01
         0.27500E+01
         0.27500E+01
         0.27500E+01
         0.27500E+01
         0.27500E+01
         0.27500E+01
         0.27500E+01
         0.27500E+01
         0.27500E+01
         0.27500E+01
         0.27500E+01
         0.27500E+01
         0.27500E+01
         0.27500E+01
         0.27500E+01
         0.27500E+01
         0.27500E+01
         0.27500E+01
         0.27500E+01
         0.27500E+01
         0.27500E+01
         0.27500E+01
         0.27500E+01
         0.27500E+01
         0.27500E+01
         0.27500E+01
         0.27500E+01
         0.27500E+01
         0.27500E+01
         0.27500E+01
         0.27500E+01
         0.27500E+01
         0.27500E+01
         0.27500E+01
         0.27500E+01
         0.27500E+01
         0.27500E+01
         0.27500E+01
         0.27500E+01
         0.27500E+01
         0.27500E+01
         0.27500E+01
         0.27500E+01
         0.27500E+01
         0.27500E+01
         0.27500E+01
         0.27500E+01
         0.27500E+01
         0.27500E+01
         0.27500E+01
         0.27500E+01
         0.27500E+01
         0.27500E+01
         0.27500E+01
         0.27500E+01
         0.27500E+01
         0.27500E+01
         0.27500E+01
         0.27500E+01
         0.27500E+01
         0.27500E+01
         0.27500E+01
         0.27500E+01
         0.27500E+01
         0.27500E+01
         0.27500E+01
         0.27500E+01
         0.27500E+01
         0.27500E+01
         0.27500E+01
         0.27500E+01
         0.27500E+01
         0.27500E+01
         0.27500E+01
         0.27500E+01
         0.27500E+01
         0.27500E+01
         0.27500E+01
         0.27500E+01
         0.27500E+01
         0.27500E+01
         0.27500E+01
         0.27500E+01
         0.27500E+01
         0.27500E+01
         0.27500E+01
         0.27500E+01
         0.27500E+01
         0.27500E+01
         0.27500E+01
         0.27500E+01
         0.27500E+01
         0.27500E+01
         0.27500E+01
         0.27500E+01
         0.27500E+01
         0.27500E+01
         0.27500E+01
         0.27500E+01
         0.27500E+01
         0.27500E+01
         0.27500E+01
         0.27500E+01
         0.27500E+01
         0.27500E+01
         0.27500E+01
         0.27500E+01
         0.27500E+01
         0.27500E+01
         0.27500E+01
         0.27500E+01
         0.27500E+01
         0.27500E+01
         0.27500E+01
         0.27500E+01
         0.27500E+01
         0.27500E+01
         0.27500E+01
         0.27500E+01
         0.27500E+01
         0.27500E+01
         0.27500E+01
         0.27500E+01
         0.27500E+01
         0.27500E+01
         0.27500E+01
         0.27500E+01
         0.27500E+01
         0.27500E+01
         0.27500E+01
         0.27500E+01
         0.27500E+01
         0.27500E+01
         0.27500E+01
         0.27500E+01
         0.27500E+01
         0.27500E+01
         0.27500E+01
         0.27500E+01
         0.27500E+01
         0.27500E+01
         0.27500E+01
         0.27500E+01
         0.27500E+01
         0.27500E+01
         0.27500E+01
         0.27500E+01
         0.27500E+01
         0.27500E+01
         0.27500E+01
         0.27500E+01
         0.27500E+01
         0.27500E+01
         0.27500E+01
         0.27500E+01
         0.27500E+01
         0.27500E+01
         0.27500E+01
         0.27500E+01
         0.27500E+01
         0.27500E+01
         0.27500E+01
         0.27500E+01
         0.27500E+01
         0.27500E+01
         0.27500E+01
         0.27500E+01
         0.27500E+01
         0.27500E+01
         0.27500E+01
         0.27500E+01
         0.27500E+01
         0.27500E+01
         0.27500E+01
         0.27500E+01
         0.27500E+01
         0.27500E+01
         0.27500E+01
         0.27500E+01
         0.27500E+01
         0.27500E+01
         0.27500E+01
         0.27500E+01
         0.27500E+01
         0.27500E+01
         0.27500E+01
         0.27500E+01
         0.27500E+01
         0.27500E+01
         0.27500E+01
         0.27500E+01
         0.27500E+01
         0.27500E+01
         0.27500E+01
         0.27500E+01
         0.27500E+01
         0.27500E+01
         0.27500E+01
         0.27500E+01
         0.27500E+01
         0.27500E+01
         0.27500E+01
         0.27500E+01
         0.27500E+01
         0.27500E+01
         0.27500E+01
         0.27500E+01
         0.27500E+01
         0.27500E+01
         0.27500E+01
         0.27500E+01
         0.27500E+01
         0.27500E+01
         0.27500E+01
         0.27500E+01
         0.27500E+01
         0.27500E+01
         0.27500E+01
         0.27500E+01
         0.27500E+01
         0.27500E+01
         0.27500E+01
         0.27500E+01
         0.27500E+01
         0.27500E+01
         0.27500E+01
         0.27500E+01
         0.27500E+01
         0.27500E+01
         0.27500E+01
         0.27500E+01
         0.27500E+01
         0.27500E+01
         0.27500E+01
         0.27500E+01
         0.27500E+01
         0.27500E+01
         0.27500E+01
         0.27500E+01
         0.27500E+01
         0.27500E+01
         0.27500E+01
         0.27500E+01
         0.27500E+01
         0.27500E+01
         0.27500E+01
         0.27500E+01
         0.27500E+01
         0.27500E+01
         0.27500E+01
         0.27500E+01
         0.27500E+01
         0.27500E+01
         0.27500E+01
         0.27500E+01
         0.27500E+01
         0.27500E+01
         0.27500E+01
         0.27500E+01
         0.27500E+01
         0.27500E+01
         0.27500E+01
         0.27500E+01
         0.27500E+01
         0.27500E+01
         0.27500E+01
         0.27500E+01
         0.27500E+01
         0.27500E+01
         0.27500E+01
         0.27500E+01
         0.27500E+01
         0.27500E+01
         0.27500E+01
         0.27500E+01
         0.27500E+01
         0.27500E+01
         0.27500E+01
         0.27500E+01
         0.27500E+01
         0.27500E+01
         0.27500E+01
         0.27500E+01
         0.27500E+01
         0.27500E+01
         0.27500E+01
         0.27500E+01
         0.27500E+01
         0.27500E+01
         0.27500E+01
         0.27500E+01
         0.27500E+01
         0.27500E+01
         0.27500E+01
         0.27500E+01
         0.27500E+01
         0.27500E+01
         0.27500E+01
         0.27500E+01
         0.27500E+01
         0.27500E+01
         0.27500E+01
         0.27500E+01
         0.27500E+01
         0.27500E+01
         0.27500E+01
         0.27500E+01
         0.27500E+01
         0.27500E+01
         0.27500E+01
         0.27500E+01
         0.27500E+01
         0.27500E+01
         0.27500E+01
         0.27500E+01
         0.27500E+01
         0.27500E+01
         0.27500E+01
         0.27500E+01
         0.27500E+01
         0.27500E+01
         0.27500E+01
         0.27500E+01
         0.27500E+01
         0.27500E+01
         0.27500E+01
         0.27500E+01
         0.27500E+01
         0.27500E+01
         0.27500E+01
         0.27500E+01
         0.27500E+01
         0.27500E+01
         0.27500E+01
         0.27500E+01
         0.27500E+01
         0.27500E+01
         0.27500E+01
         0.27500E+01
         0.27500E+01
         0.27500E+01
         0.27500E+01
         0.27500E+01
         0.27500E+01
         0.27500E+01
         0.27500E+01
         0.27500E+01
         0.27500E+01
         0.27500E+01
         0.27500E+01
         0.27500E+01
         0.27500E+01
         0.27500E+01
         0.27500E+01
         0.27500E+01
         0.27500E+01
         0.27500E+01
         0.27500E+01
         0.27500E+01
         0.27500E+01
         0.27500E+01
         0.27500E+01
         0.27500E+01
         0.27500E+01
         0.27500E+01
         0.27500E+01
         0.27500E+01
         0.27500E+01
         0.27500E+01
         0.27500E+01
         0.27500E+01
         0.27500E+01
         0.27500E+01
         0.27500E+01
         0.27500E+01
         0.27500E+01
         0.27500E+01
         0.27500E+01
         0.27500E+01
         0.27500E+01
         0.27500E+01
         0.27500E+01
         0.27500E+01
         0.27500E+01
         0.27500E+01
         0.27500E+01
         0.27500E+01
         0.27500E+01
         0.27500E+01
         0.27500E+01
         0.27500E+01
         0.27500E+01
         0.27500E+01
         0.27500E+01
         0.27500E+01
         0.27500E+01
         0.27500E+01
         0.27500E+01
         0.27500E+01
         0.27500E+01
         0.27500E+01
         0.27500E+01
         0.27500E+01
         0.27500E+01
         0.27500E+01
         0.27500E+01
         0.27500E+01
         0.27500E+01
         0.27500E+01
         0.27500E+01
         0.27500E+01
         0.27500E+01
         0.27500E+01
         0.27500E+01
         0.27500E+01
         0.27500E+01
         0.27500E+01
         0.27500E+01
         0.27500E+01
         0.27500E+01
         0.27500E+01
         0.27500E+01
         0.27500E+01
         0.27500E+01
         0.27500E+01
         0.27500E+01
         0.27500E+01
         0.27500E+01
         0.27500E+01
         0.27500E+01
         0.27500E+01
         0.27500E+01
         0.27500E+01
         0.27500E+01
         0.27500E+01
         0.27500E+01
         0.27500E+01
         0.27500E+01
         0.27500E+01
         0.27500E+01
         0.27500E+01
         0.27500E+01
         0.27500E+01
         0.27500E+01
         0.27500E+01
         0.27500E+01
         0.27500E+01
         0.27500E+01
         0.27500E+01
         0.27500E+01
         0.27500E+01
         0.27500E+01
         0.27500E+01
         0.27500E+01
         0.27500E+01
         0.27500E+01
         0.27500E+01
         0.27500E+01
         0.27500E+01
         0.27500E+01
         0.27500E+01
         0.27500E+01
         0.27500E+01
         0.27500E+01
         0.27500E+01
         0.27500E+01
         0.27500E+01
         0.27500E+01
         0.27500E+01
         0.27500E+01
         0.27500E+01
         0.27500E+01
         0.27500E+01
         0.27500E+01
         0.27500E+01
         0.27500E+01
         0.27500E+01
         0.27500E+01
         0.27500E+01
         0.27500E+01
         0.27500E+01
         0.27500E+01
         0.27500E+01
         0.27500E+01
         0.27500E+01
         0.27500E+01
         0.27500E+01
         0.27500E+01
         0.27500E+01
         0.27500E+01
         0.27500E+01
         0.27500E+01
         0.27500E+01
         0.27500E+01
         0.27500E+01
         0.27500E+01
         0.27500E+01
         0.27500E+01
         0.27500E+01
         0.27500E+01
         0.27500E+01
         0.27500E+01
         0.27500E+01
         0.27500E+01
         0.27500E+01
         0.27500E+01
         0.27500E+01
         0.27500E+01
         0.27500E+01
         0.27500E+01
         0.27500E+01
         0.27500E+01
         0.27500E+01
         0.27500E+01
         0.27500E+01
         0.27500E+01
         0.27500E+01
         0.27500E+01
         0.27500E+01
         0.27500E+01
         0.27500E+01
         0.27500E+01
         0.27500E+01
         0.27500E+01
         0.27500E+01
         0.27500E+01
         0.27500E+01
         0.27500E+01
         0.27500E+01
         0.27500E+01
         0.27500E+01
         0.27500E+01
         0.27500E+01
         0.27500E+01
         0.27500E+01
         0.27500E+01
         0.27500E+01
         0.27500E+01
         0.27500E+01
         0.27500E+01
         0.27500E+01
         0.27500E+01
         0.27500E+01
         0.27500E+01
         0.27500E+01
         0.27500E+01
         0.27500E+01
         0.27500E+01
         0.27500E+01
         0.27500E+01
         0.27500E+01
         0.27500E+01
         0.27500E+01
         0.27500E+01
         0.27500E+01
         0.27500E+01
         0.27500E+01
         0.27500E+01
         0.27500E+01
         0.27500E+01
         0.27500E+01
         0.27500E+01
         0.27500E+01
         0.27500E+01
         0.27500E+01
         0.27500E+01
         0.27500E+01
         0.27500E+01
         0.27500E+01
         0.27500E+01
         0.27500E+01
         0.27500E+01
         0.27500E+01
         0.27500E+01
         0.27500E+01
         0.27500E+01
         0.27500E+01
         0.27500E+01
         0.27500E+01
         0.27500E+01
         0.27500E+01
         0.27500E+01
         0.27500E+01
         0.27500E+01
         0.27500E+01
         0.27500E+01
         0.27500E+01
         0.27500E+01
         0.27500E+01
         0.27500E+01
         0.27500E+01
         0.27500E+01
         0.27500E+01
         0.27500E+01
         0.27500E+01
         0.27500E+01
         0.27500E+01
         0.27500E+01
         0.27500E+01
         0.27500E+01
         0.27500E+01
         0.27500E+01
         0.27500E+01
         0.27500E+01
         0.27500E+01
         0.27500E+01
         0.27500E+01
         0.27500E+01
         0.27500E+01
         0.27500E+01
         0.27500E+01
         0.27500E+01
         0.27500E+01
         0.27500E+01
         0.27500E+01
         0.27500E+01
         0.27500E+01
         0.27500E+01
         0.27500E+01
         0.27500E+01
         0.27500E+01
         0.27500E+01
         0.27500E+01
         0.27500E+01
         0.27500E+01
         0.27500E+01
         0.27500E+01
         0.27500E+01
         0.27500E+01
         0.27500E+01
         0.27500E+01
         0.27500E+01
         0.27500E+01
         0.27500E+01
         0.27500E+01
         0.27500E+01
         0.27500E+01
         0.27500E+01
         0.27500E+01
         0.27500E+01
         0.27500E+01
         0.27500E+01
         0.27500E+01
         0.27500E+01
         0.27500E+01
         0.27500E+01
         0.27500E+01
         0.27500E+01
         0.27500E+01
         0.27500E+01
         0.27500E+01
         0.27500E+01
         0.27500E+01
         0.27500E+01
         0.27500E+01
         0.27500E+01
         0.27500E+01
         0.27500E+01
         0.27500E+01
         0.27500E+01
         0.27500E+01
         0.27500E+01
         0.27500E+01
         0.27500E+01
         0.27500E+01
         0.27500E+01
         0.27500E+01
         0.27500E+01
         0.27500E+01
         0.27500E+01
         0.27500E+01
         0.27500E+01
         0.27500E+01
         0.27500E+01
         0.27500E+01
         0.27500E+01
         0.27500E+01
         0.27500E+01
         0.27500E+01
         0.27500E+01
         0.27500E+01
         0.27500E+01
         0.27500E+01
         0.27500E+01
         0.27500E+01
         0.27500E+01
         0.27500E+01
         0.27500E+01
         0.27500E+01
         0.27500E+01
         0.27500E+01
         0.27500E+01
         0.27500E+01
         0.27500E+01
         0.27500E+01
         0.27500E+01
         0.27500E+01
         0.27500E+01
         0.27500E+01
         0.27500E+01
         0.27500E+01
         0.27500E+01
         0.27500E+01
         0.27500E+01
         0.27500E+01
         0.27500E+01
         0.27500E+01
         0.27500E+01
         0.27500E+01
         0.27500E+01
         0.27500E+01
         0.27500E+01
         0.27500E+01
         0.27500E+01
         0.27500E+01
         0.27500E+01
         0.27500E+01
         0.27500E+01
         0.27500E+01
         0.27500E+01
         0.27500E+01
         0.27500E+01
         0.27500E+01
         0.27500E+01
         0.27500E+01
         0.27500E+01
         0.27500E+01
         0.27500E+01
         0.27500E+01
         0.27500E+01
         0.27500E+01
         0.27500E+01
         0.27500E+01
         0.27500E+01
         0.27500E+01
         0.27500E+01
         0.27500E+01
         0.27500E+01
         0.27500E+01
         0.27500E+01
         0.27500E+01
         0.27500E+01
         0.27500E+01
         0.27500E+01
         0.27500E+01
         0.27500E+01
         0.27500E+01
         0.27500E+01
         0.27500E+01
         0.27500E+01
         0.27500E+01
         0.27500E+01
         0.27500E+01
         0.27500E+01
         0.27500E+01
         0.27500E+01
         0.27500E+01
         0.27500E+01
         0.27500E+01
         0.27500E+01
         0.27500E+01
         0.27500E+01
         0.27500E+01
         0.27500E+01
         0.27500E+01
         0.27500E+01
         0.27500E+01
         0.27500E+01
         0.27500E+01
         0.27500E+01
         0.27500E+01
         0.27500E+01
         0.27500E+01
         0.27500E+01
         0.27500E+01
         0.27500E+01
         0.27500E+01
         0.27500E+01
         0.27500E+01
         0.27500E+01
         0.27500E+01
         0.27500E+01
         0.27500E+01
         0.27500E+01
         0.27500E+01
         0.27500E+01
         0.27500E+01
         0.27500E+01
         0.27500E+01
         0.27500E+01
         0.27500E+01
         0.27500E+01
         0.27500E+01
         0.27500E+01
         0.27500E+01
         0.27500E+01
         0.27500E+01
         0.27500E+01
         0.27500E+01
         0.27500E+01
         0.27500E+01
         0.27500E+01
         0.27500E+01
         0.27500E+01
         0.27500E+01
         0.27500E+01
         0.27500E+01
         0.27500E+01
         0.27500E+01
         0.27500E+01
         0.27500E+01
         0.27500E+01
         0.27500E+01
         0.27500E+01
         0.27500E+01
         0.27500E+01
         0.27500E+01
         0.27500E+01
         0.27500E+01
         0.27500E+01
         0.27500E+01
         0.27500E+01
         0.27500E+01
         0.27500E+01
         0.27500E+01
         0.27500E+01
         0.27500E+01
         0.27500E+01
         0.27500E+01
         0.27500E+01
         0.27500E+01
         0.27500E+01
         0.27500E+01
         0.27500E+01
         0.27500E+01
         0.27500E+01
         0.27500E+01
         0.27500E+01
         0.27500E+01
         0.27500E+01
         0.27500E+01
         0.27500E+01
         0.27500E+01
         0.27500E+01
         0.27500E+01
         0.27500E+01
         0.27500E+01
         0.27500E+01
         0.27500E+01
         0.27500E+01
         0.27500E+01
         0.27500E+01
         0.27500E+01
         0.27500E+01
         0.27500E+01
         0.27500E+01
         0.27500E+01
         0.27500E+01
         0.27500E+01
         0.27500E+01
         0.27500E+01
         0.27500E+01
         0.27500E+01
         0.27500E+01
         0.27500E+01
         0.27500E+01
         0.27500E+01
         0.27500E+01
         0.27500E+01
         0.27500E+01
         0.27500E+01
         0.27500E+01
         0.27500E+01
         0.27500E+01
         0.27500E+01
         0.27500E+01
         0.27500E+01
         0.27500E+01
         0.27500E+01
         0.27500E+01
         0.27500E+01
         0.27500E+01
         0.27500E+01
         0.27500E+01
         0.27500E+01
         0.27500E+01
         0.27500E+01
         0.27500E+01
         0.27500E+01
         0.27500E+01
         0.27500E+01
         0.27500E+01
         0.27500E+01
         0.27500E+01
         0.27500E+01
         0.27500E+01
         0.27500E+01
         0.27500E+01
         0.27500E+01
         0.27500E+01
         0.27500E+01
         0.27500E+01
         0.27500E+01
         0.27500E+01
         0.27500E+01
         0.27500E+01
         0.27500E+01
         0.27500E+01
         0.27500E+01
         0.27500E+01
         0.27500E+01
         0.27500E+01
         0.27500E+01
         0.27500E+01
         0.27500E+01
         0.27500E+01
         0.27500E+01
         0.27500E+01
         0.27500E+01
         0.27500E+01
         0.27500E+01
         0.27500E+01
         0.27500E+01
         0.27500E+01
         0.27500E+01
         0.27500E+01
         0.27500E+01
         0.27500E+01
         0.27500E+01
         0.27500E+01
         0.27500E+01
         0.27500E+01
         0.27500E+01
         0.27500E+01
         0.27500E+01
         0.27500E+01
         0.27500E+01
         0.27500E+01
         0.27500E+01
         0.27500E+01
         0.27500E+01
         0.27500E+01
         0.27500E+01
         0.27500E+01
         0.27500E+01
         0.27500E+01
         0.27500E+01
         0.27500E+01
         0.27500E+01
         0.27500E+01
         0.27500E+01
         0.27500E+01
         0.27500E+01
         0.27500E+01
         0.27500E+01
         0.27500E+01
         0.27500E+01
         0.27500E+01
         0.27500E+01
         0.27500E+01
         0.27500E+01
         0.27500E+01
         0.27500E+01
         0.27500E+01
         0.27500E+01
         0.27500E+01
         0.27500E+01
         0.27500E+01
         0.27500E+01
         0.27500E+01
         0.27500E+01
         0.27500E+01
         0.27500E+01
         0.27500E+01
         0.27500E+01
         0.27500E+01
         0.27500E+01
         0.27500E+01
         0.27500E+01
         0.27500E+01
         0.27500E+01
         0.27500E+01
         0.27500E+01
         0.27500E+01
         0.27500E+01
         0.27500E+01
         0.27500E+01
         0.27500E+01
         0.27500E+01
         0.27500E+01
         0.27500E+01
         0.27500E+01
         0.27500E+01
         0.27500E+01
         0.27500E+01
         0.27500E+01
         0.27500E+01
         0.27500E+01
         0.27500E+01
         0.27500E+01
         0.27500E+01
         0.27500E+01
         0.27500E+01
         0.27500E+01
         0.27500E+01
         0.27500E+01
         0.27500E+01
         0.27500E+01
         0.27500E+01
         0.27500E+01
         0.27500E+01
         0.27500E+01
         0.27500E+01
         0.27500E+01
         0.27500E+01
         0.27500E+01
         0.27500E+01
         0.27500E+01
         0.27500E+01
         0.27500E+01
         0.27500E+01
         0.27500E+01
         0.27500E+01
         0.27500E+01
         0.27500E+01
         0.27500E+01
         0.27500E+01
         0.27500E+01
         0.27500E+01
         0.27500E+01
         0.27500E+01
         0.27500E+01
         0.27500E+01
         0.27500E+01
         0.27500E+01
         0.27500E+01
         0.27500E+01
         0.27500E+01
         0.27500E+01
         0.27500E+01
         0.27500E+01
         0.27500E+01
         0.27500E+01
         0.27500E+01
         0.27500E+01
         0.27500E+01
         0.27500E+01
         0.27500E+01
         0.27500E+01
         0.27500E+01
         0.27500E+01
         0.27500E+01
         0.27500E+01
         0.27500E+01
         0.27500E+01
         0.27500E+01
         0.27500E+01
         0.27500E+01
         0.27500E+01
         0.27500E+01
         0.27500E+01
         0.27500E+01
         0.27500E+01
         0.27500E+01
         0.27500E+01
         0.27500E+01
         0.27500E+01
         0.27500E+01
         0.27500E+01
         0.27500E+01
         0.27500E+01
         0.27500E+01
         0.27500E+01
         0.27500E+01
         0.27500E+01
         0.27500E+01
         0.27500E+01
         0.27500E+01
         0.27500E+01
         0.27500E+01
         0.27500E+01
         0.27500E+01
         0.27500E+01
         0.27500E+01
         0.27500E+01
         0.27500E+01
         0.27500E+01
         0.27500E+01
         0.27500E+01
         0.27500E+01
         0.27500E+01
         0.27500E+01
         0.27500E+01
         0.27500E+01
         0.27500E+01
         0.27500E+01
         0.27500E+01
         0.27500E+01
         0.27500E+01
         0.27500E+01
         0.27500E+01
         0.27500E+01
         0.27500E+01
         0.27500E+01
         0.27500E+01
         0.27500E+01
         0.27500E+01
         0.27500E+01
         0.27500E+01
         0.27500E+01
         0.27500E+01
         0.27500E+01
         0.27500E+01
         0.27500E+01
         0.27500E+01
         0.27500E+01
         0.27500E+01
         0.27500E+01
         0.27500E+01
         0.27500E+01
         0.27500E+01
         0.27500E+01
         0.27500E+01
         0.27500E+01
         0.27500E+01
         0.27500E+01
         0.27500E+01
         0.27500E+01
         0.27500E+01
         0.27500E+01
         0.27500E+01
         0.27500E+01
         0.27500E+01
         0.27500E+01
         0.27500E+01
         0.27500E+01
         0.27500E+01
         0.27500E+01
         0.27500E+01
         0.27500E+01
         0.27500E+01
         0.27500E+01
         0.27500E+01
         0.27500E+01
         0.27500E+01
         0.27500E+01
         0.27500E+01
         0.27500E+01
         0.27500E+01
         0.27500E+01
         0.27500E+01
         0.27500E+01
         0.27500E+01
         0.27500E+01
         0.27500E+01
         0.27500E+01
         0.27500E+01
         0.27500E+01
         0.27500E+01
         0.27500E+01
         0.27500E+01
         0.27500E+01
         0.27500E+01
         0.27500E+01
         0.27500E+01
         0.27500E+01
         0.27500E+01
         0.27500E+01
         0.27500E+01
         0.27500E+01
         0.27500E+01
         0.27500E+01
         0.27500E+01
         0.27500E+01
         0.27500E+01
         0.27500E+01
         0.27500E+01
         0.27500E+01
         0.27500E+01
         0.27500E+01
         0.27500E+01
         0.27500E+01
         0.27500E+01
         0.27500E+01
         0.27500E+01
         0.27500E+01
         0.27500E+01
         0.27500E+01
         0.27500E+01
         0.27500E+01
         0.27500E+01
         0.27500E+01
         0.27500E+01
         0.27500E+01
         0.27500E+01
         0.27500E+01
         0.27500E+01
         0.27500E+01
         0.27500E+01
         0.27500E+01
         0.27500E+01
         0.27500E+01
         0.27500E+01
         0.27500E+01
         0.27500E+01
         0.27500E+01
         0.27500E+01
         0.27500E+01
         0.27500E+01
         0.27500E+01
         0.27500E+01
         0.27500E+01
         0.27500E+01
         0.27500E+01
         0.27500E+01
         0.27500E+01
         0.27500E+01
         0.27500E+01
         0.27500E+01
         0.27500E+01
         0.27500E+01
         0.27500E+01
         0.27500E+01
         0.27500E+01
         0.27500E+01
         0.27500E+01
         0.27500E+01
         0.27500E+01
         0.27500E+01
         0.27500E+01
         0.27500E+01
         0.27500E+01
         0.27500E+01
         0.27500E+01
         0.27500E+01
         0.27500E+01
         0.27500E+01
         0.27500E+01
         0.27500E+01
         0.27500E+01
         0.27500E+01
         0.27500E+01
         0.27500E+01
         0.27500E+01
         0.27500E+01
         0.27500E+01
         0.27500E+01
         0.27500E+01
         0.27500E+01
         0.27500E+01
         0.27500E+01
         0.27500E+01
         0.27500E+01
         0.27500E+01
         0.27500E+01
         0.27500E+01
         0.27500E+01
         0.27500E+01
         0.27500E+01
         0.27500E+01
         0.27500E+01
         0.27500E+01
         0.27500E+01
         0.27500E+01
         0.27500E+01
         0.27500E+01
         0.27500E+01
         0.27500E+01
         0.27500E+01
         0.27500E+01
         0.27500E+01
         0.27500E+01
         0.27500E+01
         0.27500E+01
         0.27500E+01
         0.27500E+01
         0.27500E+01
         0.27500E+01
         0.27500E+01
         0.27500E+01
         0.27500E+01
         0.27500E+01
         0.27500E+01
         0.27500E+01
         0.27500E+01
         0.27500E+01
         0.27500E+01
         0.27500E+01
         0.27500E+01
         0.27500E+01
         0.27500E+01
         0.27500E+01
         0.27500E+01
         0.27500E+01
         0.27500E+01
         0.27500E+01
         0.27500E+01
         0.27500E+01
         0.27500E+01
         0.27500E+01
         0.27500E+01
         0.27500E+01
         0.27500E+01
         0.27500E+01
         0.27500E+01
         0.27500E+01
         0.27500E+01
         0.27500E+01
         0.27500E+01
         0.27500E+01
         0.27500E+01
         0.27500E+01
         0.27500E+01
         0.27500E+01
         0.27500E+01
         0.27500E+01
         0.27500E+01
         0.27500E+01
         0.27500E+01
         0.27500E+01
         0.27500E+01
         0.27500E+01
         0.27500E+01
         0.27500E+01
         0.27500E+01
         0.27500E+01
         0.27500E+01
         0.27500E+01
         0.27500E+01
         0.27500E+01
         0.27500E+01
         0.27500E+01
         0.27500E+01
         0.27500E+01
         0.27500E+01
         0.27500E+01
         0.27500E+01
         0.27500E+01
         0.27500E+01
         0.27500E+01
         0.27500E+01
         0.27500E+01
         0.27500E+01
         0.27500E+01
         0.27500E+01
         0.27500E+01
         0.27500E+01
         0.27500E+01
         0.27500E+01
         0.27500E+01
         0.27500E+01
         0.27500E+01
         0.27500E+01
         0.27500E+01
         0.27500E+01
         0.27500E+01
         0.27500E+01
         0.27500E+01
         0.27500E+01
         0.27500E+01
         0.27500E+01
         0.27500E+01
         0.27500E+01
         0.27500E+01
         0.27500E+01
         0.27500E+01
         0.27500E+01
         0.27500E+01
         0.27500E+01
         0.27500E+01
         0.27500E+01
         0.27500E+01
         0.27500E+01
         0.27500E+01
         0.27500E+01
         0.27500E+01
         0.27500E+01
         0.27500E+01
         0.27500E+01
         0.27500E+01
         0.27500E+01
         0.27500E+01
         0.27500E+01
         0.27500E+01
         0.27500E+01
         0.27500E+01
         0.27500E+01
         0.27500E+01
         0.27500E+01
         0.27500E+01
         0.27500E+01
         0.27500E+01
         0.27500E+01
         0.27500E+01
         0.27500E+01
         0.27500E+01
         0.27500E+01
         0.27500E+01
         0.27500E+01
         0.27500E+01
         0.27500E+01
         0.27500E+01
         0.27500E+01
         0.27500E+01
         0.27500E+01
         0.27500E+01
         0.27500E+01
         0.27500E+01
         0.27500E+01
         0.27500E+01
         0.27500E+01
         0.27500E+01
         0.27500E+01
         0.27500E+01
         0.27500E+01
         0.27500E+01
         0.27500E+01
         0.27500E+01
         0.27500E+01
         0.27500E+01
         0.27500E+01
         0.27500E+01
         0.27500E+01
         0.27500E+01
         0.27500E+01
         0.27500E+01
         0.27500E+01
         0.27500E+01
         0.27500E+01
         0.27500E+01
         0.27500E+01
         0.27500E+01
         0.27500E+01
         0.27500E+01
         0.27500E+01
         0.27500E+01
         0.27500E+01
         0.27500E+01
         0.27500E+01
         0.27500E+01
         0.27500E+01
         0.27500E+01
         0.27500E+01
         0.27500E+01
         0.27500E+01
         0.27500E+01
         0.27500E+01
         0.27500E+01
         0.27500E+01
         0.27500E+01
         0.27500E+01
         0.27500E+01
         0.27500E+01
         0.27500E+01
         0.27500E+01
         0.27500E+01
         0.27500E+01
         0.27500E+01
         0.27500E+01
         0.27500E+01
         0.27500E+01
         0.27500E+01
         0.27500E+01
         0.27500E+01
         0.27500E+01
         0.27500E+01
         0.27500E+01
         0.27500E+01
         0.27500E+01
         0.27500E+01
         0.27500E+01
         0.27500E+01
         0.27500E+01
         0.27500E+01
         0.27500E+01
         0.27500E+01
         0.27500E+01
         0.27500E+01
         0.27500E+01
         0.27500E+01
         0.27500E+01
         0.27500E+01
         0.27500E+01
         0.27500E+01
         0.27500E+01
         0.27500E+01
         0.27500E+01
         0.27500E+01
         0.27500E+01
         0.27500E+01
         0.27500E+01
         0.27500E+01
         0.27500E+01
         0.27500E+01
         0.27500E+01
         0.27500E+01
         0.27500E+01
         0.27500E+01
         0.27500E+01
         0.27500E+01
         0.27500E+01
         0.27500E+01
         0.27500E+01
         0.27500E+01
         0.27500E+01
         0.27500E+01
         0.27500E+01
         0.27500E+01
         0.27500E+01
         0.27500E+01
         0.27500E+01
         0.27500E+01
         0.27500E+01
         0.27500E+01
         0.27500E+01
         0.27500E+01
         0.27500E+01
         0.27500E+01
         0.27500E+01
         0.27500E+01
         0.27500E+01
         0.27500E+01
         0.27500E+01
         0.27500E+01
         0.27500E+01
         0.27500E+01
         0.27500E+01
         0.27500E+01
         0.27500E+01
         0.27500E+01
         0.27500E+01
         0.27500E+01
         0.27500E+01
         0.27500E+01
         0.27500E+01
         0.27500E+01
         0.27500E+01
         0.27500E+01
         0.27500E+01
         0.27500E+01
         0.27500E+01
         0.27500E+01
         0.27500E+01
         0.27500E+01
         0.27500E+01
         0.27500E+01
         0.27500E+01
         0.27500E+01
         0.27500E+01
         0.27500E+01
         0.27500E+01
         0.27500E+01
         0.27500E+01
         0.27500E+01
         0.27500E+01
         0.27500E+01
         0.27500E+01
         0.27500E+01
         0.27500E+01
         0.27500E+01
         0.27500E+01
         0.27500E+01
         0.27500E+01
         0.27500E+01
         0.27500E+01
         0.27500E+01
         0.27500E+01
         0.27500E+01
         0.27500E+01
         0.27500E+01
         0.27500E+01
         0.27500E+01
         0.27500E+01
         0.27500E+01
         0.27500E+01
         0.27500E+01
         0.27500E+01
         0.27500E+01
         0.27500E+01
         0.27500E+01
         0.27500E+01
         0.27500E+01
         0.27500E+01
         0.27500E+01
         0.27500E+01
         0.27500E+01
         0.27500E+01
         0.27500E+01
         0.27500E+01
         0.27500E+01
         0.27500E+01
         0.27500E+01
         0.27500E+01
         0.27500E+01
         0.27500E+01
         0.27500E+01
         0.27500E+01
         0.27500E+01
         0.27500E+01
         0.27500E+01
         0.27500E+01
         0.27500E+01
         0.27500E+01
         0.27500E+01
         0.27500E+01
         0.27500E+01
         0.27500E+01
         0.27500E+01
         0.27500E+01
         0.27500E+01
         0.27500E+01
         0.27500E+01
         0.27500E+01
         0.27500E+01
         0.27500E+01
         0.27500E+01
         0.27500E+01
         0.27500E+01
         0.27500E+01
         0.27500E+01
         0.27500E+01
         0.27500E+01
         0.27500E+01
         0.27500E+01
         0.27500E+01
         0.27500E+01
         0.27500E+01
         0.27500E+01
         0.27500E+01
         0.27500E+01
         0.27500E+01
         0.27500E+01
         0.27500E+01
         0.27500E+01
         0.27500E+01
         0.27500E+01
         0.27500E+01
         0.27500E+01
         0.27500E+01
         0.27500E+01
         0.27500E+01
         0.27500E+01
         0.27500E+01
         0.27500E+01
         0.27500E+01
         0.27500E+01
         0.27500E+01
         0.27500E+01
         0.27500E+01
         0.27500E+01
         0.27500E+01
         0.27500E+01
         0.27500E+01
         0.27500E+01
         0.27500E+01
         0.27500E+01
         0.27500E+01
         0.27500E+01
         0.27500E+01
         0.27500E+01
         0.27500E+01
         0.27500E+01
         0.27500E+01
         0.27500E+01
         0.27500E+01
         0.27500E+01
         0.27500E+01
         0.27500E+01
         0.27500E+01
         0.27500E+01
         0.27500E+01
         0.27500E+01
         0.27500E+01
         0.27500E+01
         0.27500E+01
         0.27500E+01
         0.27500E+01
         0.27500E+01
         0.27500E+01
         0.27500E+01
         0.27500E+01
         0.27500E+01
         0.27500E+01
         0.27500E+01
         0.27500E+01
         0.27500E+01
         0.27500E+01
         0.27500E+01
         0.27500E+01
         0.27500E+01
         0.27500E+01
         0.27500E+01
         0.27500E+01
         0.27500E+01
         0.27500E+01
         0.27500E+01
         0.27500E+01
         0.27500E+01
         0.27500E+01
         0.27500E+01
         0.27500E+01
         0.27500E+01
         0.27500E+01
         0.27500E+01
         0.27500E+01
         0.27500E+01
         0.27500E+01
         0.27500E+01
         0.27500E+01
         0.27500E+01
         0.27500E+01
         0.27500E+01
         0.27500E+01
         0.27500E+01
         0.27500E+01
         0.27500E+01
         0.27500E+01
         0.27500E+01
         0.27500E+01
         0.27500E+01
         0.27500E+01
         0.27500E+01
         0.27500E+01
         0.27500E+01
         0.27500E+01
         0.27500E+01
         0.27500E+01
         0.27500E+01
         0.27500E+01
         0.27500E+01
         0.27500E+01
         0.27500E+01
         0.27500E+01
         0.27500E+01
         0.27500E+01
         0.27500E+01
         0.27500E+01
         0.27500E+01
         0.27500E+01
         0.27500E+01
         0.27500E+01
         0.27500E+01
         0.27500E+01
         0.27500E+01
         0.27500E+01
         0.27500E+01
         0.27500E+01
         0.27500E+01
         0.27500E+01
         0.27500E+01
         0.27500E+01
         0.27500E+01
         0.27500E+01
         0.27500E+01
         0.27500E+01
         0.27500E+01
         0.27500E+01
         0.27500E+01
         0.27500E+01
         0.27500E+01
  
SCALARS              physical_window_x  double 1
LOOKUP_TABLE default
         0.42419E-02
         0.35201E-02
         0.37624E-02
         0.42419E-02
         0.42417E-02
         0.35201E-02
         0.37618E-02
         0.42417E-02
         0.37624E-02
         0.37624E-02
         0.37618E-02
         0.37618E-02
         0.30086E-02
         0.32069E-02
         0.30084E-02
         0.32067E-02
         0.42419E-02
         0.32069E-02
         0.42417E-02
         0.32067E-02
         0.24180E-02
         0.29942E-02
         0.32396E-02
         0.24180E-02
         0.29933E-02
         0.32385E-02
         0.26608E-02
         0.27190E-02
         0.26608E-02
         0.27190E-02
         0.42687E-02
         0.36511E-02
         0.42687E-02
         0.42687E-02
         0.36511E-02
         0.42687E-02
         0.32069E-02
         0.29739E-02
         0.32066E-02
         0.29739E-02
         0.34652E-02
         0.32621E-02
         0.34652E-02
         0.32621E-02
         0.37123E-02
         0.32069E-02
         0.37123E-02
         0.32066E-02
         0.30844E-02
         0.30844E-02
         0.35191E-02
         0.35189E-02
         0.26925E-02
         0.26925E-02
         0.26925E-02
         0.26925E-02
         0.24643E-02
         0.27651E-02
         0.24643E-02
         0.27651E-02
         0.42687E-02
         0.35191E-02
         0.42687E-02
         0.35189E-02
         0.42687E-02
         0.42687E-02
         0.34658E-02
         0.34648E-02
         0.27274E-02
         0.31799E-02
         0.27273E-02
         0.31796E-02
         0.32396E-02
         0.32385E-02
         0.26964E-02
         0.26960E-02
         0.27828E-02
         0.27828E-02
         0.27828E-02
         0.27828E-02
         0.27004E-02
         0.31883E-02
         0.27003E-02
         0.31880E-02
         0.31883E-02
         0.31880E-02
         0.37123E-02
         0.37123E-02
         0.36245E-02
         0.36245E-02
         0.28253E-02
         0.31642E-02
         0.28253E-02
         0.31636E-02
         0.33485E-02
         0.33485E-02
         0.33485E-02
         0.33485E-02
         0.31978E-02
         0.31969E-02
         0.29849E-02
         0.32843E-02
         0.29849E-02
         0.32843E-02
         0.27274E-02
         0.31109E-02
         0.27273E-02
         0.31109E-02
         0.31799E-02
         0.31796E-02
         0.32396E-02
         0.32385E-02
         0.32396E-02
         0.32385E-02
         0.29942E-02
         0.29933E-02
         0.27190E-02
         0.27190E-02
         0.26964E-02
         0.26960E-02
         0.27828E-02
         0.27828E-02
         0.27828E-02
         0.27828E-02
         0.27004E-02
         0.27003E-02
         0.31883E-02
         0.31880E-02
         0.31883E-02
         0.31880E-02
         0.32621E-02
         0.32621E-02
         0.34652E-02
         0.34652E-02
         0.37123E-02
         0.37123E-02
         0.37123E-02
         0.37123E-02
         0.36245E-02
         0.36245E-02
         0.28253E-02
         0.28253E-02
         0.29097E-02
         0.29087E-02
         0.32389E-02
         0.32378E-02
         0.32389E-02
         0.32378E-02
         0.31978E-02
         0.31969E-02
         0.29849E-02
         0.29849E-02
         0.32843E-02
         0.32843E-02
         0.32843E-02
         0.32843E-02
         0.42420E-02
         0.35201E-02
         0.37629E-02
         0.42420E-02
         0.37629E-02
         0.37629E-02
         0.30087E-02
         0.32071E-02
         0.42420E-02
         0.32071E-02
         0.24178E-02
         0.29952E-02
         0.32407E-02
         0.26596E-02
         0.27191E-02
         0.42679E-02
         0.36502E-02
         0.42679E-02
         0.32071E-02
         0.29727E-02
         0.34648E-02
         0.32622E-02
         0.37119E-02
         0.32071E-02
         0.30833E-02
         0.35193E-02
         0.26910E-02
         0.26910E-02
         0.24638E-02
         0.27644E-02
         0.42679E-02
         0.35193E-02
         0.42679E-02
         0.34670E-02
         0.27274E-02
         0.31802E-02
         0.32407E-02
         0.26968E-02
         0.27828E-02
         0.27828E-02
         0.27005E-02
         0.31885E-02
         0.31885E-02
         0.37119E-02
         0.36244E-02
         0.28250E-02
         0.31647E-02
         0.33484E-02
         0.33484E-02
         0.31986E-02
         0.29848E-02
         0.32841E-02
         0.27274E-02
         0.31099E-02
         0.31802E-02
         0.32407E-02
         0.32407E-02
         0.29952E-02
         0.27191E-02
         0.26968E-02
         0.27828E-02
         0.27828E-02
         0.27005E-02
         0.31885E-02
         0.31885E-02
         0.32622E-02
         0.34648E-02
         0.37119E-02
         0.37119E-02
         0.36244E-02
         0.28250E-02
         0.29106E-02
         0.32401E-02
         0.32401E-02
         0.31986E-02
         0.29848E-02
         0.32841E-02
         0.32841E-02
         0.42421E-02
         0.35201E-02
         0.37634E-02
         0.42421E-02
         0.37634E-02
         0.37634E-02
         0.30089E-02
         0.32073E-02
         0.42421E-02
         0.32073E-02
         0.24177E-02
         0.29961E-02
         0.32418E-02
         0.26584E-02
         0.27191E-02
         0.42670E-02
         0.36493E-02
         0.42670E-02
         0.32073E-02
         0.29714E-02
         0.34644E-02
         0.32623E-02
         0.37115E-02
         0.32073E-02
         0.30822E-02
         0.35195E-02
         0.26896E-02
         0.26896E-02
         0.24633E-02
         0.27638E-02
         0.42670E-02
         0.35195E-02
         0.42670E-02
         0.34681E-02
         0.27275E-02
         0.31805E-02
         0.32418E-02
         0.26972E-02
         0.27828E-02
         0.27828E-02
         0.27006E-02
         0.31888E-02
         0.31888E-02
         0.37115E-02
         0.36243E-02
         0.28247E-02
         0.31652E-02
         0.33483E-02
         0.33483E-02
         0.31995E-02
         0.29847E-02
         0.32839E-02
         0.27275E-02
         0.31090E-02
         0.31805E-02
         0.32418E-02
         0.32418E-02
         0.29961E-02
         0.27191E-02
         0.26972E-02
         0.27828E-02
         0.27828E-02
         0.27006E-02
         0.31888E-02
         0.31888E-02
         0.32623E-02
         0.34644E-02
         0.37115E-02
         0.37115E-02
         0.36243E-02
         0.28247E-02
         0.29116E-02
         0.32412E-02
         0.32412E-02
         0.31995E-02
         0.29847E-02
         0.32839E-02
         0.32839E-02
         0.42423E-02
         0.35200E-02
         0.37639E-02
         0.42423E-02
         0.37639E-02
         0.37639E-02
         0.30091E-02
         0.32075E-02
         0.42423E-02
         0.32075E-02
         0.24176E-02
         0.29970E-02
         0.32428E-02
         0.26572E-02
         0.27192E-02
         0.42662E-02
         0.36483E-02
         0.42662E-02
         0.32075E-02
         0.29702E-02
         0.34639E-02
         0.32624E-02
         0.37111E-02
         0.32075E-02
         0.30811E-02
         0.35197E-02
         0.26881E-02
         0.26881E-02
         0.24628E-02
         0.27631E-02
         0.42662E-02
         0.35197E-02
         0.42662E-02
         0.34692E-02
         0.27276E-02
         0.31808E-02
         0.32428E-02
         0.26975E-02
         0.27828E-02
         0.27828E-02
         0.27007E-02
         0.31890E-02
         0.31890E-02
         0.37111E-02
         0.36242E-02
         0.28243E-02
         0.31658E-02
         0.33482E-02
         0.33482E-02
         0.32003E-02
         0.29846E-02
         0.32837E-02
         0.27276E-02
         0.31081E-02
         0.31808E-02
         0.32428E-02
         0.32428E-02
         0.29970E-02
         0.27192E-02
         0.26975E-02
         0.27828E-02
         0.27828E-02
         0.27007E-02
         0.31890E-02
         0.31890E-02
         0.32624E-02
         0.34639E-02
         0.37111E-02
         0.37111E-02
         0.36242E-02
         0.28243E-02
         0.29125E-02
         0.32423E-02
         0.32423E-02
         0.32003E-02
         0.29846E-02
         0.32837E-02
         0.32837E-02
         0.42424E-02
         0.35200E-02
         0.37644E-02
         0.42424E-02
         0.37644E-02
         0.37644E-02
         0.30093E-02
         0.32077E-02
         0.42424E-02
         0.32077E-02
         0.24174E-02
         0.29979E-02
         0.32439E-02
         0.26559E-02
         0.27192E-02
         0.42653E-02
         0.36474E-02
         0.42653E-02
         0.32077E-02
         0.29690E-02
         0.34635E-02
         0.32624E-02
         0.37108E-02
         0.32077E-02
         0.30799E-02
         0.35199E-02
         0.26867E-02
         0.26867E-02
         0.24623E-02
         0.27625E-02
         0.42653E-02
         0.35199E-02
         0.42653E-02
         0.34703E-02
         0.27276E-02
         0.31812E-02
         0.32439E-02
         0.26979E-02
         0.27828E-02
         0.27828E-02
         0.27008E-02
         0.31893E-02
         0.31893E-02
         0.37108E-02
         0.36241E-02
         0.28240E-02
         0.31663E-02
         0.33481E-02
         0.33481E-02
         0.32012E-02
         0.29844E-02
         0.32835E-02
         0.27276E-02
         0.31071E-02
         0.31812E-02
         0.32439E-02
         0.32439E-02
         0.29979E-02
         0.27192E-02
         0.26979E-02
         0.27828E-02
         0.27828E-02
         0.27008E-02
         0.31893E-02
         0.31893E-02
         0.32624E-02
         0.34635E-02
         0.37108E-02
         0.37108E-02
         0.36241E-02
         0.28240E-02
         0.29135E-02
         0.32434E-02
         0.32434E-02
         0.32012E-02
         0.29844E-02
         0.32835E-02
         0.32835E-02
         0.42425E-02
         0.35200E-02
         0.37649E-02
         0.42425E-02
         0.37649E-02
         0.37649E-02
         0.30095E-02
         0.32079E-02
         0.42425E-02
         0.32079E-02
         0.24173E-02
         0.29989E-02
         0.32450E-02
         0.26547E-02
         0.27193E-02
         0.42645E-02
         0.36465E-02
         0.42645E-02
         0.32079E-02
         0.29677E-02
         0.34631E-02
         0.32625E-02
         0.37104E-02
         0.32079E-02
         0.30788E-02
         0.35201E-02
         0.26852E-02
         0.26852E-02
         0.24618E-02
         0.27618E-02
         0.42645E-02
         0.35201E-02
         0.42645E-02
         0.34715E-02
         0.27277E-02
         0.31815E-02
         0.32450E-02
         0.26983E-02
         0.27828E-02
         0.27828E-02
         0.27009E-02
         0.31895E-02
         0.31895E-02
         0.37104E-02
         0.36239E-02
         0.28237E-02
         0.31668E-02
         0.33480E-02
         0.33480E-02
         0.32020E-02
         0.29843E-02
         0.32833E-02
         0.27277E-02
         0.31062E-02
         0.31815E-02
         0.32450E-02
         0.32450E-02
         0.29989E-02
         0.27193E-02
         0.26983E-02
         0.27828E-02
         0.27828E-02
         0.27009E-02
         0.31895E-02
         0.31895E-02
         0.32625E-02
         0.34631E-02
         0.37104E-02
         0.37104E-02
         0.36239E-02
         0.28237E-02
         0.29145E-02
         0.32445E-02
         0.32445E-02
         0.32020E-02
         0.29843E-02
         0.32833E-02
         0.32833E-02
         0.42427E-02
         0.35200E-02
         0.37654E-02
         0.42427E-02
         0.37654E-02
         0.37654E-02
         0.30097E-02
         0.32081E-02
         0.42427E-02
         0.32081E-02
         0.24171E-02
         0.29998E-02
         0.32461E-02
         0.26535E-02
         0.27193E-02
         0.42636E-02
         0.36455E-02
         0.42636E-02
         0.32081E-02
         0.29665E-02
         0.34626E-02
         0.32626E-02
         0.37100E-02
         0.32081E-02
         0.30777E-02
         0.35203E-02
         0.26838E-02
         0.26838E-02
         0.24613E-02
         0.27611E-02
         0.42636E-02
         0.35203E-02
         0.42636E-02
         0.34726E-02
         0.27278E-02
         0.31818E-02
         0.32461E-02
         0.26987E-02
         0.27827E-02
         0.27827E-02
         0.27010E-02
         0.31898E-02
         0.31898E-02
         0.37100E-02
         0.36238E-02
         0.28234E-02
         0.31673E-02
         0.33479E-02
         0.33479E-02
         0.32029E-02
         0.29842E-02
         0.32831E-02
         0.27278E-02
         0.31052E-02
         0.31818E-02
         0.32461E-02
         0.32461E-02
         0.29998E-02
         0.27193E-02
         0.26987E-02
         0.27827E-02
         0.27827E-02
         0.27010E-02
         0.31898E-02
         0.31898E-02
         0.32626E-02
         0.34626E-02
         0.37100E-02
         0.37100E-02
         0.36238E-02
         0.28234E-02
         0.29154E-02
         0.32457E-02
         0.32457E-02
         0.32029E-02
         0.29842E-02
         0.32831E-02
         0.32831E-02
         0.42428E-02
         0.35199E-02
         0.37660E-02
         0.42428E-02
         0.37660E-02
         0.37660E-02
         0.30099E-02
         0.32083E-02
         0.42428E-02
         0.32083E-02
         0.24170E-02
         0.30007E-02
         0.32471E-02
         0.26523E-02
         0.27194E-02
         0.42628E-02
         0.36446E-02
         0.42628E-02
         0.32083E-02
         0.29652E-02
         0.34622E-02
         0.32627E-02
         0.37096E-02
         0.32083E-02
         0.30766E-02
         0.35205E-02
         0.26823E-02
         0.26823E-02
         0.24608E-02
         0.27605E-02
         0.42628E-02
         0.35205E-02
         0.42628E-02
         0.34737E-02
         0.27279E-02
         0.31821E-02
         0.32471E-02
         0.26991E-02
         0.27827E-02
         0.27827E-02
         0.27011E-02
         0.31900E-02
         0.31900E-02
         0.37096E-02
         0.36237E-02
         0.28231E-02
         0.31679E-02
         0.33478E-02
         0.33478E-02
         0.32038E-02
         0.29841E-02
         0.32829E-02
         0.27279E-02
         0.31043E-02
         0.31821E-02
         0.32471E-02
         0.32471E-02
         0.30007E-02
         0.27194E-02
         0.26991E-02
         0.27827E-02
         0.27827E-02
         0.27011E-02
         0.31900E-02
         0.31900E-02
         0.32627E-02
         0.34622E-02
         0.37096E-02
         0.37096E-02
         0.36237E-02
         0.28231E-02
         0.29164E-02
         0.32468E-02
         0.32468E-02
         0.32038E-02
         0.29841E-02
         0.32829E-02
         0.32829E-02
         0.42429E-02
         0.35199E-02
         0.37665E-02
         0.42429E-02
         0.37665E-02
         0.37665E-02
         0.30101E-02
         0.32085E-02
         0.42429E-02
         0.32085E-02
         0.24168E-02
         0.30017E-02
         0.32482E-02
         0.26510E-02
         0.27194E-02
         0.42619E-02
         0.36437E-02
         0.42619E-02
         0.32085E-02
         0.29640E-02
         0.34618E-02
         0.32627E-02
         0.37092E-02
         0.32085E-02
         0.30755E-02
         0.35207E-02
         0.26808E-02
         0.26808E-02
         0.24603E-02
         0.27599E-02
         0.42619E-02
         0.35207E-02
         0.42619E-02
         0.34748E-02
         0.27279E-02
         0.31824E-02
         0.32482E-02
         0.26994E-02
         0.27827E-02
         0.27827E-02
         0.27012E-02
         0.31902E-02
         0.31902E-02
         0.37092E-02
         0.36236E-02
         0.28227E-02
         0.31684E-02
         0.33477E-02
         0.33477E-02
         0.32046E-02
         0.29840E-02
         0.32827E-02
         0.27279E-02
         0.31034E-02
         0.31824E-02
         0.32482E-02
         0.32482E-02
         0.30017E-02
         0.27194E-02
         0.26994E-02
         0.27827E-02
         0.27827E-02
         0.27012E-02
         0.31902E-02
         0.31902E-02
         0.32627E-02
         0.34618E-02
         0.37092E-02
         0.37092E-02
         0.36236E-02
         0.28227E-02
         0.29173E-02
         0.32479E-02
         0.32479E-02
         0.32046E-02
         0.29840E-02
         0.32827E-02
         0.32827E-02
         0.42431E-02
         0.35199E-02
         0.37670E-02
         0.42431E-02
         0.37670E-02
         0.37670E-02
         0.30102E-02
         0.32087E-02
         0.42431E-02
         0.32087E-02
         0.24167E-02
         0.30026E-02
         0.32493E-02
         0.26498E-02
         0.27194E-02
         0.42611E-02
         0.36427E-02
         0.42611E-02
         0.32087E-02
         0.29628E-02
         0.34613E-02
         0.32628E-02
         0.37089E-02
         0.32087E-02
         0.30744E-02
         0.35209E-02
         0.26794E-02
         0.26794E-02
         0.24598E-02
         0.27592E-02
         0.42611E-02
         0.35209E-02
         0.42611E-02
         0.34759E-02
         0.27280E-02
         0.31827E-02
         0.32493E-02
         0.26998E-02
         0.27827E-02
         0.27827E-02
         0.27013E-02
         0.31905E-02
         0.31905E-02
         0.37089E-02
         0.36235E-02
         0.28224E-02
         0.31689E-02
         0.33476E-02
         0.33476E-02
         0.32055E-02
         0.29839E-02
         0.32825E-02
         0.27280E-02
         0.31024E-02
         0.31827E-02
         0.32493E-02
         0.32493E-02
         0.30026E-02
         0.27194E-02
         0.26998E-02
         0.27827E-02
         0.27827E-02
         0.27013E-02
         0.31905E-02
         0.31905E-02
         0.32628E-02
         0.34613E-02
         0.37089E-02
         0.37089E-02
         0.36235E-02
         0.28224E-02
         0.29183E-02
         0.32490E-02
         0.32490E-02
         0.32055E-02
         0.29839E-02
         0.32825E-02
         0.32825E-02
         0.42432E-02
         0.35199E-02
         0.37675E-02
         0.42432E-02
         0.37675E-02
         0.37675E-02
         0.30104E-02
         0.32089E-02
         0.42432E-02
         0.32089E-02
         0.24166E-02
         0.30035E-02
         0.32504E-02
         0.26486E-02
         0.27195E-02
         0.42603E-02
         0.36418E-02
         0.42603E-02
         0.32089E-02
         0.29615E-02
         0.34609E-02
         0.32629E-02
         0.37085E-02
         0.32089E-02
         0.30732E-02
         0.35211E-02
         0.26779E-02
         0.26779E-02
         0.24593E-02
         0.27585E-02
         0.42603E-02
         0.35211E-02
         0.42603E-02
         0.34771E-02
         0.27281E-02
         0.31830E-02
         0.32504E-02
         0.27002E-02
         0.27827E-02
         0.27827E-02
         0.27014E-02
         0.31907E-02
         0.31907E-02
         0.37085E-02
         0.36233E-02
         0.28221E-02
         0.31694E-02
         0.33475E-02
         0.33475E-02
         0.32063E-02
         0.29838E-02
         0.32823E-02
         0.27281E-02
         0.31015E-02
         0.31830E-02
         0.32504E-02
         0.32504E-02
         0.30035E-02
         0.27195E-02
         0.27002E-02
         0.27827E-02
         0.27827E-02
         0.27014E-02
         0.31907E-02
         0.31907E-02
         0.32629E-02
         0.34609E-02
         0.37085E-02
         0.37085E-02
         0.36233E-02
         0.28221E-02
         0.29193E-02
         0.32501E-02
         0.32501E-02
         0.32063E-02
         0.29838E-02
         0.32823E-02
         0.32823E-02
         0.42433E-02
         0.35199E-02
         0.37680E-02
         0.42433E-02
         0.37680E-02
         0.37680E-02
         0.30106E-02
         0.32091E-02
         0.42433E-02
         0.32091E-02
         0.24164E-02
         0.30045E-02
         0.32514E-02
         0.26474E-02
         0.27195E-02
         0.42594E-02
         0.36409E-02
         0.42594E-02
         0.32091E-02
         0.29603E-02
         0.34605E-02
         0.32630E-02
         0.37081E-02
         0.32091E-02
         0.30721E-02
         0.35213E-02
         0.26765E-02
         0.26765E-02
         0.24588E-02
         0.27579E-02
         0.42594E-02
         0.35213E-02
         0.42594E-02
         0.34782E-02
         0.27281E-02
         0.31833E-02
         0.32514E-02
         0.27006E-02
         0.27826E-02
         0.27826E-02
         0.27015E-02
         0.31910E-02
         0.31910E-02
         0.37081E-02
         0.36232E-02
         0.28218E-02
         0.31700E-02
         0.33474E-02
         0.33474E-02
         0.32072E-02
         0.29836E-02
         0.32821E-02
         0.27281E-02
         0.31005E-02
         0.31833E-02
         0.32514E-02
         0.32514E-02
         0.30045E-02
         0.27195E-02
         0.27006E-02
         0.27826E-02
         0.27826E-02
         0.27015E-02
         0.31910E-02
         0.31910E-02
         0.32630E-02
         0.34605E-02
         0.37081E-02
         0.37081E-02
         0.36232E-02
         0.28218E-02
         0.29202E-02
         0.32512E-02
         0.32512E-02
         0.32072E-02
         0.29836E-02
         0.32821E-02
         0.32821E-02
         0.42435E-02
         0.35199E-02
         0.37685E-02
         0.42435E-02
         0.37685E-02
         0.37685E-02
         0.30108E-02
         0.32093E-02
         0.42435E-02
         0.32093E-02
         0.24163E-02
         0.30054E-02
         0.32525E-02
         0.26461E-02
         0.27196E-02
         0.42586E-02
         0.36399E-02
         0.42586E-02
         0.32093E-02
         0.29591E-02
         0.34601E-02
         0.32630E-02
         0.37077E-02
         0.32093E-02
         0.30710E-02
         0.35215E-02
         0.26750E-02
         0.26750E-02
         0.24583E-02
         0.27572E-02
         0.42586E-02
         0.35215E-02
         0.42586E-02
         0.34793E-02
         0.27282E-02
         0.31836E-02
         0.32525E-02
         0.27010E-02
         0.27826E-02
         0.27826E-02
         0.27016E-02
         0.31912E-02
         0.31912E-02
         0.37077E-02
         0.36231E-02
         0.28215E-02
         0.31705E-02
         0.33473E-02
         0.33473E-02
         0.32080E-02
         0.29835E-02
         0.32819E-02
         0.27282E-02
         0.30996E-02
         0.31836E-02
         0.32525E-02
         0.32525E-02
         0.30054E-02
         0.27196E-02
         0.27010E-02
         0.27826E-02
         0.27826E-02
         0.27016E-02
         0.31912E-02
         0.31912E-02
         0.32630E-02
         0.34601E-02
         0.37077E-02
         0.37077E-02
         0.36231E-02
         0.28215E-02
         0.29212E-02
         0.32524E-02
         0.32524E-02
         0.32080E-02
         0.29835E-02
         0.32819E-02
         0.32819E-02
         0.42436E-02
         0.35198E-02
         0.37690E-02
         0.42436E-02
         0.37690E-02
         0.37690E-02
         0.30110E-02
         0.32095E-02
         0.42436E-02
         0.32095E-02
         0.24162E-02
         0.30064E-02
         0.32536E-02
         0.26449E-02
         0.27196E-02
         0.42577E-02
         0.36390E-02
         0.42577E-02
         0.32096E-02
         0.29578E-02
         0.34596E-02
         0.32631E-02
         0.37074E-02
         0.32096E-02
         0.30699E-02
         0.35217E-02
         0.26735E-02
         0.26735E-02
         0.24578E-02
         0.27566E-02
         0.42577E-02
         0.35217E-02
         0.42577E-02
         0.34804E-02
         0.27283E-02
         0.31839E-02
         0.32536E-02
         0.27013E-02
         0.27826E-02
         0.27826E-02
         0.27017E-02
         0.31915E-02
         0.31915E-02
         0.37074E-02
         0.36230E-02
         0.28211E-02
         0.31710E-02
         0.33472E-02
         0.33472E-02
         0.32089E-02
         0.29834E-02
         0.32817E-02
         0.27283E-02
         0.30986E-02
         0.31839E-02
         0.32536E-02
         0.32536E-02
         0.30064E-02
         0.27196E-02
         0.27013E-02
         0.27826E-02
         0.27826E-02
         0.27017E-02
         0.31915E-02
         0.31915E-02
         0.32631E-02
         0.34596E-02
         0.37074E-02
         0.37074E-02
         0.36230E-02
         0.28211E-02
         0.29221E-02
         0.32535E-02
         0.32535E-02
         0.32089E-02
         0.29834E-02
         0.32817E-02
         0.32817E-02
         0.42437E-02
         0.35198E-02
         0.37695E-02
         0.42437E-02
         0.37695E-02
         0.37695E-02
         0.30112E-02
         0.32097E-02
         0.42437E-02
         0.32097E-02
         0.24160E-02
         0.30073E-02
         0.32547E-02
         0.26437E-02
         0.27197E-02
         0.42569E-02
         0.36381E-02
         0.42569E-02
         0.32098E-02
         0.29566E-02
         0.34592E-02
         0.32632E-02
         0.37070E-02
         0.32098E-02
         0.30688E-02
         0.35219E-02
         0.26721E-02
         0.26721E-02
         0.24573E-02
         0.27560E-02
         0.42569E-02
         0.35219E-02
         0.42569E-02
         0.34815E-02
         0.27284E-02
         0.31843E-02
         0.32547E-02
         0.27017E-02
         0.27826E-02
         0.27826E-02
         0.27018E-02
         0.31917E-02
         0.31917E-02
         0.37070E-02
         0.36229E-02
         0.28208E-02
         0.31716E-02
         0.33471E-02
         0.33471E-02
         0.32097E-02
         0.29833E-02
         0.32815E-02
         0.27284E-02
         0.30977E-02
         0.31843E-02
         0.32547E-02
         0.32547E-02
         0.30073E-02
         0.27197E-02
         0.27017E-02
         0.27826E-02
         0.27826E-02
         0.27018E-02
         0.31917E-02
         0.31917E-02
         0.32632E-02
         0.34592E-02
         0.37070E-02
         0.37070E-02
         0.36229E-02
         0.28208E-02
         0.29231E-02
         0.32546E-02
         0.32546E-02
         0.32097E-02
         0.29833E-02
         0.32815E-02
         0.32815E-02
         0.42439E-02
         0.35198E-02
         0.37701E-02
         0.42439E-02
         0.37701E-02
         0.37701E-02
         0.30113E-02
         0.32099E-02
         0.42439E-02
         0.32099E-02
         0.24159E-02
         0.30082E-02
         0.32558E-02
         0.26425E-02
         0.27197E-02
         0.42560E-02
         0.36371E-02
         0.42560E-02
         0.32100E-02
         0.29554E-02
         0.34588E-02
         0.32633E-02
         0.37066E-02
         0.32100E-02
         0.30677E-02
         0.35221E-02
         0.26706E-02
         0.26706E-02
         0.24568E-02
         0.27553E-02
         0.42560E-02
         0.35221E-02
         0.42560E-02
         0.34827E-02
         0.27284E-02
         0.31846E-02
         0.32558E-02
         0.27021E-02
         0.27826E-02
         0.27826E-02
         0.27019E-02
         0.31920E-02
         0.31920E-02
         0.37066E-02
         0.36227E-02
         0.28205E-02
         0.31721E-02
         0.33470E-02
         0.33470E-02
         0.32106E-02
         0.29831E-02
         0.32813E-02
         0.27284E-02
         0.30968E-02
         0.31846E-02
         0.32558E-02
         0.32558E-02
         0.30082E-02
         0.27197E-02
         0.27021E-02
         0.27826E-02
         0.27826E-02
         0.27019E-02
         0.31920E-02
         0.31920E-02
         0.32633E-02
         0.34588E-02
         0.37066E-02
         0.37066E-02
         0.36227E-02
         0.28205E-02
         0.29241E-02
         0.32557E-02
         0.32557E-02
         0.32106E-02
         0.29831E-02
         0.32813E-02
         0.32813E-02
         0.42440E-02
         0.35198E-02
         0.37706E-02
         0.42440E-02
         0.37706E-02
         0.37706E-02
         0.30115E-02
         0.32101E-02
         0.42440E-02
         0.32101E-02
         0.24158E-02
         0.30091E-02
         0.32568E-02
         0.26412E-02
         0.27198E-02
         0.42552E-02
         0.36362E-02
         0.42552E-02
         0.32102E-02
         0.29541E-02
         0.34583E-02
         0.32633E-02
         0.37062E-02
         0.32102E-02
         0.30665E-02
         0.35223E-02
         0.26692E-02
         0.26692E-02
         0.24563E-02
         0.27546E-02
         0.42552E-02
         0.35223E-02
         0.42552E-02
         0.34838E-02
         0.27285E-02
         0.31849E-02
         0.32568E-02
         0.27025E-02
         0.27826E-02
         0.27826E-02
         0.27020E-02
         0.31922E-02
         0.31922E-02
         0.37062E-02
         0.36226E-02
         0.28202E-02
         0.31726E-02
         0.33469E-02
         0.33469E-02
         0.32114E-02
         0.29830E-02
         0.32811E-02
         0.27285E-02
         0.30958E-02
         0.31849E-02
         0.32568E-02
         0.32568E-02
         0.30091E-02
         0.27198E-02
         0.27025E-02
         0.27826E-02
         0.27826E-02
         0.27020E-02
         0.31922E-02
         0.31922E-02
         0.32633E-02
         0.34583E-02
         0.37062E-02
         0.37062E-02
         0.36226E-02
         0.28202E-02
         0.29250E-02
         0.32568E-02
         0.32568E-02
         0.32114E-02
         0.29830E-02
         0.32811E-02
         0.32811E-02
         0.42441E-02
         0.35198E-02
         0.37711E-02
         0.42441E-02
         0.37711E-02
         0.37711E-02
         0.30117E-02
         0.32103E-02
         0.42441E-02
         0.32103E-02
         0.24156E-02
         0.30101E-02
         0.32579E-02
         0.26400E-02
         0.27198E-02
         0.42543E-02
         0.36353E-02
         0.42543E-02
         0.32104E-02
         0.29529E-02
         0.34579E-02
         0.32634E-02
         0.37058E-02
         0.32104E-02
         0.30654E-02
         0.35225E-02
         0.26677E-02
         0.26677E-02
         0.24558E-02
         0.27540E-02
         0.42543E-02
         0.35225E-02
         0.42543E-02
         0.34849E-02
         0.27286E-02
         0.31852E-02
         0.32579E-02
         0.27029E-02
         0.27826E-02
         0.27826E-02
         0.27021E-02
         0.31924E-02
         0.31924E-02
         0.37058E-02
         0.36225E-02
         0.28198E-02
         0.31731E-02
         0.33468E-02
         0.33468E-02
         0.32123E-02
         0.29829E-02
         0.32809E-02
         0.27286E-02
         0.30949E-02
         0.31852E-02
         0.32579E-02
         0.32579E-02
         0.30101E-02
         0.27198E-02
         0.27029E-02
         0.27826E-02
         0.27826E-02
         0.27021E-02
         0.31924E-02
         0.31924E-02
         0.32634E-02
         0.34579E-02
         0.37058E-02
         0.37058E-02
         0.36225E-02
         0.28198E-02
         0.29260E-02
         0.32579E-02
         0.32579E-02
         0.32123E-02
         0.29829E-02
         0.32809E-02
         0.32809E-02
         0.42443E-02
         0.35197E-02
         0.37716E-02
         0.42443E-02
         0.37716E-02
         0.37716E-02
         0.30119E-02
         0.32105E-02
         0.42443E-02
         0.32105E-02
         0.24155E-02
         0.30110E-02
         0.32590E-02
         0.26388E-02
         0.27199E-02
         0.42535E-02
         0.36343E-02
         0.42535E-02
         0.32106E-02
         0.29517E-02
         0.34575E-02
         0.32635E-02
         0.37055E-02
         0.32106E-02
         0.30643E-02
         0.35227E-02
         0.26663E-02
         0.26663E-02
         0.24553E-02
         0.27533E-02
         0.42535E-02
         0.35227E-02
         0.42535E-02
         0.34860E-02
         0.27286E-02
         0.31855E-02
         0.32590E-02
         0.27032E-02
         0.27826E-02
         0.27826E-02
         0.27022E-02
         0.31927E-02
         0.31927E-02
         0.37055E-02
         0.36224E-02
         0.28195E-02
         0.31737E-02
         0.33467E-02
         0.33467E-02
         0.32132E-02
         0.29828E-02
         0.32807E-02
         0.27286E-02
         0.30939E-02
         0.31855E-02
         0.32590E-02
         0.32590E-02
         0.30110E-02
         0.27199E-02
         0.27032E-02
         0.27826E-02
         0.27826E-02
         0.27022E-02
         0.31927E-02
         0.31927E-02
         0.32635E-02
         0.34575E-02
         0.37055E-02
         0.37055E-02
         0.36224E-02
         0.28195E-02
         0.29269E-02
         0.32591E-02
         0.32591E-02
         0.32132E-02
         0.29828E-02
         0.32807E-02
         0.32807E-02
         0.42444E-02
         0.35197E-02
         0.37721E-02
         0.42444E-02
         0.37721E-02
         0.37721E-02
         0.30121E-02
         0.32107E-02
         0.42444E-02
         0.32107E-02
         0.24154E-02
         0.30119E-02
         0.32601E-02
         0.26376E-02
         0.27199E-02
         0.42527E-02
         0.36334E-02
         0.42527E-02
         0.32108E-02
         0.29504E-02
         0.34571E-02
         0.32636E-02
         0.37051E-02
         0.32108E-02
         0.30632E-02
         0.35229E-02
         0.26648E-02
         0.26648E-02
         0.24552E-02
         0.27527E-02
         0.42527E-02
         0.35229E-02
         0.42527E-02
         0.34871E-02
         0.27287E-02
         0.31858E-02
         0.32601E-02
         0.27036E-02
         0.27825E-02
         0.27825E-02
         0.27023E-02
         0.31929E-02
         0.31929E-02
         0.37051E-02
         0.36223E-02
         0.28192E-02
         0.31742E-02
         0.33466E-02
         0.33466E-02
         0.32140E-02
         0.29827E-02
         0.32805E-02
         0.27287E-02
         0.30930E-02
         0.31858E-02
         0.32601E-02
         0.32601E-02
         0.30119E-02
         0.27199E-02
         0.27036E-02
         0.27825E-02
         0.27825E-02
         0.27023E-02
         0.31929E-02
         0.31929E-02
         0.32636E-02
         0.34571E-02
         0.37051E-02
         0.37051E-02
         0.36223E-02
         0.28192E-02
         0.29279E-02
         0.32602E-02
         0.32602E-02
         0.32140E-02
         0.29827E-02
         0.32805E-02
         0.32805E-02
         0.42445E-02
         0.35197E-02
         0.37726E-02
         0.42445E-02
         0.37726E-02
         0.37726E-02
         0.30123E-02
         0.32108E-02
         0.42445E-02
         0.32108E-02
         0.24152E-02
         0.30129E-02
         0.32611E-02
         0.26363E-02
         0.27200E-02
         0.42518E-02
         0.36325E-02
         0.42518E-02
         0.32110E-02
         0.29492E-02
         0.34566E-02
         0.32636E-02
         0.37047E-02
         0.32110E-02
         0.30621E-02
         0.35231E-02
         0.26633E-02
         0.26633E-02
         0.24554E-02
         0.27520E-02
         0.42518E-02
         0.35231E-02
         0.42518E-02
         0.34882E-02
         0.27288E-02
         0.31861E-02
         0.32611E-02
         0.27040E-02
         0.27825E-02
         0.27825E-02
         0.27024E-02
         0.31932E-02
         0.31932E-02
         0.37047E-02
         0.36222E-02
         0.28189E-02
         0.31747E-02
         0.33465E-02
         0.33465E-02
         0.32149E-02
         0.29826E-02
         0.32803E-02
         0.27288E-02
         0.30921E-02
         0.31861E-02
         0.32611E-02
         0.32611E-02
         0.30129E-02
         0.27200E-02
         0.27040E-02
         0.27825E-02
         0.27825E-02
         0.27024E-02
         0.31932E-02
         0.31932E-02
         0.32636E-02
         0.34566E-02
         0.37047E-02
         0.37047E-02
         0.36222E-02
         0.28189E-02
         0.29289E-02
         0.32613E-02
         0.32613E-02
         0.32149E-02
         0.29826E-02
         0.32803E-02
         0.32803E-02
         0.42447E-02
         0.35196E-02
         0.37732E-02
         0.42447E-02
         0.37732E-02
         0.37732E-02
         0.30125E-02
         0.32111E-02
         0.42447E-02
         0.32111E-02
         0.24151E-02
         0.30138E-02
         0.32622E-02
         0.26351E-02
         0.27200E-02
         0.42510E-02
         0.36315E-02
         0.42510E-02
         0.32112E-02
         0.29480E-02
         0.34562E-02
         0.32637E-02
         0.37043E-02
         0.32112E-02
         0.30610E-02
         0.35233E-02
         0.26619E-02
         0.26619E-02
         0.24557E-02
         0.27514E-02
         0.42510E-02
         0.35233E-02
         0.42510E-02
         0.34894E-02
         0.27289E-02
         0.31864E-02
         0.32622E-02
         0.27044E-02
         0.27825E-02
         0.27825E-02
         0.27025E-02
         0.31934E-02
         0.31934E-02
         0.37043E-02
         0.36220E-02
         0.28186E-02
         0.31753E-02
         0.33464E-02
         0.33464E-02
         0.32157E-02
         0.29824E-02
         0.32801E-02
         0.27289E-02
         0.30911E-02
         0.31864E-02
         0.32622E-02
         0.32622E-02
         0.30138E-02
         0.27200E-02
         0.27044E-02
         0.27825E-02
         0.27825E-02
         0.27025E-02
         0.31934E-02
         0.31934E-02
         0.32637E-02
         0.34562E-02
         0.37043E-02
         0.37043E-02
         0.36220E-02
         0.28186E-02
         0.29298E-02
         0.32624E-02
         0.32624E-02
         0.32157E-02
         0.29824E-02
         0.32801E-02
         0.32801E-02
         0.42448E-02
         0.35196E-02
         0.37737E-02
         0.42448E-02
         0.37737E-02
         0.37737E-02
         0.30126E-02
         0.32112E-02
         0.42448E-02
         0.32112E-02
         0.24150E-02
         0.30147E-02
         0.32633E-02
         0.26339E-02
         0.27200E-02
         0.42501E-02
         0.36306E-02
         0.42501E-02
         0.32114E-02
         0.29467E-02
         0.34558E-02
         0.32638E-02
         0.37039E-02
         0.32114E-02
         0.30598E-02
         0.35235E-02
         0.26604E-02
         0.26604E-02
         0.24559E-02
         0.27507E-02
         0.42501E-02
         0.35235E-02
         0.42501E-02
         0.34905E-02
         0.27289E-02
         0.31867E-02
         0.32633E-02
         0.27048E-02
         0.27825E-02
         0.27825E-02
         0.27026E-02
         0.31937E-02
         0.31937E-02
         0.37039E-02
         0.36219E-02
         0.28183E-02
         0.31758E-02
         0.33463E-02
         0.33463E-02
         0.32166E-02
         0.29823E-02
         0.32799E-02
         0.27289E-02
         0.30902E-02
         0.31867E-02
         0.32633E-02
         0.32633E-02
         0.30147E-02
         0.27200E-02
         0.27048E-02
         0.27825E-02
         0.27825E-02
         0.27026E-02
         0.31937E-02
         0.31937E-02
         0.32638E-02
         0.34558E-02
         0.37039E-02
         0.37039E-02
         0.36219E-02
         0.28183E-02
         0.29308E-02
         0.32635E-02
         0.32635E-02
         0.32166E-02
         0.29823E-02
         0.32799E-02
         0.32799E-02
         0.42448E-02
         0.35196E-02
         0.37737E-02
         0.42448E-02
         0.37737E-02
         0.37737E-02
         0.30126E-02
         0.32112E-02
         0.42448E-02
         0.32112E-02
         0.24148E-02
         0.30147E-02
         0.32633E-02
         0.26327E-02
         0.27200E-02
         0.42493E-02
         0.36297E-02
         0.42493E-02
         0.32114E-02
         0.29455E-02
         0.34553E-02
         0.32638E-02
         0.37036E-02
         0.32114E-02
         0.30587E-02
         0.35235E-02
         0.26590E-02
         0.26590E-02
         0.24559E-02
         0.27501E-02
         0.42493E-02
         0.35235E-02
         0.42493E-02
         0.34905E-02
         0.27289E-02
         0.31867E-02
         0.32633E-02
         0.27048E-02
         0.27825E-02
         0.27825E-02
         0.27026E-02
         0.31937E-02
         0.31937E-02
         0.37036E-02
         0.36218E-02
         0.28180E-02
         0.31758E-02
         0.33462E-02
         0.33462E-02
         0.32166E-02
         0.29822E-02
         0.32797E-02
         0.27289E-02
         0.30892E-02
         0.31867E-02
         0.32633E-02
         0.32633E-02
         0.30147E-02
         0.27200E-02
         0.27048E-02
         0.27825E-02
         0.27825E-02
         0.27026E-02
         0.31937E-02
         0.31937E-02
         0.32638E-02
         0.34553E-02
         0.37036E-02
         0.37036E-02
         0.36218E-02
         0.28180E-02
         0.29308E-02
         0.32635E-02
         0.32635E-02
         0.32166E-02
         0.29822E-02
         0.32797E-02
         0.32797E-02
  
SCALARS              physical_window_y  double 1
LOOKUP_TABLE default
         0.43155E-02
         0.43155E-02
         0.43155E-02
         0.43155E-02
         0.43155E-02
         0.43155E-02
         0.43155E-02
         0.43155E-02
         0.34883E-02
         0.34883E-02
         0.34882E-02
         0.34882E-02
         0.32826E-02
         0.32142E-02
         0.32826E-02
         0.32142E-02
         0.37863E-02
         0.31884E-02
         0.37863E-02
         0.31884E-02
         0.27172E-02
         0.33887E-02
         0.37164E-02
         0.27172E-02
         0.33887E-02
         0.37164E-02
         0.27582E-02
         0.28966E-02
         0.27582E-02
         0.28954E-02
         0.37007E-02
         0.35859E-02
         0.37863E-02
         0.37007E-02
         0.35824E-02
         0.37863E-02
         0.29875E-02
         0.29875E-02
         0.29867E-02
         0.29867E-02
         0.28561E-02
         0.26860E-02
         0.28556E-02
         0.26852E-02
         0.29518E-02
         0.28068E-02
         0.29517E-02
         0.28066E-02
         0.29975E-02
         0.29949E-02
         0.37007E-02
         0.37007E-02
         0.28693E-02
         0.28693E-02
         0.28693E-02
         0.28693E-02
         0.27602E-02
         0.26193E-02
         0.27602E-02
         0.26193E-02
         0.37007E-02
         0.37007E-02
         0.37007E-02
         0.37007E-02
         0.37685E-02
         0.37665E-02
         0.37685E-02
         0.37665E-02
         0.30230E-02
         0.37003E-02
         0.30229E-02
         0.37003E-02
         0.37164E-02
         0.37164E-02
         0.31934E-02
         0.31921E-02
         0.32777E-02
         0.32771E-02
         0.32777E-02
         0.32771E-02
         0.27006E-02
         0.25920E-02
         0.27006E-02
         0.25920E-02
         0.25916E-02
         0.25916E-02
         0.29715E-02
         0.29715E-02
         0.29715E-02
         0.29715E-02
         0.26477E-02
         0.29102E-02
         0.26477E-02
         0.29102E-02
         0.34085E-02
         0.34085E-02
         0.35350E-02
         0.35350E-02
         0.35350E-02
         0.35350E-02
         0.29766E-02
         0.32272E-02
         0.29763E-02
         0.32254E-02
         0.29087E-02
         0.29835E-02
         0.29087E-02
         0.29825E-02
         0.37003E-02
         0.37003E-02
         0.37164E-02
         0.37164E-02
         0.37164E-02
         0.37164E-02
         0.33887E-02
         0.33887E-02
         0.28966E-02
         0.28954E-02
         0.31934E-02
         0.31921E-02
         0.32777E-02
         0.32771E-02
         0.32777E-02
         0.32771E-02
         0.27006E-02
         0.27006E-02
         0.25920E-02
         0.25920E-02
         0.25916E-02
         0.25916E-02
         0.26860E-02
         0.26852E-02
         0.28561E-02
         0.28556E-02
         0.29518E-02
         0.29517E-02
         0.29715E-02
         0.29715E-02
         0.29715E-02
         0.29715E-02
         0.26477E-02
         0.26477E-02
         0.27685E-02
         0.27685E-02
         0.34085E-02
         0.34085E-02
         0.35350E-02
         0.35350E-02
         0.35350E-02
         0.35350E-02
         0.29766E-02
         0.29763E-02
         0.31381E-02
         0.31368E-02
         0.31381E-02
         0.31368E-02
         0.43153E-02
         0.43153E-02
         0.43153E-02
         0.43153E-02
         0.34883E-02
         0.34883E-02
         0.32812E-02
         0.32132E-02
         0.37858E-02
         0.31880E-02
         0.27155E-02
         0.33883E-02
         0.37163E-02
         0.27535E-02
         0.28978E-02
         0.37004E-02
         0.35894E-02
         0.37858E-02
         0.29882E-02
         0.29882E-02
         0.28566E-02
         0.26867E-02
         0.29519E-02
         0.28071E-02
         0.30001E-02
         0.37004E-02
         0.28667E-02
         0.28667E-02
         0.27589E-02
         0.26183E-02
         0.37004E-02
         0.37004E-02
         0.37706E-02
         0.37706E-02
         0.30232E-02
         0.36991E-02
         0.37163E-02
         0.31947E-02
         0.32784E-02
         0.32784E-02
         0.27006E-02
         0.25920E-02
         0.25909E-02
         0.29715E-02
         0.29715E-02
         0.26476E-02
         0.29101E-02
         0.34078E-02
         0.35344E-02
         0.35344E-02
         0.29769E-02
         0.32290E-02
         0.29059E-02
         0.29845E-02
         0.36991E-02
         0.37163E-02
         0.37163E-02
         0.33883E-02
         0.28978E-02
         0.31947E-02
         0.32784E-02
         0.32784E-02
         0.27006E-02
         0.25920E-02
         0.25909E-02
         0.26867E-02
         0.28566E-02
         0.29519E-02
         0.29715E-02
         0.29715E-02
         0.26476E-02
         0.27685E-02
         0.34078E-02
         0.35344E-02
         0.35344E-02
         0.29769E-02
         0.31395E-02
         0.31395E-02
         0.43150E-02
         0.43150E-02
         0.43150E-02
         0.43150E-02
         0.34884E-02
         0.34884E-02
         0.32798E-02
         0.32122E-02
         0.37853E-02
         0.31876E-02
         0.27137E-02
         0.33879E-02
         0.37162E-02
         0.27488E-02
         0.28990E-02
         0.37001E-02
         0.35930E-02
         0.37853E-02
         0.29889E-02
         0.29889E-02
         0.28571E-02
         0.26875E-02
         0.29521E-02
         0.28074E-02
         0.30027E-02
         0.37001E-02
         0.28641E-02
         0.28641E-02
         0.27576E-02
         0.26173E-02
         0.37001E-02
         0.37001E-02
         0.37727E-02
         0.37727E-02
         0.30234E-02
         0.36979E-02
         0.37162E-02
         0.31960E-02
         0.32790E-02
         0.32790E-02
         0.27006E-02
         0.25920E-02
         0.25902E-02
         0.29715E-02
         0.29715E-02
         0.26476E-02
         0.29100E-02
         0.34071E-02
         0.35339E-02
         0.35339E-02
         0.29772E-02
         0.32307E-02
         0.29032E-02
         0.29855E-02
         0.36979E-02
         0.37162E-02
         0.37162E-02
         0.33879E-02
         0.28990E-02
         0.31960E-02
         0.32790E-02
         0.32790E-02
         0.27006E-02
         0.25920E-02
         0.25902E-02
         0.26875E-02
         0.28571E-02
         0.29521E-02
         0.29715E-02
         0.29715E-02
         0.26476E-02
         0.27684E-02
         0.34071E-02
         0.35339E-02
         0.35339E-02
         0.29772E-02
         0.31408E-02
         0.31408E-02
         0.43148E-02
         0.43148E-02
         0.43148E-02
         0.43148E-02
         0.34885E-02
         0.34885E-02
         0.32783E-02
         0.32112E-02
         0.37849E-02
         0.31872E-02
         0.27120E-02
         0.33875E-02
         0.37161E-02
         0.27441E-02
         0.29003E-02
         0.36998E-02
         0.35965E-02
         0.37849E-02
         0.29896E-02
         0.29896E-02
         0.28575E-02
         0.26882E-02
         0.29522E-02
         0.28077E-02
         0.30053E-02
         0.36998E-02
         0.28615E-02
         0.28615E-02
         0.27563E-02
         0.26163E-02
         0.36998E-02
         0.36998E-02
         0.37747E-02
         0.37747E-02
         0.30236E-02
         0.36967E-02
         0.37161E-02
         0.31973E-02
         0.32796E-02
         0.32796E-02
         0.27006E-02
         0.25920E-02
         0.25895E-02
         0.29714E-02
         0.29714E-02
         0.26475E-02
         0.29099E-02
         0.34063E-02
         0.35333E-02
         0.35333E-02
         0.29775E-02
         0.32325E-02
         0.29004E-02
         0.29865E-02
         0.36967E-02
         0.37161E-02
         0.37161E-02
         0.33875E-02
         0.29003E-02
         0.31973E-02
         0.32796E-02
         0.32796E-02
         0.27006E-02
         0.25920E-02
         0.25895E-02
         0.26882E-02
         0.28575E-02
         0.29522E-02
         0.29714E-02
         0.29714E-02
         0.26475E-02
         0.27684E-02
         0.34063E-02
         0.35333E-02
         0.35333E-02
         0.29775E-02
         0.31422E-02
         0.31422E-02
         0.43145E-02
         0.43145E-02
         0.43145E-02
         0.43145E-02
         0.34886E-02
         0.34886E-02
         0.32769E-02
         0.32102E-02
         0.37844E-02
         0.31868E-02
         0.27103E-02
         0.33871E-02
         0.37160E-02
         0.27394E-02
         0.29015E-02
         0.36995E-02
         0.36000E-02
         0.37844E-02
         0.29903E-02
         0.29903E-02
         0.28580E-02
         0.26890E-02
         0.29523E-02
         0.28079E-02
         0.30079E-02
         0.36995E-02
         0.28589E-02
         0.28589E-02
         0.27550E-02
         0.26152E-02
         0.36995E-02
         0.36995E-02
         0.37768E-02
         0.37768E-02
         0.30238E-02
         0.36956E-02
         0.37160E-02
         0.31986E-02
         0.32802E-02
         0.32802E-02
         0.27006E-02
         0.25920E-02
         0.25887E-02
         0.29714E-02
         0.29714E-02
         0.26475E-02
         0.29098E-02
         0.34056E-02
         0.35327E-02
         0.35327E-02
         0.29778E-02
         0.32342E-02
         0.28977E-02
         0.29875E-02
         0.36956E-02
         0.37160E-02
         0.37160E-02
         0.33871E-02
         0.29015E-02
         0.31986E-02
         0.32802E-02
         0.32802E-02
         0.27006E-02
         0.25920E-02
         0.25887E-02
         0.26890E-02
         0.28580E-02
         0.29523E-02
         0.29714E-02
         0.29714E-02
         0.26475E-02
         0.27683E-02
         0.34056E-02
         0.35327E-02
         0.35327E-02
         0.29778E-02
         0.31435E-02
         0.31435E-02
         0.43143E-02
         0.43143E-02
         0.43143E-02
         0.43143E-02
         0.34887E-02
         0.34887E-02
         0.32755E-02
         0.32091E-02
         0.37839E-02
         0.31864E-02
         0.27086E-02
         0.33867E-02
         0.37159E-02
         0.27347E-02
         0.29027E-02
         0.36991E-02
         0.36036E-02
         0.37839E-02
         0.29920E-02
         0.29920E-02
         0.28585E-02
         0.26897E-02
         0.29525E-02
         0.28082E-02
         0.30105E-02
         0.36991E-02
         0.28563E-02
         0.28563E-02
         0.27537E-02
         0.26142E-02
         0.36991E-02
         0.36991E-02
         0.37789E-02
         0.37789E-02
         0.30240E-02
         0.36944E-02
         0.37159E-02
         0.31999E-02
         0.32808E-02
         0.32808E-02
         0.27006E-02
         0.25920E-02
         0.25880E-02
         0.29714E-02
         0.29714E-02
         0.26474E-02
         0.29097E-02
         0.34049E-02
         0.35322E-02
         0.35322E-02
         0.29781E-02
         0.32360E-02
         0.28949E-02
         0.29885E-02
         0.36944E-02
         0.37159E-02
         0.37159E-02
         0.33867E-02
         0.29027E-02
         0.31999E-02
         0.32808E-02
         0.32808E-02
         0.27006E-02
         0.25920E-02
         0.25880E-02
         0.26897E-02
         0.28585E-02
         0.29525E-02
         0.29714E-02
         0.29714E-02
         0.26474E-02
         0.27683E-02
         0.34049E-02
         0.35322E-02
         0.35322E-02
         0.29781E-02
         0.31449E-02
         0.31449E-02
         0.43140E-02
         0.43140E-02
         0.43140E-02
         0.43140E-02
         0.34888E-02
         0.34888E-02
         0.32740E-02
         0.32081E-02
         0.37834E-02
         0.31860E-02
         0.27069E-02
         0.33863E-02
         0.37158E-02
         0.27299E-02
         0.29039E-02
         0.36988E-02
         0.36071E-02
         0.37834E-02
         0.29946E-02
         0.29946E-02
         0.28589E-02
         0.26905E-02
         0.29526E-02
         0.28085E-02
         0.30131E-02
         0.36988E-02
         0.28538E-02
         0.28538E-02
         0.27524E-02
         0.26132E-02
         0.36988E-02
         0.36988E-02
         0.37809E-02
         0.37809E-02
         0.30241E-02
         0.36932E-02
         0.37158E-02
         0.32012E-02
         0.32814E-02
         0.32814E-02
         0.27006E-02
         0.25920E-02
         0.25873E-02
         0.29714E-02
         0.29714E-02
         0.26473E-02
         0.29097E-02
         0.34041E-02
         0.35316E-02
         0.35316E-02
         0.29784E-02
         0.32378E-02
         0.28921E-02
         0.29895E-02
         0.36932E-02
         0.37158E-02
         0.37158E-02
         0.33863E-02
         0.29039E-02
         0.32012E-02
         0.32814E-02
         0.32814E-02
         0.27006E-02
         0.25920E-02
         0.25873E-02
         0.26905E-02
         0.28589E-02
         0.29526E-02
         0.29714E-02
         0.29714E-02
         0.26473E-02
         0.27683E-02
         0.34041E-02
         0.35316E-02
         0.35316E-02
         0.29784E-02
         0.31463E-02
         0.31463E-02
         0.43138E-02
         0.43138E-02
         0.43138E-02
         0.43138E-02
         0.34888E-02
         0.34888E-02
         0.32726E-02
         0.32071E-02
         0.37830E-02
         0.31856E-02
         0.27051E-02
         0.33859E-02
         0.37157E-02
         0.27252E-02
         0.29051E-02
         0.36985E-02
         0.36106E-02
         0.37830E-02
         0.29972E-02
         0.29972E-02
         0.28594E-02
         0.26912E-02
         0.29528E-02
         0.28087E-02
         0.30156E-02
         0.36985E-02
         0.28512E-02
         0.28512E-02
         0.27512E-02
         0.26122E-02
         0.36985E-02
         0.36985E-02
         0.37830E-02
         0.37830E-02
         0.30243E-02
         0.36920E-02
         0.37157E-02
         0.32025E-02
         0.32821E-02
         0.32821E-02
         0.27006E-02
         0.25920E-02
         0.25866E-02
         0.29714E-02
         0.29714E-02
         0.26473E-02
         0.29096E-02
         0.34034E-02
         0.35310E-02
         0.35310E-02
         0.29787E-02
         0.32396E-02
         0.28894E-02
         0.29905E-02
         0.36920E-02
         0.37157E-02
         0.37157E-02
         0.33859E-02
         0.29051E-02
         0.32025E-02
         0.32821E-02
         0.32821E-02
         0.27006E-02
         0.25920E-02
         0.25866E-02
         0.26912E-02
         0.28594E-02
         0.29528E-02
         0.29714E-02
         0.29714E-02
         0.26473E-02
         0.27682E-02
         0.34034E-02
         0.35310E-02
         0.35310E-02
         0.29787E-02
         0.31476E-02
         0.31476E-02
         0.43135E-02
         0.43135E-02
         0.43135E-02
         0.43135E-02
         0.34889E-02
         0.34889E-02
         0.32712E-02
         0.32061E-02
         0.37825E-02
         0.31852E-02
         0.27034E-02
         0.33856E-02
         0.37156E-02
         0.27205E-02
         0.29063E-02
         0.36982E-02
         0.36142E-02
         0.37851E-02
         0.29998E-02
         0.29998E-02
         0.28599E-02
         0.26920E-02
         0.29529E-02
         0.28090E-02
         0.30182E-02
         0.36982E-02
         0.28486E-02
         0.28486E-02
         0.27499E-02
         0.26112E-02
         0.36982E-02
         0.36982E-02
         0.37851E-02
         0.37851E-02
         0.30245E-02
         0.36908E-02
         0.37156E-02
         0.32038E-02
         0.32827E-02
         0.32827E-02
         0.27006E-02
         0.25920E-02
         0.25859E-02
         0.29714E-02
         0.29714E-02
         0.26472E-02
         0.29095E-02
         0.34027E-02
         0.35304E-02
         0.35304E-02
         0.29790E-02
         0.32413E-02
         0.28866E-02
         0.29915E-02
         0.36908E-02
         0.37156E-02
         0.37156E-02
         0.33856E-02
         0.29063E-02
         0.32038E-02
         0.32827E-02
         0.32827E-02
         0.27006E-02
         0.25920E-02
         0.25859E-02
         0.26920E-02
         0.28599E-02
         0.29529E-02
         0.29714E-02
         0.29714E-02
         0.26472E-02
         0.27682E-02
         0.34027E-02
         0.35304E-02
         0.35304E-02
         0.29790E-02
         0.31490E-02
         0.31490E-02
         0.43133E-02
         0.43133E-02
         0.43133E-02
         0.43133E-02
         0.34890E-02
         0.34890E-02
         0.32698E-02
         0.32051E-02
         0.37820E-02
         0.31848E-02
         0.27017E-02
         0.33851E-02
         0.37155E-02
         0.27158E-02
         0.29075E-02
         0.36979E-02
         0.36177E-02
         0.37871E-02
         0.30024E-02
         0.30024E-02
         0.28603E-02
         0.26927E-02
         0.29530E-02
         0.28093E-02
         0.30208E-02
         0.36979E-02
         0.28460E-02
         0.28460E-02
         0.27486E-02
         0.26101E-02
         0.36979E-02
         0.36979E-02
         0.37871E-02
         0.37871E-02
         0.30247E-02
         0.36896E-02
         0.37155E-02
         0.32051E-02
         0.32833E-02
         0.32833E-02
         0.27006E-02
         0.25920E-02
         0.25851E-02
         0.29714E-02
         0.29714E-02
         0.26472E-02
         0.29094E-02
         0.34019E-02
         0.35299E-02
         0.35299E-02
         0.29793E-02
         0.32431E-02
         0.28838E-02
         0.29925E-02
         0.36896E-02
         0.37155E-02
         0.37155E-02
         0.33851E-02
         0.29075E-02
         0.32051E-02
         0.32833E-02
         0.32833E-02
         0.27006E-02
         0.25920E-02
         0.25851E-02
         0.26927E-02
         0.28603E-02
         0.29530E-02
         0.29714E-02
         0.29714E-02
         0.26472E-02
         0.27681E-02
         0.34019E-02
         0.35299E-02
         0.35299E-02
         0.29793E-02
         0.31503E-02
         0.31503E-02
         0.43130E-02
         0.43130E-02
         0.43130E-02
         0.43130E-02
         0.34891E-02
         0.34891E-02
         0.32683E-02
         0.32041E-02
         0.37816E-02
         0.31844E-02
         0.27000E-02
         0.33848E-02
         0.37154E-02
         0.27111E-02
         0.29087E-02
         0.36976E-02
         0.36213E-02
         0.37892E-02
         0.30050E-02
         0.30050E-02
         0.28608E-02
         0.26935E-02
         0.29532E-02
         0.28096E-02
         0.30234E-02
         0.36976E-02
         0.28434E-02
         0.28434E-02
         0.27472E-02
         0.26091E-02
         0.36976E-02
         0.36976E-02
         0.37892E-02
         0.37892E-02
         0.30249E-02
         0.36885E-02
         0.37154E-02
         0.32064E-02
         0.32839E-02
         0.32839E-02
         0.27006E-02
         0.25920E-02
         0.25844E-02
         0.29714E-02
         0.29714E-02
         0.26471E-02
         0.29094E-02
         0.34012E-02
         0.35293E-02
         0.35293E-02
         0.29797E-02
         0.32449E-02
         0.28811E-02
         0.29935E-02
         0.36885E-02
         0.37154E-02
         0.37154E-02
         0.33848E-02
         0.29087E-02
         0.32064E-02
         0.32839E-02
         0.32839E-02
         0.27006E-02
         0.25920E-02
         0.25844E-02
         0.26935E-02
         0.28608E-02
         0.29532E-02
         0.29714E-02
         0.29714E-02
         0.26471E-02
         0.27681E-02
         0.34012E-02
         0.35293E-02
         0.35293E-02
         0.29797E-02
         0.31517E-02
         0.31517E-02
         0.43128E-02
         0.43128E-02
         0.43128E-02
         0.43128E-02
         0.34892E-02
         0.34892E-02
         0.32669E-02
         0.32031E-02
         0.37811E-02
         0.31840E-02
         0.26982E-02
         0.33844E-02
         0.37152E-02
         0.27063E-02
         0.29099E-02
         0.36973E-02
         0.36248E-02
         0.37913E-02
         0.30076E-02
         0.30076E-02
         0.28613E-02
         0.26942E-02
         0.29533E-02
         0.28099E-02
         0.30260E-02
         0.36973E-02
         0.28408E-02
         0.28408E-02
         0.27460E-02
         0.26081E-02
         0.36973E-02
         0.36973E-02
         0.37913E-02
         0.37913E-02
         0.30250E-02
         0.36873E-02
         0.37152E-02
         0.32077E-02
         0.32845E-02
         0.32845E-02
         0.27006E-02
         0.25920E-02
         0.25837E-02
         0.29714E-02
         0.29714E-02
         0.26471E-02
         0.29093E-02
         0.34005E-02
         0.35287E-02
         0.35287E-02
         0.29800E-02
         0.32467E-02
         0.28783E-02
         0.29945E-02
         0.36873E-02
         0.37152E-02
         0.37152E-02
         0.33844E-02
         0.29099E-02
         0.32077E-02
         0.32845E-02
         0.32845E-02
         0.27006E-02
         0.25920E-02
         0.25837E-02
         0.26942E-02
         0.28613E-02
         0.29533E-02
         0.29714E-02
         0.29714E-02
         0.26471E-02
         0.27681E-02
         0.34005E-02
         0.35287E-02
         0.35287E-02
         0.29800E-02
         0.31530E-02
         0.31530E-02
         0.43125E-02
         0.43125E-02
         0.43125E-02
         0.43125E-02
         0.34893E-02
         0.34893E-02
         0.32655E-02
         0.32021E-02
         0.37806E-02
         0.31836E-02
         0.26965E-02
         0.33840E-02
         0.37151E-02
         0.27016E-02
         0.29111E-02
         0.36969E-02
         0.36283E-02
         0.37933E-02
         0.30102E-02
         0.30102E-02
         0.28617E-02
         0.26950E-02
         0.29535E-02
         0.28101E-02
         0.30286E-02
         0.36969E-02
         0.28382E-02
         0.28382E-02
         0.27447E-02
         0.26071E-02
         0.36969E-02
         0.36969E-02
         0.37933E-02
         0.37933E-02
         0.30252E-02
         0.36861E-02
         0.37151E-02
         0.32090E-02
         0.32852E-02
         0.32852E-02
         0.27006E-02
         0.25920E-02
         0.25830E-02
         0.29714E-02
         0.29714E-02
         0.26470E-02
         0.29092E-02
         0.33997E-02
         0.35282E-02
         0.35282E-02
         0.29803E-02
         0.32484E-02
         0.28755E-02
         0.29955E-02
         0.36861E-02
         0.37151E-02
         0.37151E-02
         0.33840E-02
         0.29111E-02
         0.32090E-02
         0.32852E-02
         0.32852E-02
         0.27006E-02
         0.25920E-02
         0.25830E-02
         0.26950E-02
         0.28617E-02
         0.29535E-02
         0.29714E-02
         0.29714E-02
         0.26470E-02
         0.27680E-02
         0.33997E-02
         0.35282E-02
         0.35282E-02
         0.29803E-02
         0.31544E-02
         0.31544E-02
         0.43123E-02
         0.43123E-02
         0.43123E-02
         0.43123E-02
         0.34893E-02
         0.34893E-02
         0.32640E-02
         0.32011E-02
         0.37801E-02
         0.31832E-02
         0.26948E-02
         0.33836E-02
         0.37150E-02
         0.26969E-02
         0.29123E-02
         0.36966E-02
         0.36319E-02
         0.37954E-02
         0.30128E-02
         0.30128E-02
         0.28622E-02
         0.26957E-02
         0.29536E-02
         0.28104E-02
         0.30312E-02
         0.36966E-02
         0.28357E-02
         0.28357E-02
         0.27434E-02
         0.26061E-02
         0.36966E-02
         0.36966E-02
         0.37954E-02
         0.37954E-02
         0.30254E-02
         0.36849E-02
         0.37150E-02
         0.32103E-02
         0.32858E-02
         0.32858E-02
         0.27006E-02
         0.25920E-02
         0.25823E-02
         0.29714E-02
         0.29714E-02
         0.26470E-02
         0.29091E-02
         0.33990E-02
         0.35276E-02
         0.35276E-02
         0.29806E-02
         0.32502E-02
         0.28728E-02
         0.29965E-02
         0.36849E-02
         0.37150E-02
         0.37150E-02
         0.33836E-02
         0.29123E-02
         0.32103E-02
         0.32858E-02
         0.32858E-02
         0.27006E-02
         0.25920E-02
         0.25823E-02
         0.26957E-02
         0.28622E-02
         0.29536E-02
         0.29714E-02
         0.29714E-02
         0.26470E-02
         0.27680E-02
         0.33990E-02
         0.35276E-02
         0.35276E-02
         0.29806E-02
         0.31557E-02
         0.31557E-02
         0.43120E-02
         0.43120E-02
         0.43120E-02
         0.43120E-02
         0.34894E-02
         0.34894E-02
         0.32626E-02
         0.32001E-02
         0.37797E-02
         0.31828E-02
         0.26931E-02
         0.33832E-02
         0.37149E-02
         0.26922E-02
         0.29135E-02
         0.36963E-02
         0.36354E-02
         0.37975E-02
         0.30154E-02
         0.30154E-02
         0.28627E-02
         0.26965E-02
         0.29537E-02
         0.28107E-02
         0.30338E-02
         0.36963E-02
         0.28331E-02
         0.28331E-02
         0.27421E-02
         0.26051E-02
         0.36963E-02
         0.36963E-02
         0.37975E-02
         0.37975E-02
         0.30256E-02
         0.36838E-02
         0.37149E-02
         0.32116E-02
         0.32864E-02
         0.32864E-02
         0.27006E-02
         0.25920E-02
         0.25815E-02
         0.29714E-02
         0.29714E-02
         0.26469E-02
         0.29090E-02
         0.33983E-02
         0.35270E-02
         0.35270E-02
         0.29809E-02
         0.32519E-02
         0.28700E-02
         0.29975E-02
         0.36838E-02
         0.37149E-02
         0.37149E-02
         0.33832E-02
         0.29135E-02
         0.32116E-02
         0.32864E-02
         0.32864E-02
         0.27006E-02
         0.25920E-02
         0.25815E-02
         0.26965E-02
         0.28627E-02
         0.29537E-02
         0.29714E-02
         0.29714E-02
         0.26469E-02
         0.27680E-02
         0.33983E-02
         0.35270E-02
         0.35270E-02
         0.29809E-02
         0.31571E-02
         0.31571E-02
         0.43118E-02
         0.43118E-02
         0.43118E-02
         0.43118E-02
         0.34895E-02
         0.34895E-02
         0.32612E-02
         0.31990E-02
         0.37792E-02
         0.31824E-02
         0.26913E-02
         0.33828E-02
         0.37148E-02
         0.26875E-02
         0.29148E-02
         0.36960E-02
         0.36390E-02
         0.37995E-02
         0.30180E-02
         0.30180E-02
         0.28631E-02
         0.26972E-02
         0.29539E-02
         0.28110E-02
         0.30364E-02
         0.36960E-02
         0.28305E-02
         0.28305E-02
         0.27408E-02
         0.26040E-02
         0.36960E-02
         0.36960E-02
         0.37995E-02
         0.37995E-02
         0.30258E-02
         0.36826E-02
         0.37148E-02
         0.32129E-02
         0.32870E-02
         0.32870E-02
         0.27006E-02
         0.25920E-02
         0.25808E-02
         0.29713E-02
         0.29713E-02
         0.26468E-02
         0.29089E-02
         0.33975E-02
         0.35264E-02
         0.35264E-02
         0.29812E-02
         0.32537E-02
         0.28672E-02
         0.29985E-02
         0.36826E-02
         0.37148E-02
         0.37148E-02
         0.33828E-02
         0.29148E-02
         0.32129E-02
         0.32870E-02
         0.32870E-02
         0.27006E-02
         0.25920E-02
         0.25808E-02
         0.26972E-02
         0.28631E-02
         0.29539E-02
         0.29713E-02
         0.29713E-02
         0.26468E-02
         0.27679E-02
         0.33975E-02
         0.35264E-02
         0.35264E-02
         0.29812E-02
         0.31585E-02
         0.31585E-02
         0.43115E-02
         0.43115E-02
         0.43115E-02
         0.43115E-02
         0.34896E-02
         0.34896E-02
         0.32597E-02
         0.31980E-02
         0.37787E-02
         0.31820E-02
         0.26896E-02
         0.33824E-02
         0.37147E-02
         0.26827E-02
         0.29160E-02
         0.36957E-02
         0.36425E-02
         0.38016E-02
         0.30206E-02
         0.30206E-02
         0.28636E-02
         0.26980E-02
         0.29540E-02
         0.28112E-02
         0.30390E-02
         0.36957E-02
         0.28279E-02
         0.28279E-02
         0.27395E-02
         0.26030E-02
         0.36957E-02
         0.36957E-02
         0.38016E-02
         0.38016E-02
         0.30260E-02
         0.36814E-02
         0.37147E-02
         0.32141E-02
         0.32876E-02
         0.32876E-02
         0.27006E-02
         0.25920E-02
         0.25801E-02
         0.29713E-02
         0.29713E-02
         0.26468E-02
         0.29089E-02
         0.33968E-02
         0.35259E-02
         0.35259E-02
         0.29815E-02
         0.32555E-02
         0.28645E-02
         0.29995E-02
         0.36814E-02
         0.37147E-02
         0.37147E-02
         0.33824E-02
         0.29160E-02
         0.32141E-02
         0.32876E-02
         0.32876E-02
         0.27006E-02
         0.25920E-02
         0.25801E-02
         0.26980E-02
         0.28636E-02
         0.29540E-02
         0.29713E-02
         0.29713E-02
         0.26468E-02
         0.27679E-02
         0.33968E-02
         0.35259E-02
         0.35259E-02
         0.29815E-02
         0.31598E-02
         0.31598E-02
         0.43113E-02
         0.43113E-02
         0.43113E-02
         0.43113E-02
         0.34897E-02
         0.34897E-02
         0.32583E-02
         0.31970E-02
         0.37783E-02
         0.31816E-02
         0.26879E-02
         0.33820E-02
         0.37146E-02
         0.26780E-02
         0.29172E-02
         0.36954E-02
         0.36460E-02
         0.38037E-02
         0.30232E-02
         0.30232E-02
         0.28641E-02
         0.26987E-02
         0.29542E-02
         0.28115E-02
         0.30416E-02
         0.36954E-02
         0.28253E-02
         0.28253E-02
         0.27382E-02
         0.26020E-02
         0.36954E-02
         0.36954E-02
         0.38037E-02
         0.38037E-02
         0.30261E-02
         0.36802E-02
         0.37146E-02
         0.32154E-02
         0.32882E-02
         0.32882E-02
         0.27006E-02
         0.25921E-02
         0.25794E-02
         0.29713E-02
         0.29713E-02
         0.26467E-02
         0.29088E-02
         0.33961E-02
         0.35253E-02
         0.35253E-02
         0.29818E-02
         0.32573E-02
         0.28617E-02
         0.30005E-02
         0.36802E-02
         0.37146E-02
         0.37146E-02
         0.33820E-02
         0.29172E-02
         0.32154E-02
         0.32882E-02
         0.32882E-02
         0.27006E-02
         0.25921E-02
         0.25794E-02
         0.26987E-02
         0.28641E-02
         0.29542E-02
         0.29713E-02
         0.29713E-02
         0.26467E-02
         0.27678E-02
         0.33961E-02
         0.35253E-02
         0.35253E-02
         0.29818E-02
         0.31612E-02
         0.31612E-02
         0.43110E-02
         0.43110E-02
         0.43110E-02
         0.43110E-02
         0.34898E-02
         0.34898E-02
         0.32569E-02
         0.31960E-02
         0.37778E-02
         0.31812E-02
         0.26862E-02
         0.33816E-02
         0.37145E-02
         0.26733E-02
         0.29184E-02
         0.36950E-02
         0.36495E-02
         0.38057E-02
         0.30258E-02
         0.30258E-02
         0.28645E-02
         0.26995E-02
         0.29543E-02
         0.28118E-02
         0.30442E-02
         0.36950E-02
         0.28227E-02
         0.28227E-02
         0.27369E-02
         0.26010E-02
         0.36950E-02
         0.36950E-02
         0.38057E-02
         0.38057E-02
         0.30263E-02
         0.36790E-02
         0.37145E-02
         0.32167E-02
         0.32889E-02
         0.32889E-02
         0.27006E-02
         0.25921E-02
         0.25787E-02
         0.29713E-02
         0.29713E-02
         0.26467E-02
         0.29087E-02
         0.33953E-02
         0.35247E-02
         0.35247E-02
         0.29821E-02
         0.32590E-02
         0.28589E-02
         0.30015E-02
         0.36790E-02
         0.37145E-02
         0.37145E-02
         0.33816E-02
         0.29184E-02
         0.32167E-02
         0.32889E-02
         0.32889E-02
         0.27006E-02
         0.25921E-02
         0.25787E-02
         0.26995E-02
         0.28645E-02
         0.29543E-02
         0.29713E-02
         0.29713E-02
         0.26467E-02
         0.27678E-02
         0.33953E-02
         0.35247E-02
         0.35247E-02
         0.29821E-02
         0.31625E-02
         0.31625E-02
         0.43108E-02
         0.43108E-02
         0.43108E-02
         0.43108E-02
         0.34898E-02
         0.34898E-02
         0.32555E-02
         0.31950E-02
         0.37773E-02
         0.31808E-02
         0.26845E-02
         0.33812E-02
         0.37144E-02
         0.26686E-02
         0.29196E-02
         0.36948E-02
         0.36531E-02
         0.38078E-02
         0.30285E-02
         0.30285E-02
         0.28650E-02
         0.27002E-02
         0.29544E-02
         0.28120E-02
         0.30467E-02
         0.36948E-02
         0.28201E-02
         0.28201E-02
         0.27356E-02
         0.26000E-02
         0.36948E-02
         0.36948E-02
         0.38078E-02
         0.38078E-02
         0.30265E-02
         0.36779E-02
         0.37144E-02
         0.32181E-02
         0.32895E-02
         0.32895E-02
         0.27006E-02
         0.25921E-02
         0.25779E-02
         0.29713E-02
         0.29713E-02
         0.26466E-02
         0.29086E-02
         0.33946E-02
         0.35242E-02
         0.35242E-02
         0.29824E-02
         0.32608E-02
         0.28562E-02
         0.30025E-02
         0.36779E-02
         0.37144E-02
         0.37144E-02
         0.33812E-02
         0.29196E-02
         0.32181E-02
         0.32895E-02
         0.32895E-02
         0.27006E-02
         0.25921E-02
         0.25779E-02
         0.27002E-02
         0.28650E-02
         0.29544E-02
         0.29713E-02
         0.29713E-02
         0.26466E-02
         0.27678E-02
         0.33946E-02
         0.35242E-02
         0.35242E-02
         0.29824E-02
         0.31639E-02
         0.31639E-02
         0.43105E-02
         0.43105E-02
         0.43105E-02
         0.43105E-02
         0.34899E-02
         0.34899E-02
         0.32540E-02
         0.31940E-02
         0.37768E-02
         0.31804E-02
         0.26827E-02
         0.33808E-02
         0.37143E-02
         0.26639E-02
         0.29208E-02
         0.36944E-02
         0.36566E-02
         0.38099E-02
         0.30311E-02
         0.30311E-02
         0.28655E-02
         0.27010E-02
         0.29546E-02
         0.28123E-02
         0.30493E-02
         0.36944E-02
         0.28175E-02
         0.28175E-02
         0.27343E-02
         0.25990E-02
         0.36944E-02
         0.36944E-02
         0.38099E-02
         0.38099E-02
         0.30267E-02
         0.36767E-02
         0.37143E-02
         0.32193E-02
         0.32901E-02
         0.32901E-02
         0.27006E-02
         0.25921E-02
         0.25772E-02
         0.29713E-02
         0.29713E-02
         0.26466E-02
         0.29085E-02
         0.33939E-02
         0.35236E-02
         0.35236E-02
         0.29827E-02
         0.32626E-02
         0.28534E-02
         0.30035E-02
         0.36767E-02
         0.37143E-02
         0.37143E-02
         0.33808E-02
         0.29208E-02
         0.32193E-02
         0.32901E-02
         0.32901E-02
         0.27006E-02
         0.25921E-02
         0.25772E-02
         0.27010E-02
         0.28655E-02
         0.29546E-02
         0.29713E-02
         0.29713E-02
         0.26466E-02
         0.27677E-02
         0.33939E-02
         0.35236E-02
         0.35236E-02
         0.29827E-02
         0.31652E-02
         0.31652E-02
         0.43103E-02
         0.43103E-02
         0.43103E-02
         0.43103E-02
         0.34900E-02
         0.34900E-02
         0.32526E-02
         0.31930E-02
         0.37764E-02
         0.31800E-02
         0.26810E-02
         0.33804E-02
         0.37142E-02
         0.26591E-02
         0.29220E-02
         0.36941E-02
         0.36602E-02
         0.38119E-02
         0.30337E-02
         0.30337E-02
         0.28660E-02
         0.27017E-02
         0.29547E-02
         0.28126E-02
         0.30519E-02
         0.36941E-02
         0.28150E-02
         0.28150E-02
         0.27330E-02
         0.25979E-02
         0.36941E-02
         0.36941E-02
         0.38119E-02
         0.38119E-02
         0.30269E-02
         0.36755E-02
         0.37142E-02
         0.32206E-02
         0.32907E-02
         0.32907E-02
         0.27006E-02
         0.25921E-02
         0.25765E-02
         0.29713E-02
         0.29713E-02
         0.26465E-02
         0.29085E-02
         0.33931E-02
         0.35230E-02
         0.35230E-02
         0.29830E-02
         0.32643E-02
         0.28507E-02
         0.30045E-02
         0.36755E-02
         0.37142E-02
         0.37142E-02
         0.33804E-02
         0.29220E-02
         0.32206E-02
         0.32907E-02
         0.32907E-02
         0.27006E-02
         0.25921E-02
         0.25765E-02
         0.27017E-02
         0.28660E-02
         0.29547E-02
         0.29713E-02
         0.29713E-02
         0.26465E-02
         0.27677E-02
         0.33931E-02
         0.35230E-02
         0.35230E-02
         0.29830E-02
         0.31666E-02
         0.31666E-02
         0.43100E-02
         0.43100E-02
         0.43100E-02
         0.43100E-02
         0.34901E-02
         0.34901E-02
         0.32512E-02
         0.31920E-02
         0.37759E-02
         0.31796E-02
         0.26793E-02
         0.33800E-02
         0.37141E-02
         0.26544E-02
         0.29232E-02
         0.36938E-02
         0.36637E-02
         0.38140E-02
         0.30363E-02
         0.30363E-02
         0.28664E-02
         0.27025E-02
         0.29548E-02
         0.28129E-02
         0.30545E-02
         0.36938E-02
         0.28124E-02
         0.28124E-02
         0.27317E-02
         0.25969E-02
         0.36938E-02
         0.36938E-02
         0.38140E-02
         0.38140E-02
         0.30271E-02
         0.36743E-02
         0.37141E-02
         0.32219E-02
         0.32913E-02
         0.32913E-02
         0.27006E-02
         0.25921E-02
         0.25758E-02
         0.29713E-02
         0.29713E-02
         0.26465E-02
         0.29084E-02
         0.33924E-02
         0.35224E-02
         0.35224E-02
         0.29833E-02
         0.32661E-02
         0.28479E-02
         0.30055E-02
         0.36743E-02
         0.37141E-02
         0.37141E-02
         0.33800E-02
         0.29232E-02
         0.32219E-02
         0.32913E-02
         0.32913E-02
         0.27006E-02
         0.25921E-02
         0.25758E-02
         0.27025E-02
         0.28664E-02
         0.29548E-02
         0.29713E-02
         0.29713E-02
         0.26465E-02
         0.27677E-02
         0.33924E-02
         0.35224E-02
         0.35224E-02
         0.29833E-02
         0.31680E-02
         0.31680E-02
         0.43098E-02
         0.43098E-02
         0.43098E-02
         0.43098E-02
         0.34901E-02
         0.34901E-02
         0.32498E-02
         0.31910E-02
         0.37754E-02
         0.31792E-02
         0.26776E-02
         0.33796E-02
         0.37140E-02
         0.26497E-02
         0.29232E-02
         0.36935E-02
         0.36637E-02
         0.38140E-02
         0.30363E-02
         0.30363E-02
         0.28664E-02
         0.27025E-02
         0.29548E-02
         0.28129E-02
         0.30545E-02
         0.36935E-02
         0.28098E-02
         0.28098E-02
         0.27304E-02
         0.25959E-02
         0.36935E-02
         0.36935E-02
         0.38140E-02
         0.38140E-02
         0.30271E-02
         0.36731E-02
         0.37140E-02
         0.32219E-02
         0.32913E-02
         0.32913E-02
         0.27006E-02
         0.25921E-02
         0.25751E-02
         0.29713E-02
         0.29713E-02
         0.26464E-02
         0.29083E-02
         0.33916E-02
         0.35219E-02
         0.35219E-02
         0.29833E-02
         0.32661E-02
         0.28451E-02
         0.30055E-02
         0.36731E-02
         0.37140E-02
         0.37140E-02
         0.33796E-02
         0.29232E-02
         0.32219E-02
         0.32913E-02
         0.32913E-02
         0.27006E-02
         0.25921E-02
         0.25751E-02
         0.27025E-02
         0.28664E-02
         0.29548E-02
         0.29713E-02
         0.29713E-02
         0.26464E-02
         0.27676E-02
         0.33916E-02
         0.35219E-02
         0.35219E-02
         0.29833E-02
         0.31680E-02
         0.31680E-02
  
SCALARS              physical_window_z  double 1
LOOKUP_TABLE default
         0.26928E-02
         0.26928E-02
         0.26928E-02
         0.26928E-02
         0.26928E-02
         0.26928E-02
         0.26928E-02
         0.26928E-02
         0.26928E-02
         0.26928E-02
         0.26928E-02
         0.26928E-02
         0.26928E-02
         0.26928E-02
         0.26928E-02
         0.26928E-02
         0.26928E-02
         0.26928E-02
         0.26928E-02
         0.26928E-02
         0.26928E-02
         0.26928E-02
         0.26928E-02
         0.26928E-02
         0.26928E-02
         0.26928E-02
         0.26928E-02
         0.26928E-02
         0.26928E-02
         0.26928E-02
         0.26928E-02
         0.26928E-02
         0.26928E-02
         0.26928E-02
         0.26928E-02
         0.26928E-02
         0.26928E-02
         0.26928E-02
         0.26928E-02
         0.26928E-02
         0.26928E-02
         0.26928E-02
         0.26928E-02
         0.26928E-02
         0.26928E-02
         0.26928E-02
         0.26928E-02
         0.26928E-02
         0.26928E-02
         0.26928E-02
         0.26928E-02
         0.26928E-02
         0.26928E-02
         0.26928E-02
         0.26928E-02
         0.26928E-02
         0.26928E-02
         0.26928E-02
         0.26928E-02
         0.26928E-02
         0.26928E-02
         0.26928E-02
         0.26928E-02
         0.26928E-02
         0.26928E-02
         0.26928E-02
         0.26928E-02
         0.26928E-02
         0.26928E-02
         0.26928E-02
         0.26928E-02
         0.26928E-02
         0.26928E-02
         0.26928E-02
         0.26928E-02
         0.26928E-02
         0.26928E-02
         0.26928E-02
         0.26928E-02
         0.26928E-02
         0.26928E-02
         0.26928E-02
         0.26928E-02
         0.26928E-02
         0.26928E-02
         0.26928E-02
         0.26928E-02
         0.26928E-02
         0.26928E-02
         0.26928E-02
         0.26928E-02
         0.26928E-02
         0.26928E-02
         0.26928E-02
         0.26928E-02
         0.26928E-02
         0.26928E-02
         0.26928E-02
         0.26928E-02
         0.26928E-02
         0.26928E-02
         0.26928E-02
         0.26928E-02
         0.26928E-02
         0.26928E-02
         0.26928E-02
         0.26928E-02
         0.26928E-02
         0.26928E-02
         0.26928E-02
         0.26928E-02
         0.26928E-02
         0.26928E-02
         0.26928E-02
         0.26928E-02
         0.26928E-02
         0.26928E-02
         0.26928E-02
         0.26928E-02
         0.26928E-02
         0.26928E-02
         0.26928E-02
         0.26928E-02
         0.26928E-02
         0.26928E-02
         0.26928E-02
         0.26928E-02
         0.26928E-02
         0.26928E-02
         0.26928E-02
         0.26928E-02
         0.26928E-02
         0.26928E-02
         0.26928E-02
         0.26928E-02
         0.26928E-02
         0.26928E-02
         0.26928E-02
         0.26928E-02
         0.26928E-02
         0.26928E-02
         0.26928E-02
         0.26928E-02
         0.26928E-02
         0.26928E-02
         0.26928E-02
         0.26928E-02
         0.26928E-02
         0.26928E-02
         0.26928E-02
         0.26928E-02
         0.26928E-02
         0.26928E-02
         0.26928E-02
         0.26928E-02
         0.26928E-02
         0.26927E-02
         0.26927E-02
         0.26927E-02
         0.26927E-02
         0.26927E-02
         0.26927E-02
         0.26927E-02
         0.26927E-02
         0.26927E-02
         0.26927E-02
         0.26927E-02
         0.26927E-02
         0.26927E-02
         0.26927E-02
         0.26927E-02
         0.26927E-02
         0.26927E-02
         0.26927E-02
         0.26927E-02
         0.26927E-02
         0.26927E-02
         0.26927E-02
         0.26927E-02
         0.26927E-02
         0.26927E-02
         0.26927E-02
         0.26927E-02
         0.26927E-02
         0.26927E-02
         0.26927E-02
         0.26927E-02
         0.26927E-02
         0.26927E-02
         0.26927E-02
         0.26927E-02
         0.26927E-02
         0.26927E-02
         0.26927E-02
         0.26927E-02
         0.26927E-02
         0.26927E-02
         0.26927E-02
         0.26927E-02
         0.26927E-02
         0.26927E-02
         0.26927E-02
         0.26927E-02
         0.26927E-02
         0.26927E-02
         0.26927E-02
         0.26927E-02
         0.26927E-02
         0.26927E-02
         0.26927E-02
         0.26927E-02
         0.26927E-02
         0.26927E-02
         0.26927E-02
         0.26927E-02
         0.26927E-02
         0.26927E-02
         0.26927E-02
         0.26927E-02
         0.26927E-02
         0.26927E-02
         0.26927E-02
         0.26927E-02
         0.26927E-02
         0.26927E-02
         0.26927E-02
         0.26927E-02
         0.26927E-02
         0.26927E-02
         0.26927E-02
         0.26927E-02
         0.26927E-02
         0.26927E-02
         0.26927E-02
         0.26927E-02
         0.26927E-02
         0.26927E-02
         0.26927E-02
         0.26927E-02
         0.26927E-02
         0.26927E-02
         0.26927E-02
         0.26927E-02
         0.26927E-02
         0.26927E-02
         0.26927E-02
         0.26927E-02
         0.26927E-02
         0.26927E-02
         0.26927E-02
         0.26927E-02
         0.26927E-02
         0.26927E-02
         0.26927E-02
         0.26927E-02
         0.26927E-02
         0.26927E-02
         0.26927E-02
         0.26927E-02
         0.26927E-02
         0.26927E-02
         0.26927E-02
         0.26927E-02
         0.26927E-02
         0.26927E-02
         0.26927E-02
         0.26927E-02
         0.26927E-02
         0.26927E-02
         0.26927E-02
         0.26927E-02
         0.26927E-02
         0.26927E-02
         0.26927E-02
         0.26927E-02
         0.26927E-02
         0.26927E-02
         0.26927E-02
         0.26927E-02
         0.26927E-02
         0.26927E-02
         0.26927E-02
         0.26927E-02
         0.26927E-02
         0.26927E-02
         0.26927E-02
         0.26927E-02
         0.26927E-02
         0.26927E-02
         0.26927E-02
         0.26927E-02
         0.26927E-02
         0.26927E-02
         0.26927E-02
         0.26927E-02
         0.26927E-02
         0.26927E-02
         0.26927E-02
         0.26927E-02
         0.26927E-02
         0.26927E-02
         0.26927E-02
         0.26927E-02
         0.26927E-02
         0.26927E-02
         0.26927E-02
         0.26927E-02
         0.26927E-02
         0.26927E-02
         0.26927E-02
         0.26927E-02
         0.26927E-02
         0.26927E-02
         0.26927E-02
         0.26927E-02
         0.26927E-02
         0.26927E-02
         0.26927E-02
         0.26927E-02
         0.26927E-02
         0.26927E-02
         0.26927E-02
         0.26927E-02
         0.26927E-02
         0.26927E-02
         0.26927E-02
         0.26927E-02
         0.26927E-02
         0.26927E-02
         0.26927E-02
         0.26927E-02
         0.26927E-02
         0.26927E-02
         0.26927E-02
         0.26927E-02
         0.26927E-02
         0.26927E-02
         0.26927E-02
         0.26927E-02
         0.26927E-02
         0.26927E-02
         0.26927E-02
         0.26927E-02
         0.26927E-02
         0.26927E-02
         0.26927E-02
         0.26927E-02
         0.26927E-02
         0.26927E-02
         0.26927E-02
         0.26927E-02
         0.26927E-02
         0.26927E-02
         0.26927E-02
         0.26927E-02
         0.26927E-02
         0.26927E-02
         0.26927E-02
         0.26927E-02
         0.26927E-02
         0.26927E-02
         0.26927E-02
         0.26927E-02
         0.26927E-02
         0.26927E-02
         0.26927E-02
         0.26927E-02
         0.26927E-02
         0.26927E-02
         0.26927E-02
         0.26927E-02
         0.26927E-02
         0.26927E-02
         0.26927E-02
         0.26927E-02
         0.26927E-02
         0.26927E-02
         0.26927E-02
         0.26927E-02
         0.26927E-02
         0.26927E-02
         0.26927E-02
         0.26927E-02
         0.26927E-02
         0.26927E-02
         0.26927E-02
         0.26927E-02
         0.26927E-02
         0.26927E-02
         0.26927E-02
         0.26927E-02
         0.26927E-02
         0.26927E-02
         0.26927E-02
         0.26927E-02
         0.26927E-02
         0.26927E-02
         0.26927E-02
         0.26927E-02
         0.26927E-02
         0.26927E-02
         0.26927E-02
         0.26927E-02
         0.26927E-02
         0.26927E-02
         0.26927E-02
         0.26927E-02
         0.26927E-02
         0.26927E-02
         0.26927E-02
         0.26927E-02
         0.26927E-02
         0.26927E-02
         0.26927E-02
         0.26927E-02
         0.26927E-02
         0.26927E-02
         0.26927E-02
         0.26927E-02
         0.26927E-02
         0.26927E-02
         0.26927E-02
         0.26927E-02
         0.26927E-02
         0.26927E-02
         0.26927E-02
         0.26927E-02
         0.26927E-02
         0.26927E-02
         0.26927E-02
         0.26927E-02
         0.26927E-02
         0.26927E-02
         0.26927E-02
         0.26927E-02
         0.26927E-02
         0.26927E-02
         0.26927E-02
         0.26927E-02
         0.26927E-02
         0.26927E-02
         0.26927E-02
         0.26927E-02
         0.26927E-02
         0.26927E-02
         0.26927E-02
         0.26927E-02
         0.26927E-02
         0.26927E-02
         0.26927E-02
         0.26927E-02
         0.26927E-02
         0.26927E-02
         0.26927E-02
         0.26927E-02
         0.26927E-02
         0.26927E-02
         0.26927E-02
         0.26927E-02
         0.26927E-02
         0.26927E-02
         0.26927E-02
         0.26927E-02
         0.26927E-02
         0.26927E-02
         0.26927E-02
         0.26927E-02
         0.26927E-02
         0.26927E-02
         0.26927E-02
         0.26927E-02
         0.26927E-02
         0.26927E-02
         0.26927E-02
         0.26927E-02
         0.26927E-02
         0.26927E-02
         0.26927E-02
         0.26927E-02
         0.26927E-02
         0.26927E-02
         0.26927E-02
         0.26927E-02
         0.26927E-02
         0.26927E-02
         0.26927E-02
         0.26927E-02
         0.26927E-02
         0.26927E-02
         0.26927E-02
         0.26927E-02
         0.26927E-02
         0.26927E-02
         0.26927E-02
         0.26927E-02
         0.26927E-02
         0.26927E-02
         0.26927E-02
         0.26927E-02
         0.26927E-02
         0.26927E-02
         0.26927E-02
         0.26927E-02
         0.26927E-02
         0.26927E-02
         0.26927E-02
         0.26927E-02
         0.26927E-02
         0.26927E-02
         0.26927E-02
         0.26927E-02
         0.26927E-02
         0.26927E-02
         0.26927E-02
         0.26927E-02
         0.26927E-02
         0.26927E-02
         0.26927E-02
         0.26927E-02
         0.26927E-02
         0.26927E-02
         0.26927E-02
         0.26927E-02
         0.26927E-02
         0.26927E-02
         0.26927E-02
         0.26927E-02
         0.26927E-02
         0.26927E-02
         0.26927E-02
         0.26927E-02
         0.26927E-02
         0.26927E-02
         0.26927E-02
         0.26927E-02
         0.26927E-02
         0.26927E-02
         0.26927E-02
         0.26927E-02
         0.26927E-02
         0.26927E-02
         0.26927E-02
         0.26927E-02
         0.26927E-02
         0.26927E-02
         0.26927E-02
         0.26927E-02
         0.26927E-02
         0.26927E-02
         0.26927E-02
         0.26927E-02
         0.26927E-02
         0.26927E-02
         0.26927E-02
         0.26927E-02
         0.26927E-02
         0.26927E-02
         0.26927E-02
         0.26927E-02
         0.26927E-02
         0.26927E-02
         0.26927E-02
         0.26927E-02
         0.26927E-02
         0.26927E-02
         0.26927E-02
         0.26927E-02
         0.26927E-02
         0.26927E-02
         0.26927E-02
         0.26927E-02
         0.26927E-02
         0.26927E-02
         0.26927E-02
         0.26927E-02
         0.26927E-02
         0.26927E-02
         0.26927E-02
         0.26927E-02
         0.26927E-02
         0.26927E-02
         0.26927E-02
         0.26927E-02
         0.26927E-02
         0.26927E-02
         0.26927E-02
         0.26927E-02
         0.26927E-02
         0.26927E-02
         0.26927E-02
         0.26927E-02
         0.26927E-02
         0.26927E-02
         0.26927E-02
         0.26927E-02
         0.26927E-02
         0.26927E-02
         0.26927E-02
         0.26927E-02
         0.26927E-02
         0.26927E-02
         0.26927E-02
         0.26927E-02
         0.26927E-02
         0.26927E-02
         0.26927E-02
         0.26927E-02
         0.26927E-02
         0.26927E-02
         0.26927E-02
         0.26927E-02
         0.26927E-02
         0.26927E-02
         0.26927E-02
         0.26927E-02
         0.26927E-02
         0.26927E-02
         0.26927E-02
         0.26927E-02
         0.26927E-02
         0.26927E-02
         0.26927E-02
         0.26927E-02
         0.26927E-02
         0.26927E-02
         0.26927E-02
         0.26927E-02
         0.26927E-02
         0.26927E-02
         0.26927E-02
         0.26927E-02
         0.26927E-02
         0.26927E-02
         0.26927E-02
         0.26927E-02
         0.26927E-02
         0.26927E-02
         0.26927E-02
         0.26927E-02
         0.26927E-02
         0.26927E-02
         0.26927E-02
         0.26927E-02
         0.26927E-02
         0.26927E-02
         0.26927E-02
         0.26927E-02
         0.26927E-02
         0.26927E-02
         0.26927E-02
         0.26927E-02
         0.26927E-02
         0.26927E-02
         0.26927E-02
         0.26927E-02
         0.26927E-02
         0.26927E-02
         0.26927E-02
         0.26927E-02
         0.26927E-02
         0.26927E-02
         0.26927E-02
         0.26927E-02
         0.26927E-02
         0.26927E-02
         0.26927E-02
         0.26927E-02
         0.26927E-02
         0.26927E-02
         0.26927E-02
         0.26927E-02
         0.26927E-02
         0.26927E-02
         0.26927E-02
         0.26927E-02
         0.26927E-02
         0.26927E-02
         0.26927E-02
         0.26927E-02
         0.26927E-02
         0.26927E-02
         0.26927E-02
         0.26927E-02
         0.26927E-02
         0.26927E-02
         0.26927E-02
         0.26927E-02
         0.26927E-02
         0.26927E-02
         0.26927E-02
         0.26927E-02
         0.26927E-02
         0.26927E-02
         0.26927E-02
         0.26927E-02
         0.26927E-02
         0.26927E-02
         0.26927E-02
         0.26927E-02
         0.26927E-02
         0.26927E-02
         0.26927E-02
         0.26927E-02
         0.26927E-02
         0.26927E-02
         0.26927E-02
         0.26927E-02
         0.26927E-02
         0.26927E-02
         0.26927E-02
         0.26927E-02
         0.26927E-02
         0.26927E-02
         0.26927E-02
         0.26927E-02
         0.26927E-02
         0.26927E-02
         0.26927E-02
         0.26927E-02
         0.26927E-02
         0.26927E-02
         0.26927E-02
         0.26927E-02
         0.26927E-02
         0.26927E-02
         0.26927E-02
         0.26927E-02
         0.26927E-02
         0.26927E-02
         0.26927E-02
         0.26927E-02
         0.26927E-02
         0.26927E-02
         0.26927E-02
         0.26927E-02
         0.26927E-02
         0.26927E-02
         0.26927E-02
         0.26927E-02
         0.26927E-02
         0.26927E-02
         0.26927E-02
         0.26927E-02
         0.26927E-02
         0.26927E-02
         0.26927E-02
         0.26927E-02
         0.26927E-02
         0.26927E-02
         0.26927E-02
         0.26927E-02
         0.26927E-02
         0.26927E-02
         0.26927E-02
         0.26927E-02
         0.26927E-02
         0.26927E-02
         0.26927E-02
         0.26927E-02
         0.26927E-02
         0.26927E-02
         0.26927E-02
         0.26927E-02
         0.26927E-02
         0.26927E-02
         0.26927E-02
         0.26927E-02
         0.26927E-02
         0.26927E-02
         0.26927E-02
         0.26927E-02
         0.26927E-02
         0.26927E-02
         0.26927E-02
         0.26927E-02
         0.26927E-02
         0.26927E-02
         0.26927E-02
         0.26927E-02
         0.26927E-02
         0.26927E-02
         0.26927E-02
         0.26927E-02
         0.26927E-02
         0.26927E-02
         0.26927E-02
         0.26927E-02
         0.26927E-02
         0.26927E-02
         0.26927E-02
         0.26927E-02
         0.26927E-02
         0.26927E-02
         0.26927E-02
         0.26927E-02
         0.26927E-02
         0.26927E-02
         0.26927E-02
         0.26927E-02
         0.26927E-02
         0.26927E-02
         0.26927E-02
         0.26927E-02
         0.26927E-02
         0.26927E-02
         0.26927E-02
         0.26927E-02
         0.26927E-02
         0.26927E-02
         0.26927E-02
         0.26927E-02
         0.26927E-02
         0.26927E-02
         0.26927E-02
         0.26927E-02
         0.26927E-02
         0.26927E-02
         0.26927E-02
         0.26927E-02
         0.26927E-02
         0.26927E-02
         0.26927E-02
         0.26927E-02
         0.26927E-02
         0.26927E-02
         0.26927E-02
         0.26927E-02
         0.26927E-02
         0.26927E-02
         0.26927E-02
         0.26927E-02
         0.26927E-02
         0.26927E-02
         0.26927E-02
         0.26927E-02
         0.26927E-02
         0.26927E-02
         0.26927E-02
         0.26927E-02
         0.26927E-02
         0.26927E-02
         0.26927E-02
         0.26927E-02
         0.26927E-02
         0.26927E-02
         0.26927E-02
         0.26927E-02
         0.26927E-02
         0.26927E-02
         0.26927E-02
         0.26927E-02
         0.26927E-02
         0.26927E-02
         0.26927E-02
         0.26927E-02
         0.26927E-02
         0.26927E-02
         0.26927E-02
         0.26927E-02
         0.26927E-02
         0.26927E-02
         0.26927E-02
         0.26927E-02
         0.26927E-02
         0.26927E-02
         0.26927E-02
         0.26927E-02
         0.26927E-02
         0.26927E-02
         0.26927E-02
         0.26927E-02
         0.26927E-02
         0.26927E-02
         0.26927E-02
         0.26927E-02
         0.26927E-02
         0.26927E-02
         0.26927E-02
         0.26927E-02
         0.26927E-02
         0.26927E-02
         0.26927E-02
         0.26927E-02
         0.26927E-02
         0.26927E-02
         0.26927E-02
         0.26927E-02
         0.26927E-02
         0.26927E-02
         0.26927E-02
         0.26927E-02
         0.26927E-02
         0.26927E-02
         0.26927E-02
         0.26927E-02
         0.26927E-02
         0.26927E-02
         0.26927E-02
         0.26927E-02
         0.26927E-02
         0.26927E-02
         0.26927E-02
         0.26927E-02
         0.26927E-02
         0.26927E-02
         0.26927E-02
         0.26927E-02
         0.26927E-02
         0.26927E-02
         0.26927E-02
         0.26927E-02
         0.26927E-02
         0.26927E-02
         0.26927E-02
         0.26927E-02
         0.26927E-02
         0.26927E-02
         0.26927E-02
         0.26927E-02
         0.26927E-02
         0.26927E-02
         0.26927E-02
         0.26927E-02
         0.26927E-02
         0.26927E-02
         0.26927E-02
         0.26927E-02
         0.26927E-02
         0.26927E-02
         0.26927E-02
         0.26927E-02
         0.26927E-02
         0.26927E-02
         0.26927E-02
         0.26927E-02
         0.26927E-02
         0.26927E-02
         0.26927E-02
         0.26927E-02
         0.26927E-02
         0.26927E-02
         0.26927E-02
         0.26927E-02
         0.26927E-02
         0.26927E-02
         0.26927E-02
         0.26927E-02
         0.26927E-02
         0.26927E-02
         0.26927E-02
         0.26927E-02
         0.26927E-02
         0.26927E-02
         0.26927E-02
         0.26927E-02
         0.26927E-02
         0.26927E-02
         0.26927E-02
         0.26927E-02
         0.26927E-02
         0.26927E-02
         0.26927E-02
         0.26927E-02
         0.26927E-02
         0.26927E-02
         0.26927E-02
         0.26927E-02
         0.26927E-02
         0.26927E-02
         0.26927E-02
         0.26927E-02
         0.26927E-02
         0.26927E-02
         0.26927E-02
         0.26927E-02
         0.26927E-02
         0.26927E-02
         0.26927E-02
         0.26927E-02
         0.26927E-02
         0.26927E-02
         0.26927E-02
         0.26927E-02
         0.26927E-02
         0.26927E-02
         0.26927E-02
         0.26927E-02
         0.26927E-02
         0.26927E-02
         0.26927E-02
         0.26927E-02
         0.26927E-02
         0.26927E-02
         0.26927E-02
         0.26927E-02
         0.26927E-02
         0.26927E-02
         0.26927E-02
         0.26927E-02
         0.26927E-02
         0.26927E-02
         0.26927E-02
         0.26927E-02
         0.26927E-02
         0.26927E-02
         0.26927E-02
         0.26927E-02
         0.26927E-02
         0.26927E-02
         0.26927E-02
         0.26927E-02
         0.26927E-02
         0.26927E-02
         0.26927E-02
         0.26927E-02
         0.26927E-02
         0.26927E-02
         0.26927E-02
         0.26927E-02
         0.26927E-02
         0.26927E-02
         0.26927E-02
         0.26927E-02
         0.26927E-02
         0.26927E-02
         0.26927E-02
         0.26927E-02
         0.26927E-02
         0.26927E-02
         0.26927E-02
         0.26927E-02
         0.26927E-02
         0.26927E-02
         0.26927E-02
         0.26927E-02
         0.26927E-02
         0.26927E-02
         0.26927E-02
         0.26927E-02
         0.26927E-02
         0.26927E-02
         0.26927E-02
         0.26927E-02
         0.26927E-02
         0.26927E-02
         0.26927E-02
         0.26927E-02
         0.26927E-02
         0.26927E-02
         0.26927E-02
         0.26927E-02
         0.26927E-02
         0.26927E-02
         0.26927E-02
         0.26927E-02
         0.26927E-02
         0.26927E-02
         0.26927E-02
         0.26927E-02
         0.26927E-02
         0.26927E-02
         0.26927E-02
         0.26927E-02
         0.26927E-02
         0.26927E-02
         0.26927E-02
         0.26927E-02
         0.26927E-02
         0.26927E-02
         0.26927E-02
         0.26927E-02
         0.26927E-02
         0.26927E-02
         0.26927E-02
         0.26927E-02
         0.26927E-02
         0.26927E-02
         0.26927E-02
         0.26927E-02
         0.26927E-02
         0.26927E-02
         0.26927E-02
         0.26927E-02
         0.26927E-02
         0.26927E-02
         0.26927E-02
         0.26927E-02
         0.26927E-02
         0.26927E-02
         0.26927E-02
         0.26927E-02
         0.26927E-02
         0.26927E-02
         0.26927E-02
         0.26927E-02
         0.26927E-02
         0.26927E-02
         0.26927E-02
         0.26927E-02
         0.26927E-02
         0.26927E-02
         0.26927E-02
         0.26927E-02
         0.26927E-02
         0.26927E-02
         0.26927E-02
         0.26927E-02
         0.26927E-02
         0.26927E-02
         0.26927E-02
         0.26927E-02
         0.26927E-02
         0.26927E-02
         0.26927E-02
         0.26927E-02
         0.26927E-02
         0.26927E-02
         0.26927E-02
         0.26927E-02
         0.26927E-02
         0.26927E-02
         0.26927E-02
         0.26927E-02
         0.26927E-02
         0.26927E-02
         0.26927E-02
         0.26927E-02
         0.26927E-02
         0.26927E-02
         0.26927E-02
         0.26927E-02
         0.26927E-02
         0.26927E-02
         0.26927E-02
         0.26927E-02
         0.26927E-02
         0.26927E-02
         0.26927E-02
         0.26927E-02
         0.26927E-02
         0.26927E-02
         0.26927E-02
         0.26927E-02
         0.26927E-02
         0.26927E-02
         0.26927E-02
         0.26927E-02
         0.26927E-02
         0.26927E-02
         0.26927E-02
         0.26927E-02
         0.26927E-02
         0.26927E-02
         0.26927E-02
         0.26927E-02
         0.26927E-02
         0.26927E-02
         0.26927E-02
         0.26927E-02
         0.26927E-02
         0.26927E-02
         0.26927E-02
         0.26927E-02
         0.26927E-02
         0.26927E-02
         0.26927E-02
         0.26927E-02
         0.26927E-02
         0.26927E-02
         0.26927E-02
         0.26927E-02
         0.26927E-02
         0.26927E-02
         0.26927E-02
         0.26927E-02
         0.26927E-02
         0.26927E-02
         0.26927E-02
         0.26927E-02
         0.26927E-02
         0.26927E-02
         0.26927E-02
         0.26927E-02
         0.26927E-02
         0.26927E-02
         0.26927E-02
         0.26927E-02
         0.26927E-02
         0.26927E-02
         0.26927E-02
         0.26927E-02
         0.26927E-02
         0.26927E-02
         0.26927E-02
         0.26927E-02
         0.26927E-02
         0.26927E-02
         0.26927E-02
         0.26927E-02
         0.26927E-02
         0.26927E-02
         0.26927E-02
         0.26927E-02
         0.26927E-02
         0.26927E-02
         0.26927E-02
         0.26927E-02
         0.26927E-02
         0.26927E-02
         0.26927E-02
         0.26927E-02
         0.26927E-02
         0.26927E-02
         0.26927E-02
         0.26927E-02
         0.26927E-02
         0.26927E-02
         0.26927E-02
         0.26927E-02
         0.26927E-02
         0.26927E-02
         0.26927E-02
         0.26927E-02
         0.26927E-02
         0.26927E-02
         0.26927E-02
         0.26927E-02
         0.26927E-02
         0.26927E-02
         0.26927E-02
         0.26927E-02
         0.26927E-02
         0.26927E-02
         0.26927E-02
         0.26927E-02
         0.26927E-02
         0.26927E-02
         0.26927E-02
         0.26927E-02
         0.26927E-02
         0.26927E-02
         0.26927E-02
         0.26927E-02
         0.26927E-02
         0.26927E-02
         0.26927E-02
         0.26927E-02
         0.26927E-02
         0.26927E-02
         0.26927E-02
         0.26927E-02
         0.26927E-02
         0.26927E-02
         0.26927E-02
         0.26927E-02
         0.26927E-02
         0.26927E-02
         0.26927E-02
         0.26927E-02
         0.26927E-02
         0.26927E-02
         0.26927E-02
         0.26927E-02
         0.26927E-02
         0.26927E-02
         0.26927E-02
         0.26927E-02
         0.26927E-02
         0.26927E-02
         0.26927E-02
         0.26927E-02
         0.26927E-02
         0.26927E-02
         0.26927E-02
         0.26927E-02
         0.26927E-02
         0.26927E-02
         0.26927E-02
         0.26927E-02
         0.26927E-02
         0.26927E-02
         0.26927E-02
         0.26927E-02
         0.26927E-02
         0.26927E-02
         0.26927E-02
         0.26927E-02
         0.26927E-02
         0.26927E-02
         0.26927E-02
         0.26927E-02
         0.26927E-02
         0.26927E-02
         0.26927E-02
         0.26927E-02
         0.26927E-02
         0.26927E-02
         0.26927E-02
         0.26927E-02
         0.26927E-02
         0.26927E-02
         0.26927E-02
         0.26927E-02
         0.26927E-02
         0.26927E-02
         0.26927E-02
         0.26927E-02
         0.26927E-02
         0.26927E-02
         0.26927E-02
         0.26927E-02
         0.26927E-02
         0.26927E-02
         0.26927E-02
         0.26927E-02
         0.26927E-02
         0.26927E-02
         0.26927E-02
         0.26927E-02
         0.26927E-02
         0.26927E-02
         0.26927E-02
         0.26927E-02
         0.26927E-02
         0.26927E-02
         0.26927E-02
         0.26927E-02
         0.26927E-02
         0.26927E-02
         0.26927E-02
         0.26927E-02
         0.26927E-02
         0.26927E-02
         0.26927E-02
         0.26927E-02
         0.26927E-02
         0.26927E-02
         0.26927E-02
         0.26927E-02
         0.26927E-02
         0.26927E-02
         0.26927E-02
         0.26927E-02
         0.26927E-02
         0.26927E-02
         0.26927E-02
         0.26927E-02
         0.26927E-02
         0.26927E-02
         0.26927E-02
         0.26927E-02
         0.26927E-02
         0.26927E-02
         0.26927E-02
         0.26927E-02
         0.26927E-02
         0.26927E-02
         0.26927E-02
         0.26927E-02
         0.26927E-02
         0.26927E-02
         0.26927E-02
         0.26927E-02
         0.26927E-02
         0.26927E-02
         0.26927E-02
         0.26927E-02
         0.26927E-02
         0.26927E-02
         0.26927E-02
         0.26927E-02
         0.26927E-02
         0.26927E-02
         0.26927E-02
         0.26927E-02
         0.26927E-02
         0.26927E-02
         0.26927E-02
         0.26927E-02
         0.26927E-02
         0.26927E-02
         0.26927E-02
         0.26927E-02
         0.26927E-02
         0.26927E-02
         0.26927E-02
         0.26927E-02
         0.26927E-02
         0.26927E-02
         0.26927E-02
         0.26927E-02
         0.26927E-02
         0.26927E-02
         0.26927E-02
         0.26927E-02
         0.26927E-02
         0.26927E-02
         0.26927E-02
         0.26927E-02
         0.26927E-02
         0.26927E-02
         0.26927E-02
         0.26927E-02
         0.26927E-02
         0.26927E-02
         0.26927E-02
         0.26927E-02
         0.26927E-02
         0.26927E-02
         0.26927E-02
         0.26927E-02
         0.26927E-02
         0.26927E-02
         0.26927E-02
         0.26927E-02
         0.26927E-02
         0.26927E-02
         0.26927E-02
         0.26927E-02
         0.26927E-02
         0.26927E-02
         0.26927E-02
         0.26927E-02
         0.26927E-02
         0.26927E-02
         0.26927E-02
         0.26927E-02
         0.26927E-02
         0.26927E-02
         0.26927E-02
         0.26927E-02
         0.26927E-02
         0.26927E-02
         0.26927E-02
         0.26927E-02
         0.26927E-02
         0.26927E-02
         0.26927E-02
         0.26927E-02
         0.26927E-02
         0.26927E-02
         0.26927E-02
         0.26927E-02
         0.26927E-02
         0.26927E-02
         0.26927E-02
         0.26927E-02
         0.26927E-02
         0.26927E-02
         0.26927E-02
         0.26927E-02
         0.26927E-02
         0.26927E-02
         0.26927E-02
         0.26927E-02
         0.26927E-02
         0.26927E-02
         0.26927E-02
         0.26927E-02
         0.26927E-02
         0.26927E-02
         0.26927E-02
         0.26927E-02
         0.26927E-02
         0.26927E-02
         0.26927E-02
         0.26927E-02
         0.26927E-02
         0.26927E-02
         0.26927E-02
         0.26927E-02
         0.26927E-02
         0.26927E-02
         0.26927E-02
         0.26927E-02
         0.26927E-02
         0.26927E-02
         0.26927E-02
         0.26927E-02
         0.26927E-02
         0.26927E-02
         0.26927E-02
         0.26927E-02
         0.26927E-02
         0.26927E-02
         0.26927E-02
         0.26927E-02
         0.26927E-02
         0.26927E-02
         0.26927E-02
         0.26927E-02
         0.26927E-02
         0.26927E-02
         0.26927E-02
         0.26927E-02
         0.26927E-02
         0.26927E-02
         0.26927E-02
         0.26927E-02
         0.26927E-02
         0.26927E-02
         0.26927E-02
         0.26927E-02
         0.26927E-02
         0.26927E-02
         0.26927E-02
         0.26927E-02
         0.26927E-02
         0.26927E-02
         0.26927E-02
         0.26927E-02
         0.26927E-02
         0.26927E-02
         0.26927E-02
         0.26927E-02
         0.26927E-02
         0.26927E-02
         0.26927E-02
         0.26927E-02
         0.26927E-02
         0.26927E-02
         0.26927E-02
         0.26927E-02
         0.26927E-02
         0.26927E-02
         0.26927E-02
         0.26927E-02
         0.26927E-02
         0.26927E-02
         0.26927E-02
         0.26927E-02
         0.26927E-02
         0.26927E-02
         0.26927E-02
         0.26927E-02
         0.26927E-02
         0.26927E-02
         0.26927E-02
         0.26927E-02
         0.26927E-02
         0.26927E-02
         0.26927E-02
         0.26927E-02
         0.26927E-02
         0.26927E-02
         0.26927E-02
         0.26927E-02
         0.26927E-02
         0.26927E-02
         0.26927E-02
         0.26927E-02
         0.26927E-02
         0.26927E-02
         0.26927E-02
         0.26927E-02
         0.26927E-02
         0.26927E-02
         0.26927E-02
         0.26927E-02
         0.26927E-02
         0.26927E-02
         0.26927E-02
         0.26927E-02
         0.26927E-02
         0.26927E-02
         0.26927E-02
         0.26927E-02
         0.26927E-02
         0.26927E-02
         0.26927E-02
         0.26927E-02
         0.26927E-02
         0.26927E-02
         0.26927E-02
         0.26927E-02
         0.26927E-02
         0.26927E-02
         0.26927E-02
         0.26927E-02
         0.26927E-02
         0.26927E-02
         0.26927E-02
         0.26927E-02
         0.26927E-02
         0.26927E-02
         0.26927E-02
         0.26927E-02
         0.26927E-02
         0.26927E-02
         0.26927E-02
         0.26927E-02
         0.26927E-02
         0.26927E-02
         0.26927E-02
         0.26927E-02
         0.26927E-02
         0.26927E-02
         0.26927E-02
         0.26927E-02
         0.26927E-02
         0.26927E-02
         0.26927E-02
         0.26927E-02
         0.26927E-02
         0.26927E-02
         0.26927E-02
         0.26927E-02
         0.26927E-02
         0.26927E-02
         0.26927E-02
         0.26927E-02
         0.26927E-02
         0.26927E-02
         0.26927E-02
         0.26927E-02
         0.26927E-02
         0.26927E-02
         0.26927E-02
         0.26927E-02
         0.26927E-02
         0.26927E-02
         0.26927E-02
         0.26927E-02
         0.26927E-02
         0.26927E-02
         0.26927E-02
         0.26927E-02
         0.26927E-02
         0.26927E-02
         0.26927E-02
         0.26927E-02
         0.26927E-02
         0.26927E-02
         0.26927E-02
         0.26927E-02
         0.26927E-02
         0.26927E-02
         0.26927E-02
         0.26927E-02
         0.26927E-02
         0.26927E-02
         0.26927E-02
         0.26927E-02
         0.26927E-02
         0.26927E-02
         0.26927E-02
         0.26927E-02
         0.26927E-02
         0.26927E-02
         0.26927E-02
         0.26927E-02
         0.26927E-02
         0.26927E-02
         0.26927E-02
         0.26927E-02
         0.26927E-02
         0.26927E-02
         0.26927E-02
         0.26927E-02
         0.26927E-02
         0.26927E-02
         0.26927E-02
         0.26927E-02
         0.26927E-02
         0.26927E-02
         0.26927E-02
         0.26927E-02
         0.26927E-02
         0.26927E-02
         0.26927E-02
         0.26927E-02
         0.26927E-02
         0.26927E-02
         0.26927E-02
         0.26927E-02
         0.26927E-02
         0.26927E-02
         0.26927E-02
         0.26927E-02
         0.26927E-02
         0.26927E-02
         0.26927E-02
         0.26927E-02
         0.26927E-02
         0.26927E-02
         0.26927E-02
         0.26927E-02
         0.26927E-02
         0.26927E-02
         0.26927E-02
         0.26927E-02
         0.26927E-02
         0.26927E-02
         0.26927E-02
         0.26927E-02
         0.26927E-02
         0.26927E-02
         0.26927E-02
         0.26927E-02
         0.26927E-02
         0.26927E-02
         0.26927E-02
         0.26927E-02
         0.26927E-02
         0.26927E-02
         0.26927E-02
         0.26927E-02
         0.26927E-02
         0.26927E-02
         0.26927E-02
         0.26927E-02
         0.26927E-02
         0.26927E-02
         0.26927E-02
         0.26927E-02
         0.26927E-02
         0.26927E-02
         0.26927E-02
         0.26927E-02
         0.26927E-02
         0.26927E-02
         0.26927E-02
         0.26927E-02
         0.26927E-02
         0.26927E-02
         0.26927E-02
         0.26927E-02
         0.26927E-02
         0.26927E-02
         0.26927E-02
         0.26927E-02
         0.26927E-02
         0.26927E-02
         0.26927E-02
         0.26927E-02
         0.26927E-02
         0.26927E-02
         0.26927E-02
         0.26927E-02
         0.26927E-02
         0.26927E-02
         0.26927E-02
         0.26927E-02
         0.26927E-02
         0.26927E-02
         0.26927E-02
         0.26927E-02
         0.26927E-02
         0.26927E-02
         0.26927E-02
         0.26927E-02
         0.26927E-02
         0.26927E-02
         0.26927E-02
         0.26927E-02
         0.26927E-02
         0.26927E-02
         0.26927E-02
         0.26927E-02
         0.26927E-02
         0.26927E-02
         0.26927E-02
         0.26927E-02
         0.26927E-02
         0.26927E-02
         0.26927E-02
         0.26927E-02
         0.26927E-02
         0.26927E-02
         0.26927E-02
         0.26927E-02
         0.26927E-02
         0.26927E-02
         0.26927E-02
         0.26927E-02
         0.26927E-02
         0.26927E-02
         0.26927E-02
         0.26927E-02
         0.26927E-02
         0.26927E-02
         0.26927E-02
         0.26927E-02
         0.26927E-02
         0.26927E-02
         0.26927E-02
         0.26927E-02
         0.26927E-02
         0.26927E-02
         0.26927E-02
         0.26927E-02
         0.26927E-02
         0.26927E-02
         0.26927E-02
         0.26928E-02
         0.26928E-02
         0.26928E-02
         0.26928E-02
         0.26928E-02
         0.26928E-02
         0.26928E-02
         0.26928E-02
         0.26928E-02
         0.26928E-02
         0.26928E-02
         0.26928E-02
         0.26928E-02
         0.26928E-02
         0.26928E-02
         0.26928E-02
         0.26928E-02
         0.26928E-02
         0.26928E-02
         0.26928E-02
         0.26928E-02
         0.26928E-02
         0.26928E-02
         0.26928E-02
         0.26928E-02
         0.26928E-02
         0.26928E-02
         0.26928E-02
         0.26928E-02
         0.26928E-02
         0.26928E-02
         0.26928E-02
         0.26928E-02
         0.26928E-02
         0.26928E-02
         0.26928E-02
         0.26928E-02
         0.26928E-02
         0.26928E-02
         0.26928E-02
         0.26928E-02
         0.26928E-02
         0.26928E-02
         0.26928E-02
         0.26928E-02
         0.26928E-02
         0.26928E-02
         0.26928E-02
         0.26928E-02
         0.26928E-02
         0.26928E-02
         0.26928E-02
         0.26928E-02
         0.26928E-02
         0.26928E-02
         0.26928E-02
         0.26928E-02
         0.26928E-02
         0.26928E-02
         0.26928E-02
         0.26928E-02
         0.26928E-02
         0.26928E-02
         0.26928E-02
         0.26928E-02
         0.26928E-02
         0.26928E-02
         0.26928E-02
         0.26928E-02
         0.26928E-02
         0.26928E-02
         0.26928E-02
         0.26928E-02
         0.26928E-02
         0.26928E-02
         0.26928E-02
         0.26928E-02
         0.26928E-02
         0.26928E-02
         0.26928E-02
         0.26928E-02
         0.26928E-02
         0.26928E-02
         0.26928E-02
         0.26928E-02
         0.26928E-02
         0.26928E-02
         0.26928E-02
         0.26928E-02
         0.26928E-02
         0.26928E-02
         0.26928E-02
         0.26928E-02
         0.26928E-02
         0.26928E-02
         0.26928E-02
         0.26928E-02
         0.26928E-02
         0.26928E-02
         0.26928E-02
         0.26928E-02
         0.26928E-02
         0.26928E-02
         0.26928E-02
         0.26928E-02
         0.26928E-02
         0.26928E-02
         0.26928E-02
         0.26928E-02
         0.26928E-02
         0.26928E-02
         0.26928E-02
         0.26928E-02
         0.26928E-02
         0.26928E-02
         0.26928E-02
         0.26928E-02
         0.26928E-02
         0.26928E-02
         0.26928E-02
         0.26928E-02
         0.26928E-02
         0.26928E-02
         0.26928E-02
         0.26928E-02
         0.26928E-02
         0.26928E-02
         0.26928E-02
         0.26928E-02
         0.26928E-02
         0.26928E-02
         0.26928E-02
         0.26928E-02
         0.26928E-02
         0.26928E-02
         0.26928E-02
         0.26928E-02
         0.26928E-02
         0.26928E-02
         0.26928E-02
         0.26928E-02
         0.26928E-02
         0.26928E-02
         0.26928E-02
         0.26928E-02
         0.26928E-02
         0.26928E-02
         0.26928E-02
         0.26928E-02
         0.26928E-02
         0.26928E-02
         0.26928E-02
         0.26928E-02
         0.26928E-02
         0.26928E-02
         0.26928E-02
  
SCALARS                   nodal_volume  double 1
LOOKUP_TABLE default
         0.91140E-09
         0.72412E-09
         0.77574E-09
         0.13316E-08
         0.45570E-09
         0.36211E-09
         0.38787E-09
         0.66566E-09
         0.71537E-09
         0.91211E-09
         0.35767E-09
         0.45600E-09
         0.51195E-09
         0.61532E-09
         0.25605E-09
         0.30776E-09
         0.10101E-08
         0.74536E-09
         0.50500E-09
         0.37281E-09
         0.30273E-09
         0.57012E-09
         0.62699E-09
         0.15144E-09
         0.28509E-09
         0.31352E-09
         0.51329E-09
         0.64933E-09
         0.25683E-09
         0.32471E-09
         0.12026E-08
         0.93909E-09
         0.11935E-08
         0.60122E-09
         0.46945E-09
         0.59663E-09
         0.70296E-09
         0.80270E-09
         0.35149E-09
         0.40134E-09
         0.75859E-09
         0.84013E-09
         0.37932E-09
         0.42007E-09
         0.64542E-09
         0.40086E-09
         0.32274E-09
         0.20045E-09
         0.76288E-09
         0.38153E-09
         0.63346E-09
         0.31675E-09
         0.66583E-09
         0.33318E-09
         0.68008E-09
         0.34022E-09
         0.58930E-09
         0.71738E-09
         0.29472E-09
         0.35874E-09
         0.90938E-09
         0.64302E-09
         0.45469E-09
         0.32154E-09
         0.10152E-08
         0.50747E-09
         0.88120E-09
         0.44042E-09
         0.40077E-09
         0.61872E-09
         0.20039E-09
         0.30940E-09
         0.70206E-09
         0.35106E-09
         0.74172E-09
         0.37089E-09
         0.71539E-09
         0.35770E-09
         0.56226E-09
         0.28113E-09
         0.35349E-09
         0.58452E-09
         0.17675E-09
         0.29229E-09
         0.77354E-09
         0.38679E-09
         0.62469E-09
         0.31238E-09
         0.54957E-09
         0.27483E-09
         0.36009E-09
         0.61365E-09
         0.18007E-09
         0.30685E-09
         0.83268E-09
         0.41635E-09
         0.87287E-09
         0.43642E-09
         0.70438E-09
         0.35217E-09
         0.43365E-09
         0.74413E-09
         0.21683E-09
         0.37198E-09
         0.27660E-09
         0.35144E-09
         0.13833E-09
         0.17573E-09
         0.32921E-09
         0.16465E-09
         0.38764E-09
         0.19382E-09
         0.37797E-09
         0.18897E-09
         0.36707E-09
         0.18352E-09
         0.39112E-09
         0.19552E-09
         0.41268E-09
         0.20627E-09
         0.38876E-09
         0.19433E-09
         0.30402E-09
         0.15200E-09
         0.24796E-09
         0.12398E-09
         0.31999E-09
         0.16000E-09
         0.42608E-09
         0.21303E-09
         0.46805E-09
         0.23401E-09
         0.44933E-09
         0.22466E-09
         0.40550E-09
         0.20276E-09
         0.36826E-09
         0.18414E-09
         0.29911E-09
         0.14956E-09
         0.25178E-09
         0.12591E-09
         0.32888E-09
         0.16445E-09
         0.43529E-09
         0.21765E-09
         0.44963E-09
         0.22482E-09
         0.36384E-09
         0.18194E-09
         0.29543E-09
         0.14774E-09
         0.36126E-09
         0.18063E-09
         0.42771E-09
         0.21386E-09
         0.91143E-09
         0.72396E-09
         0.77579E-09
         0.13322E-08
         0.71547E-09
         0.91237E-09
         0.51167E-09
         0.61494E-09
         0.10105E-08
         0.74486E-09
         0.30244E-09
         0.57001E-09
         0.62694E-09
         0.51257E-09
         0.64918E-09
         0.12029E-08
         0.93950E-09
         0.11941E-08
         0.70298E-09
         0.80279E-09
         0.75855E-09
         0.84015E-09
         0.64535E-09
         0.40081E-09
         0.76254E-09
         0.63339E-09
         0.66483E-09
         0.67941E-09
         0.58904E-09
         0.71721E-09
         0.90946E-09
         0.64293E-09
         0.10157E-08
         0.88199E-09
         0.40076E-09
         0.61859E-09
         0.70195E-09
         0.74166E-09
         0.71543E-09
         0.56228E-09
         0.35349E-09
         0.58443E-09
         0.77349E-09
         0.62459E-09
         0.54943E-09
         0.35999E-09
         0.61359E-09
         0.83268E-09
         0.87299E-09
         0.70451E-09
         0.43366E-09
         0.74449E-09
         0.27651E-09
         0.35143E-09
         0.32904E-09
         0.38765E-09
         0.37805E-09
         0.36714E-09
         0.39129E-09
         0.41297E-09
         0.38899E-09
         0.30408E-09
         0.24798E-09
         0.31999E-09
         0.42613E-09
         0.46815E-09
         0.44938E-09
         0.40548E-09
         0.36823E-09
         0.29908E-09
         0.25174E-09
         0.32885E-09
         0.43527E-09
         0.44962E-09
         0.36376E-09
         0.29536E-09
         0.36130E-09
         0.42769E-09
         0.91151E-09
         0.72383E-09
         0.77587E-09
         0.13329E-08
         0.71560E-09
         0.91267E-09
         0.51142E-09
         0.61459E-09
         0.10109E-08
         0.74439E-09
         0.30216E-09
         0.56992E-09
         0.62691E-09
         0.51187E-09
         0.64906E-09
         0.12033E-08
         0.93995E-09
         0.11947E-08
         0.70302E-09
         0.80291E-09
         0.75853E-09
         0.84020E-09
         0.64530E-09
         0.40078E-09
         0.76223E-09
         0.63335E-09
         0.66385E-09
         0.67875E-09
         0.58880E-09
         0.71706E-09
         0.90957E-09
         0.64286E-09
         0.10162E-08
         0.88281E-09
         0.40076E-09
         0.61849E-09
         0.70188E-09
         0.74162E-09
         0.71550E-09
         0.56232E-09
         0.35350E-09
         0.58436E-09
         0.77347E-09
         0.62452E-09
         0.54931E-09
         0.35990E-09
         0.61355E-09
         0.83270E-09
         0.87315E-09
         0.70467E-09
         0.43368E-09
         0.74487E-09
         0.27643E-09
         0.35143E-09
         0.32889E-09
         0.38767E-09
         0.37814E-09
         0.36723E-09
         0.39147E-09
         0.41328E-09
         0.38923E-09
         0.30416E-09
         0.24800E-09
         0.32001E-09
         0.42620E-09
         0.46826E-09
         0.44944E-09
         0.40548E-09
         0.36821E-09
         0.29906E-09
         0.25171E-09
         0.32883E-09
         0.43527E-09
         0.44963E-09
         0.36369E-09
         0.29530E-09
         0.36135E-09
         0.42769E-09
         0.91156E-09
         0.72368E-09
         0.77594E-09
         0.13335E-08
         0.71571E-09
         0.91295E-09
         0.51115E-09
         0.61422E-09
         0.10112E-08
         0.74389E-09
         0.30187E-09
         0.56982E-09
         0.62686E-09
         0.51116E-09
         0.64892E-09
         0.12036E-08
         0.94038E-09
         0.11953E-08
         0.70304E-09
         0.80300E-09
         0.75850E-09
         0.84023E-09
         0.64523E-09
         0.40073E-09
         0.76190E-09
         0.63330E-09
         0.66285E-09
         0.67809E-09
         0.58855E-09
         0.71689E-09
         0.90966E-09
         0.64278E-09
         0.10168E-08
         0.88361E-09
         0.40076E-09
         0.61837E-09
         0.70178E-09
         0.74156E-09
         0.71554E-09
         0.56234E-09
         0.35350E-09
         0.58428E-09
         0.77343E-09
         0.62442E-09
         0.54918E-09
         0.35981E-09
         0.61349E-09
         0.83271E-09
         0.87328E-09
         0.70481E-09
         0.43369E-09
         0.74524E-09
         0.27634E-09
         0.35142E-09
         0.32873E-09
         0.38768E-09
         0.37823E-09
         0.36731E-09
         0.39163E-09
         0.41358E-09
         0.38945E-09
         0.30422E-09
         0.24802E-09
         0.32001E-09
         0.42625E-09
         0.46837E-09
         0.44949E-09
         0.40546E-09
         0.36819E-09
         0.29904E-09
         0.25167E-09
         0.32881E-09
         0.43526E-09
         0.44963E-09
         0.36362E-09
         0.29523E-09
         0.36139E-09
         0.42768E-09
         0.91161E-09
         0.72353E-09
         0.77600E-09
         0.13341E-08
         0.71583E-09
         0.91323E-09
         0.51088E-09
         0.61386E-09
         0.10116E-08
         0.74341E-09
         0.30158E-09
         0.56972E-09
         0.62682E-09
         0.51045E-09
         0.64879E-09
         0.12040E-08
         0.94081E-09
         0.11959E-08
         0.70307E-09
         0.80310E-09
         0.75847E-09
         0.84027E-09
         0.64517E-09
         0.40069E-09
         0.76158E-09
         0.63325E-09
         0.66186E-09
         0.67742E-09
         0.58831E-09
         0.71673E-09
         0.90975E-09
         0.64270E-09
         0.10173E-08
         0.88441E-09
         0.40075E-09
         0.61825E-09
         0.70169E-09
         0.74151E-09
         0.71559E-09
         0.56237E-09
         0.35350E-09
         0.58420E-09
         0.77339E-09
         0.62433E-09
         0.54905E-09
         0.35972E-09
         0.61344E-09
         0.83272E-09
         0.87341E-09
         0.70496E-09
         0.43370E-09
         0.74562E-09
         0.27626E-09
         0.35142E-09
         0.32857E-09
         0.38770E-09
         0.37832E-09
         0.36739E-09
         0.39181E-09
         0.41387E-09
         0.38968E-09
         0.30429E-09
         0.24804E-09
         0.32002E-09
         0.42631E-09
         0.46847E-09
         0.44954E-09
         0.40545E-09
         0.36816E-09
         0.29901E-09
         0.25163E-09
         0.32878E-09
         0.43525E-09
         0.44963E-09
         0.36354E-09
         0.29517E-09
         0.36144E-09
         0.42766E-09
         0.91167E-09
         0.72338E-09
         0.77607E-09
         0.13348E-08
         0.71594E-09
         0.91351E-09
         0.51062E-09
         0.61349E-09
         0.10119E-08
         0.74292E-09
         0.30129E-09
         0.56962E-09
         0.62678E-09
         0.50974E-09
         0.64865E-09
         0.12044E-08
         0.94125E-09
         0.11965E-08
         0.70310E-09
         0.80321E-09
         0.75844E-09
         0.84031E-09
         0.64511E-09
         0.40065E-09
         0.76125E-09
         0.63320E-09
         0.66087E-09
         0.67676E-09
         0.58806E-09
         0.71657E-09
         0.90984E-09
         0.64263E-09
         0.10179E-08
         0.88522E-09
         0.40075E-09
         0.61813E-09
         0.70160E-09
         0.74146E-09
         0.71564E-09
         0.56240E-09
         0.35350E-09
         0.58412E-09
         0.77336E-09
         0.62425E-09
         0.54892E-09
         0.35963E-09
         0.61339E-09
         0.83274E-09
         0.87355E-09
         0.70511E-09
         0.43371E-09
         0.74599E-09
         0.27618E-09
         0.35141E-09
         0.32841E-09
         0.38771E-09
         0.37841E-09
         0.36747E-09
         0.39198E-09
         0.41417E-09
         0.38992E-09
         0.30436E-09
         0.24806E-09
         0.32003E-09
         0.42637E-09
         0.46858E-09
         0.44960E-09
         0.40544E-09
         0.36814E-09
         0.29899E-09
         0.25159E-09
         0.32876E-09
         0.43525E-09
         0.44963E-09
         0.36347E-09
         0.29511E-09
         0.36148E-09
         0.42766E-09
         0.91171E-09
         0.72323E-09
         0.77613E-09
         0.13354E-08
         0.71606E-09
         0.91379E-09
         0.51035E-09
         0.61313E-09
         0.10123E-08
         0.74243E-09
         0.30101E-09
         0.56952E-09
         0.62674E-09
         0.50903E-09
         0.64851E-09
         0.12047E-08
         0.94167E-09
         0.11971E-08
         0.70312E-09
         0.80331E-09
         0.75840E-09
         0.84034E-09
         0.64504E-09
         0.40061E-09
         0.76092E-09
         0.63314E-09
         0.65988E-09
         0.67609E-09
         0.58781E-09
         0.71641E-09
         0.90993E-09
         0.64255E-09
         0.10184E-08
         0.88601E-09
         0.40075E-09
         0.61801E-09
         0.70151E-09
         0.74140E-09
         0.71569E-09
         0.56243E-09
         0.35350E-09
         0.58404E-09
         0.77332E-09
         0.62416E-09
         0.54879E-09
         0.35953E-09
         0.61334E-09
         0.83274E-09
         0.87368E-09
         0.70525E-09
         0.43372E-09
         0.74636E-09
         0.27609E-09
         0.35141E-09
         0.32825E-09
         0.38772E-09
         0.37849E-09
         0.36754E-09
         0.39215E-09
         0.41447E-09
         0.39014E-09
         0.30443E-09
         0.24808E-09
         0.32004E-09
         0.42642E-09
         0.46868E-09
         0.44965E-09
         0.40543E-09
         0.36812E-09
         0.29897E-09
         0.25155E-09
         0.32874E-09
         0.43524E-09
         0.44963E-09
         0.36340E-09
         0.29504E-09
         0.36153E-09
         0.42764E-09
         0.91176E-09
         0.72308E-09
         0.77620E-09
         0.13360E-08
         0.71617E-09
         0.91407E-09
         0.51008E-09
         0.61276E-09
         0.10126E-08
         0.74195E-09
         0.30072E-09
         0.56942E-09
         0.62670E-09
         0.50832E-09
         0.64838E-09
         0.12051E-08
         0.94210E-09
         0.11977E-08
         0.70314E-09
         0.80341E-09
         0.75837E-09
         0.84038E-09
         0.64498E-09
         0.40056E-09
         0.76060E-09
         0.63309E-09
         0.65888E-09
         0.67542E-09
         0.58756E-09
         0.71624E-09
         0.91002E-09
         0.64247E-09
         0.10189E-08
         0.88682E-09
         0.40074E-09
         0.61790E-09
         0.70142E-09
         0.74135E-09
         0.71574E-09
         0.56245E-09
         0.35351E-09
         0.58396E-09
         0.77328E-09
         0.62407E-09
         0.54866E-09
         0.35944E-09
         0.61329E-09
         0.83275E-09
         0.87382E-09
         0.70539E-09
         0.43373E-09
         0.74673E-09
         0.27601E-09
         0.35140E-09
         0.32809E-09
         0.38774E-09
         0.37858E-09
         0.36762E-09
         0.39232E-09
         0.41477E-09
         0.39037E-09
         0.30450E-09
         0.24810E-09
         0.32005E-09
         0.42648E-09
         0.46879E-09
         0.44970E-09
         0.40541E-09
         0.36809E-09
         0.29894E-09
         0.25151E-09
         0.32871E-09
         0.43523E-09
         0.44963E-09
         0.36333E-09
         0.29497E-09
         0.36157E-09
         0.42763E-09
         0.91182E-09
         0.72293E-09
         0.77627E-09
         0.13367E-08
         0.71629E-09
         0.91436E-09
         0.50982E-09
         0.61240E-09
         0.10130E-08
         0.74146E-09
         0.30043E-09
         0.56932E-09
         0.62666E-09
         0.50762E-09
         0.64825E-09
         0.12054E-08
         0.94253E-09
         0.11983E-08
         0.70317E-09
         0.80351E-09
         0.75834E-09
         0.84041E-09
         0.64491E-09
         0.40053E-09
         0.76028E-09
         0.63304E-09
         0.65790E-09
         0.67476E-09
         0.58731E-09
         0.71609E-09
         0.91012E-09
         0.64239E-09
         0.10195E-08
         0.88762E-09
         0.40074E-09
         0.61778E-09
         0.70133E-09
         0.74130E-09
         0.71579E-09
         0.56249E-09
         0.35351E-09
         0.58388E-09
         0.77324E-09
         0.62398E-09
         0.54853E-09
         0.35935E-09
         0.61324E-09
         0.83277E-09
         0.87396E-09
         0.70554E-09
         0.43375E-09
         0.74711E-09
         0.27592E-09
         0.35140E-09
         0.32793E-09
         0.38775E-09
         0.37867E-09
         0.36770E-09
         0.39249E-09
         0.41507E-09
         0.39061E-09
         0.30457E-09
         0.24812E-09
         0.32006E-09
         0.42654E-09
         0.46890E-09
         0.44975E-09
         0.40540E-09
         0.36807E-09
         0.29892E-09
         0.25148E-09
         0.32869E-09
         0.43522E-09
         0.44963E-09
         0.36325E-09
         0.29491E-09
         0.36162E-09
         0.42762E-09
         0.91187E-09
         0.72278E-09
         0.77633E-09
         0.13373E-08
         0.71640E-09
         0.91463E-09
         0.50955E-09
         0.61204E-09
         0.10134E-08
         0.74098E-09
         0.30015E-09
         0.56922E-09
         0.62662E-09
         0.50691E-09
         0.64811E-09
         0.12058E-08
         0.94296E-09
         0.11989E-08
         0.70320E-09
         0.80361E-09
         0.75831E-09
         0.84045E-09
         0.64485E-09
         0.40048E-09
         0.75995E-09
         0.63298E-09
         0.65690E-09
         0.67409E-09
         0.58706E-09
         0.71592E-09
         0.91020E-09
         0.64231E-09
         0.10200E-08
         0.88843E-09
         0.40074E-09
         0.61766E-09
         0.70124E-09
         0.74124E-09
         0.71584E-09
         0.56251E-09
         0.35351E-09
         0.58380E-09
         0.77320E-09
         0.62389E-09
         0.54840E-09
         0.35926E-09
         0.61318E-09
         0.83277E-09
         0.87409E-09
         0.70568E-09
         0.43376E-09
         0.74748E-09
         0.27584E-09
         0.35139E-09
         0.32777E-09
         0.38777E-09
         0.37876E-09
         0.36778E-09
         0.39266E-09
         0.41536E-09
         0.39084E-09
         0.30464E-09
         0.24814E-09
         0.32006E-09
         0.42659E-09
         0.46900E-09
         0.44980E-09
         0.40539E-09
         0.36805E-09
         0.29890E-09
         0.25144E-09
         0.32867E-09
         0.43521E-09
         0.44963E-09
         0.36318E-09
         0.29485E-09
         0.36166E-09
         0.42761E-09
         0.91192E-09
         0.72263E-09
         0.77640E-09
         0.13380E-08
         0.71652E-09
         0.91491E-09
         0.50928E-09
         0.61167E-09
         0.10137E-08
         0.74049E-09
         0.29986E-09
         0.56912E-09
         0.62657E-09
         0.50620E-09
         0.64797E-09
         0.12061E-08
         0.94339E-09
         0.11995E-08
         0.70322E-09
         0.80371E-09
         0.75827E-09
         0.84048E-09
         0.64478E-09
         0.40044E-09
         0.75962E-09
         0.63293E-09
         0.65591E-09
         0.67343E-09
         0.58681E-09
         0.71576E-09
         0.91029E-09
         0.64223E-09
         0.10205E-08
         0.88923E-09
         0.40073E-09
         0.61754E-09
         0.70114E-09
         0.74119E-09
         0.71588E-09
         0.56254E-09
         0.35351E-09
         0.58372E-09
         0.77316E-09
         0.62380E-09
         0.54827E-09
         0.35917E-09
         0.61313E-09
         0.83278E-09
         0.87422E-09
         0.70582E-09
         0.43377E-09
         0.74785E-09
         0.27575E-09
         0.35138E-09
         0.32761E-09
         0.38778E-09
         0.37885E-09
         0.36786E-09
         0.39283E-09
         0.41566E-09
         0.39107E-09
         0.30470E-09
         0.24816E-09
         0.32007E-09
         0.42665E-09
         0.46911E-09
         0.44985E-09
         0.40538E-09
         0.36802E-09
         0.29887E-09
         0.25140E-09
         0.32864E-09
         0.43520E-09
         0.44963E-09
         0.36310E-09
         0.29478E-09
         0.36170E-09
         0.42760E-09
         0.91198E-09
         0.72248E-09
         0.77646E-09
         0.13386E-08
         0.71663E-09
         0.91520E-09
         0.50901E-09
         0.61131E-09
         0.10141E-08
         0.74000E-09
         0.29957E-09
         0.56902E-09
         0.62653E-09
         0.50549E-09
         0.64784E-09
         0.12065E-08
         0.94382E-09
         0.12002E-08
         0.70325E-09
         0.80381E-09
         0.75824E-09
         0.84052E-09
         0.64472E-09
         0.40040E-09
         0.75929E-09
         0.63288E-09
         0.65492E-09
         0.67276E-09
         0.58657E-09
         0.71560E-09
         0.91038E-09
         0.64216E-09
         0.10211E-08
         0.89003E-09
         0.40073E-09
         0.61742E-09
         0.70105E-09
         0.74114E-09
         0.71593E-09
         0.56257E-09
         0.35351E-09
         0.58364E-09
         0.77313E-09
         0.62371E-09
         0.54814E-09
         0.35908E-09
         0.61308E-09
         0.83280E-09
         0.87436E-09
         0.70597E-09
         0.43378E-09
         0.74823E-09
         0.27567E-09
         0.35138E-09
         0.32745E-09
         0.38779E-09
         0.37893E-09
         0.36794E-09
         0.39300E-09
         0.41596E-09
         0.39130E-09
         0.30477E-09
         0.24818E-09
         0.32008E-09
         0.42671E-09
         0.46921E-09
         0.44991E-09
         0.40537E-09
         0.36800E-09
         0.29885E-09
         0.25136E-09
         0.32862E-09
         0.43520E-09
         0.44963E-09
         0.36303E-09
         0.29472E-09
         0.36175E-09
         0.42759E-09
         0.91203E-09
         0.72233E-09
         0.77653E-09
         0.13392E-08
         0.71675E-09
         0.91547E-09
         0.50875E-09
         0.61094E-09
         0.10144E-08
         0.73952E-09
         0.29928E-09
         0.56892E-09
         0.62649E-09
         0.50478E-09
         0.64770E-09
         0.12068E-08
         0.94424E-09
         0.12008E-08
         0.70327E-09
         0.80391E-09
         0.75821E-09
         0.84055E-09
         0.64465E-09
         0.40035E-09
         0.75896E-09
         0.63282E-09
         0.65393E-09
         0.67210E-09
         0.58632E-09
         0.71543E-09
         0.91047E-09
         0.64208E-09
         0.10216E-08
         0.89084E-09
         0.40073E-09
         0.61730E-09
         0.70096E-09
         0.74108E-09
         0.71598E-09
         0.56259E-09
         0.35351E-09
         0.58356E-09
         0.77309E-09
         0.62362E-09
         0.54801E-09
         0.35898E-09
         0.61303E-09
         0.83281E-09
         0.87449E-09
         0.70611E-09
         0.43379E-09
         0.74860E-09
         0.27558E-09
         0.35137E-09
         0.32729E-09
         0.38781E-09
         0.37902E-09
         0.36802E-09
         0.39317E-09
         0.41625E-09
         0.39153E-09
         0.30484E-09
         0.24820E-09
         0.32009E-09
         0.42677E-09
         0.46932E-09
         0.44996E-09
         0.40536E-09
         0.36798E-09
         0.29883E-09
         0.25132E-09
         0.32859E-09
         0.43519E-09
         0.44963E-09
         0.36296E-09
         0.29465E-09
         0.36179E-09
         0.42758E-09
         0.91208E-09
         0.72218E-09
         0.77659E-09
         0.13399E-08
         0.71686E-09
         0.91576E-09
         0.50848E-09
         0.61058E-09
         0.10148E-08
         0.73903E-09
         0.29900E-09
         0.56882E-09
         0.62645E-09
         0.50408E-09
         0.64757E-09
         0.12072E-08
         0.94467E-09
         0.12014E-08
         0.70330E-09
         0.80401E-09
         0.75818E-09
         0.84059E-09
         0.64459E-09
         0.40031E-09
         0.75864E-09
         0.63277E-09
         0.65294E-09
         0.67143E-09
         0.58607E-09
         0.71527E-09
         0.91057E-09
         0.64200E-09
         0.10221E-08
         0.89164E-09
         0.40072E-09
         0.61719E-09
         0.70087E-09
         0.74103E-09
         0.71603E-09
         0.56262E-09
         0.35352E-09
         0.58348E-09
         0.77305E-09
         0.62354E-09
         0.54788E-09
         0.35889E-09
         0.61298E-09
         0.83282E-09
         0.87463E-09
         0.70626E-09
         0.43380E-09
         0.74897E-09
         0.27550E-09
         0.35137E-09
         0.32713E-09
         0.38782E-09
         0.37911E-09
         0.36810E-09
         0.39334E-09
         0.41655E-09
         0.39176E-09
         0.30491E-09
         0.24822E-09
         0.32010E-09
         0.42682E-09
         0.46942E-09
         0.45001E-09
         0.40534E-09
         0.36796E-09
         0.29881E-09
         0.25128E-09
         0.32857E-09
         0.43518E-09
         0.44963E-09
         0.36288E-09
         0.29459E-09
         0.36184E-09
         0.42757E-09
         0.91214E-09
         0.72204E-09
         0.77666E-09
         0.13405E-08
         0.71698E-09
         0.91604E-09
         0.50822E-09
         0.61022E-09
         0.10151E-08
         0.73855E-09
         0.29871E-09
         0.56872E-09
         0.62641E-09
         0.50337E-09
         0.64743E-09
         0.12075E-08
         0.94510E-09
         0.12020E-08
         0.70333E-09
         0.80411E-09
         0.75815E-09
         0.84063E-09
         0.64453E-09
         0.40027E-09
         0.75831E-09
         0.63272E-09
         0.65196E-09
         0.67077E-09
         0.58582E-09
         0.71511E-09
         0.91066E-09
         0.64192E-09
         0.10227E-08
         0.89245E-09
         0.40072E-09
         0.61707E-09
         0.70078E-09
         0.74098E-09
         0.71608E-09
         0.56265E-09
         0.35352E-09
         0.58340E-09
         0.77301E-09
         0.62345E-09
         0.54775E-09
         0.35880E-09
         0.61293E-09
         0.83283E-09
         0.87476E-09
         0.70641E-09
         0.43382E-09
         0.74935E-09
         0.27541E-09
         0.35136E-09
         0.32697E-09
         0.38784E-09
         0.37920E-09
         0.36818E-09
         0.39352E-09
         0.41685E-09
         0.39199E-09
         0.30498E-09
         0.24824E-09
         0.32011E-09
         0.42688E-09
         0.46953E-09
         0.45007E-09
         0.40533E-09
         0.36793E-09
         0.29878E-09
         0.25124E-09
         0.32855E-09
         0.43517E-09
         0.44963E-09
         0.36281E-09
         0.29452E-09
         0.36188E-09
         0.42756E-09
         0.91219E-09
         0.72188E-09
         0.77672E-09
         0.13412E-08
         0.71709E-09
         0.91632E-09
         0.50795E-09
         0.60986E-09
         0.10155E-08
         0.73806E-09
         0.29842E-09
         0.56862E-09
         0.62636E-09
         0.50266E-09
         0.64730E-09
         0.12079E-08
         0.94552E-09
         0.12026E-08
         0.70335E-09
         0.80421E-09
         0.75811E-09
         0.84066E-09
         0.64446E-09
         0.40023E-09
         0.75798E-09
         0.63267E-09
         0.65096E-09
         0.67010E-09
         0.58557E-09
         0.71494E-09
         0.91074E-09
         0.64184E-09
         0.10232E-08
         0.89325E-09
         0.40072E-09
         0.61695E-09
         0.70069E-09
         0.74092E-09
         0.71612E-09
         0.56268E-09
         0.35352E-09
         0.58332E-09
         0.77297E-09
         0.62336E-09
         0.54762E-09
         0.35871E-09
         0.61287E-09
         0.83284E-09
         0.87489E-09
         0.70655E-09
         0.43383E-09
         0.74972E-09
         0.27533E-09
         0.35136E-09
         0.32681E-09
         0.38785E-09
         0.37929E-09
         0.36825E-09
         0.39369E-09
         0.41715E-09
         0.39222E-09
         0.30505E-09
         0.24826E-09
         0.32011E-09
         0.42694E-09
         0.46963E-09
         0.45011E-09
         0.40532E-09
         0.36791E-09
         0.29876E-09
         0.25120E-09
         0.32853E-09
         0.43516E-09
         0.44962E-09
         0.36274E-09
         0.29445E-09
         0.36192E-09
         0.42755E-09
         0.91224E-09
         0.72173E-09
         0.77679E-09
         0.13418E-08
         0.71720E-09
         0.91660E-09
         0.50768E-09
         0.60949E-09
         0.10158E-08
         0.73758E-09
         0.29814E-09
         0.56852E-09
         0.62632E-09
         0.50195E-09
         0.64716E-09
         0.12082E-08
         0.94595E-09
         0.12032E-08
         0.70337E-09
         0.80431E-09
         0.75808E-09
         0.84069E-09
         0.64440E-09
         0.40018E-09
         0.75766E-09
         0.63262E-09
         0.64998E-09
         0.66943E-09
         0.58532E-09
         0.71478E-09
         0.91083E-09
         0.64176E-09
         0.10238E-08
         0.89406E-09
         0.40071E-09
         0.61683E-09
         0.70059E-09
         0.74087E-09
         0.71617E-09
         0.56270E-09
         0.35352E-09
         0.58324E-09
         0.77294E-09
         0.62327E-09
         0.54749E-09
         0.35861E-09
         0.61282E-09
         0.83284E-09
         0.87503E-09
         0.70669E-09
         0.43384E-09
         0.75009E-09
         0.27524E-09
         0.35135E-09
         0.32665E-09
         0.38786E-09
         0.37937E-09
         0.36833E-09
         0.39386E-09
         0.41745E-09
         0.39245E-09
         0.30512E-09
         0.24828E-09
         0.32012E-09
         0.42699E-09
         0.46974E-09
         0.45017E-09
         0.40531E-09
         0.36788E-09
         0.29873E-09
         0.25117E-09
         0.32850E-09
         0.43515E-09
         0.44962E-09
         0.36266E-09
         0.29439E-09
         0.36197E-09
         0.42754E-09
         0.91230E-09
         0.72159E-09
         0.77686E-09
         0.13425E-08
         0.71732E-09
         0.91688E-09
         0.50742E-09
         0.60913E-09
         0.10162E-08
         0.73710E-09
         0.29785E-09
         0.56842E-09
         0.62628E-09
         0.50125E-09
         0.64703E-09
         0.12086E-08
         0.94638E-09
         0.12038E-08
         0.70340E-09
         0.80441E-09
         0.75805E-09
         0.84073E-09
         0.64433E-09
         0.40014E-09
         0.75733E-09
         0.63257E-09
         0.64899E-09
         0.66877E-09
         0.58508E-09
         0.71462E-09
         0.91093E-09
         0.64169E-09
         0.10243E-08
         0.89487E-09
         0.40071E-09
         0.61671E-09
         0.70051E-09
         0.74082E-09
         0.71622E-09
         0.56273E-09
         0.35352E-09
         0.58316E-09
         0.77290E-09
         0.62318E-09
         0.54737E-09
         0.35852E-09
         0.61277E-09
         0.83286E-09
         0.87517E-09
         0.70684E-09
         0.43385E-09
         0.75047E-09
         0.27516E-09
         0.35135E-09
         0.32649E-09
         0.38788E-09
         0.37946E-09
         0.36841E-09
         0.39403E-09
         0.41775E-09
         0.39268E-09
         0.30519E-09
         0.24830E-09
         0.32013E-09
         0.42705E-09
         0.46985E-09
         0.45022E-09
         0.40530E-09
         0.36786E-09
         0.29871E-09
         0.25113E-09
         0.32848E-09
         0.43515E-09
         0.44962E-09
         0.36259E-09
         0.29433E-09
         0.36201E-09
         0.42753E-09
         0.91235E-09
         0.72143E-09
         0.77692E-09
         0.13431E-08
         0.71743E-09
         0.91716E-09
         0.50715E-09
         0.60877E-09
         0.10165E-08
         0.73661E-09
         0.29757E-09
         0.56832E-09
         0.62624E-09
         0.50054E-09
         0.64689E-09
         0.12089E-08
         0.94680E-09
         0.12044E-08
         0.70342E-09
         0.80450E-09
         0.75802E-09
         0.84076E-09
         0.64427E-09
         0.40010E-09
         0.75700E-09
         0.63251E-09
         0.64800E-09
         0.66810E-09
         0.58482E-09
         0.71445E-09
         0.91101E-09
         0.64161E-09
         0.10248E-08
         0.89567E-09
         0.40071E-09
         0.61659E-09
         0.70041E-09
         0.74077E-09
         0.71627E-09
         0.56276E-09
         0.35352E-09
         0.58308E-09
         0.77286E-09
         0.62309E-09
         0.54723E-09
         0.35843E-09
         0.61272E-09
         0.83287E-09
         0.87530E-09
         0.70698E-09
         0.43386E-09
         0.75084E-09
         0.27507E-09
         0.35134E-09
         0.32633E-09
         0.38789E-09
         0.37955E-09
         0.36849E-09
         0.39420E-09
         0.41804E-09
         0.39291E-09
         0.30525E-09
         0.24832E-09
         0.32014E-09
         0.42711E-09
         0.46995E-09
         0.45027E-09
         0.40528E-09
         0.36784E-09
         0.29869E-09
         0.25109E-09
         0.32845E-09
         0.43514E-09
         0.44962E-09
         0.36252E-09
         0.29426E-09
         0.36206E-09
         0.42751E-09
         0.91240E-09
         0.72128E-09
         0.77698E-09
         0.13437E-08
         0.71755E-09
         0.91744E-09
         0.50688E-09
         0.60841E-09
         0.10169E-08
         0.73612E-09
         0.29728E-09
         0.56822E-09
         0.62619E-09
         0.49984E-09
         0.64676E-09
         0.12093E-08
         0.94723E-09
         0.12050E-08
         0.70345E-09
         0.80460E-09
         0.75798E-09
         0.84080E-09
         0.64420E-09
         0.40006E-09
         0.75667E-09
         0.63246E-09
         0.64701E-09
         0.66744E-09
         0.58457E-09
         0.71429E-09
         0.91110E-09
         0.64153E-09
         0.10254E-08
         0.89648E-09
         0.40070E-09
         0.61647E-09
         0.70032E-09
         0.74071E-09
         0.71632E-09
         0.56279E-09
         0.35353E-09
         0.58300E-09
         0.77282E-09
         0.62300E-09
         0.54710E-09
         0.35834E-09
         0.61266E-09
         0.83288E-09
         0.87543E-09
         0.70713E-09
         0.43387E-09
         0.75122E-09
         0.27499E-09
         0.35133E-09
         0.32617E-09
         0.38790E-09
         0.37964E-09
         0.36857E-09
         0.39437E-09
         0.41834E-09
         0.39314E-09
         0.30532E-09
         0.24834E-09
         0.32014E-09
         0.42716E-09
         0.47005E-09
         0.45032E-09
         0.40527E-09
         0.36781E-09
         0.29866E-09
         0.25105E-09
         0.32843E-09
         0.43513E-09
         0.44962E-09
         0.36244E-09
         0.29419E-09
         0.36210E-09
         0.42750E-09
         0.91246E-09
         0.72114E-09
         0.77705E-09
         0.13444E-08
         0.71767E-09
         0.91773E-09
         0.50662E-09
         0.60805E-09
         0.10173E-08
         0.73564E-09
         0.29700E-09
         0.56812E-09
         0.62616E-09
         0.49914E-09
         0.64663E-09
         0.12097E-08
         0.94766E-09
         0.12056E-08
         0.70348E-09
         0.80471E-09
         0.75796E-09
         0.84084E-09
         0.64414E-09
         0.40002E-09
         0.75635E-09
         0.63241E-09
         0.64603E-09
         0.66678E-09
         0.58433E-09
         0.71413E-09
         0.91120E-09
         0.64146E-09
         0.10259E-08
         0.89729E-09
         0.40070E-09
         0.61636E-09
         0.70023E-09
         0.74067E-09
         0.71637E-09
         0.56282E-09
         0.35353E-09
         0.58293E-09
         0.77279E-09
         0.62291E-09
         0.54698E-09
         0.35825E-09
         0.61261E-09
         0.83289E-09
         0.87557E-09
         0.70728E-09
         0.43389E-09
         0.75160E-09
         0.27491E-09
         0.35133E-09
         0.32601E-09
         0.38792E-09
         0.37972E-09
         0.36865E-09
         0.39454E-09
         0.41864E-09
         0.39337E-09
         0.30539E-09
         0.24836E-09
         0.32015E-09
         0.42722E-09
         0.47016E-09
         0.45038E-09
         0.40526E-09
         0.36779E-09
         0.29864E-09
         0.25101E-09
         0.32841E-09
         0.43512E-09
         0.44962E-09
         0.36237E-09
         0.29413E-09
         0.36215E-09
         0.42750E-09
         0.91249E-09
         0.72097E-09
         0.77710E-09
         0.13450E-08
         0.71777E-09
         0.91799E-09
         0.50634E-09
         0.60767E-09
         0.10176E-08
         0.73514E-09
         0.29670E-09
         0.56801E-09
         0.62610E-09
         0.49842E-09
         0.64648E-09
         0.12100E-08
         0.94806E-09
         0.12062E-08
         0.70349E-09
         0.80479E-09
         0.75791E-09
         0.84086E-09
         0.64406E-09
         0.39997E-09
         0.75600E-09
         0.63234E-09
         0.64503E-09
         0.66610E-09
         0.58407E-09
         0.71395E-09
         0.91127E-09
         0.64136E-09
         0.10264E-08
         0.89808E-09
         0.40069E-09
         0.61622E-09
         0.70012E-09
         0.74060E-09
         0.71641E-09
         0.56283E-09
         0.35352E-09
         0.58283E-09
         0.77273E-09
         0.62281E-09
         0.54684E-09
         0.35815E-09
         0.61255E-09
         0.83288E-09
         0.87569E-09
         0.70741E-09
         0.43389E-09
         0.75195E-09
         0.27482E-09
         0.35132E-09
         0.32584E-09
         0.38793E-09
         0.37980E-09
         0.36872E-09
         0.39470E-09
         0.41893E-09
         0.39360E-09
         0.30545E-09
         0.24837E-09
         0.32016E-09
         0.42727E-09
         0.47026E-09
         0.45042E-09
         0.40524E-09
         0.36776E-09
         0.29861E-09
         0.25097E-09
         0.32838E-09
         0.43510E-09
         0.44961E-09
         0.36229E-09
         0.29406E-09
         0.36218E-09
         0.42748E-09
         0.91256E-09
         0.72083E-09
         0.77718E-09
         0.13457E-08
         0.71789E-09
         0.91829E-09
         0.50608E-09
         0.60732E-09
         0.10180E-08
         0.73467E-09
         0.29642E-09
         0.56792E-09
         0.62607E-09
         0.49772E-09
         0.64636E-09
         0.12103E-08
         0.94850E-09
         0.12068E-08
         0.70352E-09
         0.80490E-09
         0.75789E-09
         0.84091E-09
         0.64401E-09
         0.39993E-09
         0.75569E-09
         0.63230E-09
         0.64405E-09
         0.66544E-09
         0.58382E-09
         0.71379E-09
         0.91137E-09
         0.64129E-09
         0.10270E-08
         0.89890E-09
         0.40069E-09
         0.61611E-09
         0.70004E-09
         0.74056E-09
         0.71646E-09
         0.56287E-09
         0.35353E-09
         0.58276E-09
         0.77271E-09
         0.62273E-09
         0.54672E-09
         0.35806E-09
         0.61251E-09
         0.83291E-09
         0.87583E-09
         0.70756E-09
         0.43391E-09
         0.75234E-09
         0.27474E-09
         0.35132E-09
         0.32569E-09
         0.38794E-09
         0.37990E-09
         0.36881E-09
         0.39488E-09
         0.41923E-09
         0.39383E-09
         0.30553E-09
         0.24840E-09
         0.32017E-09
         0.42734E-09
         0.47037E-09
         0.45048E-09
         0.40524E-09
         0.36774E-09
         0.29859E-09
         0.25093E-09
         0.32836E-09
         0.43510E-09
         0.44962E-09
         0.36222E-09
         0.29400E-09
         0.36223E-09
         0.42747E-09
         0.45631E-09
         0.36039E-09
         0.38862E-09
         0.67302E-09
         0.35899E-09
         0.45923E-09
         0.25298E-09
         0.30358E-09
         0.50909E-09
         0.36723E-09
         0.14815E-09
         0.28394E-09
         0.31303E-09
         0.24869E-09
         0.32316E-09
         0.60528E-09
         0.47437E-09
         0.60357E-09
         0.35178E-09
         0.40249E-09
         0.37895E-09
         0.42048E-09
         0.32200E-09
         0.19996E-09
         0.37777E-09
         0.31615E-09
         0.32179E-09
         0.33257E-09
         0.29186E-09
         0.35687E-09
         0.45572E-09
         0.32064E-09
         0.51365E-09
         0.44967E-09
         0.20035E-09
         0.30804E-09
         0.35001E-09
         0.37028E-09
         0.35826E-09
         0.28145E-09
         0.17677E-09
         0.29137E-09
         0.38636E-09
         0.31135E-09
         0.27333E-09
         0.17901E-09
         0.30625E-09
         0.41647E-09
         0.43797E-09
         0.35383E-09
         0.21697E-09
         0.37628E-09
         0.13735E-09
         0.17566E-09
         0.16281E-09
         0.19398E-09
         0.18998E-09
         0.18443E-09
         0.19749E-09
         0.20970E-09
         0.19698E-09
         0.15279E-09
         0.12421E-09
         0.16009E-09
         0.21369E-09
         0.23522E-09
         0.22526E-09
         0.20262E-09
         0.18387E-09
         0.14930E-09
         0.12546E-09
         0.16418E-09
         0.21756E-09
         0.22482E-09
         0.18110E-09
         0.14699E-09
         0.18113E-09
         0.21374E-09
  
SCALARS               pre_disp_force_x  double 1
LOOKUP_TABLE default
         0.00000E+00
         0.00000E+00
         0.00000E+00
         0.00000E+00
         0.00000E+00
         0.00000E+00
         0.00000E+00
         0.00000E+00
         0.00000E+00
         0.00000E+00
         0.00000E+00
         0.00000E+00
         0.00000E+00
         0.00000E+00
         0.00000E+00
         0.00000E+00
         0.00000E+00
         0.00000E+00
         0.00000E+00
         0.00000E+00
         0.00000E+00
         0.00000E+00
         0.00000E+00
         0.00000E+00
         0.00000E+00
         0.00000E+00
         0.00000E+00
         0.00000E+00
         0.00000E+00
         0.00000E+00
         0.00000E+00
         0.00000E+00
         0.00000E+00
         0.00000E+00
         0.00000E+00
         0.00000E+00
         0.00000E+00
         0.00000E+00
         0.00000E+00
         0.00000E+00
         0.00000E+00
         0.00000E+00
         0.00000E+00
         0.00000E+00
         0.00000E+00
         0.00000E+00
         0.00000E+00
         0.00000E+00
         0.00000E+00
         0.00000E+00
         0.00000E+00
         0.00000E+00
         0.00000E+00
         0.00000E+00
         0.00000E+00
         0.00000E+00
         0.00000E+00
         0.00000E+00
         0.00000E+00
         0.00000E+00
         0.00000E+00
         0.00000E+00
         0.00000E+00
         0.00000E+00
         0.00000E+00
         0.00000E+00
         0.00000E+00
         0.00000E+00
         0.00000E+00
         0.00000E+00
         0.00000E+00
         0.00000E+00
         0.00000E+00
         0.00000E+00
         0.00000E+00
         0.00000E+00
         0.00000E+00
         0.00000E+00
         0.00000E+00
         0.00000E+00
         0.00000E+00
         0.00000E+00
         0.00000E+00
         0.00000E+00
         0.00000E+00
         0.00000E+00
         0.00000E+00
         0.00000E+00
         0.00000E+00
         0.00000E+00
         0.00000E+00
         0.00000E+00
         0.00000E+00
         0.00000E+00
         0.00000E+00
         0.00000E+00
         0.00000E+00
         0.00000E+00
         0.00000E+00
         0.00000E+00
         0.00000E+00
         0.00000E+00
         0.00000E+00
         0.00000E+00
         0.00000E+00
         0.00000E+00
         0.00000E+00
         0.00000E+00
         0.00000E+00
         0.00000E+00
         0.00000E+00
         0.00000E+00
         0.00000E+00
         0.00000E+00
         0.00000E+00
         0.00000E+00
         0.00000E+00
         0.00000E+00
         0.00000E+00
         0.00000E+00
         0.00000E+00
         0.00000E+00
         0.00000E+00
         0.00000E+00
         0.00000E+00
         0.00000E+00
         0.00000E+00
         0.00000E+00
         0.00000E+00
         0.00000E+00
         0.00000E+00
         0.00000E+00
         0.00000E+00
         0.00000E+00
         0.00000E+00
         0.00000E+00
         0.00000E+00
         0.00000E+00
         0.00000E+00
         0.00000E+00
         0.00000E+00
         0.00000E+00
         0.00000E+00
         0.00000E+00
         0.00000E+00
         0.00000E+00
         0.00000E+00
         0.00000E+00
         0.00000E+00
         0.00000E+00
         0.00000E+00
         0.00000E+00
         0.00000E+00
         0.00000E+00
         0.00000E+00
         0.00000E+00
         0.00000E+00
         0.00000E+00
         0.00000E+00
         0.00000E+00
         0.00000E+00
         0.00000E+00
         0.00000E+00
         0.00000E+00
         0.00000E+00
         0.00000E+00
         0.00000E+00
         0.00000E+00
         0.00000E+00
         0.00000E+00
         0.00000E+00
         0.00000E+00
         0.00000E+00
         0.00000E+00
         0.00000E+00
         0.00000E+00
         0.00000E+00
         0.00000E+00
         0.00000E+00
         0.00000E+00
         0.00000E+00
         0.00000E+00
         0.00000E+00
         0.00000E+00
         0.00000E+00
         0.00000E+00
         0.00000E+00
         0.00000E+00
         0.00000E+00
         0.00000E+00
         0.00000E+00
         0.00000E+00
         0.00000E+00
         0.00000E+00
         0.00000E+00
         0.00000E+00
         0.00000E+00
         0.00000E+00
         0.00000E+00
         0.00000E+00
         0.00000E+00
         0.00000E+00
         0.00000E+00
         0.00000E+00
         0.00000E+00
         0.00000E+00
         0.00000E+00
         0.00000E+00
         0.00000E+00
         0.00000E+00
         0.00000E+00
         0.00000E+00
         0.00000E+00
         0.00000E+00
         0.00000E+00
         0.00000E+00
         0.00000E+00
         0.00000E+00
         0.00000E+00
         0.00000E+00
         0.00000E+00
         0.00000E+00
         0.00000E+00
         0.00000E+00
         0.00000E+00
         0.00000E+00
         0.00000E+00
         0.00000E+00
         0.00000E+00
         0.00000E+00
         0.00000E+00
         0.00000E+00
         0.00000E+00
         0.00000E+00
         0.00000E+00
         0.00000E+00
         0.00000E+00
         0.00000E+00
         0.00000E+00
         0.00000E+00
         0.00000E+00
         0.00000E+00
         0.00000E+00
         0.00000E+00
         0.00000E+00
         0.00000E+00
         0.00000E+00
         0.00000E+00
         0.00000E+00
         0.00000E+00
         0.00000E+00
         0.00000E+00
         0.00000E+00
         0.00000E+00
         0.00000E+00
         0.00000E+00
         0.00000E+00
         0.00000E+00
         0.00000E+00
         0.00000E+00
         0.00000E+00
         0.00000E+00
         0.00000E+00
         0.00000E+00
         0.00000E+00
         0.00000E+00
         0.00000E+00
         0.00000E+00
         0.00000E+00
         0.00000E+00
         0.00000E+00
         0.00000E+00
         0.00000E+00
         0.00000E+00
         0.00000E+00
         0.00000E+00
         0.00000E+00
         0.00000E+00
         0.00000E+00
         0.00000E+00
         0.00000E+00
         0.00000E+00
         0.00000E+00
         0.00000E+00
         0.00000E+00
         0.00000E+00
         0.00000E+00
         0.00000E+00
         0.00000E+00
         0.00000E+00
         0.00000E+00
         0.00000E+00
         0.00000E+00
         0.00000E+00
         0.00000E+00
         0.00000E+00
         0.00000E+00
         0.00000E+00
         0.00000E+00
         0.00000E+00
         0.00000E+00
         0.00000E+00
         0.00000E+00
         0.00000E+00
         0.00000E+00
         0.00000E+00
         0.00000E+00
         0.00000E+00
         0.00000E+00
         0.00000E+00
         0.00000E+00
         0.00000E+00
         0.00000E+00
         0.00000E+00
         0.00000E+00
         0.00000E+00
         0.00000E+00
         0.00000E+00
         0.00000E+00
         0.00000E+00
         0.00000E+00
         0.00000E+00
         0.00000E+00
         0.00000E+00
         0.00000E+00
         0.00000E+00
         0.00000E+00
         0.00000E+00
         0.00000E+00
         0.00000E+00
         0.00000E+00
         0.00000E+00
         0.00000E+00
         0.00000E+00
         0.00000E+00
         0.00000E+00
         0.00000E+00
         0.00000E+00
         0.00000E+00
         0.00000E+00
         0.00000E+00
         0.00000E+00
         0.00000E+00
         0.00000E+00
         0.00000E+00
         0.00000E+00
         0.00000E+00
         0.00000E+00
         0.00000E+00
         0.00000E+00
         0.00000E+00
         0.00000E+00
         0.00000E+00
         0.00000E+00
         0.00000E+00
         0.00000E+00
         0.00000E+00
         0.00000E+00
         0.00000E+00
         0.00000E+00
         0.00000E+00
         0.00000E+00
         0.00000E+00
         0.00000E+00
         0.00000E+00
         0.00000E+00
         0.00000E+00
         0.00000E+00
         0.00000E+00
         0.00000E+00
         0.00000E+00
         0.00000E+00
         0.00000E+00
         0.00000E+00
         0.00000E+00
         0.00000E+00
         0.00000E+00
         0.00000E+00
         0.00000E+00
         0.00000E+00
         0.00000E+00
         0.00000E+00
         0.00000E+00
         0.00000E+00
         0.00000E+00
         0.00000E+00
         0.00000E+00
         0.00000E+00
         0.00000E+00
         0.00000E+00
         0.00000E+00
         0.00000E+00
         0.00000E+00
         0.00000E+00
         0.00000E+00
         0.00000E+00
         0.00000E+00
         0.00000E+00
         0.00000E+00
         0.00000E+00
         0.00000E+00
         0.00000E+00
         0.00000E+00
         0.00000E+00
         0.00000E+00
         0.00000E+00
         0.00000E+00
         0.00000E+00
         0.00000E+00
         0.00000E+00
         0.00000E+00
         0.00000E+00
         0.00000E+00
         0.00000E+00
         0.00000E+00
         0.00000E+00
         0.00000E+00
         0.00000E+00
         0.00000E+00
         0.00000E+00
         0.00000E+00
         0.00000E+00
         0.00000E+00
         0.00000E+00
         0.00000E+00
         0.00000E+00
         0.00000E+00
         0.00000E+00
         0.00000E+00
         0.00000E+00
         0.00000E+00
         0.00000E+00
         0.00000E+00
         0.00000E+00
         0.00000E+00
         0.00000E+00
         0.00000E+00
         0.00000E+00
         0.00000E+00
         0.00000E+00
         0.00000E+00
         0.00000E+00
         0.00000E+00
         0.00000E+00
         0.00000E+00
         0.00000E+00
         0.00000E+00
         0.00000E+00
         0.00000E+00
         0.00000E+00
         0.00000E+00
         0.00000E+00
         0.00000E+00
         0.00000E+00
         0.00000E+00
         0.00000E+00
         0.00000E+00
         0.00000E+00
         0.00000E+00
         0.00000E+00
         0.00000E+00
         0.00000E+00
         0.00000E+00
         0.00000E+00
         0.00000E+00
         0.00000E+00
         0.00000E+00
         0.00000E+00
         0.00000E+00
         0.00000E+00
         0.00000E+00
         0.00000E+00
         0.00000E+00
         0.00000E+00
         0.00000E+00
         0.00000E+00
         0.00000E+00
         0.00000E+00
         0.00000E+00
         0.00000E+00
         0.00000E+00
         0.00000E+00
         0.00000E+00
         0.00000E+00
         0.00000E+00
         0.00000E+00
         0.00000E+00
         0.00000E+00
         0.00000E+00
         0.00000E+00
         0.00000E+00
         0.00000E+00
         0.00000E+00
         0.00000E+00
         0.00000E+00
         0.00000E+00
         0.00000E+00
         0.00000E+00
         0.00000E+00
         0.00000E+00
         0.00000E+00
         0.00000E+00
         0.00000E+00
         0.00000E+00
         0.00000E+00
         0.00000E+00
         0.00000E+00
         0.00000E+00
         0.00000E+00
         0.00000E+00
         0.00000E+00
         0.00000E+00
         0.00000E+00
         0.00000E+00
         0.00000E+00
         0.00000E+00
         0.00000E+00
         0.00000E+00
         0.00000E+00
         0.00000E+00
         0.00000E+00
         0.00000E+00
         0.00000E+00
         0.00000E+00
         0.00000E+00
         0.00000E+00
         0.00000E+00
         0.00000E+00
         0.00000E+00
         0.00000E+00
         0.00000E+00
         0.00000E+00
         0.00000E+00
         0.00000E+00
         0.00000E+00
         0.00000E+00
         0.00000E+00
         0.00000E+00
         0.00000E+00
         0.00000E+00
         0.00000E+00
         0.00000E+00
         0.00000E+00
         0.00000E+00
         0.00000E+00
         0.00000E+00
         0.00000E+00
         0.00000E+00
         0.00000E+00
         0.00000E+00
         0.00000E+00
         0.00000E+00
         0.00000E+00
         0.00000E+00
         0.00000E+00
         0.00000E+00
         0.00000E+00
         0.00000E+00
         0.00000E+00
         0.00000E+00
         0.00000E+00
         0.00000E+00
         0.00000E+00
         0.00000E+00
         0.00000E+00
         0.00000E+00
         0.00000E+00
         0.00000E+00
         0.00000E+00
         0.00000E+00
         0.00000E+00
         0.00000E+00
         0.00000E+00
         0.00000E+00
         0.00000E+00
         0.00000E+00
         0.00000E+00
         0.00000E+00
         0.00000E+00
         0.00000E+00
         0.00000E+00
         0.00000E+00
         0.00000E+00
         0.00000E+00
         0.00000E+00
         0.00000E+00
         0.00000E+00
         0.00000E+00
         0.00000E+00
         0.00000E+00
         0.00000E+00
         0.00000E+00
         0.00000E+00
         0.00000E+00
         0.00000E+00
         0.00000E+00
         0.00000E+00
         0.00000E+00
         0.00000E+00
         0.00000E+00
         0.00000E+00
         0.00000E+00
         0.00000E+00
         0.00000E+00
         0.00000E+00
         0.00000E+00
         0.00000E+00
         0.00000E+00
         0.00000E+00
         0.00000E+00
         0.00000E+00
         0.00000E+00
         0.00000E+00
         0.00000E+00
         0.00000E+00
         0.00000E+00
         0.00000E+00
         0.00000E+00
         0.00000E+00
         0.00000E+00
         0.00000E+00
         0.00000E+00
         0.00000E+00
         0.00000E+00
         0.00000E+00
         0.00000E+00
         0.00000E+00
         0.00000E+00
         0.00000E+00
         0.00000E+00
         0.00000E+00
         0.00000E+00
         0.00000E+00
         0.00000E+00
         0.00000E+00
         0.00000E+00
         0.00000E+00
         0.00000E+00
         0.00000E+00
         0.00000E+00
         0.00000E+00
         0.00000E+00
         0.00000E+00
         0.00000E+00
         0.00000E+00
         0.00000E+00
         0.00000E+00
         0.00000E+00
         0.00000E+00
         0.00000E+00
         0.00000E+00
         0.00000E+00
         0.00000E+00
         0.00000E+00
         0.00000E+00
         0.00000E+00
         0.00000E+00
         0.00000E+00
         0.00000E+00
         0.00000E+00
         0.00000E+00
         0.00000E+00
         0.00000E+00
         0.00000E+00
         0.00000E+00
         0.00000E+00
         0.00000E+00
         0.00000E+00
         0.00000E+00
         0.00000E+00
         0.00000E+00
         0.00000E+00
         0.00000E+00
         0.00000E+00
         0.00000E+00
         0.00000E+00
         0.00000E+00
         0.00000E+00
         0.00000E+00
         0.00000E+00
         0.00000E+00
         0.00000E+00
         0.00000E+00
         0.00000E+00
         0.00000E+00
         0.00000E+00
         0.00000E+00
         0.00000E+00
         0.00000E+00
         0.00000E+00
         0.00000E+00
         0.00000E+00
         0.00000E+00
         0.00000E+00
         0.00000E+00
         0.00000E+00
         0.00000E+00
         0.00000E+00
         0.00000E+00
         0.00000E+00
         0.00000E+00
         0.00000E+00
         0.00000E+00
         0.00000E+00
         0.00000E+00
         0.00000E+00
         0.00000E+00
         0.00000E+00
         0.00000E+00
         0.00000E+00
         0.00000E+00
         0.00000E+00
         0.00000E+00
         0.00000E+00
         0.00000E+00
         0.00000E+00
         0.00000E+00
         0.00000E+00
         0.00000E+00
         0.00000E+00
         0.00000E+00
         0.00000E+00
         0.00000E+00
         0.00000E+00
         0.00000E+00
         0.00000E+00
         0.00000E+00
         0.00000E+00
         0.00000E+00
         0.00000E+00
         0.00000E+00
         0.00000E+00
         0.00000E+00
         0.00000E+00
         0.00000E+00
         0.00000E+00
         0.00000E+00
         0.00000E+00
         0.00000E+00
         0.00000E+00
         0.00000E+00
         0.00000E+00
         0.00000E+00
         0.00000E+00
         0.00000E+00
         0.00000E+00
         0.00000E+00
         0.00000E+00
         0.00000E+00
         0.00000E+00
         0.00000E+00
         0.00000E+00
         0.00000E+00
         0.00000E+00
         0.00000E+00
         0.00000E+00
         0.00000E+00
         0.00000E+00
         0.00000E+00
         0.00000E+00
         0.00000E+00
         0.00000E+00
         0.00000E+00
         0.00000E+00
         0.00000E+00
         0.00000E+00
         0.00000E+00
         0.00000E+00
         0.00000E+00
         0.00000E+00
         0.00000E+00
         0.00000E+00
         0.00000E+00
         0.00000E+00
         0.00000E+00
         0.00000E+00
         0.00000E+00
         0.00000E+00
         0.00000E+00
         0.00000E+00
         0.00000E+00
         0.00000E+00
         0.00000E+00
         0.00000E+00
         0.00000E+00
         0.00000E+00
         0.00000E+00
         0.00000E+00
         0.00000E+00
         0.00000E+00
         0.00000E+00
         0.00000E+00
         0.00000E+00
         0.00000E+00
         0.00000E+00
         0.00000E+00
         0.00000E+00
         0.00000E+00
         0.00000E+00
         0.00000E+00
         0.00000E+00
         0.00000E+00
         0.00000E+00
         0.00000E+00
         0.00000E+00
         0.00000E+00
         0.00000E+00
         0.00000E+00
         0.00000E+00
         0.00000E+00
         0.00000E+00
         0.00000E+00
         0.00000E+00
         0.00000E+00
         0.00000E+00
         0.00000E+00
         0.00000E+00
         0.00000E+00
         0.00000E+00
         0.00000E+00
         0.00000E+00
         0.00000E+00
         0.00000E+00
         0.00000E+00
         0.00000E+00
         0.00000E+00
         0.00000E+00
         0.00000E+00
         0.00000E+00
         0.00000E+00
         0.00000E+00
         0.00000E+00
         0.00000E+00
         0.00000E+00
         0.00000E+00
         0.00000E+00
         0.00000E+00
         0.00000E+00
         0.00000E+00
         0.00000E+00
         0.00000E+00
         0.00000E+00
         0.00000E+00
         0.00000E+00
         0.00000E+00
         0.00000E+00
         0.00000E+00
         0.00000E+00
         0.00000E+00
         0.00000E+00
         0.00000E+00
         0.00000E+00
         0.00000E+00
         0.00000E+00
         0.00000E+00
         0.00000E+00
         0.00000E+00
         0.00000E+00
         0.00000E+00
         0.00000E+00
         0.00000E+00
         0.00000E+00
         0.00000E+00
         0.00000E+00
         0.00000E+00
         0.00000E+00
         0.00000E+00
         0.00000E+00
         0.00000E+00
         0.00000E+00
         0.00000E+00
         0.00000E+00
         0.00000E+00
         0.00000E+00
         0.00000E+00
         0.00000E+00
         0.00000E+00
         0.00000E+00
         0.00000E+00
         0.00000E+00
         0.00000E+00
         0.00000E+00
         0.00000E+00
         0.00000E+00
         0.00000E+00
         0.00000E+00
         0.00000E+00
         0.00000E+00
         0.00000E+00
         0.00000E+00
         0.00000E+00
         0.00000E+00
         0.00000E+00
         0.00000E+00
         0.00000E+00
         0.00000E+00
         0.00000E+00
         0.00000E+00
         0.00000E+00
         0.00000E+00
         0.00000E+00
         0.00000E+00
         0.00000E+00
         0.00000E+00
         0.00000E+00
         0.00000E+00
         0.00000E+00
         0.00000E+00
         0.00000E+00
         0.00000E+00
         0.00000E+00
         0.00000E+00
         0.00000E+00
         0.00000E+00
         0.00000E+00
         0.00000E+00
         0.00000E+00
         0.00000E+00
         0.00000E+00
         0.00000E+00
         0.00000E+00
         0.00000E+00
         0.00000E+00
         0.00000E+00
         0.00000E+00
         0.00000E+00
         0.00000E+00
         0.00000E+00
         0.00000E+00
         0.00000E+00
         0.00000E+00
         0.00000E+00
         0.00000E+00
         0.00000E+00
         0.00000E+00
         0.00000E+00
         0.00000E+00
         0.00000E+00
         0.00000E+00
         0.00000E+00
         0.00000E+00
         0.00000E+00
         0.00000E+00
         0.00000E+00
         0.00000E+00
         0.00000E+00
         0.00000E+00
         0.00000E+00
         0.00000E+00
         0.00000E+00
         0.00000E+00
         0.00000E+00
         0.00000E+00
         0.00000E+00
         0.00000E+00
         0.00000E+00
         0.00000E+00
         0.00000E+00
         0.00000E+00
         0.00000E+00
         0.00000E+00
         0.00000E+00
         0.00000E+00
         0.00000E+00
         0.00000E+00
         0.00000E+00
         0.00000E+00
         0.00000E+00
         0.00000E+00
         0.00000E+00
         0.00000E+00
         0.00000E+00
         0.00000E+00
         0.00000E+00
         0.00000E+00
         0.00000E+00
         0.00000E+00
         0.00000E+00
         0.00000E+00
         0.00000E+00
         0.00000E+00
         0.00000E+00
         0.00000E+00
         0.00000E+00
         0.00000E+00
         0.00000E+00
         0.00000E+00
         0.00000E+00
         0.00000E+00
         0.00000E+00
         0.00000E+00
         0.00000E+00
         0.00000E+00
         0.00000E+00
         0.00000E+00
         0.00000E+00
         0.00000E+00
         0.00000E+00
         0.00000E+00
         0.00000E+00
         0.00000E+00
         0.00000E+00
         0.00000E+00
         0.00000E+00
         0.00000E+00
         0.00000E+00
         0.00000E+00
         0.00000E+00
         0.00000E+00
         0.00000E+00
         0.00000E+00
         0.00000E+00
         0.00000E+00
         0.00000E+00
         0.00000E+00
         0.00000E+00
         0.00000E+00
         0.00000E+00
         0.00000E+00
         0.00000E+00
         0.00000E+00
         0.00000E+00
         0.00000E+00
         0.00000E+00
         0.00000E+00
         0.00000E+00
         0.00000E+00
         0.00000E+00
         0.00000E+00
         0.00000E+00
         0.00000E+00
         0.00000E+00
         0.00000E+00
         0.00000E+00
         0.00000E+00
         0.00000E+00
         0.00000E+00
         0.00000E+00
         0.00000E+00
         0.00000E+00
         0.00000E+00
         0.00000E+00
         0.00000E+00
         0.00000E+00
         0.00000E+00
         0.00000E+00
         0.00000E+00
         0.00000E+00
         0.00000E+00
         0.00000E+00
         0.00000E+00
         0.00000E+00
         0.00000E+00
         0.00000E+00
         0.00000E+00
         0.00000E+00
         0.00000E+00
         0.00000E+00
         0.00000E+00
         0.00000E+00
         0.00000E+00
         0.00000E+00
         0.00000E+00
         0.00000E+00
         0.00000E+00
         0.00000E+00
         0.00000E+00
         0.00000E+00
         0.00000E+00
         0.00000E+00
         0.00000E+00
         0.00000E+00
         0.00000E+00
         0.00000E+00
         0.00000E+00
         0.00000E+00
         0.00000E+00
         0.00000E+00
         0.00000E+00
         0.00000E+00
         0.00000E+00
         0.00000E+00
         0.00000E+00
         0.00000E+00
         0.00000E+00
         0.00000E+00
         0.00000E+00
         0.00000E+00
         0.00000E+00
         0.00000E+00
         0.00000E+00
         0.00000E+00
         0.00000E+00
         0.00000E+00
         0.00000E+00
         0.00000E+00
         0.00000E+00
         0.00000E+00
         0.00000E+00
         0.00000E+00
         0.00000E+00
         0.00000E+00
         0.00000E+00
         0.00000E+00
         0.00000E+00
         0.00000E+00
         0.00000E+00
         0.00000E+00
         0.00000E+00
         0.00000E+00
         0.00000E+00
         0.00000E+00
         0.00000E+00
         0.00000E+00
         0.00000E+00
         0.00000E+00
         0.00000E+00
         0.00000E+00
         0.00000E+00
         0.00000E+00
         0.00000E+00
         0.00000E+00
         0.00000E+00
         0.00000E+00
         0.00000E+00
         0.00000E+00
         0.00000E+00
         0.00000E+00
         0.00000E+00
         0.00000E+00
         0.00000E+00
         0.00000E+00
         0.00000E+00
         0.00000E+00
         0.00000E+00
         0.00000E+00
         0.00000E+00
         0.00000E+00
         0.00000E+00
         0.00000E+00
         0.00000E+00
         0.00000E+00
         0.00000E+00
         0.00000E+00
         0.00000E+00
         0.00000E+00
         0.00000E+00
         0.00000E+00
         0.00000E+00
         0.00000E+00
         0.00000E+00
         0.00000E+00
         0.00000E+00
         0.00000E+00
         0.00000E+00
         0.00000E+00
         0.00000E+00
         0.00000E+00
         0.00000E+00
         0.00000E+00
         0.00000E+00
         0.00000E+00
         0.00000E+00
         0.00000E+00
         0.00000E+00
         0.00000E+00
         0.00000E+00
         0.00000E+00
         0.00000E+00
         0.00000E+00
         0.00000E+00
         0.00000E+00
         0.00000E+00
         0.00000E+00
         0.00000E+00
         0.00000E+00
         0.00000E+00
         0.00000E+00
         0.00000E+00
         0.00000E+00
         0.00000E+00
         0.00000E+00
         0.00000E+00
         0.00000E+00
         0.00000E+00
         0.00000E+00
         0.00000E+00
         0.00000E+00
         0.00000E+00
         0.00000E+00
         0.00000E+00
         0.00000E+00
         0.00000E+00
         0.00000E+00
         0.00000E+00
         0.00000E+00
         0.00000E+00
         0.00000E+00
         0.00000E+00
         0.00000E+00
         0.00000E+00
         0.00000E+00
         0.00000E+00
         0.00000E+00
         0.00000E+00
         0.00000E+00
         0.00000E+00
         0.00000E+00
         0.00000E+00
         0.00000E+00
         0.00000E+00
         0.00000E+00
         0.00000E+00
         0.00000E+00
         0.00000E+00
         0.00000E+00
         0.00000E+00
         0.00000E+00
         0.00000E+00
         0.00000E+00
         0.00000E+00
         0.00000E+00
         0.00000E+00
         0.00000E+00
         0.00000E+00
         0.00000E+00
         0.00000E+00
         0.00000E+00
         0.00000E+00
         0.00000E+00
         0.00000E+00
         0.00000E+00
         0.00000E+00
         0.00000E+00
         0.00000E+00
         0.00000E+00
         0.00000E+00
         0.00000E+00
         0.00000E+00
         0.00000E+00
         0.00000E+00
         0.00000E+00
         0.00000E+00
         0.00000E+00
         0.00000E+00
         0.00000E+00
         0.00000E+00
         0.00000E+00
         0.00000E+00
         0.00000E+00
         0.00000E+00
         0.00000E+00
         0.00000E+00
         0.00000E+00
         0.00000E+00
         0.00000E+00
         0.00000E+00
         0.00000E+00
         0.00000E+00
         0.00000E+00
         0.00000E+00
         0.00000E+00
         0.00000E+00
         0.00000E+00
         0.00000E+00
         0.00000E+00
         0.00000E+00
         0.00000E+00
         0.00000E+00
         0.00000E+00
         0.00000E+00
         0.00000E+00
         0.00000E+00
         0.00000E+00
         0.00000E+00
         0.00000E+00
         0.00000E+00
         0.00000E+00
         0.00000E+00
         0.00000E+00
         0.00000E+00
         0.00000E+00
         0.00000E+00
         0.00000E+00
         0.00000E+00
         0.00000E+00
         0.00000E+00
         0.00000E+00
         0.00000E+00
         0.00000E+00
         0.00000E+00
         0.00000E+00
         0.00000E+00
         0.00000E+00
         0.00000E+00
         0.00000E+00
         0.00000E+00
         0.00000E+00
         0.00000E+00
         0.00000E+00
         0.00000E+00
         0.00000E+00
         0.00000E+00
         0.00000E+00
         0.00000E+00
         0.00000E+00
         0.00000E+00
         0.00000E+00
         0.00000E+00
         0.00000E+00
         0.00000E+00
         0.00000E+00
         0.00000E+00
         0.00000E+00
         0.00000E+00
         0.00000E+00
         0.00000E+00
         0.00000E+00
         0.00000E+00
         0.00000E+00
         0.00000E+00
         0.00000E+00
         0.00000E+00
         0.00000E+00
         0.00000E+00
         0.00000E+00
         0.00000E+00
         0.00000E+00
         0.00000E+00
         0.00000E+00
         0.00000E+00
         0.00000E+00
         0.00000E+00
         0.00000E+00
         0.00000E+00
         0.00000E+00
         0.00000E+00
         0.00000E+00
         0.00000E+00
         0.00000E+00
         0.00000E+00
         0.00000E+00
         0.00000E+00
         0.00000E+00
         0.00000E+00
         0.00000E+00
         0.00000E+00
         0.00000E+00
         0.00000E+00
         0.00000E+00
         0.00000E+00
         0.00000E+00
         0.00000E+00
         0.00000E+00
         0.00000E+00
         0.00000E+00
         0.00000E+00
         0.00000E+00
         0.00000E+00
         0.00000E+00
         0.00000E+00
         0.00000E+00
         0.00000E+00
         0.00000E+00
         0.00000E+00
         0.00000E+00
         0.00000E+00
         0.00000E+00
         0.00000E+00
         0.00000E+00
         0.00000E+00
         0.00000E+00
         0.00000E+00
         0.00000E+00
         0.00000E+00
         0.00000E+00
         0.00000E+00
         0.00000E+00
         0.00000E+00
         0.00000E+00
         0.00000E+00
         0.00000E+00
         0.00000E+00
         0.00000E+00
         0.00000E+00
         0.00000E+00
         0.00000E+00
         0.00000E+00
         0.00000E+00
         0.00000E+00
         0.00000E+00
         0.00000E+00
         0.00000E+00
         0.00000E+00
         0.00000E+00
         0.00000E+00
         0.00000E+00
         0.00000E+00
         0.00000E+00
         0.00000E+00
         0.00000E+00
         0.00000E+00
         0.00000E+00
         0.00000E+00
         0.00000E+00
         0.00000E+00
         0.00000E+00
         0.00000E+00
         0.00000E+00
         0.00000E+00
         0.00000E+00
         0.00000E+00
         0.00000E+00
         0.00000E+00
         0.00000E+00
         0.00000E+00
         0.00000E+00
         0.00000E+00
         0.00000E+00
         0.00000E+00
         0.00000E+00
         0.00000E+00
         0.00000E+00
         0.00000E+00
         0.00000E+00
         0.00000E+00
         0.00000E+00
         0.00000E+00
         0.00000E+00
         0.00000E+00
         0.00000E+00
         0.00000E+00
         0.00000E+00
         0.00000E+00
         0.00000E+00
         0.00000E+00
         0.00000E+00
         0.00000E+00
         0.00000E+00
         0.00000E+00
         0.00000E+00
         0.00000E+00
         0.00000E+00
         0.00000E+00
         0.00000E+00
         0.00000E+00
         0.00000E+00
         0.00000E+00
         0.00000E+00
         0.00000E+00
         0.00000E+00
         0.00000E+00
         0.00000E+00
         0.00000E+00
         0.00000E+00
         0.00000E+00
         0.00000E+00
         0.00000E+00
         0.00000E+00
         0.00000E+00
         0.00000E+00
         0.00000E+00
         0.00000E+00
         0.00000E+00
         0.00000E+00
         0.00000E+00
         0.00000E+00
         0.00000E+00
         0.00000E+00
         0.00000E+00
         0.00000E+00
         0.00000E+00
         0.00000E+00
         0.00000E+00
         0.00000E+00
         0.00000E+00
         0.00000E+00
         0.00000E+00
         0.00000E+00
         0.00000E+00
         0.00000E+00
         0.00000E+00
         0.00000E+00
         0.00000E+00
         0.00000E+00
         0.00000E+00
         0.00000E+00
         0.00000E+00
         0.00000E+00
         0.00000E+00
         0.00000E+00
         0.00000E+00
         0.00000E+00
         0.00000E+00
         0.00000E+00
         0.00000E+00
         0.00000E+00
         0.00000E+00
         0.00000E+00
         0.00000E+00
         0.00000E+00
         0.00000E+00
         0.00000E+00
         0.00000E+00
         0.00000E+00
         0.00000E+00
         0.00000E+00
         0.00000E+00
         0.00000E+00
         0.00000E+00
         0.00000E+00
         0.00000E+00
         0.00000E+00
         0.00000E+00
         0.00000E+00
         0.00000E+00
         0.00000E+00
         0.00000E+00
         0.00000E+00
         0.00000E+00
         0.00000E+00
         0.00000E+00
         0.00000E+00
         0.00000E+00
         0.00000E+00
         0.00000E+00
         0.00000E+00
         0.00000E+00
         0.00000E+00
         0.00000E+00
         0.00000E+00
         0.00000E+00
         0.00000E+00
         0.00000E+00
         0.00000E+00
         0.00000E+00
         0.00000E+00
         0.00000E+00
         0.00000E+00
         0.00000E+00
         0.00000E+00
         0.00000E+00
         0.00000E+00
         0.00000E+00
         0.00000E+00
         0.00000E+00
         0.00000E+00
         0.00000E+00
         0.00000E+00
         0.00000E+00
         0.00000E+00
         0.00000E+00
         0.00000E+00
         0.00000E+00
         0.00000E+00
         0.00000E+00
         0.00000E+00
         0.00000E+00
         0.00000E+00
         0.00000E+00
         0.00000E+00
         0.00000E+00
         0.00000E+00
         0.00000E+00
         0.00000E+00
         0.00000E+00
         0.00000E+00
         0.00000E+00
         0.00000E+00
         0.00000E+00
         0.00000E+00
         0.00000E+00
         0.00000E+00
         0.00000E+00
         0.00000E+00
         0.00000E+00
         0.00000E+00
         0.00000E+00
         0.00000E+00
         0.00000E+00
         0.00000E+00
         0.00000E+00
         0.00000E+00
         0.00000E+00
         0.00000E+00
         0.00000E+00
         0.00000E+00
         0.00000E+00
         0.00000E+00
         0.00000E+00
         0.00000E+00
         0.00000E+00
         0.00000E+00
         0.00000E+00
         0.00000E+00
         0.00000E+00
         0.00000E+00
         0.00000E+00
         0.00000E+00
         0.00000E+00
         0.00000E+00
         0.00000E+00
         0.00000E+00
         0.00000E+00
         0.00000E+00
         0.00000E+00
         0.00000E+00
         0.00000E+00
         0.00000E+00
         0.00000E+00
         0.00000E+00
         0.00000E+00
         0.00000E+00
         0.00000E+00
         0.00000E+00
         0.00000E+00
         0.00000E+00
         0.00000E+00
         0.00000E+00
         0.00000E+00
         0.00000E+00
         0.00000E+00
         0.00000E+00
         0.00000E+00
         0.00000E+00
         0.00000E+00
         0.00000E+00
         0.00000E+00
         0.00000E+00
         0.00000E+00
         0.00000E+00
         0.00000E+00
         0.00000E+00
         0.00000E+00
         0.00000E+00
         0.00000E+00
         0.00000E+00
         0.00000E+00
         0.00000E+00
         0.00000E+00
         0.00000E+00
         0.00000E+00
         0.00000E+00
         0.00000E+00
         0.00000E+00
         0.00000E+00
         0.00000E+00
         0.00000E+00
         0.00000E+00
         0.00000E+00
         0.00000E+00
         0.00000E+00
         0.00000E+00
         0.00000E+00
         0.00000E+00
         0.00000E+00
         0.00000E+00
         0.00000E+00
         0.00000E+00
         0.00000E+00
         0.00000E+00
         0.00000E+00
         0.00000E+00
         0.00000E+00
         0.00000E+00
         0.00000E+00
         0.00000E+00
         0.00000E+00
         0.00000E+00
         0.00000E+00
         0.00000E+00
         0.00000E+00
         0.00000E+00
         0.00000E+00
         0.00000E+00
         0.00000E+00
         0.00000E+00
         0.00000E+00
         0.00000E+00
         0.00000E+00
         0.00000E+00
         0.00000E+00
         0.00000E+00
         0.00000E+00
         0.00000E+00
         0.00000E+00
         0.00000E+00
         0.00000E+00
         0.00000E+00
         0.00000E+00
         0.00000E+00
         0.00000E+00
         0.00000E+00
         0.00000E+00
         0.00000E+00
         0.00000E+00
         0.00000E+00
         0.00000E+00
         0.00000E+00
         0.00000E+00
         0.00000E+00
         0.00000E+00
         0.00000E+00
         0.00000E+00
         0.00000E+00
         0.00000E+00
         0.00000E+00
         0.00000E+00
         0.00000E+00
         0.00000E+00
         0.00000E+00
         0.00000E+00
         0.00000E+00
         0.00000E+00
         0.00000E+00
         0.00000E+00
         0.00000E+00
         0.00000E+00
         0.00000E+00
         0.00000E+00
         0.00000E+00
         0.00000E+00
         0.00000E+00
         0.00000E+00
         0.00000E+00
         0.00000E+00
         0.00000E+00
         0.00000E+00
         0.00000E+00
         0.00000E+00
         0.00000E+00
         0.00000E+00
         0.00000E+00
         0.00000E+00
         0.00000E+00
         0.00000E+00
         0.00000E+00
         0.00000E+00
         0.00000E+00
         0.00000E+00
         0.00000E+00
         0.00000E+00
         0.00000E+00
         0.00000E+00
         0.00000E+00
         0.00000E+00
         0.00000E+00
         0.00000E+00
         0.00000E+00
         0.00000E+00
         0.00000E+00
         0.00000E+00
         0.00000E+00
         0.00000E+00
         0.00000E+00
         0.00000E+00
         0.00000E+00
         0.00000E+00
         0.00000E+00
         0.00000E+00
         0.00000E+00
         0.00000E+00
         0.00000E+00
         0.00000E+00
         0.00000E+00
         0.00000E+00
         0.00000E+00
         0.00000E+00
         0.00000E+00
         0.00000E+00
         0.00000E+00
         0.00000E+00
         0.00000E+00
         0.00000E+00
         0.00000E+00
         0.00000E+00
         0.00000E+00
         0.00000E+00
         0.00000E+00
         0.00000E+00
         0.00000E+00
         0.00000E+00
         0.00000E+00
         0.00000E+00
         0.00000E+00
         0.00000E+00
         0.00000E+00
         0.00000E+00
         0.00000E+00
         0.00000E+00
         0.00000E+00
         0.00000E+00
         0.00000E+00
         0.00000E+00
         0.00000E+00
         0.00000E+00
         0.00000E+00
         0.00000E+00
         0.00000E+00
         0.00000E+00
         0.00000E+00
         0.00000E+00
         0.00000E+00
         0.00000E+00
         0.00000E+00
         0.00000E+00
         0.00000E+00
         0.00000E+00
         0.00000E+00
         0.00000E+00
         0.00000E+00
         0.00000E+00
         0.00000E+00
         0.00000E+00
         0.00000E+00
         0.00000E+00
         0.00000E+00
         0.00000E+00
         0.00000E+00
         0.00000E+00
         0.00000E+00
         0.00000E+00
         0.00000E+00
         0.00000E+00
         0.00000E+00
         0.00000E+00
         0.00000E+00
         0.00000E+00
         0.00000E+00
         0.00000E+00
         0.00000E+00
         0.00000E+00
         0.00000E+00
         0.00000E+00
         0.00000E+00
         0.00000E+00
         0.00000E+00
         0.00000E+00
         0.00000E+00
         0.00000E+00
         0.00000E+00
         0.00000E+00
         0.00000E+00
         0.00000E+00
         0.00000E+00
         0.00000E+00
         0.00000E+00
         0.00000E+00
         0.00000E+00
         0.00000E+00
         0.00000E+00
         0.00000E+00
         0.00000E+00
         0.00000E+00
         0.00000E+00
         0.00000E+00
         0.00000E+00
         0.00000E+00
         0.00000E+00
         0.00000E+00
         0.00000E+00
         0.00000E+00
         0.00000E+00
         0.00000E+00
         0.00000E+00
         0.00000E+00
         0.00000E+00
         0.00000E+00
         0.00000E+00
         0.00000E+00
         0.00000E+00
         0.00000E+00
         0.00000E+00
         0.00000E+00
         0.00000E+00
         0.00000E+00
         0.00000E+00
         0.00000E+00
         0.00000E+00
         0.00000E+00
         0.00000E+00
         0.00000E+00
         0.00000E+00
         0.00000E+00
         0.00000E+00
         0.00000E+00
         0.00000E+00
         0.00000E+00
         0.00000E+00
         0.00000E+00
         0.00000E+00
         0.00000E+00
         0.00000E+00
         0.00000E+00
         0.00000E+00
         0.00000E+00
         0.00000E+00
         0.00000E+00
         0.00000E+00
         0.00000E+00
         0.00000E+00
         0.00000E+00
         0.00000E+00
         0.00000E+00
         0.00000E+00
         0.00000E+00
         0.00000E+00
         0.00000E+00
         0.00000E+00
         0.00000E+00
         0.00000E+00
         0.00000E+00
         0.00000E+00
         0.00000E+00
         0.00000E+00
         0.00000E+00
         0.00000E+00
         0.00000E+00
         0.00000E+00
         0.00000E+00
         0.00000E+00
         0.00000E+00
         0.00000E+00
         0.00000E+00
         0.00000E+00
         0.00000E+00
         0.00000E+00
         0.00000E+00
         0.00000E+00
         0.00000E+00
         0.00000E+00
         0.00000E+00
         0.00000E+00
         0.00000E+00
         0.00000E+00
         0.00000E+00
         0.00000E+00
         0.00000E+00
         0.00000E+00
         0.00000E+00
         0.00000E+00
         0.00000E+00
         0.00000E+00
         0.00000E+00
         0.00000E+00
         0.00000E+00
         0.00000E+00
         0.00000E+00
         0.00000E+00
         0.00000E+00
  
SCALARS               pre_disp_force_y  double 1
LOOKUP_TABLE default
         0.00000E+00
         0.00000E+00
         0.00000E+00
         0.00000E+00
         0.00000E+00
         0.00000E+00
         0.00000E+00
         0.00000E+00
         0.00000E+00
         0.00000E+00
         0.00000E+00
         0.00000E+00
         0.00000E+00
         0.00000E+00
         0.00000E+00
         0.00000E+00
         0.00000E+00
         0.00000E+00
         0.00000E+00
         0.00000E+00
         0.00000E+00
         0.00000E+00
         0.00000E+00
         0.00000E+00
         0.00000E+00
         0.00000E+00
         0.00000E+00
         0.00000E+00
         0.00000E+00
         0.00000E+00
         0.00000E+00
         0.00000E+00
         0.00000E+00
         0.00000E+00
         0.00000E+00
         0.00000E+00
         0.00000E+00
         0.00000E+00
         0.00000E+00
         0.00000E+00
         0.00000E+00
         0.00000E+00
         0.00000E+00
         0.00000E+00
         0.00000E+00
         0.00000E+00
         0.00000E+00
         0.00000E+00
         0.00000E+00
         0.00000E+00
         0.00000E+00
         0.00000E+00
         0.00000E+00
         0.00000E+00
         0.00000E+00
         0.00000E+00
         0.00000E+00
         0.00000E+00
         0.00000E+00
         0.00000E+00
         0.00000E+00
         0.00000E+00
         0.00000E+00
         0.00000E+00
         0.00000E+00
         0.00000E+00
         0.00000E+00
         0.00000E+00
         0.00000E+00
         0.00000E+00
         0.00000E+00
         0.00000E+00
         0.00000E+00
         0.00000E+00
         0.00000E+00
         0.00000E+00
         0.00000E+00
         0.00000E+00
         0.00000E+00
         0.00000E+00
         0.00000E+00
         0.00000E+00
         0.00000E+00
         0.00000E+00
         0.00000E+00
         0.00000E+00
         0.00000E+00
         0.00000E+00
         0.00000E+00
         0.00000E+00
         0.00000E+00
         0.00000E+00
         0.00000E+00
         0.00000E+00
         0.00000E+00
         0.00000E+00
         0.00000E+00
         0.00000E+00
         0.00000E+00
         0.00000E+00
         0.00000E+00
         0.00000E+00
         0.00000E+00
         0.00000E+00
         0.00000E+00
         0.00000E+00
         0.00000E+00
         0.00000E+00
         0.00000E+00
         0.00000E+00
         0.00000E+00
         0.00000E+00
         0.00000E+00
         0.00000E+00
         0.00000E+00
         0.00000E+00
         0.00000E+00
         0.00000E+00
         0.00000E+00
         0.00000E+00
         0.00000E+00
         0.00000E+00
         0.00000E+00
         0.00000E+00
         0.00000E+00
         0.00000E+00
         0.00000E+00
         0.00000E+00
         0.00000E+00
         0.00000E+00
         0.00000E+00
         0.00000E+00
         0.00000E+00
         0.00000E+00
         0.00000E+00
         0.00000E+00
         0.00000E+00
         0.00000E+00
         0.00000E+00
         0.00000E+00
         0.00000E+00
         0.00000E+00
         0.00000E+00
         0.00000E+00
         0.00000E+00
         0.00000E+00
         0.00000E+00
         0.00000E+00
         0.00000E+00
         0.00000E+00
         0.00000E+00
         0.00000E+00
         0.00000E+00
         0.00000E+00
         0.00000E+00
         0.00000E+00
         0.00000E+00
         0.00000E+00
         0.00000E+00
         0.00000E+00
         0.00000E+00
         0.00000E+00
         0.00000E+00
         0.00000E+00
         0.00000E+00
         0.00000E+00
         0.00000E+00
         0.00000E+00
         0.00000E+00
         0.00000E+00
         0.00000E+00
         0.00000E+00
         0.00000E+00
         0.00000E+00
         0.00000E+00
         0.00000E+00
         0.00000E+00
         0.00000E+00
         0.00000E+00
         0.00000E+00
         0.00000E+00
         0.00000E+00
         0.00000E+00
         0.00000E+00
         0.00000E+00
         0.00000E+00
         0.00000E+00
         0.00000E+00
         0.00000E+00
         0.00000E+00
         0.00000E+00
         0.00000E+00
         0.00000E+00
         0.00000E+00
         0.00000E+00
         0.00000E+00
         0.00000E+00
         0.00000E+00
         0.00000E+00
         0.00000E+00
         0.00000E+00
         0.00000E+00
         0.00000E+00
         0.00000E+00
         0.00000E+00
         0.00000E+00
         0.00000E+00
         0.00000E+00
         0.00000E+00
         0.00000E+00
         0.00000E+00
         0.00000E+00
         0.00000E+00
         0.00000E+00
         0.00000E+00
         0.00000E+00
         0.00000E+00
         0.00000E+00
         0.00000E+00
         0.00000E+00
         0.00000E+00
         0.00000E+00
         0.00000E+00
         0.00000E+00
         0.00000E+00
         0.00000E+00
         0.00000E+00
         0.00000E+00
         0.00000E+00
         0.00000E+00
         0.00000E+00
         0.00000E+00
         0.00000E+00
         0.00000E+00
         0.00000E+00
         0.00000E+00
         0.00000E+00
         0.00000E+00
         0.00000E+00
         0.00000E+00
         0.00000E+00
         0.00000E+00
         0.00000E+00
         0.00000E+00
         0.00000E+00
         0.00000E+00
         0.00000E+00
         0.00000E+00
         0.00000E+00
         0.00000E+00
         0.00000E+00
         0.00000E+00
         0.00000E+00
         0.00000E+00
         0.00000E+00
         0.00000E+00
         0.00000E+00
         0.00000E+00
         0.00000E+00
         0.00000E+00
         0.00000E+00
         0.00000E+00
         0.00000E+00
         0.00000E+00
         0.00000E+00
         0.00000E+00
         0.00000E+00
         0.00000E+00
         0.00000E+00
         0.00000E+00
         0.00000E+00
         0.00000E+00
         0.00000E+00
         0.00000E+00
         0.00000E+00
         0.00000E+00
         0.00000E+00
         0.00000E+00
         0.00000E+00
         0.00000E+00
         0.00000E+00
         0.00000E+00
         0.00000E+00
         0.00000E+00
         0.00000E+00
         0.00000E+00
         0.00000E+00
         0.00000E+00
         0.00000E+00
         0.00000E+00
         0.00000E+00
         0.00000E+00
         0.00000E+00
         0.00000E+00
         0.00000E+00
         0.00000E+00
         0.00000E+00
         0.00000E+00
         0.00000E+00
         0.00000E+00
         0.00000E+00
         0.00000E+00
         0.00000E+00
         0.00000E+00
         0.00000E+00
         0.00000E+00
         0.00000E+00
         0.00000E+00
         0.00000E+00
         0.00000E+00
         0.00000E+00
         0.00000E+00
         0.00000E+00
         0.00000E+00
         0.00000E+00
         0.00000E+00
         0.00000E+00
         0.00000E+00
         0.00000E+00
         0.00000E+00
         0.00000E+00
         0.00000E+00
         0.00000E+00
         0.00000E+00
         0.00000E+00
         0.00000E+00
         0.00000E+00
         0.00000E+00
         0.00000E+00
         0.00000E+00
         0.00000E+00
         0.00000E+00
         0.00000E+00
         0.00000E+00
         0.00000E+00
         0.00000E+00
         0.00000E+00
         0.00000E+00
         0.00000E+00
         0.00000E+00
         0.00000E+00
         0.00000E+00
         0.00000E+00
         0.00000E+00
         0.00000E+00
         0.00000E+00
         0.00000E+00
         0.00000E+00
         0.00000E+00
         0.00000E+00
         0.00000E+00
         0.00000E+00
         0.00000E+00
         0.00000E+00
         0.00000E+00
         0.00000E+00
         0.00000E+00
         0.00000E+00
         0.00000E+00
         0.00000E+00
         0.00000E+00
         0.00000E+00
         0.00000E+00
         0.00000E+00
         0.00000E+00
         0.00000E+00
         0.00000E+00
         0.00000E+00
         0.00000E+00
         0.00000E+00
         0.00000E+00
         0.00000E+00
         0.00000E+00
         0.00000E+00
         0.00000E+00
         0.00000E+00
         0.00000E+00
         0.00000E+00
         0.00000E+00
         0.00000E+00
         0.00000E+00
         0.00000E+00
         0.00000E+00
         0.00000E+00
         0.00000E+00
         0.00000E+00
         0.00000E+00
         0.00000E+00
         0.00000E+00
         0.00000E+00
         0.00000E+00
         0.00000E+00
         0.00000E+00
         0.00000E+00
         0.00000E+00
         0.00000E+00
         0.00000E+00
         0.00000E+00
         0.00000E+00
         0.00000E+00
         0.00000E+00
         0.00000E+00
         0.00000E+00
         0.00000E+00
         0.00000E+00
         0.00000E+00
         0.00000E+00
         0.00000E+00
         0.00000E+00
         0.00000E+00
         0.00000E+00
         0.00000E+00
         0.00000E+00
         0.00000E+00
         0.00000E+00
         0.00000E+00
         0.00000E+00
         0.00000E+00
         0.00000E+00
         0.00000E+00
         0.00000E+00
         0.00000E+00
         0.00000E+00
         0.00000E+00
         0.00000E+00
         0.00000E+00
         0.00000E+00
         0.00000E+00
         0.00000E+00
         0.00000E+00
         0.00000E+00
         0.00000E+00
         0.00000E+00
         0.00000E+00
         0.00000E+00
         0.00000E+00
         0.00000E+00
         0.00000E+00
         0.00000E+00
         0.00000E+00
         0.00000E+00
         0.00000E+00
         0.00000E+00
         0.00000E+00
         0.00000E+00
         0.00000E+00
         0.00000E+00
         0.00000E+00
         0.00000E+00
         0.00000E+00
         0.00000E+00
         0.00000E+00
         0.00000E+00
         0.00000E+00
         0.00000E+00
         0.00000E+00
         0.00000E+00
         0.00000E+00
         0.00000E+00
         0.00000E+00
         0.00000E+00
         0.00000E+00
         0.00000E+00
         0.00000E+00
         0.00000E+00
         0.00000E+00
         0.00000E+00
         0.00000E+00
         0.00000E+00
         0.00000E+00
         0.00000E+00
         0.00000E+00
         0.00000E+00
         0.00000E+00
         0.00000E+00
         0.00000E+00
         0.00000E+00
         0.00000E+00
         0.00000E+00
         0.00000E+00
         0.00000E+00
         0.00000E+00
         0.00000E+00
         0.00000E+00
         0.00000E+00
         0.00000E+00
         0.00000E+00
         0.00000E+00
         0.00000E+00
         0.00000E+00
         0.00000E+00
         0.00000E+00
         0.00000E+00
         0.00000E+00
         0.00000E+00
         0.00000E+00
         0.00000E+00
         0.00000E+00
         0.00000E+00
         0.00000E+00
         0.00000E+00
         0.00000E+00
         0.00000E+00
         0.00000E+00
         0.00000E+00
         0.00000E+00
         0.00000E+00
         0.00000E+00
         0.00000E+00
         0.00000E+00
         0.00000E+00
         0.00000E+00
         0.00000E+00
         0.00000E+00
         0.00000E+00
         0.00000E+00
         0.00000E+00
         0.00000E+00
         0.00000E+00
         0.00000E+00
         0.00000E+00
         0.00000E+00
         0.00000E+00
         0.00000E+00
         0.00000E+00
         0.00000E+00
         0.00000E+00
         0.00000E+00
         0.00000E+00
         0.00000E+00
         0.00000E+00
         0.00000E+00
         0.00000E+00
         0.00000E+00
         0.00000E+00
         0.00000E+00
         0.00000E+00
         0.00000E+00
         0.00000E+00
         0.00000E+00
         0.00000E+00
         0.00000E+00
         0.00000E+00
         0.00000E+00
         0.00000E+00
         0.00000E+00
         0.00000E+00
         0.00000E+00
         0.00000E+00
         0.00000E+00
         0.00000E+00
         0.00000E+00
         0.00000E+00
         0.00000E+00
         0.00000E+00
         0.00000E+00
         0.00000E+00
         0.00000E+00
         0.00000E+00
         0.00000E+00
         0.00000E+00
         0.00000E+00
         0.00000E+00
         0.00000E+00
         0.00000E+00
         0.00000E+00
         0.00000E+00
         0.00000E+00
         0.00000E+00
         0.00000E+00
         0.00000E+00
         0.00000E+00
         0.00000E+00
         0.00000E+00
         0.00000E+00
         0.00000E+00
         0.00000E+00
         0.00000E+00
         0.00000E+00
         0.00000E+00
         0.00000E+00
         0.00000E+00
         0.00000E+00
         0.00000E+00
         0.00000E+00
         0.00000E+00
         0.00000E+00
         0.00000E+00
         0.00000E+00
         0.00000E+00
         0.00000E+00
         0.00000E+00
         0.00000E+00
         0.00000E+00
         0.00000E+00
         0.00000E+00
         0.00000E+00
         0.00000E+00
         0.00000E+00
         0.00000E+00
         0.00000E+00
         0.00000E+00
         0.00000E+00
         0.00000E+00
         0.00000E+00
         0.00000E+00
         0.00000E+00
         0.00000E+00
         0.00000E+00
         0.00000E+00
         0.00000E+00
         0.00000E+00
         0.00000E+00
         0.00000E+00
         0.00000E+00
         0.00000E+00
         0.00000E+00
         0.00000E+00
         0.00000E+00
         0.00000E+00
         0.00000E+00
         0.00000E+00
         0.00000E+00
         0.00000E+00
         0.00000E+00
         0.00000E+00
         0.00000E+00
         0.00000E+00
         0.00000E+00
         0.00000E+00
         0.00000E+00
         0.00000E+00
         0.00000E+00
         0.00000E+00
         0.00000E+00
         0.00000E+00
         0.00000E+00
         0.00000E+00
         0.00000E+00
         0.00000E+00
         0.00000E+00
         0.00000E+00
         0.00000E+00
         0.00000E+00
         0.00000E+00
         0.00000E+00
         0.00000E+00
         0.00000E+00
         0.00000E+00
         0.00000E+00
         0.00000E+00
         0.00000E+00
         0.00000E+00
         0.00000E+00
         0.00000E+00
         0.00000E+00
         0.00000E+00
         0.00000E+00
         0.00000E+00
         0.00000E+00
         0.00000E+00
         0.00000E+00
         0.00000E+00
         0.00000E+00
         0.00000E+00
         0.00000E+00
         0.00000E+00
         0.00000E+00
         0.00000E+00
         0.00000E+00
         0.00000E+00
         0.00000E+00
         0.00000E+00
         0.00000E+00
         0.00000E+00
         0.00000E+00
         0.00000E+00
         0.00000E+00
         0.00000E+00
         0.00000E+00
         0.00000E+00
         0.00000E+00
         0.00000E+00
         0.00000E+00
         0.00000E+00
         0.00000E+00
         0.00000E+00
         0.00000E+00
         0.00000E+00
         0.00000E+00
         0.00000E+00
         0.00000E+00
         0.00000E+00
         0.00000E+00
         0.00000E+00
         0.00000E+00
         0.00000E+00
         0.00000E+00
         0.00000E+00
         0.00000E+00
         0.00000E+00
         0.00000E+00
         0.00000E+00
         0.00000E+00
         0.00000E+00
         0.00000E+00
         0.00000E+00
         0.00000E+00
         0.00000E+00
         0.00000E+00
         0.00000E+00
         0.00000E+00
         0.00000E+00
         0.00000E+00
         0.00000E+00
         0.00000E+00
         0.00000E+00
         0.00000E+00
         0.00000E+00
         0.00000E+00
         0.00000E+00
         0.00000E+00
         0.00000E+00
         0.00000E+00
         0.00000E+00
         0.00000E+00
         0.00000E+00
         0.00000E+00
         0.00000E+00
         0.00000E+00
         0.00000E+00
         0.00000E+00
         0.00000E+00
         0.00000E+00
         0.00000E+00
         0.00000E+00
         0.00000E+00
         0.00000E+00
         0.00000E+00
         0.00000E+00
         0.00000E+00
         0.00000E+00
         0.00000E+00
         0.00000E+00
         0.00000E+00
         0.00000E+00
         0.00000E+00
         0.00000E+00
         0.00000E+00
         0.00000E+00
         0.00000E+00
         0.00000E+00
         0.00000E+00
         0.00000E+00
         0.00000E+00
         0.00000E+00
         0.00000E+00
         0.00000E+00
         0.00000E+00
         0.00000E+00
         0.00000E+00
         0.00000E+00
         0.00000E+00
         0.00000E+00
         0.00000E+00
         0.00000E+00
         0.00000E+00
         0.00000E+00
         0.00000E+00
         0.00000E+00
         0.00000E+00
         0.00000E+00
         0.00000E+00
         0.00000E+00
         0.00000E+00
         0.00000E+00
         0.00000E+00
         0.00000E+00
         0.00000E+00
         0.00000E+00
         0.00000E+00
         0.00000E+00
         0.00000E+00
         0.00000E+00
         0.00000E+00
         0.00000E+00
         0.00000E+00
         0.00000E+00
         0.00000E+00
         0.00000E+00
         0.00000E+00
         0.00000E+00
         0.00000E+00
         0.00000E+00
         0.00000E+00
         0.00000E+00
         0.00000E+00
         0.00000E+00
         0.00000E+00
         0.00000E+00
         0.00000E+00
         0.00000E+00
         0.00000E+00
         0.00000E+00
         0.00000E+00
         0.00000E+00
         0.00000E+00
         0.00000E+00
         0.00000E+00
         0.00000E+00
         0.00000E+00
         0.00000E+00
         0.00000E+00
         0.00000E+00
         0.00000E+00
         0.00000E+00
         0.00000E+00
         0.00000E+00
         0.00000E+00
         0.00000E+00
         0.00000E+00
         0.00000E+00
         0.00000E+00
         0.00000E+00
         0.00000E+00
         0.00000E+00
         0.00000E+00
         0.00000E+00
         0.00000E+00
         0.00000E+00
         0.00000E+00
         0.00000E+00
         0.00000E+00
         0.00000E+00
         0.00000E+00
         0.00000E+00
         0.00000E+00
         0.00000E+00
         0.00000E+00
         0.00000E+00
         0.00000E+00
         0.00000E+00
         0.00000E+00
         0.00000E+00
         0.00000E+00
         0.00000E+00
         0.00000E+00
         0.00000E+00
         0.00000E+00
         0.00000E+00
         0.00000E+00
         0.00000E+00
         0.00000E+00
         0.00000E+00
         0.00000E+00
         0.00000E+00
         0.00000E+00
         0.00000E+00
         0.00000E+00
         0.00000E+00
         0.00000E+00
         0.00000E+00
         0.00000E+00
         0.00000E+00
         0.00000E+00
         0.00000E+00
         0.00000E+00
         0.00000E+00
         0.00000E+00
         0.00000E+00
         0.00000E+00
         0.00000E+00
         0.00000E+00
         0.00000E+00
         0.00000E+00
         0.00000E+00
         0.00000E+00
         0.00000E+00
         0.00000E+00
         0.00000E+00
         0.00000E+00
         0.00000E+00
         0.00000E+00
         0.00000E+00
         0.00000E+00
         0.00000E+00
         0.00000E+00
         0.00000E+00
         0.00000E+00
         0.00000E+00
         0.00000E+00
         0.00000E+00
         0.00000E+00
         0.00000E+00
         0.00000E+00
         0.00000E+00
         0.00000E+00
         0.00000E+00
         0.00000E+00
         0.00000E+00
         0.00000E+00
         0.00000E+00
         0.00000E+00
         0.00000E+00
         0.00000E+00
         0.00000E+00
         0.00000E+00
         0.00000E+00
         0.00000E+00
         0.00000E+00
         0.00000E+00
         0.00000E+00
         0.00000E+00
         0.00000E+00
         0.00000E+00
         0.00000E+00
         0.00000E+00
         0.00000E+00
         0.00000E+00
         0.00000E+00
         0.00000E+00
         0.00000E+00
         0.00000E+00
         0.00000E+00
         0.00000E+00
         0.00000E+00
         0.00000E+00
         0.00000E+00
         0.00000E+00
         0.00000E+00
         0.00000E+00
         0.00000E+00
         0.00000E+00
         0.00000E+00
         0.00000E+00
         0.00000E+00
         0.00000E+00
         0.00000E+00
         0.00000E+00
         0.00000E+00
         0.00000E+00
         0.00000E+00
         0.00000E+00
         0.00000E+00
         0.00000E+00
         0.00000E+00
         0.00000E+00
         0.00000E+00
         0.00000E+00
         0.00000E+00
         0.00000E+00
         0.00000E+00
         0.00000E+00
         0.00000E+00
         0.00000E+00
         0.00000E+00
         0.00000E+00
         0.00000E+00
         0.00000E+00
         0.00000E+00
         0.00000E+00
         0.00000E+00
         0.00000E+00
         0.00000E+00
         0.00000E+00
         0.00000E+00
         0.00000E+00
         0.00000E+00
         0.00000E+00
         0.00000E+00
         0.00000E+00
         0.00000E+00
         0.00000E+00
         0.00000E+00
         0.00000E+00
         0.00000E+00
         0.00000E+00
         0.00000E+00
         0.00000E+00
         0.00000E+00
         0.00000E+00
         0.00000E+00
         0.00000E+00
         0.00000E+00
         0.00000E+00
         0.00000E+00
         0.00000E+00
         0.00000E+00
         0.00000E+00
         0.00000E+00
         0.00000E+00
         0.00000E+00
         0.00000E+00
         0.00000E+00
         0.00000E+00
         0.00000E+00
         0.00000E+00
         0.00000E+00
         0.00000E+00
         0.00000E+00
         0.00000E+00
         0.00000E+00
         0.00000E+00
         0.00000E+00
         0.00000E+00
         0.00000E+00
         0.00000E+00
         0.00000E+00
         0.00000E+00
         0.00000E+00
         0.00000E+00
         0.00000E+00
         0.00000E+00
         0.00000E+00
         0.00000E+00
         0.00000E+00
         0.00000E+00
         0.00000E+00
         0.00000E+00
         0.00000E+00
         0.00000E+00
         0.00000E+00
         0.00000E+00
         0.00000E+00
         0.00000E+00
         0.00000E+00
         0.00000E+00
         0.00000E+00
         0.00000E+00
         0.00000E+00
         0.00000E+00
         0.00000E+00
         0.00000E+00
         0.00000E+00
         0.00000E+00
         0.00000E+00
         0.00000E+00
         0.00000E+00
         0.00000E+00
         0.00000E+00
         0.00000E+00
         0.00000E+00
         0.00000E+00
         0.00000E+00
         0.00000E+00
         0.00000E+00
         0.00000E+00
         0.00000E+00
         0.00000E+00
         0.00000E+00
         0.00000E+00
         0.00000E+00
         0.00000E+00
         0.00000E+00
         0.00000E+00
         0.00000E+00
         0.00000E+00
         0.00000E+00
         0.00000E+00
         0.00000E+00
         0.00000E+00
         0.00000E+00
         0.00000E+00
         0.00000E+00
         0.00000E+00
         0.00000E+00
         0.00000E+00
         0.00000E+00
         0.00000E+00
         0.00000E+00
         0.00000E+00
         0.00000E+00
         0.00000E+00
         0.00000E+00
         0.00000E+00
         0.00000E+00
         0.00000E+00
         0.00000E+00
         0.00000E+00
         0.00000E+00
         0.00000E+00
         0.00000E+00
         0.00000E+00
         0.00000E+00
         0.00000E+00
         0.00000E+00
         0.00000E+00
         0.00000E+00
         0.00000E+00
         0.00000E+00
         0.00000E+00
         0.00000E+00
         0.00000E+00
         0.00000E+00
         0.00000E+00
         0.00000E+00
         0.00000E+00
         0.00000E+00
         0.00000E+00
         0.00000E+00
         0.00000E+00
         0.00000E+00
         0.00000E+00
         0.00000E+00
         0.00000E+00
         0.00000E+00
         0.00000E+00
         0.00000E+00
         0.00000E+00
         0.00000E+00
         0.00000E+00
         0.00000E+00
         0.00000E+00
         0.00000E+00
         0.00000E+00
         0.00000E+00
         0.00000E+00
         0.00000E+00
         0.00000E+00
         0.00000E+00
         0.00000E+00
         0.00000E+00
         0.00000E+00
         0.00000E+00
         0.00000E+00
         0.00000E+00
         0.00000E+00
         0.00000E+00
         0.00000E+00
         0.00000E+00
         0.00000E+00
         0.00000E+00
         0.00000E+00
         0.00000E+00
         0.00000E+00
         0.00000E+00
         0.00000E+00
         0.00000E+00
         0.00000E+00
         0.00000E+00
         0.00000E+00
         0.00000E+00
         0.00000E+00
         0.00000E+00
         0.00000E+00
         0.00000E+00
         0.00000E+00
         0.00000E+00
         0.00000E+00
         0.00000E+00
         0.00000E+00
         0.00000E+00
         0.00000E+00
         0.00000E+00
         0.00000E+00
         0.00000E+00
         0.00000E+00
         0.00000E+00
         0.00000E+00
         0.00000E+00
         0.00000E+00
         0.00000E+00
         0.00000E+00
         0.00000E+00
         0.00000E+00
         0.00000E+00
         0.00000E+00
         0.00000E+00
         0.00000E+00
         0.00000E+00
         0.00000E+00
         0.00000E+00
         0.00000E+00
         0.00000E+00
         0.00000E+00
         0.00000E+00
         0.00000E+00
         0.00000E+00
         0.00000E+00
         0.00000E+00
         0.00000E+00
         0.00000E+00
         0.00000E+00
         0.00000E+00
         0.00000E+00
         0.00000E+00
         0.00000E+00
         0.00000E+00
         0.00000E+00
         0.00000E+00
         0.00000E+00
         0.00000E+00
         0.00000E+00
         0.00000E+00
         0.00000E+00
         0.00000E+00
         0.00000E+00
         0.00000E+00
         0.00000E+00
         0.00000E+00
         0.00000E+00
         0.00000E+00
         0.00000E+00
         0.00000E+00
         0.00000E+00
         0.00000E+00
         0.00000E+00
         0.00000E+00
         0.00000E+00
         0.00000E+00
         0.00000E+00
         0.00000E+00
         0.00000E+00
         0.00000E+00
         0.00000E+00
         0.00000E+00
         0.00000E+00
         0.00000E+00
         0.00000E+00
         0.00000E+00
         0.00000E+00
         0.00000E+00
         0.00000E+00
         0.00000E+00
         0.00000E+00
         0.00000E+00
         0.00000E+00
         0.00000E+00
         0.00000E+00
         0.00000E+00
         0.00000E+00
         0.00000E+00
         0.00000E+00
         0.00000E+00
         0.00000E+00
         0.00000E+00
         0.00000E+00
         0.00000E+00
         0.00000E+00
         0.00000E+00
         0.00000E+00
         0.00000E+00
         0.00000E+00
         0.00000E+00
         0.00000E+00
         0.00000E+00
         0.00000E+00
         0.00000E+00
         0.00000E+00
         0.00000E+00
         0.00000E+00
         0.00000E+00
         0.00000E+00
         0.00000E+00
         0.00000E+00
         0.00000E+00
         0.00000E+00
         0.00000E+00
         0.00000E+00
         0.00000E+00
         0.00000E+00
         0.00000E+00
         0.00000E+00
         0.00000E+00
         0.00000E+00
         0.00000E+00
         0.00000E+00
         0.00000E+00
         0.00000E+00
         0.00000E+00
         0.00000E+00
         0.00000E+00
         0.00000E+00
         0.00000E+00
         0.00000E+00
         0.00000E+00
         0.00000E+00
         0.00000E+00
         0.00000E+00
         0.00000E+00
         0.00000E+00
         0.00000E+00
         0.00000E+00
         0.00000E+00
         0.00000E+00
         0.00000E+00
         0.00000E+00
         0.00000E+00
         0.00000E+00
         0.00000E+00
         0.00000E+00
         0.00000E+00
         0.00000E+00
         0.00000E+00
         0.00000E+00
         0.00000E+00
         0.00000E+00
         0.00000E+00
         0.00000E+00
         0.00000E+00
         0.00000E+00
         0.00000E+00
         0.00000E+00
         0.00000E+00
         0.00000E+00
         0.00000E+00
         0.00000E+00
         0.00000E+00
         0.00000E+00
         0.00000E+00
         0.00000E+00
         0.00000E+00
         0.00000E+00
         0.00000E+00
         0.00000E+00
         0.00000E+00
         0.00000E+00
         0.00000E+00
         0.00000E+00
         0.00000E+00
         0.00000E+00
         0.00000E+00
         0.00000E+00
         0.00000E+00
         0.00000E+00
         0.00000E+00
         0.00000E+00
         0.00000E+00
         0.00000E+00
         0.00000E+00
         0.00000E+00
         0.00000E+00
         0.00000E+00
         0.00000E+00
         0.00000E+00
         0.00000E+00
         0.00000E+00
         0.00000E+00
         0.00000E+00
         0.00000E+00
         0.00000E+00
         0.00000E+00
         0.00000E+00
         0.00000E+00
         0.00000E+00
         0.00000E+00
         0.00000E+00
         0.00000E+00
         0.00000E+00
         0.00000E+00
         0.00000E+00
         0.00000E+00
         0.00000E+00
         0.00000E+00
         0.00000E+00
         0.00000E+00
         0.00000E+00
         0.00000E+00
         0.00000E+00
         0.00000E+00
         0.00000E+00
         0.00000E+00
         0.00000E+00
         0.00000E+00
         0.00000E+00
         0.00000E+00
         0.00000E+00
         0.00000E+00
         0.00000E+00
         0.00000E+00
         0.00000E+00
         0.00000E+00
         0.00000E+00
         0.00000E+00
         0.00000E+00
         0.00000E+00
         0.00000E+00
         0.00000E+00
         0.00000E+00
         0.00000E+00
         0.00000E+00
         0.00000E+00
         0.00000E+00
         0.00000E+00
         0.00000E+00
         0.00000E+00
         0.00000E+00
         0.00000E+00
         0.00000E+00
         0.00000E+00
         0.00000E+00
         0.00000E+00
         0.00000E+00
         0.00000E+00
         0.00000E+00
         0.00000E+00
         0.00000E+00
         0.00000E+00
         0.00000E+00
         0.00000E+00
         0.00000E+00
         0.00000E+00
         0.00000E+00
         0.00000E+00
         0.00000E+00
         0.00000E+00
         0.00000E+00
         0.00000E+00
         0.00000E+00
         0.00000E+00
         0.00000E+00
         0.00000E+00
         0.00000E+00
         0.00000E+00
         0.00000E+00
         0.00000E+00
         0.00000E+00
         0.00000E+00
         0.00000E+00
         0.00000E+00
         0.00000E+00
         0.00000E+00
         0.00000E+00
         0.00000E+00
         0.00000E+00
         0.00000E+00
         0.00000E+00
         0.00000E+00
         0.00000E+00
         0.00000E+00
         0.00000E+00
         0.00000E+00
         0.00000E+00
         0.00000E+00
         0.00000E+00
         0.00000E+00
         0.00000E+00
         0.00000E+00
         0.00000E+00
         0.00000E+00
         0.00000E+00
         0.00000E+00
         0.00000E+00
         0.00000E+00
         0.00000E+00
         0.00000E+00
         0.00000E+00
         0.00000E+00
         0.00000E+00
         0.00000E+00
         0.00000E+00
         0.00000E+00
         0.00000E+00
         0.00000E+00
         0.00000E+00
         0.00000E+00
         0.00000E+00
         0.00000E+00
         0.00000E+00
         0.00000E+00
         0.00000E+00
         0.00000E+00
         0.00000E+00
         0.00000E+00
         0.00000E+00
         0.00000E+00
         0.00000E+00
         0.00000E+00
         0.00000E+00
         0.00000E+00
         0.00000E+00
         0.00000E+00
         0.00000E+00
         0.00000E+00
         0.00000E+00
         0.00000E+00
         0.00000E+00
         0.00000E+00
         0.00000E+00
         0.00000E+00
         0.00000E+00
         0.00000E+00
         0.00000E+00
         0.00000E+00
         0.00000E+00
         0.00000E+00
         0.00000E+00
         0.00000E+00
         0.00000E+00
         0.00000E+00
         0.00000E+00
         0.00000E+00
         0.00000E+00
         0.00000E+00
         0.00000E+00
         0.00000E+00
         0.00000E+00
         0.00000E+00
         0.00000E+00
         0.00000E+00
         0.00000E+00
         0.00000E+00
         0.00000E+00
         0.00000E+00
         0.00000E+00
         0.00000E+00
         0.00000E+00
         0.00000E+00
         0.00000E+00
         0.00000E+00
         0.00000E+00
         0.00000E+00
         0.00000E+00
         0.00000E+00
         0.00000E+00
         0.00000E+00
         0.00000E+00
         0.00000E+00
         0.00000E+00
         0.00000E+00
         0.00000E+00
         0.00000E+00
         0.00000E+00
         0.00000E+00
         0.00000E+00
         0.00000E+00
         0.00000E+00
         0.00000E+00
         0.00000E+00
         0.00000E+00
         0.00000E+00
         0.00000E+00
         0.00000E+00
         0.00000E+00
         0.00000E+00
         0.00000E+00
         0.00000E+00
         0.00000E+00
         0.00000E+00
         0.00000E+00
         0.00000E+00
         0.00000E+00
         0.00000E+00
         0.00000E+00
         0.00000E+00
         0.00000E+00
         0.00000E+00
         0.00000E+00
         0.00000E+00
         0.00000E+00
         0.00000E+00
         0.00000E+00
         0.00000E+00
         0.00000E+00
         0.00000E+00
         0.00000E+00
         0.00000E+00
         0.00000E+00
         0.00000E+00
         0.00000E+00
         0.00000E+00
         0.00000E+00
         0.00000E+00
         0.00000E+00
         0.00000E+00
         0.00000E+00
         0.00000E+00
         0.00000E+00
         0.00000E+00
         0.00000E+00
         0.00000E+00
         0.00000E+00
         0.00000E+00
         0.00000E+00
         0.00000E+00
         0.00000E+00
         0.00000E+00
         0.00000E+00
         0.00000E+00
         0.00000E+00
         0.00000E+00
         0.00000E+00
         0.00000E+00
         0.00000E+00
         0.00000E+00
         0.00000E+00
         0.00000E+00
         0.00000E+00
         0.00000E+00
         0.00000E+00
         0.00000E+00
         0.00000E+00
         0.00000E+00
         0.00000E+00
         0.00000E+00
         0.00000E+00
         0.00000E+00
         0.00000E+00
         0.00000E+00
         0.00000E+00
         0.00000E+00
         0.00000E+00
         0.00000E+00
         0.00000E+00
         0.00000E+00
         0.00000E+00
         0.00000E+00
         0.00000E+00
         0.00000E+00
         0.00000E+00
         0.00000E+00
         0.00000E+00
         0.00000E+00
         0.00000E+00
         0.00000E+00
         0.00000E+00
         0.00000E+00
         0.00000E+00
         0.00000E+00
         0.00000E+00
         0.00000E+00
         0.00000E+00
         0.00000E+00
         0.00000E+00
         0.00000E+00
         0.00000E+00
         0.00000E+00
         0.00000E+00
         0.00000E+00
         0.00000E+00
         0.00000E+00
         0.00000E+00
         0.00000E+00
         0.00000E+00
         0.00000E+00
         0.00000E+00
         0.00000E+00
         0.00000E+00
         0.00000E+00
         0.00000E+00
         0.00000E+00
         0.00000E+00
         0.00000E+00
         0.00000E+00
         0.00000E+00
         0.00000E+00
         0.00000E+00
         0.00000E+00
         0.00000E+00
         0.00000E+00
         0.00000E+00
         0.00000E+00
         0.00000E+00
         0.00000E+00
         0.00000E+00
         0.00000E+00
         0.00000E+00
         0.00000E+00
         0.00000E+00
         0.00000E+00
         0.00000E+00
         0.00000E+00
         0.00000E+00
         0.00000E+00
         0.00000E+00
         0.00000E+00
         0.00000E+00
         0.00000E+00
         0.00000E+00
         0.00000E+00
         0.00000E+00
         0.00000E+00
         0.00000E+00
         0.00000E+00
         0.00000E+00
         0.00000E+00
         0.00000E+00
         0.00000E+00
         0.00000E+00
         0.00000E+00
         0.00000E+00
         0.00000E+00
         0.00000E+00
         0.00000E+00
         0.00000E+00
         0.00000E+00
         0.00000E+00
         0.00000E+00
         0.00000E+00
         0.00000E+00
         0.00000E+00
         0.00000E+00
         0.00000E+00
         0.00000E+00
         0.00000E+00
         0.00000E+00
         0.00000E+00
         0.00000E+00
         0.00000E+00
         0.00000E+00
         0.00000E+00
         0.00000E+00
         0.00000E+00
         0.00000E+00
         0.00000E+00
         0.00000E+00
         0.00000E+00
         0.00000E+00
         0.00000E+00
         0.00000E+00
         0.00000E+00
         0.00000E+00
         0.00000E+00
         0.00000E+00
         0.00000E+00
         0.00000E+00
         0.00000E+00
         0.00000E+00
         0.00000E+00
         0.00000E+00
         0.00000E+00
         0.00000E+00
         0.00000E+00
         0.00000E+00
         0.00000E+00
         0.00000E+00
         0.00000E+00
         0.00000E+00
         0.00000E+00
         0.00000E+00
         0.00000E+00
         0.00000E+00
         0.00000E+00
         0.00000E+00
         0.00000E+00
         0.00000E+00
         0.00000E+00
         0.00000E+00
         0.00000E+00
         0.00000E+00
         0.00000E+00
         0.00000E+00
         0.00000E+00
         0.00000E+00
         0.00000E+00
         0.00000E+00
         0.00000E+00
         0.00000E+00
         0.00000E+00
         0.00000E+00
         0.00000E+00
         0.00000E+00
         0.00000E+00
         0.00000E+00
         0.00000E+00
         0.00000E+00
         0.00000E+00
         0.00000E+00
         0.00000E+00
         0.00000E+00
         0.00000E+00
         0.00000E+00
         0.00000E+00
         0.00000E+00
         0.00000E+00
         0.00000E+00
         0.00000E+00
         0.00000E+00
         0.00000E+00
         0.00000E+00
         0.00000E+00
         0.00000E+00
         0.00000E+00
         0.00000E+00
         0.00000E+00
         0.00000E+00
         0.00000E+00
         0.00000E+00
         0.00000E+00
         0.00000E+00
         0.00000E+00
         0.00000E+00
         0.00000E+00
         0.00000E+00
         0.00000E+00
         0.00000E+00
         0.00000E+00
         0.00000E+00
         0.00000E+00
         0.00000E+00
         0.00000E+00
         0.00000E+00
         0.00000E+00
         0.00000E+00
         0.00000E+00
         0.00000E+00
         0.00000E+00
         0.00000E+00
         0.00000E+00
         0.00000E+00
         0.00000E+00
         0.00000E+00
         0.00000E+00
         0.00000E+00
         0.00000E+00
         0.00000E+00
         0.00000E+00
         0.00000E+00
         0.00000E+00
         0.00000E+00
         0.00000E+00
         0.00000E+00
         0.00000E+00
         0.00000E+00
         0.00000E+00
         0.00000E+00
         0.00000E+00
         0.00000E+00
         0.00000E+00
         0.00000E+00
         0.00000E+00
         0.00000E+00
         0.00000E+00
         0.00000E+00
         0.00000E+00
         0.00000E+00
         0.00000E+00
         0.00000E+00
         0.00000E+00
         0.00000E+00
         0.00000E+00
         0.00000E+00
         0.00000E+00
         0.00000E+00
         0.00000E+00
         0.00000E+00
         0.00000E+00
         0.00000E+00
         0.00000E+00
         0.00000E+00
         0.00000E+00
         0.00000E+00
         0.00000E+00
         0.00000E+00
         0.00000E+00
         0.00000E+00
         0.00000E+00
         0.00000E+00
         0.00000E+00
         0.00000E+00
         0.00000E+00
         0.00000E+00
         0.00000E+00
         0.00000E+00
         0.00000E+00
         0.00000E+00
         0.00000E+00
         0.00000E+00
         0.00000E+00
         0.00000E+00
         0.00000E+00
         0.00000E+00
         0.00000E+00
         0.00000E+00
         0.00000E+00
         0.00000E+00
         0.00000E+00
         0.00000E+00
         0.00000E+00
         0.00000E+00
         0.00000E+00
         0.00000E+00
         0.00000E+00
         0.00000E+00
         0.00000E+00
         0.00000E+00
         0.00000E+00
         0.00000E+00
         0.00000E+00
         0.00000E+00
         0.00000E+00
         0.00000E+00
         0.00000E+00
         0.00000E+00
         0.00000E+00
         0.00000E+00
         0.00000E+00
         0.00000E+00
         0.00000E+00
         0.00000E+00
         0.00000E+00
         0.00000E+00
         0.00000E+00
         0.00000E+00
         0.00000E+00
         0.00000E+00
         0.00000E+00
         0.00000E+00
         0.00000E+00
         0.00000E+00
         0.00000E+00
         0.00000E+00
         0.00000E+00
         0.00000E+00
         0.00000E+00
         0.00000E+00
         0.00000E+00
         0.00000E+00
         0.00000E+00
         0.00000E+00
         0.00000E+00
         0.00000E+00
         0.00000E+00
         0.00000E+00
         0.00000E+00
         0.00000E+00
         0.00000E+00
         0.00000E+00
         0.00000E+00
         0.00000E+00
         0.00000E+00
         0.00000E+00
         0.00000E+00
         0.00000E+00
         0.00000E+00
         0.00000E+00
         0.00000E+00
         0.00000E+00
         0.00000E+00
         0.00000E+00
         0.00000E+00
         0.00000E+00
         0.00000E+00
         0.00000E+00
         0.00000E+00
         0.00000E+00
         0.00000E+00
         0.00000E+00
         0.00000E+00
         0.00000E+00
         0.00000E+00
         0.00000E+00
         0.00000E+00
         0.00000E+00
         0.00000E+00
         0.00000E+00
         0.00000E+00
         0.00000E+00
         0.00000E+00
         0.00000E+00
  
SCALARS               pre_disp_force_z  double 1
LOOKUP_TABLE default
         0.00000E+00
         0.00000E+00
         0.00000E+00
         0.00000E+00
        -0.00000E+00
        -0.00000E+00
        -0.00000E+00
        -0.00000E+00
         0.00000E+00
         0.00000E+00
        -0.00000E+00
        -0.00000E+00
         0.00000E+00
         0.00000E+00
        -0.00000E+00
        -0.00000E+00
         0.00000E+00
         0.00000E+00
        -0.00000E+00
        -0.00000E+00
         0.00000E+00
         0.00000E+00
         0.00000E+00
        -0.00000E+00
        -0.00000E+00
        -0.00000E+00
         0.00000E+00
         0.00000E+00
        -0.00000E+00
        -0.00000E+00
         0.00000E+00
         0.00000E+00
         0.00000E+00
        -0.00000E+00
        -0.00000E+00
        -0.00000E+00
         0.00000E+00
         0.00000E+00
        -0.00000E+00
        -0.00000E+00
         0.00000E+00
         0.00000E+00
        -0.00000E+00
        -0.00000E+00
         0.00000E+00
         0.00000E+00
        -0.00000E+00
        -0.00000E+00
         0.00000E+00
        -0.00000E+00
         0.00000E+00
        -0.00000E+00
         0.00000E+00
        -0.00000E+00
         0.00000E+00
        -0.00000E+00
         0.00000E+00
         0.00000E+00
        -0.00000E+00
        -0.00000E+00
         0.00000E+00
         0.00000E+00
        -0.00000E+00
        -0.00000E+00
         0.00000E+00
        -0.00000E+00
         0.00000E+00
        -0.00000E+00
         0.00000E+00
         0.00000E+00
        -0.00000E+00
        -0.00000E+00
         0.00000E+00
        -0.00000E+00
         0.00000E+00
        -0.00000E+00
         0.00000E+00
        -0.00000E+00
         0.00000E+00
        -0.00000E+00
         0.00000E+00
         0.00000E+00
        -0.00000E+00
        -0.00000E+00
         0.00000E+00
        -0.00000E+00
         0.00000E+00
        -0.00000E+00
         0.00000E+00
        -0.00000E+00
         0.00000E+00
         0.00000E+00
        -0.00000E+00
        -0.00000E+00
         0.00000E+00
        -0.00000E+00
         0.00000E+00
        -0.00000E+00
         0.00000E+00
        -0.00000E+00
         0.00000E+00
         0.00000E+00
        -0.00000E+00
        -0.00000E+00
         0.00000E+00
         0.00000E+00
        -0.00000E+00
        -0.00000E+00
         0.00000E+00
        -0.00000E+00
         0.00000E+00
        -0.00000E+00
         0.00000E+00
        -0.00000E+00
         0.00000E+00
        -0.00000E+00
         0.00000E+00
        -0.00000E+00
         0.00000E+00
        -0.00000E+00
         0.00000E+00
        -0.00000E+00
         0.00000E+00
        -0.00000E+00
         0.00000E+00
        -0.00000E+00
         0.00000E+00
        -0.00000E+00
         0.00000E+00
        -0.00000E+00
         0.00000E+00
        -0.00000E+00
         0.00000E+00
        -0.00000E+00
         0.00000E+00
        -0.00000E+00
         0.00000E+00
        -0.00000E+00
         0.00000E+00
        -0.00000E+00
         0.00000E+00
        -0.00000E+00
         0.00000E+00
        -0.00000E+00
         0.00000E+00
        -0.00000E+00
         0.00000E+00
        -0.00000E+00
         0.00000E+00
        -0.00000E+00
         0.00000E+00
        -0.00000E+00
         0.00000E+00
        -0.00000E+00
         0.00000E+00
        -0.00000E+00
         0.00000E+00
         0.00000E+00
         0.00000E+00
         0.00000E+00
         0.00000E+00
         0.00000E+00
         0.00000E+00
         0.00000E+00
         0.00000E+00
         0.00000E+00
         0.00000E+00
         0.00000E+00
         0.00000E+00
         0.00000E+00
         0.00000E+00
         0.00000E+00
         0.00000E+00
         0.00000E+00
         0.00000E+00
         0.00000E+00
         0.00000E+00
         0.00000E+00
         0.00000E+00
         0.00000E+00
         0.00000E+00
         0.00000E+00
         0.00000E+00
         0.00000E+00
         0.00000E+00
         0.00000E+00
         0.00000E+00
         0.00000E+00
         0.00000E+00
         0.00000E+00
         0.00000E+00
         0.00000E+00
         0.00000E+00
         0.00000E+00
         0.00000E+00
         0.00000E+00
         0.00000E+00
         0.00000E+00
         0.00000E+00
         0.00000E+00
         0.00000E+00
         0.00000E+00
         0.00000E+00
         0.00000E+00
         0.00000E+00
         0.00000E+00
         0.00000E+00
         0.00000E+00
         0.00000E+00
         0.00000E+00
         0.00000E+00
         0.00000E+00
         0.00000E+00
         0.00000E+00
         0.00000E+00
         0.00000E+00
         0.00000E+00
         0.00000E+00
         0.00000E+00
         0.00000E+00
         0.00000E+00
         0.00000E+00
         0.00000E+00
         0.00000E+00
         0.00000E+00
         0.00000E+00
         0.00000E+00
         0.00000E+00
         0.00000E+00
         0.00000E+00
         0.00000E+00
         0.00000E+00
         0.00000E+00
         0.00000E+00
         0.00000E+00
         0.00000E+00
         0.00000E+00
         0.00000E+00
         0.00000E+00
         0.00000E+00
         0.00000E+00
         0.00000E+00
         0.00000E+00
         0.00000E+00
         0.00000E+00
         0.00000E+00
         0.00000E+00
         0.00000E+00
         0.00000E+00
         0.00000E+00
         0.00000E+00
         0.00000E+00
         0.00000E+00
         0.00000E+00
         0.00000E+00
         0.00000E+00
         0.00000E+00
         0.00000E+00
         0.00000E+00
         0.00000E+00
         0.00000E+00
         0.00000E+00
         0.00000E+00
         0.00000E+00
         0.00000E+00
         0.00000E+00
         0.00000E+00
         0.00000E+00
         0.00000E+00
         0.00000E+00
         0.00000E+00
         0.00000E+00
         0.00000E+00
         0.00000E+00
         0.00000E+00
         0.00000E+00
         0.00000E+00
         0.00000E+00
         0.00000E+00
         0.00000E+00
         0.00000E+00
         0.00000E+00
         0.00000E+00
         0.00000E+00
         0.00000E+00
         0.00000E+00
         0.00000E+00
         0.00000E+00
         0.00000E+00
         0.00000E+00
         0.00000E+00
         0.00000E+00
         0.00000E+00
         0.00000E+00
         0.00000E+00
         0.00000E+00
         0.00000E+00
         0.00000E+00
         0.00000E+00
         0.00000E+00
         0.00000E+00
         0.00000E+00
         0.00000E+00
         0.00000E+00
         0.00000E+00
         0.00000E+00
         0.00000E+00
         0.00000E+00
         0.00000E+00
         0.00000E+00
         0.00000E+00
         0.00000E+00
         0.00000E+00
         0.00000E+00
         0.00000E+00
         0.00000E+00
         0.00000E+00
         0.00000E+00
         0.00000E+00
         0.00000E+00
         0.00000E+00
         0.00000E+00
         0.00000E+00
         0.00000E+00
         0.00000E+00
         0.00000E+00
         0.00000E+00
         0.00000E+00
         0.00000E+00
         0.00000E+00
         0.00000E+00
         0.00000E+00
         0.00000E+00
         0.00000E+00
         0.00000E+00
         0.00000E+00
         0.00000E+00
         0.00000E+00
         0.00000E+00
         0.00000E+00
         0.00000E+00
         0.00000E+00
         0.00000E+00
         0.00000E+00
         0.00000E+00
         0.00000E+00
         0.00000E+00
         0.00000E+00
         0.00000E+00
         0.00000E+00
         0.00000E+00
         0.00000E+00
         0.00000E+00
         0.00000E+00
         0.00000E+00
         0.00000E+00
         0.00000E+00
         0.00000E+00
         0.00000E+00
         0.00000E+00
         0.00000E+00
         0.00000E+00
         0.00000E+00
         0.00000E+00
         0.00000E+00
         0.00000E+00
         0.00000E+00
         0.00000E+00
         0.00000E+00
         0.00000E+00
         0.00000E+00
         0.00000E+00
         0.00000E+00
         0.00000E+00
         0.00000E+00
         0.00000E+00
         0.00000E+00
         0.00000E+00
         0.00000E+00
         0.00000E+00
         0.00000E+00
         0.00000E+00
         0.00000E+00
         0.00000E+00
         0.00000E+00
         0.00000E+00
         0.00000E+00
         0.00000E+00
         0.00000E+00
         0.00000E+00
         0.00000E+00
         0.00000E+00
         0.00000E+00
         0.00000E+00
         0.00000E+00
         0.00000E+00
         0.00000E+00
         0.00000E+00
         0.00000E+00
         0.00000E+00
         0.00000E+00
         0.00000E+00
         0.00000E+00
         0.00000E+00
         0.00000E+00
         0.00000E+00
         0.00000E+00
         0.00000E+00
         0.00000E+00
         0.00000E+00
         0.00000E+00
         0.00000E+00
         0.00000E+00
         0.00000E+00
         0.00000E+00
         0.00000E+00
         0.00000E+00
         0.00000E+00
         0.00000E+00
         0.00000E+00
         0.00000E+00
         0.00000E+00
         0.00000E+00
         0.00000E+00
         0.00000E+00
         0.00000E+00
         0.00000E+00
         0.00000E+00
         0.00000E+00
         0.00000E+00
         0.00000E+00
         0.00000E+00
         0.00000E+00
         0.00000E+00
         0.00000E+00
         0.00000E+00
         0.00000E+00
         0.00000E+00
         0.00000E+00
         0.00000E+00
         0.00000E+00
         0.00000E+00
         0.00000E+00
         0.00000E+00
         0.00000E+00
         0.00000E+00
         0.00000E+00
         0.00000E+00
         0.00000E+00
         0.00000E+00
         0.00000E+00
         0.00000E+00
         0.00000E+00
         0.00000E+00
         0.00000E+00
         0.00000E+00
         0.00000E+00
         0.00000E+00
         0.00000E+00
         0.00000E+00
         0.00000E+00
         0.00000E+00
         0.00000E+00
         0.00000E+00
         0.00000E+00
         0.00000E+00
         0.00000E+00
         0.00000E+00
         0.00000E+00
         0.00000E+00
         0.00000E+00
         0.00000E+00
         0.00000E+00
         0.00000E+00
         0.00000E+00
         0.00000E+00
         0.00000E+00
         0.00000E+00
         0.00000E+00
         0.00000E+00
         0.00000E+00
         0.00000E+00
         0.00000E+00
         0.00000E+00
         0.00000E+00
         0.00000E+00
         0.00000E+00
         0.00000E+00
         0.00000E+00
         0.00000E+00
         0.00000E+00
         0.00000E+00
         0.00000E+00
         0.00000E+00
         0.00000E+00
         0.00000E+00
         0.00000E+00
         0.00000E+00
         0.00000E+00
         0.00000E+00
         0.00000E+00
         0.00000E+00
         0.00000E+00
         0.00000E+00
         0.00000E+00
         0.00000E+00
         0.00000E+00
         0.00000E+00
         0.00000E+00
         0.00000E+00
         0.00000E+00
         0.00000E+00
         0.00000E+00
         0.00000E+00
         0.00000E+00
         0.00000E+00
         0.00000E+00
         0.00000E+00
         0.00000E+00
         0.00000E+00
         0.00000E+00
         0.00000E+00
         0.00000E+00
         0.00000E+00
         0.00000E+00
         0.00000E+00
         0.00000E+00
         0.00000E+00
         0.00000E+00
         0.00000E+00
         0.00000E+00
         0.00000E+00
         0.00000E+00
         0.00000E+00
         0.00000E+00
         0.00000E+00
         0.00000E+00
         0.00000E+00
         0.00000E+00
         0.00000E+00
         0.00000E+00
         0.00000E+00
         0.00000E+00
         0.00000E+00
         0.00000E+00
         0.00000E+00
         0.00000E+00
         0.00000E+00
         0.00000E+00
         0.00000E+00
         0.00000E+00
         0.00000E+00
         0.00000E+00
         0.00000E+00
         0.00000E+00
         0.00000E+00
         0.00000E+00
         0.00000E+00
         0.00000E+00
         0.00000E+00
         0.00000E+00
         0.00000E+00
         0.00000E+00
         0.00000E+00
         0.00000E+00
         0.00000E+00
         0.00000E+00
         0.00000E+00
         0.00000E+00
         0.00000E+00
         0.00000E+00
         0.00000E+00
         0.00000E+00
         0.00000E+00
         0.00000E+00
         0.00000E+00
         0.00000E+00
         0.00000E+00
         0.00000E+00
         0.00000E+00
         0.00000E+00
         0.00000E+00
         0.00000E+00
         0.00000E+00
         0.00000E+00
         0.00000E+00
         0.00000E+00
         0.00000E+00
         0.00000E+00
         0.00000E+00
         0.00000E+00
         0.00000E+00
         0.00000E+00
         0.00000E+00
         0.00000E+00
         0.00000E+00
         0.00000E+00
         0.00000E+00
         0.00000E+00
         0.00000E+00
         0.00000E+00
         0.00000E+00
         0.00000E+00
         0.00000E+00
         0.00000E+00
         0.00000E+00
         0.00000E+00
         0.00000E+00
         0.00000E+00
         0.00000E+00
         0.00000E+00
         0.00000E+00
         0.00000E+00
         0.00000E+00
         0.00000E+00
         0.00000E+00
         0.00000E+00
         0.00000E+00
         0.00000E+00
         0.00000E+00
         0.00000E+00
         0.00000E+00
         0.00000E+00
         0.00000E+00
         0.00000E+00
         0.00000E+00
         0.00000E+00
         0.00000E+00
         0.00000E+00
         0.00000E+00
         0.00000E+00
         0.00000E+00
         0.00000E+00
         0.00000E+00
         0.00000E+00
         0.00000E+00
         0.00000E+00
         0.00000E+00
         0.00000E+00
         0.00000E+00
         0.00000E+00
         0.00000E+00
         0.00000E+00
         0.00000E+00
         0.00000E+00
         0.00000E+00
         0.00000E+00
         0.00000E+00
         0.00000E+00
         0.00000E+00
         0.00000E+00
         0.00000E+00
         0.00000E+00
         0.00000E+00
         0.00000E+00
         0.00000E+00
         0.00000E+00
         0.00000E+00
         0.00000E+00
         0.00000E+00
         0.00000E+00
         0.00000E+00
         0.00000E+00
         0.00000E+00
         0.00000E+00
         0.00000E+00
         0.00000E+00
         0.00000E+00
         0.00000E+00
         0.00000E+00
         0.00000E+00
         0.00000E+00
         0.00000E+00
         0.00000E+00
         0.00000E+00
         0.00000E+00
         0.00000E+00
         0.00000E+00
         0.00000E+00
         0.00000E+00
         0.00000E+00
         0.00000E+00
         0.00000E+00
         0.00000E+00
         0.00000E+00
         0.00000E+00
         0.00000E+00
         0.00000E+00
         0.00000E+00
         0.00000E+00
         0.00000E+00
         0.00000E+00
         0.00000E+00
         0.00000E+00
         0.00000E+00
         0.00000E+00
         0.00000E+00
         0.00000E+00
         0.00000E+00
         0.00000E+00
         0.00000E+00
         0.00000E+00
         0.00000E+00
         0.00000E+00
         0.00000E+00
         0.00000E+00
         0.00000E+00
         0.00000E+00
         0.00000E+00
         0.00000E+00
         0.00000E+00
         0.00000E+00
         0.00000E+00
         0.00000E+00
         0.00000E+00
         0.00000E+00
         0.00000E+00
         0.00000E+00
         0.00000E+00
         0.00000E+00
         0.00000E+00
         0.00000E+00
         0.00000E+00
         0.00000E+00
         0.00000E+00
         0.00000E+00
         0.00000E+00
         0.00000E+00
         0.00000E+00
         0.00000E+00
         0.00000E+00
         0.00000E+00
         0.00000E+00
         0.00000E+00
         0.00000E+00
         0.00000E+00
         0.00000E+00
         0.00000E+00
         0.00000E+00
         0.00000E+00
         0.00000E+00
         0.00000E+00
         0.00000E+00
         0.00000E+00
         0.00000E+00
         0.00000E+00
         0.00000E+00
         0.00000E+00
         0.00000E+00
         0.00000E+00
         0.00000E+00
         0.00000E+00
         0.00000E+00
         0.00000E+00
         0.00000E+00
         0.00000E+00
         0.00000E+00
         0.00000E+00
         0.00000E+00
         0.00000E+00
         0.00000E+00
         0.00000E+00
         0.00000E+00
         0.00000E+00
         0.00000E+00
         0.00000E+00
         0.00000E+00
         0.00000E+00
         0.00000E+00
         0.00000E+00
         0.00000E+00
         0.00000E+00
         0.00000E+00
         0.00000E+00
         0.00000E+00
         0.00000E+00
         0.00000E+00
         0.00000E+00
         0.00000E+00
         0.00000E+00
         0.00000E+00
         0.00000E+00
         0.00000E+00
         0.00000E+00
         0.00000E+00
         0.00000E+00
         0.00000E+00
         0.00000E+00
         0.00000E+00
         0.00000E+00
         0.00000E+00
         0.00000E+00
         0.00000E+00
         0.00000E+00
         0.00000E+00
         0.00000E+00
         0.00000E+00
         0.00000E+00
         0.00000E+00
         0.00000E+00
         0.00000E+00
         0.00000E+00
         0.00000E+00
         0.00000E+00
         0.00000E+00
         0.00000E+00
         0.00000E+00
         0.00000E+00
         0.00000E+00
         0.00000E+00
         0.00000E+00
         0.00000E+00
         0.00000E+00
         0.00000E+00
         0.00000E+00
         0.00000E+00
         0.00000E+00
         0.00000E+00
         0.00000E+00
         0.00000E+00
         0.00000E+00
         0.00000E+00
         0.00000E+00
         0.00000E+00
         0.00000E+00
         0.00000E+00
         0.00000E+00
         0.00000E+00
         0.00000E+00
         0.00000E+00
         0.00000E+00
         0.00000E+00
         0.00000E+00
         0.00000E+00
         0.00000E+00
         0.00000E+00
         0.00000E+00
         0.00000E+00
         0.00000E+00
         0.00000E+00
         0.00000E+00
         0.00000E+00
         0.00000E+00
         0.00000E+00
         0.00000E+00
         0.00000E+00
         0.00000E+00
         0.00000E+00
         0.00000E+00
         0.00000E+00
         0.00000E+00
         0.00000E+00
         0.00000E+00
         0.00000E+00
         0.00000E+00
         0.00000E+00
         0.00000E+00
         0.00000E+00
         0.00000E+00
         0.00000E+00
         0.00000E+00
         0.00000E+00
         0.00000E+00
         0.00000E+00
         0.00000E+00
         0.00000E+00
         0.00000E+00
         0.00000E+00
         0.00000E+00
         0.00000E+00
         0.00000E+00
         0.00000E+00
         0.00000E+00
         0.00000E+00
         0.00000E+00
         0.00000E+00
         0.00000E+00
         0.00000E+00
         0.00000E+00
         0.00000E+00
         0.00000E+00
         0.00000E+00
         0.00000E+00
         0.00000E+00
         0.00000E+00
         0.00000E+00
         0.00000E+00
         0.00000E+00
         0.00000E+00
         0.00000E+00
         0.00000E+00
         0.00000E+00
         0.00000E+00
         0.00000E+00
         0.00000E+00
         0.00000E+00
         0.00000E+00
         0.00000E+00
         0.00000E+00
         0.00000E+00
         0.00000E+00
         0.00000E+00
         0.00000E+00
         0.00000E+00
         0.00000E+00
         0.00000E+00
         0.00000E+00
         0.00000E+00
         0.00000E+00
         0.00000E+00
         0.00000E+00
         0.00000E+00
         0.00000E+00
         0.00000E+00
         0.00000E+00
         0.00000E+00
         0.00000E+00
         0.00000E+00
         0.00000E+00
         0.00000E+00
         0.00000E+00
         0.00000E+00
         0.00000E+00
         0.00000E+00
         0.00000E+00
         0.00000E+00
         0.00000E+00
         0.00000E+00
         0.00000E+00
         0.00000E+00
         0.00000E+00
         0.00000E+00
         0.00000E+00
         0.00000E+00
         0.00000E+00
         0.00000E+00
         0.00000E+00
         0.00000E+00
         0.00000E+00
         0.00000E+00
         0.00000E+00
         0.00000E+00
         0.00000E+00
         0.00000E+00
         0.00000E+00
         0.00000E+00
         0.00000E+00
         0.00000E+00
         0.00000E+00
         0.00000E+00
         0.00000E+00
         0.00000E+00
         0.00000E+00
         0.00000E+00
         0.00000E+00
         0.00000E+00
         0.00000E+00
         0.00000E+00
         0.00000E+00
         0.00000E+00
         0.00000E+00
         0.00000E+00
         0.00000E+00
         0.00000E+00
         0.00000E+00
         0.00000E+00
         0.00000E+00
         0.00000E+00
         0.00000E+00
         0.00000E+00
         0.00000E+00
         0.00000E+00
         0.00000E+00
         0.00000E+00
         0.00000E+00
         0.00000E+00
         0.00000E+00
         0.00000E+00
         0.00000E+00
         0.00000E+00
         0.00000E+00
         0.00000E+00
         0.00000E+00
         0.00000E+00
         0.00000E+00
         0.00000E+00
         0.00000E+00
         0.00000E+00
         0.00000E+00
         0.00000E+00
         0.00000E+00
         0.00000E+00
         0.00000E+00
         0.00000E+00
         0.00000E+00
         0.00000E+00
         0.00000E+00
         0.00000E+00
         0.00000E+00
         0.00000E+00
         0.00000E+00
         0.00000E+00
         0.00000E+00
         0.00000E+00
         0.00000E+00
         0.00000E+00
         0.00000E+00
         0.00000E+00
         0.00000E+00
         0.00000E+00
         0.00000E+00
         0.00000E+00
         0.00000E+00
         0.00000E+00
         0.00000E+00
         0.00000E+00
         0.00000E+00
         0.00000E+00
         0.00000E+00
         0.00000E+00
         0.00000E+00
         0.00000E+00
         0.00000E+00
         0.00000E+00
         0.00000E+00
         0.00000E+00
         0.00000E+00
         0.00000E+00
         0.00000E+00
         0.00000E+00
         0.00000E+00
         0.00000E+00
         0.00000E+00
         0.00000E+00
         0.00000E+00
         0.00000E+00
         0.00000E+00
         0.00000E+00
         0.00000E+00
         0.00000E+00
         0.00000E+00
         0.00000E+00
         0.00000E+00
         0.00000E+00
         0.00000E+00
         0.00000E+00
         0.00000E+00
         0.00000E+00
         0.00000E+00
         0.00000E+00
         0.00000E+00
         0.00000E+00
         0.00000E+00
         0.00000E+00
         0.00000E+00
         0.00000E+00
         0.00000E+00
         0.00000E+00
         0.00000E+00
         0.00000E+00
         0.00000E+00
         0.00000E+00
         0.00000E+00
         0.00000E+00
         0.00000E+00
         0.00000E+00
         0.00000E+00
         0.00000E+00
         0.00000E+00
         0.00000E+00
         0.00000E+00
         0.00000E+00
         0.00000E+00
         0.00000E+00
         0.00000E+00
         0.00000E+00
         0.00000E+00
         0.00000E+00
         0.00000E+00
         0.00000E+00
         0.00000E+00
         0.00000E+00
         0.00000E+00
         0.00000E+00
         0.00000E+00
         0.00000E+00
         0.00000E+00
         0.00000E+00
         0.00000E+00
         0.00000E+00
         0.00000E+00
         0.00000E+00
         0.00000E+00
         0.00000E+00
         0.00000E+00
         0.00000E+00
         0.00000E+00
         0.00000E+00
         0.00000E+00
         0.00000E+00
         0.00000E+00
         0.00000E+00
         0.00000E+00
         0.00000E+00
         0.00000E+00
         0.00000E+00
         0.00000E+00
         0.00000E+00
         0.00000E+00
         0.00000E+00
         0.00000E+00
         0.00000E+00
         0.00000E+00
         0.00000E+00
         0.00000E+00
         0.00000E+00
         0.00000E+00
         0.00000E+00
         0.00000E+00
         0.00000E+00
         0.00000E+00
         0.00000E+00
         0.00000E+00
         0.00000E+00
         0.00000E+00
         0.00000E+00
         0.00000E+00
         0.00000E+00
         0.00000E+00
         0.00000E+00
         0.00000E+00
         0.00000E+00
         0.00000E+00
         0.00000E+00
         0.00000E+00
         0.00000E+00
         0.00000E+00
         0.00000E+00
         0.00000E+00
         0.00000E+00
         0.00000E+00
         0.00000E+00
         0.00000E+00
         0.00000E+00
         0.00000E+00
         0.00000E+00
         0.00000E+00
         0.00000E+00
         0.00000E+00
         0.00000E+00
         0.00000E+00
         0.00000E+00
         0.00000E+00
         0.00000E+00
         0.00000E+00
         0.00000E+00
         0.00000E+00
         0.00000E+00
         0.00000E+00
         0.00000E+00
         0.00000E+00
         0.00000E+00
         0.00000E+00
         0.00000E+00
         0.00000E+00
         0.00000E+00
         0.00000E+00
         0.00000E+00
         0.00000E+00
         0.00000E+00
         0.00000E+00
         0.00000E+00
         0.00000E+00
         0.00000E+00
         0.00000E+00
         0.00000E+00
         0.00000E+00
         0.00000E+00
         0.00000E+00
         0.00000E+00
         0.00000E+00
         0.00000E+00
         0.00000E+00
         0.00000E+00
         0.00000E+00
         0.00000E+00
         0.00000E+00
         0.00000E+00
         0.00000E+00
         0.00000E+00
         0.00000E+00
         0.00000E+00
         0.00000E+00
         0.00000E+00
         0.00000E+00
         0.00000E+00
         0.00000E+00
         0.00000E+00
         0.00000E+00
         0.00000E+00
         0.00000E+00
         0.00000E+00
         0.00000E+00
         0.00000E+00
         0.00000E+00
         0.00000E+00
         0.00000E+00
         0.00000E+00
         0.00000E+00
         0.00000E+00
         0.00000E+00
         0.00000E+00
         0.00000E+00
         0.00000E+00
         0.00000E+00
         0.00000E+00
         0.00000E+00
         0.00000E+00
         0.00000E+00
         0.00000E+00
         0.00000E+00
         0.00000E+00
         0.00000E+00
         0.00000E+00
         0.00000E+00
         0.00000E+00
         0.00000E+00
         0.00000E+00
         0.00000E+00
         0.00000E+00
         0.00000E+00
         0.00000E+00
         0.00000E+00
         0.00000E+00
         0.00000E+00
         0.00000E+00
         0.00000E+00
         0.00000E+00
         0.00000E+00
         0.00000E+00
         0.00000E+00
         0.00000E+00
         0.00000E+00
         0.00000E+00
         0.00000E+00
         0.00000E+00
         0.00000E+00
         0.00000E+00
         0.00000E+00
         0.00000E+00
         0.00000E+00
         0.00000E+00
         0.00000E+00
         0.00000E+00
         0.00000E+00
         0.00000E+00
         0.00000E+00
         0.00000E+00
         0.00000E+00
         0.00000E+00
         0.00000E+00
         0.00000E+00
         0.00000E+00
         0.00000E+00
         0.00000E+00
         0.00000E+00
         0.00000E+00
         0.00000E+00
         0.00000E+00
         0.00000E+00
         0.00000E+00
         0.00000E+00
         0.00000E+00
         0.00000E+00
         0.00000E+00
         0.00000E+00
         0.00000E+00
         0.00000E+00
         0.00000E+00
         0.00000E+00
         0.00000E+00
         0.00000E+00
         0.00000E+00
         0.00000E+00
         0.00000E+00
         0.00000E+00
         0.00000E+00
         0.00000E+00
         0.00000E+00
         0.00000E+00
         0.00000E+00
         0.00000E+00
         0.00000E+00
         0.00000E+00
         0.00000E+00
         0.00000E+00
         0.00000E+00
         0.00000E+00
         0.00000E+00
         0.00000E+00
         0.00000E+00
         0.00000E+00
         0.00000E+00
         0.00000E+00
         0.00000E+00
         0.00000E+00
         0.00000E+00
         0.00000E+00
         0.00000E+00
         0.00000E+00
         0.00000E+00
         0.00000E+00
         0.00000E+00
         0.00000E+00
         0.00000E+00
         0.00000E+00
         0.00000E+00
         0.00000E+00
         0.00000E+00
         0.00000E+00
         0.00000E+00
         0.00000E+00
         0.00000E+00
         0.00000E+00
         0.00000E+00
         0.00000E+00
         0.00000E+00
         0.00000E+00
         0.00000E+00
         0.00000E+00
         0.00000E+00
         0.00000E+00
         0.00000E+00
         0.00000E+00
         0.00000E+00
         0.00000E+00
         0.00000E+00
         0.00000E+00
         0.00000E+00
         0.00000E+00
         0.00000E+00
         0.00000E+00
         0.00000E+00
         0.00000E+00
         0.00000E+00
         0.00000E+00
         0.00000E+00
         0.00000E+00
         0.00000E+00
         0.00000E+00
         0.00000E+00
         0.00000E+00
         0.00000E+00
         0.00000E+00
         0.00000E+00
         0.00000E+00
         0.00000E+00
         0.00000E+00
         0.00000E+00
         0.00000E+00
         0.00000E+00
         0.00000E+00
         0.00000E+00
         0.00000E+00
         0.00000E+00
         0.00000E+00
         0.00000E+00
         0.00000E+00
         0.00000E+00
         0.00000E+00
         0.00000E+00
         0.00000E+00
         0.00000E+00
         0.00000E+00
         0.00000E+00
         0.00000E+00
         0.00000E+00
         0.00000E+00
         0.00000E+00
         0.00000E+00
         0.00000E+00
         0.00000E+00
         0.00000E+00
         0.00000E+00
         0.00000E+00
         0.00000E+00
         0.00000E+00
         0.00000E+00
         0.00000E+00
         0.00000E+00
         0.00000E+00
         0.00000E+00
         0.00000E+00
         0.00000E+00
         0.00000E+00
         0.00000E+00
         0.00000E+00
         0.00000E+00
         0.00000E+00
         0.00000E+00
         0.00000E+00
         0.00000E+00
         0.00000E+00
         0.00000E+00
         0.00000E+00
         0.00000E+00
         0.00000E+00
         0.00000E+00
         0.00000E+00
         0.00000E+00
         0.00000E+00
         0.00000E+00
         0.00000E+00
         0.00000E+00
         0.00000E+00
         0.00000E+00
         0.00000E+00
         0.00000E+00
         0.00000E+00
         0.00000E+00
         0.00000E+00
         0.00000E+00
         0.00000E+00
         0.00000E+00
         0.00000E+00
         0.00000E+00
         0.00000E+00
         0.00000E+00
         0.00000E+00
         0.00000E+00
         0.00000E+00
         0.00000E+00
         0.00000E+00
         0.00000E+00
         0.00000E+00
         0.00000E+00
         0.00000E+00
         0.00000E+00
         0.00000E+00
         0.00000E+00
         0.00000E+00
         0.00000E+00
         0.00000E+00
         0.00000E+00
         0.00000E+00
         0.00000E+00
         0.00000E+00
         0.00000E+00
         0.00000E+00
         0.00000E+00
         0.00000E+00
         0.00000E+00
         0.00000E+00
         0.00000E+00
         0.00000E+00
         0.00000E+00
         0.00000E+00
         0.00000E+00
         0.00000E+00
         0.00000E+00
         0.00000E+00
         0.00000E+00
         0.00000E+00
         0.00000E+00
         0.00000E+00
         0.00000E+00
         0.00000E+00
         0.00000E+00
         0.00000E+00
         0.00000E+00
         0.00000E+00
         0.00000E+00
         0.00000E+00
         0.00000E+00
         0.00000E+00
         0.00000E+00
         0.00000E+00
         0.00000E+00
         0.00000E+00
         0.00000E+00
         0.00000E+00
         0.00000E+00
         0.00000E+00
         0.00000E+00
         0.00000E+00
         0.00000E+00
         0.00000E+00
         0.00000E+00
         0.00000E+00
         0.00000E+00
         0.00000E+00
         0.00000E+00
         0.00000E+00
         0.00000E+00
         0.00000E+00
         0.00000E+00
         0.00000E+00
         0.00000E+00
         0.00000E+00
         0.00000E+00
         0.00000E+00
         0.00000E+00
         0.00000E+00
         0.00000E+00
         0.00000E+00
         0.00000E+00
         0.00000E+00
         0.00000E+00
         0.00000E+00
         0.00000E+00
         0.00000E+00
         0.00000E+00
         0.00000E+00
         0.00000E+00
         0.00000E+00
         0.00000E+00
         0.00000E+00
         0.00000E+00
         0.00000E+00
         0.00000E+00
         0.00000E+00
         0.00000E+00
         0.00000E+00
         0.00000E+00
         0.00000E+00
         0.00000E+00
         0.00000E+00
         0.00000E+00
         0.00000E+00
         0.00000E+00
         0.00000E+00
         0.00000E+00
         0.00000E+00
         0.00000E+00
         0.00000E+00
         0.00000E+00
         0.00000E+00
         0.00000E+00
         0.00000E+00
         0.00000E+00
         0.00000E+00
         0.00000E+00
         0.00000E+00
         0.00000E+00
         0.00000E+00
         0.00000E+00
         0.00000E+00
         0.00000E+00
         0.00000E+00
         0.00000E+00
         0.00000E+00
         0.00000E+00
         0.00000E+00
         0.00000E+00
         0.00000E+00
         0.00000E+00
         0.00000E+00
         0.00000E+00
         0.00000E+00
         0.00000E+00
         0.00000E+00
         0.00000E+00
         0.00000E+00
         0.00000E+00
         0.00000E+00
         0.00000E+00
         0.00000E+00
         0.00000E+00
         0.00000E+00
         0.00000E+00
         0.00000E+00
         0.00000E+00
         0.00000E+00
         0.00000E+00
         0.00000E+00
         0.00000E+00
         0.00000E+00
         0.00000E+00
         0.00000E+00
         0.00000E+00
         0.00000E+00
         0.00000E+00
         0.00000E+00
         0.00000E+00
         0.00000E+00
         0.00000E+00
         0.00000E+00
         0.00000E+00
         0.00000E+00
         0.00000E+00
         0.00000E+00
         0.00000E+00
         0.00000E+00
         0.00000E+00
         0.00000E+00
         0.00000E+00
         0.00000E+00
         0.00000E+00
         0.00000E+00
         0.00000E+00
         0.00000E+00
         0.00000E+00
         0.00000E+00
         0.00000E+00
         0.00000E+00
         0.00000E+00
         0.00000E+00
         0.00000E+00
         0.00000E+00
         0.00000E+00
         0.00000E+00
         0.00000E+00
         0.00000E+00
         0.00000E+00
         0.00000E+00
         0.00000E+00
         0.00000E+00
         0.00000E+00
         0.00000E+00
         0.00000E+00
         0.00000E+00
         0.00000E+00
         0.00000E+00
         0.00000E+00
         0.00000E+00
         0.00000E+00
         0.00000E+00
         0.00000E+00
         0.00000E+00
         0.00000E+00
         0.00000E+00
         0.00000E+00
         0.00000E+00
         0.00000E+00
         0.00000E+00
         0.00000E+00
         0.00000E+00
         0.00000E+00
         0.00000E+00
         0.00000E+00
         0.00000E+00
         0.00000E+00
         0.00000E+00
         0.00000E+00
         0.00000E+00
         0.00000E+00
         0.00000E+00
         0.00000E+00
         0.00000E+00
         0.00000E+00
         0.00000E+00
         0.00000E+00
         0.00000E+00
         0.00000E+00
         0.00000E+00
         0.00000E+00
         0.00000E+00
         0.00000E+00
         0.00000E+00
         0.00000E+00
         0.00000E+00
         0.00000E+00
         0.00000E+00
         0.00000E+00
         0.00000E+00
         0.00000E+00
         0.00000E+00
         0.00000E+00
         0.00000E+00
         0.00000E+00
         0.00000E+00
         0.00000E+00
         0.00000E+00
         0.00000E+00
         0.00000E+00
         0.00000E+00
         0.00000E+00
         0.00000E+00
         0.00000E+00
         0.00000E+00
         0.00000E+00
         0.00000E+00
         0.00000E+00
         0.00000E+00
         0.00000E+00
         0.00000E+00
         0.00000E+00
         0.00000E+00
         0.00000E+00
         0.00000E+00
         0.00000E+00
         0.00000E+00
         0.00000E+00
         0.00000E+00
         0.00000E+00
         0.00000E+00
         0.00000E+00
         0.00000E+00
         0.00000E+00
         0.00000E+00
         0.00000E+00
         0.00000E+00
         0.00000E+00
         0.00000E+00
         0.00000E+00
         0.00000E+00
         0.00000E+00
         0.00000E+00
         0.00000E+00
         0.00000E+00
         0.00000E+00
         0.00000E+00
         0.00000E+00
         0.00000E+00
         0.00000E+00
         0.00000E+00
         0.00000E+00
         0.00000E+00
         0.00000E+00
         0.00000E+00
         0.00000E+00
         0.00000E+00
         0.00000E+00
         0.00000E+00
         0.00000E+00
         0.00000E+00
         0.00000E+00
         0.00000E+00
         0.00000E+00
         0.00000E+00
         0.00000E+00
         0.00000E+00
         0.00000E+00
         0.00000E+00
         0.00000E+00
         0.00000E+00
         0.00000E+00
         0.00000E+00
         0.00000E+00
         0.00000E+00
         0.00000E+00
         0.00000E+00
         0.00000E+00
         0.00000E+00
         0.00000E+00
         0.00000E+00
         0.00000E+00
         0.00000E+00
         0.00000E+00
         0.00000E+00
         0.00000E+00
         0.00000E+00
         0.00000E+00
         0.00000E+00
         0.00000E+00
         0.00000E+00
         0.00000E+00
         0.00000E+00
         0.00000E+00
         0.00000E+00
         0.00000E+00
         0.00000E+00
         0.00000E+00
         0.00000E+00
         0.00000E+00
         0.00000E+00
         0.00000E+00
         0.00000E+00
         0.00000E+00
         0.00000E+00
         0.00000E+00
         0.00000E+00
         0.00000E+00
         0.00000E+00
         0.00000E+00
         0.00000E+00
         0.00000E+00
         0.00000E+00
         0.00000E+00
         0.00000E+00
         0.00000E+00
         0.00000E+00
         0.00000E+00
         0.00000E+00
         0.00000E+00
         0.00000E+00
         0.00000E+00
         0.00000E+00
         0.00000E+00
         0.00000E+00
         0.00000E+00
         0.00000E+00
         0.00000E+00
         0.00000E+00
         0.00000E+00
         0.00000E+00
         0.00000E+00
         0.00000E+00
         0.00000E+00
         0.00000E+00
         0.00000E+00
         0.00000E+00
         0.00000E+00
         0.00000E+00
         0.00000E+00
         0.00000E+00
         0.00000E+00
         0.00000E+00
         0.00000E+00
         0.00000E+00
         0.00000E+00
         0.00000E+00
         0.00000E+00
         0.00000E+00
         0.00000E+00
         0.00000E+00
         0.00000E+00
         0.00000E+00
         0.00000E+00
         0.00000E+00
         0.00000E+00
         0.00000E+00
         0.00000E+00
         0.00000E+00
         0.00000E+00
         0.00000E+00
         0.00000E+00
         0.00000E+00
         0.00000E+00
         0.00000E+00
         0.00000E+00
         0.00000E+00
         0.00000E+00
         0.00000E+00
         0.00000E+00
         0.00000E+00
         0.00000E+00
         0.00000E+00
         0.00000E+00
         0.00000E+00
         0.00000E+00
         0.00000E+00
         0.00000E+00
         0.00000E+00
         0.00000E+00
         0.00000E+00
         0.00000E+00
         0.00000E+00
         0.00000E+00
         0.00000E+00
         0.00000E+00
         0.00000E+00
         0.00000E+00
         0.00000E+00
         0.00000E+00
         0.00000E+00
         0.00000E+00
         0.00000E+00
         0.00000E+00
         0.00000E+00
         0.00000E+00
         0.00000E+00
         0.00000E+00
         0.00000E+00
         0.00000E+00
         0.00000E+00
         0.00000E+00
         0.00000E+00
         0.00000E+00
         0.00000E+00
         0.00000E+00
         0.00000E+00
         0.00000E+00
         0.00000E+00
         0.00000E+00
         0.00000E+00
         0.00000E+00
         0.00000E+00
         0.00000E+00
         0.00000E+00
         0.00000E+00
         0.00000E+00
         0.00000E+00
         0.00000E+00
         0.00000E+00
         0.00000E+00
         0.00000E+00
         0.00000E+00
         0.00000E+00
         0.00000E+00
         0.00000E+00
         0.00000E+00
         0.00000E+00
         0.00000E+00
         0.00000E+00
         0.00000E+00
         0.00000E+00
         0.00000E+00
         0.00000E+00
         0.00000E+00
         0.00000E+00
         0.00000E+00
         0.00000E+00
         0.00000E+00
         0.00000E+00
         0.00000E+00
         0.00000E+00
         0.00000E+00
         0.00000E+00
         0.00000E+00
         0.00000E+00
         0.00000E+00
         0.00000E+00
         0.00000E+00
         0.00000E+00
         0.00000E+00
         0.00000E+00
         0.00000E+00
         0.00000E+00
         0.00000E+00
         0.00000E+00
         0.00000E+00
         0.00000E+00
         0.00000E+00
         0.00000E+00
         0.00000E+00
         0.00000E+00
         0.00000E+00
         0.00000E+00
         0.00000E+00
         0.00000E+00
         0.00000E+00
         0.00000E+00
         0.00000E+00
         0.00000E+00
         0.00000E+00
         0.00000E+00
         0.00000E+00
         0.00000E+00
         0.00000E+00
         0.00000E+00
         0.00000E+00
         0.00000E+00
         0.00000E+00
         0.00000E+00
         0.00000E+00
         0.00000E+00
         0.00000E+00
         0.00000E+00
         0.00000E+00
  
SCALARS                      stress_xx  double 1
LOOKUP_TABLE default
         0.12111E+13
         0.11956E+13
         0.12054E+13
         0.12230E+13
        -0.18340E+03
        -0.20566E+03
        -0.19693E+03
        -0.17890E+03
         0.11950E+13
         0.12003E+13
        -0.18494E+03
        -0.17897E+03
         0.11731E+13
         0.11722E+13
        -0.21975E+03
        -0.20662E+03
         0.12204E+13
         0.11735E+13
        -0.16237E+03
        -0.18009E+03
         0.11562E+13
         0.11427E+13
         0.11641E+13
        -0.21779E+03
        -0.19020E+03
        -0.19641E+03
         0.11432E+13
         0.11236E+13
        -0.20894E+03
        -0.17621E+03
         0.12196E+13
         0.11992E+13
         0.12394E+13
        -0.17830E+03
        -0.16576E+03
        -0.16116E+03
         0.12078E+13
         0.11817E+13
        -0.18864E+03
        -0.17213E+03
         0.11975E+13
         0.11774E+13
        -0.16303E+03
        -0.14433E+03
         0.12145E+13
         0.12220E+13
        -0.17866E+03
        -0.19963E+03
         0.11612E+13
        -0.17454E+03
         0.12205E+13
        -0.20509E+03
         0.11376E+13
        -0.18432E+03
         0.11314E+13
        -0.17680E+03
         0.11315E+13
         0.11534E+13
        -0.18014E+03
        -0.17544E+03
         0.12192E+13
         0.12113E+13
        -0.18063E+03
        -0.20420E+03
         0.12241E+13
        -0.17430E+03
         0.12147E+13
        -0.19022E+03
         0.11902E+13
         0.11877E+13
        -0.18311E+03
        -0.19187E+03
         0.11822E+13
        -0.19348E+03
         0.11166E+13
        -0.15286E+03
         0.11132E+13
        -0.14837E+03
         0.11149E+13
        -0.15645E+03
         0.11244E+13
         0.11343E+13
        -0.14906E+03
        -0.15540E+03
         0.11541E+13
        -0.14473E+03
         0.12141E+13
        -0.18980E+03
         0.12047E+13
        -0.19426E+03
         0.11971E+13
         0.11929E+13
        -0.18655E+03
        -0.18873E+03
         0.11980E+13
        -0.17142E+03
         0.12017E+13
        -0.16897E+03
         0.11984E+13
        -0.18089E+03
         0.11972E+13
         0.12006E+13
        -0.17739E+03
        -0.18259E+03
         0.11787E+13
         0.11876E+13
        -0.13772E+03
        -0.12954E+03
         0.11770E+13
        -0.13151E+03
         0.11873E+13
        -0.12609E+03
         0.11772E+13
        -0.12434E+03
         0.11548E+13
        -0.11750E+03
         0.11330E+13
        -0.10439E+03
         0.11200E+13
        -0.93994E+02
         0.11186E+13
        -0.93341E+02
         0.11191E+13
        -0.10122E+03
         0.11332E+13
        -0.10638E+03
         0.11596E+13
        -0.97138E+02
         0.11885E+13
        -0.87560E+02
         0.12055E+13
        -0.87460E+02
         0.12222E+13
        -0.97758E+02
         0.12332E+13
        -0.11147E+03
         0.12328E+13
        -0.11975E+03
         0.12060E+13
        -0.12933E+03
         0.11873E+13
        -0.13856E+03
         0.11808E+13
        -0.12693E+03
         0.11909E+13
        -0.11135E+03
         0.11961E+13
        -0.11101E+03
         0.11873E+13
        -0.12145E+03
         0.11875E+13
        -0.12948E+03
         0.11941E+13
        -0.12287E+03
         0.12027E+13
        -0.11879E+03
        -0.28933E+11
        -0.28331E+11
        -0.28414E+11
        -0.29179E+11
        -0.27712E+11
        -0.28484E+11
        -0.27519E+11
        -0.28034E+11
        -0.29063E+11
        -0.28436E+11
        -0.26941E+11
        -0.26760E+11
        -0.27238E+11
        -0.27271E+11
        -0.26964E+11
        -0.29144E+11
        -0.29006E+11
        -0.29386E+11
        -0.28263E+11
        -0.28479E+11
        -0.28169E+11
        -0.28375E+11
        -0.27991E+11
        -0.28092E+11
        -0.28461E+11
        -0.28435E+11
        -0.27796E+11
        -0.27855E+11
        -0.27358E+11
        -0.28101E+11
        -0.29076E+11
        -0.28322E+11
        -0.29071E+11
        -0.28583E+11
        -0.26633E+11
        -0.27294E+11
        -0.27596E+11
        -0.27240E+11
        -0.27193E+11
        -0.26585E+11
        -0.26126E+11
        -0.27220E+11
        -0.28182E+11
        -0.28056E+11
        -0.27567E+11
        -0.26658E+11
        -0.27438E+11
        -0.28222E+11
        -0.28169E+11
        -0.27564E+11
        -0.26913E+11
        -0.27783E+11
        -0.24956E+11
        -0.25843E+11
        -0.25699E+11
        -0.25902E+11
        -0.25850E+11
        -0.25378E+11
        -0.24878E+11
        -0.24713E+11
        -0.24784E+11
        -0.24734E+11
        -0.24516E+11
        -0.25805E+11
        -0.26265E+11
        -0.26438E+11
        -0.26729E+11
        -0.26946E+11
        -0.26936E+11
        -0.26565E+11
        -0.25257E+11
        -0.25578E+11
        -0.26031E+11
        -0.26027E+11
        -0.25949E+11
        -0.25513E+11
        -0.26152E+11
        -0.26382E+11
         0.14013E+07
         0.62701E+06
         0.79718E+06
         0.84794E+06
         0.54859E+06
         0.10234E+07
        -0.53042E+06
        -0.10629E+07
         0.17760E+07
        -0.11741E+07
        -0.13851E+07
        -0.47311E+05
        -0.71845E+04
        -0.40144E+07
        -0.12458E+07
        -0.19497E+06
         0.33383E+06
         0.76784E+06
        -0.15845E+05
        -0.23488E+06
        -0.12473E+07
        -0.48965E+06
        -0.18546E+07
        -0.78009E+06
        -0.13404E+07
        -0.21372E+06
        -0.51695E+07
        -0.27734E+07
        -0.17353E+07
        -0.12922E+07
        -0.91070E+05
        -0.53757E+06
         0.80655E+06
         0.14353E+07
        -0.10027E+07
        -0.70184E+06
        -0.26651E+06
        -0.15638E+07
        -0.10559E+07
        -0.64263E+06
        -0.76678E+06
        -0.14198E+07
        -0.11832E+07
        -0.15244E+07
        -0.11567E+07
        -0.52970E+06
        -0.19831E+06
        -0.19846E+06
         0.75247E+06
         0.12386E+07
         0.58651E+06
         0.78922E+06
        -0.31557E+07
        -0.43715E+06
        -0.17990E+07
         0.60044E+06
         0.26274E+07
         0.40680E+07
         0.33554E+07
         0.36593E+07
         0.29172E+07
         0.15944E+07
         0.55326E+06
        -0.28363E+06
        -0.11159E+07
        -0.27389E+05
        -0.19008E+07
        -0.31314E+07
        -0.26289E+07
        -0.23278E+07
        -0.12799E+07
         0.71828E+06
         0.72421E+06
         0.80141E+05
        -0.10426E+07
        -0.16018E+07
        -0.91298E+06
         0.14737E+06
         0.13162E+07
         0.54404E+06
         0.71593E+06
         0.78134E+06
         0.44770E+06
         0.93291E+06
        -0.61058E+06
        -0.11595E+07
         0.16911E+07
        -0.12793E+07
        -0.14807E+07
        -0.17962E+06
        -0.12160E+06
        -0.41164E+07
        -0.13769E+07
        -0.28463E+06
         0.24809E+06
         0.71016E+06
        -0.10935E+06
        -0.31564E+06
        -0.13604E+07
        -0.59997E+06
        -0.19711E+07
        -0.86908E+06
        -0.14513E+07
        -0.29034E+06
        -0.52696E+07
        -0.28540E+07
        -0.18284E+07
        -0.14072E+07
        -0.17614E+06
        -0.61554E+06
         0.73852E+06
         0.13693E+07
        -0.11186E+07
        -0.79886E+06
        -0.36639E+06
        -0.16963E+07
        -0.11789E+07
        -0.76366E+06
        -0.89729E+06
        -0.15473E+07
        -0.13042E+07
        -0.16359E+07
        -0.12617E+07
        -0.64647E+06
        -0.30343E+06
        -0.29687E+06
         0.66484E+06
         0.11489E+07
         0.47992E+06
         0.69383E+06
        -0.33684E+07
        -0.64458E+06
        -0.20032E+07
         0.40481E+06
         0.24206E+07
         0.38376E+07
         0.31253E+07
         0.34265E+07
         0.26820E+07
         0.13539E+07
         0.31391E+06
        -0.50491E+06
        -0.13008E+07
        -0.20004E+06
        -0.20817E+07
        -0.33246E+07
        -0.28262E+07
        -0.25340E+07
        -0.14869E+07
         0.49938E+06
         0.51766E+06
        -0.10648E+06
        -0.12294E+07
        -0.17931E+07
        -0.11064E+07
        -0.49620E+05
         0.13360E+07
         0.56031E+06
         0.73318E+06
         0.80029E+06
         0.47496E+06
         0.95809E+06
        -0.59677E+06
        -0.11365E+07
         0.17058E+07
        -0.12744E+07
        -0.14603E+07
        -0.15446E+06
        -0.10011E+06
        -0.40887E+07
        -0.13444E+07
        -0.30314E+06
         0.24364E+06
         0.72772E+06
        -0.13231E+06
        -0.32989E+06
        -0.13788E+07
        -0.60700E+06
        -0.20474E+07
        -0.93332E+06
        -0.14995E+07
        -0.34414E+06
        -0.52501E+07
        -0.28628E+07
        -0.18688E+07
        -0.14876E+07
        -0.17680E+06
        -0.63330E+06
         0.75938E+06
         0.13917E+07
        -0.10888E+07
        -0.77391E+06
        -0.34403E+06
        -0.16739E+07
        -0.11598E+07
        -0.75761E+06
        -0.90066E+06
        -0.15938E+07
        -0.13693E+07
        -0.17104E+07
        -0.12795E+07
        -0.63028E+06
        -0.28424E+06
        -0.27516E+06
         0.68894E+06
         0.11765E+07
         0.51043E+06
         0.72107E+06
        -0.33050E+07
        -0.58764E+06
        -0.19400E+07
         0.45329E+06
         0.24566E+07
         0.38734E+07
         0.31710E+07
         0.34722E+07
         0.27285E+07
         0.14021E+07
         0.34223E+06
        -0.50593E+06
        -0.12977E+07
        -0.16820E+06
        -0.20607E+07
        -0.33637E+07
        -0.28686E+07
        -0.25231E+07
        -0.14300E+07
         0.56522E+06
         0.57663E+06
        -0.46918E+05
        -0.11624E+07
        -0.17369E+07
        -0.10607E+07
        -0.55561E+04
         0.13238E+07
         0.55324E+06
         0.72636E+06
         0.79049E+06
         0.46605E+06
         0.95095E+06
        -0.60563E+06
        -0.11483E+07
         0.16816E+07
        -0.13192E+07
        -0.14694E+07
        -0.16826E+06
        -0.10948E+06
        -0.40988E+07
        -0.13604E+07
        -0.37467E+06
         0.19303E+06
         0.71867E+06
        -0.21405E+06
        -0.39763E+06
        -0.14646E+07
        -0.68321E+06
        -0.22252E+07
        -0.10769E+07
        -0.16314E+07
        -0.46632E+06
        -0.52774E+07
        -0.29277E+07
        -0.19823E+07
        -0.16804E+07
        -0.21865E+06
        -0.70372E+06
         0.75064E+06
         0.13815E+07
        -0.11039E+07
        -0.78332E+06
        -0.35183E+06
        -0.16988E+07
        -0.11905E+07
        -0.81292E+06
        -0.97461E+06
        -0.17382E+07
        -0.15461E+07
        -0.18864E+07
        -0.13662E+07
        -0.67723E+06
        -0.31796E+06
        -0.29377E+06
         0.67413E+06
         0.11596E+07
         0.49454E+06
         0.71082E+06
        -0.33346E+07
        -0.60800E+06
        -0.19722E+07
         0.42506E+06
         0.24377E+07
         0.38516E+07
         0.31343E+07
         0.34324E+07
         0.26902E+07
         0.13556E+07
         0.26849E+06
        -0.62496E+06
        -0.14097E+07
        -0.22132E+06
        -0.21205E+07
        -0.35280E+07
        -0.30425E+07
        -0.26045E+07
        -0.14686E+07
         0.52832E+06
         0.54859E+06
        -0.80102E+05
        -0.11969E+07
        -0.17604E+07
        -0.10786E+07
        -0.23389E+05
         0.13016E+07
         0.53894E+06
         0.71451E+06
         0.78033E+06
         0.45567E+06
         0.94075E+06
        -0.61830E+06
        -0.11685E+07
         0.16526E+07
        -0.13659E+07
        -0.14792E+07
        -0.17690E+06
        -0.11992E+06
        -0.41103E+07
        -0.13679E+07
        -0.42333E+06
         0.15287E+06
         0.71040E+06
        -0.26782E+06
        -0.44601E+06
        -0.15197E+07
        -0.73793E+06
        -0.23345E+07
        -0.11659E+07
        -0.17268E+07
        -0.54475E+06
        -0.53012E+07
        -0.29740E+07
        -0.20621E+07
        -0.18086E+07
        -0.26239E+06
        -0.75503E+06
         0.73159E+06
         0.13670E+07
        -0.11196E+07
        -0.79546E+06
        -0.36364E+06
        -0.17174E+07
        -0.12160E+07
        -0.85503E+06
        -0.10267E+07
        -0.18355E+07
        -0.16621E+07
        -0.19981E+07
        -0.14231E+07
        -0.70815E+06
        -0.34787E+06
        -0.32337E+06
         0.64828E+06
         0.11345E+07
         0.46962E+06
         0.69406E+06
        -0.33613E+07
        -0.62575E+06
        -0.19995E+07
         0.40311E+06
         0.24289E+07
         0.38451E+07
         0.31186E+07
         0.34060E+07
         0.26577E+07
         0.13268E+07
         0.22361E+06
        -0.70729E+06
        -0.14861E+07
        -0.26237E+06
        -0.21627E+07
        -0.36345E+07
        -0.31646E+07
        -0.26627E+07
        -0.14861E+07
         0.49480E+06
         0.51141E+06
        -0.11818E+06
        -0.12414E+07
        -0.17986E+07
        -0.11022E+07
        -0.41180E+05
         0.12482E+07
         0.51153E+06
         0.70281E+06
         0.79059E+06
         0.47008E+06
         0.95851E+06
        -0.62781E+06
        -0.12045E+07
         0.16116E+07
        -0.14292E+07
        -0.14702E+07
        -0.14748E+06
        -0.10876E+06
        -0.41038E+07
        -0.13306E+07
        -0.41534E+06
         0.14345E+06
         0.72834E+06
        -0.25672E+06
        -0.43740E+06
        -0.15034E+07
        -0.71860E+06
        -0.23321E+07
        -0.11678E+07
        -0.17682E+07
        -0.55613E+06
        -0.53067E+07
        -0.29775E+07
        -0.20629E+07
        -0.18133E+07
        -0.31450E+06
        -0.78221E+06
         0.69837E+06
         0.13639E+07
        -0.11066E+07
        -0.79376E+06
        -0.36566E+06
        -0.16946E+07
        -0.11965E+07
        -0.83339E+06
        -0.10014E+07
        -0.18206E+07
        -0.16498E+07
        -0.20048E+07
        -0.14300E+07
        -0.71319E+06
        -0.37372E+06
        -0.38256E+06
         0.58475E+06
         0.11004E+07
         0.46156E+06
         0.70229E+06
        -0.33091E+07
        -0.57182E+06
        -0.19555E+07
         0.43248E+06
         0.24598E+07
         0.38870E+07
         0.31660E+07
         0.34515E+07
         0.27101E+07
         0.13961E+07
         0.28410E+06
        -0.67078E+06
        -0.14458E+07
        -0.22032E+06
        -0.21222E+07
        -0.36021E+07
        -0.31410E+07
        -0.26394E+07
        -0.14580E+07
         0.51421E+06
         0.50724E+06
        -0.14466E+06
        -0.12587E+07
        -0.17896E+07
        -0.10761E+07
        -0.37287E+04
         0.11670E+07
         0.46305E+06
         0.67482E+06
         0.78484E+06
         0.45983E+06
         0.95818E+06
        -0.66177E+06
        -0.12756E+07
         0.15420E+07
        -0.15230E+07
        -0.14927E+07
        -0.15890E+06
        -0.12746E+06
        -0.41348E+07
        -0.13384E+07
        -0.43046E+06
         0.11044E+06
         0.72694E+06
        -0.26610E+06
        -0.44761E+06
        -0.15108E+07
        -0.72392E+06
        -0.23407E+07
        -0.11787E+07
        -0.18263E+07
        -0.57621E+06
        -0.53472E+07
        -0.30003E+07
        -0.20760E+07
        -0.18289E+07
        -0.38696E+06
        -0.82649E+06
         0.64669E+06
         0.13443E+07
        -0.11250E+07
        -0.81374E+06
        -0.38904E+06
        -0.17141E+07
        -0.12152E+07
        -0.84379E+06
        -0.10059E+07
        -0.18232E+07
        -0.16510E+07
        -0.20216E+07
        -0.14614E+07
        -0.75701E+06
        -0.43340E+06
        -0.47126E+06
         0.49413E+06
         0.10408E+07
         0.42817E+06
         0.69099E+06
        -0.33308E+07
        -0.58868E+06
        -0.19685E+07
         0.41767E+06
         0.24385E+07
         0.38614E+07
         0.31448E+07
         0.34332E+07
         0.26918E+07
         0.13824E+07
         0.27319E+06
        -0.68404E+06
        -0.14481E+07
        -0.22360E+06
        -0.21312E+07
        -0.36072E+07
        -0.31513E+07
        -0.26762E+07
        -0.15127E+07
         0.45378E+06
         0.43937E+06
        -0.22854E+06
        -0.13322E+07
        -0.18285E+07
        -0.10970E+07
        -0.20252E+05
         0.11432E+07
         0.44500E+06
         0.66332E+06
         0.77672E+06
         0.44873E+06
         0.94832E+06
        -0.68025E+06
        -0.12995E+07
         0.15219E+07
        -0.15508E+07
        -0.15085E+07
        -0.17492E+06
        -0.14587E+06
        -0.41508E+07
        -0.13517E+07
        -0.44412E+06
         0.97056E+05
         0.72087E+06
        -0.27469E+06
        -0.45538E+06
        -0.15227E+07
        -0.73649E+06
        -0.23520E+07
        -0.11871E+07
        -0.18476E+07
        -0.58777E+06
        -0.53645E+07
        -0.30114E+07
        -0.20950E+07
        -0.18437E+07
        -0.41126E+06
        -0.84407E+06
         0.63161E+06
         0.13337E+07
        -0.11405E+07
        -0.82441E+06
        -0.40322E+06
        -0.17386E+07
        -0.12367E+07
        -0.86529E+06
        -0.10278E+07
        -0.18409E+07
        -0.16622E+07
        -0.20365E+07
        -0.14799E+07
        -0.77748E+06
        -0.45297E+06
        -0.49346E+06
         0.47181E+06
         0.10202E+07
         0.40758E+06
         0.67680E+06
        -0.33607E+07
        -0.61797E+06
        -0.19883E+07
         0.39719E+06
         0.24137E+07
         0.38396E+07
         0.31224E+07
         0.34022E+07
         0.26510E+07
         0.13395E+07
         0.23429E+06
        -0.70163E+06
        -0.14621E+07
        -0.25346E+06
        -0.21627E+07
        -0.36372E+07
        -0.31900E+07
        -0.27134E+07
        -0.15439E+07
         0.42851E+06
         0.41875E+06
        -0.25649E+06
        -0.13691E+07
        -0.18629E+07
        -0.11260E+07
        -0.49043E+05
         0.11581E+07
         0.45705E+06
         0.67214E+06
         0.78062E+06
         0.46208E+06
         0.95221E+06
        -0.67174E+06
        -0.12803E+07
         0.15358E+07
        -0.15326E+07
        -0.14963E+07
        -0.15902E+06
        -0.13441E+06
        -0.41296E+07
        -0.13261E+07
        -0.42803E+06
         0.10973E+06
         0.72997E+06
        -0.25841E+06
        -0.44228E+06
        -0.15060E+07
        -0.72100E+06
        -0.23354E+07
        -0.11725E+07
        -0.18341E+07
        -0.57574E+06
        -0.53399E+07
        -0.29941E+07
        -0.20890E+07
        -0.18300E+07
        -0.39858E+06
        -0.83418E+06
         0.64254E+06
         0.13383E+07
        -0.11236E+07
        -0.81138E+06
        -0.39188E+06
        -0.17217E+07
        -0.12236E+07
        -0.85374E+06
        -0.10129E+07
        -0.18251E+07
        -0.16456E+07
        -0.20213E+07
        -0.14672E+07
        -0.76427E+06
        -0.43987E+06
        -0.47842E+06
         0.48680E+06
         0.10318E+07
         0.41654E+06
         0.68052E+06
        -0.33161E+07
        -0.57412E+06
        -0.19621E+07
         0.40791E+06
         0.24356E+07
         0.38736E+07
         0.31602E+07
         0.34291E+07
         0.26615E+07
         0.13555E+07
         0.26302E+06
        -0.66084E+06
        -0.14264E+07
        -0.23033E+06
        -0.21410E+07
        -0.36121E+07
        -0.31644E+07
        -0.26818E+07
        -0.15138E+07
         0.46369E+06
         0.45513E+06
        -0.22405E+06
        -0.13418E+07
        -0.18387E+07
        -0.11019E+07
        -0.22972E+05
         0.11541E+07
         0.45591E+06
         0.66983E+06
         0.77556E+06
         0.46029E+06
         0.94723E+06
        -0.67618E+06
        -0.12859E+07
         0.15261E+07
        -0.15431E+07
        -0.15027E+07
        -0.16878E+06
        -0.13741E+06
        -0.41365E+07
        -0.13401E+07
        -0.43675E+06
         0.10105E+06
         0.72333E+06
        -0.26549E+06
        -0.44805E+06
        -0.15120E+07
        -0.72899E+06
        -0.23413E+07
        -0.11781E+07
        -0.18412E+07
        -0.58072E+06
        -0.53455E+07
        -0.29937E+07
        -0.20979E+07
        -0.18371E+07
        -0.40680E+06
        -0.83963E+06
         0.63538E+06
         0.13306E+07
        -0.11294E+07
        -0.81598E+06
        -0.39504E+06
        -0.17429E+07
        -0.12359E+07
        -0.86492E+06
        -0.10235E+07
        -0.18322E+07
        -0.16551E+07
        -0.20253E+07
        -0.14712E+07
        -0.77073E+06
        -0.44886E+06
        -0.48868E+06
         0.47812E+06
         0.10237E+07
         0.40855E+06
         0.67245E+06
        -0.33289E+07
        -0.58423E+06
        -0.19828E+07
         0.39016E+06
         0.24332E+07
         0.38610E+07
         0.31311E+07
         0.33965E+07
         0.26426E+07
         0.13269E+07
         0.23183E+06
        -0.67637E+06
        -0.14448E+07
        -0.24040E+06
        -0.21505E+07
        -0.36210E+07
        -0.31658E+07
        -0.26881E+07
        -0.15227E+07
         0.43988E+06
         0.42571E+06
        -0.24675E+06
        -0.13532E+07
        -0.18443E+07
        -0.11149E+07
        -0.41386E+05
         0.11430E+07
         0.44665E+06
         0.66323E+06
         0.77310E+06
         0.45268E+06
         0.94429E+06
        -0.68519E+06
        -0.12948E+07
         0.15173E+07
        -0.15536E+07
        -0.15101E+07
        -0.18169E+06
        -0.14591E+06
        -0.41412E+07
        -0.13544E+07
        -0.44862E+06
         0.94179E+05
         0.72018E+06
        -0.27422E+06
        -0.45204E+06
        -0.15199E+07
        -0.73711E+06
        -0.23502E+07
        -0.11867E+07
        -0.18481E+07
        -0.58981E+06
        -0.53495E+07
        -0.29952E+07
        -0.21074E+07
        -0.18424E+07
        -0.41821E+06
        -0.84850E+06
         0.63233E+06
         0.13299E+07
        -0.11432E+07
        -0.82427E+06
        -0.40258E+06
        -0.17635E+07
        -0.12496E+07
        -0.87475E+06
        -0.10297E+07
        -0.18383E+07
        -0.16638E+07
        -0.20332E+07
        -0.14786E+07
        -0.77948E+06
        -0.45724E+06
        -0.49759E+06
         0.46984E+06
         0.10166E+07
         0.40097E+06
         0.66898E+06
        -0.33546E+07
        -0.60565E+06
        -0.19986E+07
         0.38478E+06
         0.24263E+07
         0.38357E+07
         0.30946E+07
         0.33671E+07
         0.26230E+07
         0.13064E+07
         0.21908E+06
        -0.69170E+06
        -0.14669E+07
        -0.25540E+06
        -0.21664E+07
        -0.36394E+07
        -0.31778E+07
        -0.27024E+07
        -0.15402E+07
         0.42024E+06
         0.40339E+06
        -0.26997E+06
        -0.13697E+07
        -0.18600E+07
        -0.11347E+07
        -0.62342E+05
         0.11500E+07
         0.45035E+06
         0.66647E+06
         0.77935E+06
         0.46191E+06
         0.95286E+06
        -0.68057E+06
        -0.12811E+07
         0.15240E+07
        -0.15457E+07
        -0.14986E+07
        -0.17085E+06
        -0.14257E+06
        -0.41215E+07
        -0.13307E+07
        -0.43991E+06
         0.99223E+05
         0.72923E+06
        -0.26440E+06
        -0.44133E+06
        -0.15064E+07
        -0.72326E+06
        -0.23390E+07
        -0.11778E+07
        -0.18423E+07
        -0.58232E+06
        -0.53338E+07
        -0.29835E+07
        -0.21000E+07
        -0.18274E+07
        -0.40840E+06
        -0.84179E+06
         0.64507E+06
         0.13402E+07
        -0.11328E+07
        -0.81579E+06
        -0.39772E+06
        -0.17500E+07
        -0.12366E+07
        -0.85755E+06
        -0.10130E+07
        -0.18264E+07
        -0.16505E+07
        -0.20237E+07
        -0.14707E+07
        -0.77210E+06
        -0.44919E+06
        -0.48856E+06
         0.47978E+06
         0.10265E+07
         0.41037E+06
         0.67894E+06
        -0.33220E+07
        -0.57029E+06
        -0.19653E+07
         0.40103E+06
         0.24210E+07
         0.38375E+07
         0.31208E+07
         0.33960E+07
         0.26426E+07
         0.13362E+07
         0.24731E+06
        -0.67829E+06
        -0.14430E+07
        -0.23117E+06
        -0.21444E+07
        -0.36225E+07
        -0.31663E+07
        -0.26880E+07
        -0.15265E+07
         0.44142E+06
         0.42850E+06
        -0.24586E+06
        -0.13487E+07
        -0.18422E+07
        -0.11085E+07
        -0.31752E+05
         0.11448E+07
         0.44291E+06
         0.66008E+06
         0.77352E+06
         0.45415E+06
         0.94550E+06
        -0.69135E+06
        -0.12890E+07
         0.15170E+07
        -0.15587E+07
        -0.15094E+07
        -0.18688E+06
        -0.15951E+06
        -0.41310E+07
        -0.13408E+07
        -0.44963E+06
         0.90375E+05
         0.72204E+06
        -0.27510E+06
        -0.44833E+06
        -0.15208E+07
        -0.73798E+06
        -0.23543E+07
        -0.11877E+07
        -0.18553E+07
        -0.59034E+06
        -0.53486E+07
        -0.29943E+07
        -0.21157E+07
        -0.18365E+07
        -0.41910E+06
        -0.85018E+06
         0.63596E+06
         0.13333E+07
        -0.11460E+07
        -0.82554E+06
        -0.41028E+06
        -0.17723E+07
        -0.12583E+07
        -0.87619E+06
        -0.10335E+07
        -0.18457E+07
        -0.16653E+07
        -0.20402E+07
        -0.14848E+07
        -0.78486E+06
        -0.46123E+06
        -0.50243E+06
         0.46903E+06
         0.10185E+07
         0.40022E+06
         0.66972E+06
        -0.33475E+07
        -0.59223E+06
        -0.19903E+07
         0.37204E+06
         0.23873E+07
         0.38052E+07
         0.31010E+07
         0.33706E+07
         0.26094E+07
         0.13032E+07
         0.20706E+06
        -0.71804E+06
        -0.14694E+07
        -0.25853E+06
        -0.21681E+07
        -0.36495E+07
        -0.32079E+07
        -0.27254E+07
        -0.15452E+07
         0.41548E+06
         0.40188E+06
        -0.25954E+06
        -0.13578E+07
        -0.18617E+07
        -0.11353E+07
        -0.58440E+05
         0.11438E+07
         0.44039E+06
         0.65815E+06
         0.77245E+06
         0.45379E+06
         0.94388E+06
        -0.69520E+06
        -0.12886E+07
         0.15180E+07
        -0.15588E+07
        -0.15107E+07
        -0.18916E+06
        -0.16242E+06
        -0.41274E+07
        -0.13397E+07
        -0.45206E+06
         0.90721E+05
         0.72177E+06
        -0.27609E+06
        -0.44775E+06
        -0.15237E+07
        -0.74019E+06
        -0.23576E+07
        -0.11897E+07
        -0.18576E+07
        -0.59289E+06
        -0.53455E+07
        -0.29942E+07
        -0.21251E+07
        -0.18387E+07
        -0.42521E+06
        -0.85354E+06
         0.63368E+06
         0.13325E+07
        -0.11493E+07
        -0.82837E+06
        -0.41391E+06
        -0.17833E+07
        -0.12709E+07
        -0.88407E+06
        -0.10358E+07
        -0.18478E+07
        -0.16674E+07
        -0.20427E+07
        -0.14870E+07
        -0.78782E+06
        -0.46496E+06
        -0.50798E+06
         0.46495E+06
         0.10169E+07
         0.39845E+06
         0.66767E+06
        -0.33480E+07
        -0.59168E+06
        -0.19970E+07
         0.36087E+06
         0.23867E+07
         0.38046E+07
         0.30929E+07
         0.33492E+07
         0.25854E+07
         0.12899E+07
         0.20576E+06
        -0.72193E+06
        -0.14760E+07
        -0.26915E+06
        -0.21805E+07
        -0.36583E+07
        -0.32135E+07
        -0.27303E+07
        -0.15504E+07
         0.40612E+06
         0.39016E+06
        -0.26705E+06
        -0.13585E+07
        -0.18641E+07
        -0.11472E+07
        -0.69293E+05
         0.11660E+07
         0.46341E+06
         0.67735E+06
         0.78707E+06
         0.47963E+06
         0.96279E+06
        -0.67408E+06
        -0.12609E+07
         0.15345E+07
        -0.15378E+07
        -0.14840E+07
        -0.15465E+06
        -0.13264E+06
        -0.40956E+07
        -0.13045E+07
        -0.43240E+06
         0.10817E+06
         0.73727E+06
        -0.25463E+06
        -0.42700E+06
        -0.14943E+07
        -0.71283E+06
        -0.23301E+07
        -0.11703E+07
        -0.18345E+07
        -0.57580E+06
        -0.53143E+07
        -0.29663E+07
        -0.21070E+07
        -0.18108E+07
        -0.40446E+06
        -0.83450E+06
         0.65209E+06
         0.13460E+07
        -0.11210E+07
        -0.80451E+06
        -0.38919E+06
        -0.17618E+07
        -0.12446E+07
        -0.85563E+06
        -0.10079E+07
        -0.18202E+07
        -0.16425E+07
        -0.20141E+07
        -0.14585E+07
        -0.75885E+06
        -0.43965E+06
        -0.48473E+06
         0.48484E+06
         0.10347E+07
         0.41788E+06
         0.68485E+06
        -0.32888E+07
        -0.53266E+06
        -0.19472E+07
         0.39681E+06
         0.24307E+07
         0.38602E+07
         0.31395E+07
         0.33845E+07
         0.26252E+07
         0.13335E+07
         0.24501E+06
        -0.67593E+06
        -0.14396E+07
        -0.22861E+06
        -0.21344E+07
        -0.36103E+07
        -0.31592E+07
        -0.26719E+07
        -0.15002E+07
         0.45847E+06
         0.43488E+06
        -0.23381E+06
        -0.13216E+07
        -0.18203E+07
        -0.10999E+07
        -0.21524E+05
         0.11566E+07
         0.45671E+06
         0.67142E+06
         0.77964E+06
         0.46972E+06
         0.95518E+06
        -0.68394E+06
        -0.12715E+07
         0.15243E+07
        -0.15542E+07
        -0.14947E+07
        -0.16698E+06
        -0.14025E+06
        -0.41058E+07
        -0.13191E+07
        -0.44470E+06
         0.97029E+05
         0.73166E+06
        -0.26880E+06
        -0.43594E+06
        -0.15038E+07
        -0.72626E+06
        -0.23395E+07
        -0.11822E+07
        -0.18497E+07
        -0.58701E+06
        -0.53276E+07
        -0.29732E+07
        -0.21159E+07
        -0.18173E+07
        -0.41251E+06
        -0.84399E+06
         0.64657E+06
         0.13375E+07
        -0.11378E+07
        -0.81330E+06
        -0.39519E+06
        -0.17870E+07
        -0.12623E+07
        -0.86417E+06
        -0.10208E+07
        -0.18353E+07
        -0.16596E+07
        -0.20263E+07
        -0.14707E+07
        -0.77085E+06
        -0.44962E+06
        -0.49259E+06
         0.47586E+06
         0.10227E+07
         0.40568E+06
         0.67537E+06
        -0.33264E+07
        -0.56433E+06
        -0.19762E+07
         0.38149E+06
         0.24255E+07
         0.38458E+07
         0.31077E+07
         0.33462E+07
         0.25884E+07
         0.13006E+07
         0.20622E+06
        -0.72034E+06
        -0.14710E+07
        -0.24422E+06
        -0.21418E+07
        -0.36150E+07
        -0.31744E+07
        -0.26983E+07
        -0.15197E+07
         0.43514E+06
         0.41356E+06
        -0.25784E+06
        -0.13472E+07
        -0.18365E+07
        -0.11151E+07
        -0.46771E+05
         0.11408E+07
         0.43973E+06
         0.65512E+06
         0.76932E+06
         0.45345E+06
         0.94017E+06
        -0.69875E+06
        -0.12843E+07
         0.15095E+07
        -0.15835E+07
        -0.15079E+07
        -0.18690E+06
        -0.15682E+06
        -0.41163E+07
        -0.13378E+07
        -0.45965E+06
         0.80058E+05
         0.72491E+06
        -0.28040E+06
        -0.43951E+06
        -0.15157E+07
        -0.74199E+06
        -0.23509E+07
        -0.11925E+07
        -0.18760E+07
        -0.59802E+06
        -0.53582E+07
        -0.29856E+07
        -0.20932E+07
        -0.17975E+07
        -0.42634E+06
        -0.85730E+06
         0.64111E+06
         0.13318E+07
        -0.11567E+07
        -0.82808E+06
        -0.40995E+06
        -0.18241E+07
        -0.12798E+07
        -0.83796E+06
        -0.10219E+07
        -0.18516E+07
        -0.16823E+07
        -0.20394E+07
        -0.14863E+07
        -0.79014E+06
        -0.46718E+06
        -0.50647E+06
         0.46544E+06
         0.10131E+07
         0.39490E+06
         0.66367E+06
        -0.33514E+07
        -0.58735E+06
        -0.19958E+07
         0.36425E+06
         0.24015E+07
         0.38066E+07
         0.30630E+07
         0.33035E+07
         0.25512E+07
         0.12920E+07
         0.13851E+06
        -0.82680E+06
        -0.15152E+07
        -0.26873E+06
        -0.21638E+07
        -0.36347E+07
        -0.31985E+07
        -0.27260E+07
        -0.15518E+07
         0.39867E+06
         0.38909E+06
        -0.28079E+06
        -0.13733E+07
        -0.18558E+07
        -0.11450E+07
        -0.80383E+05
         0.11620E+07
         0.46088E+06
         0.67597E+06
         0.78689E+06
         0.48086E+06
         0.96055E+06
        -0.68045E+06
        -0.12570E+07
         0.15210E+07
        -0.15880E+07
        -0.14838E+07
        -0.16114E+06
        -0.13480E+06
        -0.40860E+07
        -0.13063E+07
        -0.43975E+06
         0.92059E+05
         0.73953E+06
        -0.25564E+06
        -0.40635E+06
        -0.14912E+07
        -0.71808E+06
        -0.23288E+07
        -0.11715E+07
        -0.18710E+07
        -0.57939E+06
        -0.53631E+07
        -0.29675E+07
        -0.20083E+07
        -0.17109E+07
        -0.40876E+06
        -0.83794E+06
         0.65915E+06
         0.13495E+07
        -0.11264E+07
        -0.80153E+06
        -0.38659E+06
        -0.18225E+07
        -0.12495E+07
        -0.73763E+06
        -0.96827E+06
        -0.18236E+07
        -0.16679E+07
        -0.20149E+07
        -0.14585E+07
        -0.75794E+06
        -0.44079E+06
        -0.48522E+06
         0.48723E+06
         0.10373E+07
         0.42072E+06
         0.68400E+06
        -0.32905E+07
        -0.52741E+06
        -0.19345E+07
         0.40707E+06
         0.24290E+07
         0.38382E+07
         0.31066E+07
         0.33477E+07
         0.25999E+07
         0.13868E+07
         0.11656E+06
        -0.91248E+06
        -0.15120E+07
        -0.23512E+06
        -0.21357E+07
        -0.36112E+07
        -0.31692E+07
        -0.26771E+07
        -0.14918E+07
         0.45468E+06
         0.43758E+06
        -0.23086E+06
        -0.13169E+07
        -0.18036E+07
        -0.11027E+07
        -0.36139E+05
         0.10824E+07
         0.38275E+06
         0.60083E+06
         0.72115E+06
         0.38631E+06
         0.87450E+06
        -0.75773E+06
        -0.13489E+07
         0.14387E+07
        -0.17026E+07
        -0.15747E+07
        -0.28414E+06
        -0.24903E+06
        -0.41858E+07
        -0.14312E+07
        -0.51796E+06
         0.11807E+05
         0.68203E+06
        -0.33858E+06
        -0.47069E+06
        -0.15975E+07
        -0.82243E+06
        -0.24318E+07
        -0.12460E+07
        -0.19761E+07
        -0.64315E+06
        -0.54842E+07
        -0.30454E+07
        -0.20510E+07
        -0.17700E+07
        -0.48528E+06
        -0.90884E+06
         0.59144E+06
         0.12784E+07
        -0.12393E+07
        -0.89717E+06
        -0.48887E+06
        -0.19667E+07
        -0.13625E+07
        -0.80417E+06
        -0.10734E+07
        -0.19372E+07
        -0.17816E+07
        -0.21143E+07
        -0.15618E+07
        -0.87834E+06
        -0.54242E+06
        -0.57637E+06
         0.40041E+06
         0.94137E+06
         0.30608E+06
         0.58627E+06
        -0.35027E+07
        -0.73332E+06
        -0.21486E+07
         0.18893E+06
         0.22116E+07
         0.36288E+07
         0.28937E+07
         0.31190E+07
         0.23856E+07
         0.11916E+07
        -0.15545E+06
        -0.12085E+07
        -0.17216E+07
        -0.40909E+06
        -0.23181E+07
        -0.38008E+07
        -0.33649E+07
        -0.28960E+07
        -0.17167E+07
         0.23898E+06
         0.23759E+06
        -0.42239E+06
        -0.15128E+07
        -0.20050E+07
        -0.12963E+07
        -0.22837E+06
         0.11278E+07
         0.38806E+06
         0.61486E+06
         0.74758E+06
         0.41886E+06
         0.90343E+06
        -0.74940E+06
        -0.12913E+07
         0.14932E+07
        -0.16194E+07
        -0.15494E+07
        -0.28192E+06
        -0.27836E+06
        -0.41175E+07
        -0.13743E+07
        -0.45830E+06
         0.64044E+05
         0.71556E+06
        -0.29373E+06
        -0.43048E+06
        -0.15489E+07
        -0.78651E+06
        -0.23578E+07
        -0.11904E+07
        -0.18860E+07
        -0.59685E+06
        -0.53806E+07
        -0.29524E+07
        -0.19808E+07
        -0.16825E+07
        -0.43962E+06
        -0.87774E+06
         0.61353E+06
         0.12686E+07
        -0.12225E+07
        -0.90409E+06
        -0.51774E+06
        -0.19006E+07
        -0.12830E+07
        -0.73479E+06
        -0.10260E+07
        -0.18733E+07
        -0.17136E+07
        -0.20462E+07
        -0.15236E+07
        -0.85979E+06
        -0.52689E+06
        -0.53773E+06
         0.42974E+06
         0.94306E+06
         0.31361E+06
         0.58839E+06
        -0.34210E+07
        -0.62706E+06
        -0.21217E+07
         0.14186E+06
         0.21140E+07
         0.35692E+07
         0.29911E+07
         0.32191E+07
         0.24654E+07
         0.12390E+07
        -0.14219E+06
        -0.11679E+07
        -0.16424E+07
        -0.36984E+06
        -0.22354E+07
        -0.36825E+07
        -0.32640E+07
        -0.28188E+07
        -0.16833E+07
         0.23509E+06
         0.28213E+06
        -0.35876E+06
        -0.14117E+07
        -0.18823E+07
        -0.11997E+07
        -0.12841E+06
         0.31276E+09
         0.30994E+09
         0.30606E+09
         0.26633E+09
         0.37465E+09
         0.33901E+09
         0.31424E+09
         0.35499E+09
         0.29466E+09
         0.35506E+09
         0.36356E+09
         0.47117E+09
         0.41701E+09
         0.38974E+09
         0.48516E+09
         0.29058E+09
         0.29159E+09
         0.23404E+09
         0.31296E+09
         0.30556E+09
         0.38264E+09
         0.38505E+09
         0.36443E+09
         0.28679E+09
         0.34287E+09
         0.25372E+09
         0.38426E+09
         0.32559E+09
         0.34396E+09
         0.35651E+09
         0.28885E+09
         0.28055E+09
         0.26696E+09
         0.27695E+09
         0.42301E+09
         0.36469E+09
         0.37331E+09
         0.45597E+09
         0.43367E+09
         0.42513E+09
         0.44565E+09
         0.41808E+09
         0.39626E+09
         0.35054E+09
         0.36347E+09
         0.42775E+09
         0.37651E+09
         0.34552E+09
         0.33107E+09
         0.35030E+09
         0.40314E+09
         0.35652E+09
         0.77594E+09
         0.76018E+09
         0.77425E+09
         0.74990E+09
         0.77403E+09
         0.81235E+09
         0.81583E+09
         0.80689E+09
         0.81317E+09
         0.83549E+09
         0.80949E+09
         0.76261E+09
         0.67622E+09
         0.63831E+09
         0.64763E+09
         0.66272E+09
         0.67161E+09
         0.73213E+09
         0.78482E+09
         0.78859E+09
         0.72313E+09
         0.69738E+09
         0.72211E+09
         0.71401E+09
         0.70881E+09
         0.71030E+09
         0.36016E+10
         0.37739E+10
         0.37195E+10
         0.33938E+10
         0.41783E+10
         0.39245E+10
         0.40836E+10
         0.41146E+10
         0.35227E+10
         0.41125E+10
         0.44851E+10
         0.50247E+10
         0.45544E+10
         0.46154E+10
         0.52007E+10
         0.34515E+10
         0.37106E+10
         0.32380E+10
         0.38323E+10
         0.40326E+10
         0.41697E+10
         0.42614E+10
         0.40025E+10
         0.36856E+10
         0.41612E+10
         0.35564E+10
         0.45986E+10
         0.45212E+10
         0.45416E+10
         0.43087E+10
         0.34889E+10
         0.36696E+10
         0.34208E+10
         0.35777E+10
         0.45750E+10
         0.41980E+10
         0.42114E+10
         0.50361E+10
         0.49076E+10
         0.48489E+10
         0.49333E+10
         0.46842E+10
         0.44289E+10
         0.39078E+10
         0.40699E+10
         0.45731E+10
         0.42292E+10
         0.39764E+10
         0.38978E+10
         0.40414E+10
         0.43873E+10
         0.40531E+10
         0.72621E+10
         0.70732E+10
         0.72218E+10
         0.69934E+10
         0.72029E+10
         0.75758E+10
         0.77001E+10
         0.76853E+10
         0.77407E+10
         0.79187E+10
         0.76868E+10
         0.72216E+10
         0.64692E+10
         0.61117E+10
         0.61271E+10
         0.62052E+10
         0.62656E+10
         0.67990E+10
         0.72924E+10
         0.73219E+10
         0.67724E+10
         0.65616E+10
         0.67798E+10
         0.67311E+10
         0.66531E+10
         0.66345E+10
  
SCALARS                      stress_yy  double 1
LOOKUP_TABLE default
         0.12111E+13
         0.11956E+13
         0.12054E+13
         0.12230E+13
        -0.18340E+03
        -0.20566E+03
        -0.19693E+03
        -0.17890E+03
         0.11950E+13
         0.12003E+13
        -0.18494E+03
        -0.17897E+03
         0.11731E+13
         0.11722E+13
        -0.21975E+03
        -0.20662E+03
         0.12204E+13
         0.11735E+13
        -0.16237E+03
        -0.18009E+03
         0.11562E+13
         0.11427E+13
         0.11641E+13
        -0.21779E+03
        -0.19020E+03
        -0.19641E+03
         0.11432E+13
         0.11236E+13
        -0.20894E+03
        -0.17621E+03
         0.12196E+13
         0.11992E+13
         0.12394E+13
        -0.17830E+03
        -0.16576E+03
        -0.16116E+03
         0.12078E+13
         0.11817E+13
        -0.18864E+03
        -0.17213E+03
         0.11975E+13
         0.11774E+13
        -0.16303E+03
        -0.14433E+03
         0.12145E+13
         0.12220E+13
        -0.17866E+03
        -0.19963E+03
         0.11612E+13
        -0.17454E+03
         0.12205E+13
        -0.20509E+03
         0.11376E+13
        -0.18432E+03
         0.11314E+13
        -0.17680E+03
         0.11315E+13
         0.11534E+13
        -0.18014E+03
        -0.17544E+03
         0.12192E+13
         0.12113E+13
        -0.18063E+03
        -0.20420E+03
         0.12241E+13
        -0.17430E+03
         0.12147E+13
        -0.19022E+03
         0.11902E+13
         0.11877E+13
        -0.18311E+03
        -0.19187E+03
         0.11822E+13
        -0.19348E+03
         0.11166E+13
        -0.15286E+03
         0.11132E+13
        -0.14837E+03
         0.11149E+13
        -0.15645E+03
         0.11244E+13
         0.11343E+13
        -0.14906E+03
        -0.15540E+03
         0.11541E+13
        -0.14473E+03
         0.12141E+13
        -0.18980E+03
         0.12047E+13
        -0.19426E+03
         0.11971E+13
         0.11929E+13
        -0.18655E+03
        -0.18873E+03
         0.11980E+13
        -0.17142E+03
         0.12017E+13
        -0.16897E+03
         0.11984E+13
        -0.18089E+03
         0.11972E+13
         0.12006E+13
        -0.17739E+03
        -0.18259E+03
         0.11787E+13
         0.11876E+13
        -0.13772E+03
        -0.12954E+03
         0.11770E+13
        -0.13151E+03
         0.11873E+13
        -0.12609E+03
         0.11772E+13
        -0.12434E+03
         0.11548E+13
        -0.11750E+03
         0.11330E+13
        -0.10439E+03
         0.11200E+13
        -0.93994E+02
         0.11186E+13
        -0.93341E+02
         0.11191E+13
        -0.10122E+03
         0.11332E+13
        -0.10638E+03
         0.11596E+13
        -0.97138E+02
         0.11885E+13
        -0.87560E+02
         0.12055E+13
        -0.87460E+02
         0.12222E+13
        -0.97758E+02
         0.12332E+13
        -0.11147E+03
         0.12328E+13
        -0.11975E+03
         0.12060E+13
        -0.12933E+03
         0.11873E+13
        -0.13856E+03
         0.11808E+13
        -0.12693E+03
         0.11909E+13
        -0.11135E+03
         0.11961E+13
        -0.11101E+03
         0.11873E+13
        -0.12145E+03
         0.11875E+13
        -0.12948E+03
         0.11941E+13
        -0.12287E+03
         0.12027E+13
        -0.11879E+03
        -0.28933E+11
        -0.28331E+11
        -0.28414E+11
        -0.29179E+11
        -0.27712E+11
        -0.28484E+11
        -0.27519E+11
        -0.28034E+11
        -0.29063E+11
        -0.28436E+11
        -0.26941E+11
        -0.26760E+11
        -0.27238E+11
        -0.27271E+11
        -0.26964E+11
        -0.29144E+11
        -0.29006E+11
        -0.29386E+11
        -0.28263E+11
        -0.28479E+11
        -0.28169E+11
        -0.28375E+11
        -0.27991E+11
        -0.28092E+11
        -0.28461E+11
        -0.28435E+11
        -0.27796E+11
        -0.27855E+11
        -0.27358E+11
        -0.28101E+11
        -0.29076E+11
        -0.28322E+11
        -0.29071E+11
        -0.28583E+11
        -0.26633E+11
        -0.27294E+11
        -0.27596E+11
        -0.27240E+11
        -0.27193E+11
        -0.26585E+11
        -0.26126E+11
        -0.27220E+11
        -0.28182E+11
        -0.28056E+11
        -0.27567E+11
        -0.26658E+11
        -0.27438E+11
        -0.28222E+11
        -0.28169E+11
        -0.27564E+11
        -0.26913E+11
        -0.27783E+11
        -0.24956E+11
        -0.25843E+11
        -0.25699E+11
        -0.25902E+11
        -0.25850E+11
        -0.25378E+11
        -0.24878E+11
        -0.24713E+11
        -0.24784E+11
        -0.24734E+11
        -0.24516E+11
        -0.25805E+11
        -0.26265E+11
        -0.26438E+11
        -0.26729E+11
        -0.26946E+11
        -0.26936E+11
        -0.26565E+11
        -0.25257E+11
        -0.25578E+11
        -0.26032E+11
        -0.26027E+11
        -0.25949E+11
        -0.25513E+11
        -0.26152E+11
        -0.26382E+11
         0.59591E+06
        -0.19263E+06
         0.61691E+05
         0.13452E+07
         0.59425E+06
         0.15647E+07
        -0.69639E+06
        -0.17259E+07
         0.10833E+07
        -0.18195E+07
        -0.20572E+07
        -0.11713E+07
        -0.21995E+06
        -0.31855E+07
        -0.21127E+07
         0.27205E+06
         0.84342E+06
         0.98317E+06
        -0.64117E+06
         0.11002E+06
        -0.28177E+06
         0.52909E+06
        -0.78495E+06
        -0.34957E+06
        -0.20078E+07
        -0.23391E+06
        -0.42760E+07
        -0.27460E+07
        -0.14565E+07
        -0.17443E+07
         0.98792E+05
        -0.80696E+05
         0.95560E+06
         0.15651E+07
         0.75365E+05
        -0.46718E+05
         0.70151E+05
        -0.21381E+07
        -0.21101E+07
        -0.14623E+07
        -0.16540E+06
        -0.33764E+06
        -0.22576E+06
        -0.86972E+06
        -0.94832E+06
        -0.13960E+07
        -0.60186E+06
        -0.53971E+05
        -0.10479E+06
         0.32446E+06
         0.81295E+06
         0.17606E+07
        -0.18101E+07
         0.82704E+06
        -0.12409E+07
         0.53467E+06
         0.18438E+07
         0.27037E+07
         0.18830E+07
         0.23225E+07
         0.16782E+07
         0.73359E+06
         0.10582E+07
         0.10606E+07
         0.25807E+06
         0.13377E+07
        -0.49489E+06
        -0.19223E+07
        -0.20126E+07
        -0.22229E+07
        -0.22954E+07
        -0.71329E+06
        -0.53999E+06
        -0.11487E+07
        -0.19494E+07
        -0.13831E+07
         0.21272E+06
         0.12985E+07
         0.51109E+06
        -0.27555E+06
        -0.19559E+05
         0.12774E+07
         0.49225E+06
         0.14731E+07
        -0.77448E+06
        -0.18251E+07
         0.99763E+06
        -0.19279E+07
        -0.21545E+07
        -0.13033E+07
        -0.33401E+06
        -0.32887E+07
        -0.22450E+07
         0.18320E+06
         0.75744E+06
         0.92413E+06
        -0.73517E+06
         0.28452E+05
        -0.39563E+06
         0.41858E+06
        -0.90144E+06
        -0.43840E+06
        -0.21208E+07
        -0.30971E+06
        -0.43760E+07
        -0.28288E+07
        -0.15437E+07
        -0.18606E+07
         0.14849E+05
        -0.15839E+06
         0.88340E+06
         0.14986E+07
        -0.40177E+05
        -0.14435E+06
        -0.30007E+05
        -0.22708E+07
        -0.22333E+07
        -0.15828E+07
        -0.29595E+06
        -0.46478E+06
        -0.34701E+06
        -0.98165E+06
        -0.10537E+07
        -0.15130E+07
        -0.70724E+06
        -0.15152E+06
        -0.19219E+06
         0.23508E+06
         0.70612E+06
         0.16650E+07
        -0.20228E+07
         0.61944E+06
        -0.14454E+07
         0.33904E+06
         0.16368E+07
         0.24734E+07
         0.16531E+07
         0.20899E+07
         0.14428E+07
         0.49307E+06
         0.81886E+06
         0.83925E+06
         0.73235E+05
         0.11650E+07
        -0.67574E+06
        -0.21155E+07
        -0.22102E+07
        -0.24291E+07
        -0.25026E+07
        -0.93214E+06
        -0.74672E+06
        -0.13354E+07
        -0.21365E+07
        -0.15743E+07
         0.19503E+05
         0.11018E+07
         0.53118E+06
        -0.25924E+06
        -0.23236E+04
         0.12951E+07
         0.51838E+06
         0.14971E+07
        -0.75858E+06
        -0.18047E+07
         0.10116E+07
        -0.19261E+07
        -0.21358E+07
        -0.12779E+07
        -0.31215E+06
        -0.32621E+07
        -0.22136E+07
         0.16551E+06
         0.75275E+06
         0.94031E+06
        -0.75862E+06
         0.13444E+05
        -0.41479E+06
         0.41135E+06
        -0.97785E+06
        -0.50245E+06
        -0.21710E+07
        -0.36261E+06
        -0.43565E+07
        -0.28400E+07
        -0.15782E+07
        -0.19423E+07
         0.15356E+05
        -0.17579E+06
         0.90004E+06
         0.15205E+07
        -0.99594E+04
        -0.12001E+06
        -0.78994E+04
        -0.22485E+07
        -0.22143E+07
        -0.15761E+07
        -0.29939E+06
        -0.51094E+06
        -0.41238E+06
        -0.10567E+07
        -0.10719E+07
        -0.14971E+07
        -0.68827E+06
        -0.12893E+06
        -0.16789E+06
         0.26303E+06
         0.73638E+06
         0.16920E+07
        -0.19593E+07
         0.67622E+06
        -0.13826E+07
         0.38751E+06
         0.16727E+07
         0.25092E+07
         0.16989E+07
         0.21359E+07
         0.14892E+07
         0.54120E+06
         0.84724E+06
         0.83814E+06
         0.76232E+05
         0.11967E+07
        -0.65464E+06
        -0.21547E+07
        -0.22529E+07
        -0.24182E+07
        -0.24458E+07
        -0.86626E+06
        -0.68793E+06
        -0.12760E+07
        -0.20699E+07
        -0.15180E+07
         0.65426E+05
         0.11462E+07
         0.51926E+06
        -0.26625E+06
        -0.91519E+04
         0.12841E+07
         0.50834E+06
         0.14888E+07
        -0.76543E+06
        -0.18190E+07
         0.98656E+06
        -0.19741E+07
        -0.21465E+07
        -0.12914E+07
        -0.32118E+06
        -0.32735E+07
        -0.22308E+07
         0.94865E+05
         0.70191E+06
         0.92989E+06
        -0.84087E+06
        -0.55076E+05
        -0.50129E+06
         0.33499E+06
        -0.11557E+07
        -0.64576E+06
        -0.23046E+07
        -0.48363E+06
        -0.43838E+07
        -0.29072E+07
        -0.16854E+07
        -0.21362E+07
        -0.25152E+05
        -0.24559E+06
         0.88707E+06
         0.15097E+07
        -0.24800E+05
        -0.13003E+06
        -0.15957E+05
        -0.22735E+07
        -0.22451E+07
        -0.16309E+07
        -0.37348E+06
        -0.65489E+06
        -0.58934E+06
        -0.12334E+07
        -0.11593E+07
        -0.15443E+07
        -0.72227E+06
        -0.14667E+06
        -0.18249E+06
         0.24642E+06
         0.72025E+06
         0.16815E+07
        -0.19889E+07
         0.65570E+06
        -0.14151E+07
         0.35929E+06
         0.16536E+07
         0.24875E+07
         0.16623E+07
         0.20963E+07
         0.14507E+07
         0.49462E+06
         0.77353E+06
         0.71902E+06
        -0.35800E+05
         0.11435E+07
        -0.71432E+06
        -0.23191E+07
        -0.24272E+07
        -0.24998E+07
        -0.24847E+07
        -0.90311E+06
        -0.71615E+06
        -0.13093E+07
        -0.21047E+07
        -0.15413E+07
         0.47768E+05
         0.11287E+07
         0.49743E+06
        -0.28050E+06
        -0.21005E+05
         0.12727E+07
         0.49684E+06
         0.14775E+07
        -0.77599E+06
        -0.18418E+07
         0.95665E+06
        -0.20240E+07
        -0.21580E+07
        -0.12998E+07
        -0.33125E+06
        -0.32861E+07
        -0.22395E+07
         0.47159E+05
         0.66156E+06
         0.92024E+06
        -0.89519E+06
        -0.10422E+06
        -0.55714E+06
         0.28012E+06
        -0.12650E+07
        -0.73437E+06
        -0.24016E+07
        -0.56066E+06
        -0.44077E+07
        -0.29559E+07
        -0.17587E+07
        -0.22653E+07
        -0.67418E+05
        -0.29604E+06
         0.86378E+06
         0.14946E+07
        -0.40133E+05
        -0.14279E+06
        -0.28041E+05
        -0.22923E+07
        -0.22709E+07
        -0.16725E+07
        -0.42585E+06
        -0.75163E+06
        -0.70543E+06
        -0.13459E+07
        -0.12172E+07
        -0.15755E+07
        -0.75248E+06
        -0.17541E+06
        -0.20813E+06
         0.22167E+06
         0.69509E+06
         0.16645E+07
        -0.20156E+07
         0.63778E+06
        -0.14428E+07
         0.33733E+06
         0.16446E+07
         0.24812E+07
         0.16468E+07
         0.20702E+07
         0.14180E+07
         0.46578E+06
         0.72864E+06
         0.63656E+06
        -0.11218E+06
         0.11024E+07
        -0.75646E+06
        -0.24256E+07
        -0.25497E+07
        -0.25582E+07
        -0.25024E+07
        -0.93658E+06
        -0.75351E+06
        -0.13475E+07
        -0.21495E+07
        -0.15794E+07
         0.24328E+05
         0.11112E+07
         0.44433E+06
        -0.30781E+06
        -0.32736E+05
         0.12817E+07
         0.51013E+06
         0.14941E+07
        -0.78332E+06
        -0.18803E+07
         0.91481E+06
        -0.20904E+07
        -0.21506E+07
        -0.12701E+07
        -0.31975E+06
        -0.32809E+07
        -0.22033E+07
         0.56089E+05
         0.65190E+06
         0.93682E+06
        -0.88464E+06
        -0.96296E+05
        -0.54150E+06
         0.29932E+06
        -0.12626E+07
        -0.73580E+06
        -0.24445E+07
        -0.57057E+06
        -0.44133E+07
        -0.29617E+07
        -0.17529E+07
        -0.22709E+07
        -0.11801E+06
        -0.32229E+06
         0.82625E+06
         0.14909E+07
        -0.26795E+05
        -0.14170E+06
        -0.30334E+05
        -0.22697E+07
        -0.22516E+07
        -0.16504E+07
        -0.40072E+06
        -0.73623E+06
        -0.69314E+06
        -0.13536E+07
        -0.12250E+07
        -0.15808E+07
        -0.77868E+06
        -0.23385E+06
        -0.27148E+06
         0.18791E+06
         0.68681E+06
         0.16725E+07
        -0.19634E+07
         0.69154E+06
        -0.13992E+07
         0.36670E+06
         0.16754E+07
         0.25232E+07
         0.16944E+07
         0.21160E+07
         0.14702E+07
         0.53495E+06
         0.78911E+06
         0.67294E+06
        -0.71852E+05
         0.11444E+07
        -0.71586E+06
        -0.23933E+07
        -0.25266E+07
        -0.25350E+07
        -0.24744E+07
        -0.91714E+06
        -0.75787E+06
        -0.13740E+07
        -0.21672E+07
        -0.15703E+07
         0.50688E+05
         0.11490E+07
         0.36337E+06
        -0.35610E+06
        -0.60810E+05
         0.12746E+07
         0.49876E+06
         0.14926E+07
        -0.81490E+06
        -0.19539E+07
         0.84439E+06
        -0.21871E+07
        -0.21747E+07
        -0.12813E+07
        -0.33815E+06
        -0.33132E+07
        -0.22122E+07
         0.41891E+05
         0.61855E+06
         0.93403E+06
        -0.89455E+06
        -0.10717E+06
        -0.54970E+06
         0.29387E+06
        -0.12713E+07
        -0.74625E+06
        -0.25041E+07
        -0.58924E+06
        -0.44539E+07
        -0.29869E+07
        -0.17593E+07
        -0.22872E+07
        -0.18901E+06
        -0.36569E+06
         0.77014E+06
         0.14705E+07
        -0.44771E+05
        -0.16229E+06
        -0.54001E+05
        -0.22894E+07
        -0.22704E+07
        -0.16603E+07
        -0.40549E+06
        -0.73823E+06
        -0.69437E+06
        -0.13713E+07
        -0.12573E+07
        -0.16250E+07
        -0.83892E+06
        -0.32208E+06
        -0.36205E+06
         0.12868E+06
         0.65327E+06
         0.16610E+07
        -0.19851E+07
         0.67453E+06
        -0.14124E+07
         0.35187E+06
         0.16538E+07
         0.24976E+07
         0.16732E+07
         0.20980E+07
         0.14518E+07
         0.52124E+06
         0.77818E+06
         0.65957E+06
        -0.74198E+05
         0.11410E+07
        -0.72476E+06
        -0.23985E+07
        -0.25373E+07
        -0.25720E+07
        -0.25293E+07
        -0.97752E+06
        -0.82594E+06
        -0.14580E+07
        -0.22410E+07
        -0.16091E+07
         0.29926E+05
         0.11328E+07
         0.33984E+06
        -0.37393E+06
        -0.72410E+05
         0.12651E+07
         0.48658E+06
         0.14816E+07
        -0.83085E+06
        -0.19803E+07
         0.82342E+06
        -0.22179E+07
        -0.21923E+07
        -0.12971E+07
        -0.35627E+06
        -0.33306E+07
        -0.22267E+07
         0.29118E+05
         0.60476E+06
         0.92658E+06
        -0.90369E+06
        -0.11553E+06
        -0.56234E+06
         0.28117E+06
        -0.12828E+07
        -0.75418E+06
        -0.25270E+07
        -0.59942E+06
        -0.44713E+07
        -0.30004E+07
        -0.17714E+07
        -0.23027E+07
        -0.21188E+06
        -0.38241E+06
         0.75057E+06
         0.14591E+07
        -0.59951E+05
        -0.17357E+06
        -0.68488E+05
        -0.23140E+07
        -0.22921E+07
        -0.16813E+07
        -0.42768E+06
        -0.75540E+06
        -0.70555E+06
        -0.13872E+07
        -0.12769E+07
        -0.16457E+07
        -0.85913E+06
        -0.34391E+06
        -0.38435E+06
         0.10839E+06
         0.63253E+06
         0.16466E+07
        -0.20149E+07
         0.64507E+06
        -0.14326E+07
         0.33139E+06
         0.16289E+07
         0.24759E+07
         0.16510E+07
         0.20672E+07
         0.14108E+07
         0.47826E+06
         0.73925E+06
         0.64185E+06
        -0.88195E+05
         0.11111E+07
        -0.75610E+06
        -0.24285E+07
        -0.25764E+07
        -0.26094E+07
        -0.25606E+07
        -0.10028E+07
        -0.84677E+06
        -0.14861E+07
        -0.22782E+07
        -0.16434E+07
         0.11288E+04
         0.11044E+07
         0.35497E+06
        -0.36166E+06
        -0.63692E+05
         0.12676E+07
         0.49883E+06
         0.14844E+07
        -0.81984E+06
        -0.19634E+07
         0.83643E+06
        -0.22024E+07
        -0.21817E+07
        -0.12809E+07
        -0.34450E+06
        -0.33108E+07
        -0.22023E+07
         0.46101E+05
         0.61702E+06
         0.93432E+06
        -0.88796E+06
        -0.10305E+06
        -0.54636E+06
         0.29653E+06
        -0.12662E+07
        -0.73919E+06
        -0.25151E+07
        -0.58604E+06
        -0.44467E+07
        -0.29855E+07
        -0.17586E+07
        -0.22898E+07
        -0.19776E+06
        -0.37167E+06
         0.75700E+06
         0.14629E+07
        -0.42634E+05
        -0.16114E+06
        -0.57429E+05
        -0.22974E+07
        -0.22792E+07
        -0.16693E+07
        -0.41301E+06
        -0.73901E+06
        -0.68901E+06
        -0.13729E+07
        -0.12651E+07
        -0.16328E+07
        -0.84664E+06
        -0.32851E+06
        -0.36934E+06
         0.12037E+06
         0.64136E+06
         0.16501E+07
        -0.19703E+07
         0.68876E+06
        -0.14067E+07
         0.34211E+06
         0.16506E+07
         0.25100E+07
         0.16890E+07
         0.20944E+07
         0.14211E+07
         0.49420E+06
         0.76797E+06
         0.68251E+06
        -0.52550E+05
         0.11341E+07
        -0.73430E+06
        -0.24035E+07
        -0.25512E+07
        -0.25780E+07
        -0.25308E+07
        -0.96753E+06
        -0.81060E+06
        -0.14538E+07
        -0.22513E+07
        -0.16191E+07
         0.25469E+05
         0.11307E+07
         0.35122E+06
        -0.36258E+06
        -0.66101E+05
         0.12611E+07
         0.49594E+06
         0.14783E+07
        -0.82174E+06
        -0.19714E+07
         0.82584E+06
        -0.22158E+07
        -0.21898E+07
        -0.12904E+07
        -0.34723E+06
        -0.33190E+07
        -0.22174E+07
         0.38268E+05
         0.60791E+06
         0.92633E+06
        -0.89558E+06
        -0.10941E+06
        -0.55311E+06
         0.28841E+06
        -0.12721E+07
        -0.74428E+06
        -0.25236E+07
        -0.58966E+06
        -0.44524E+07
        -0.29874E+07
        -0.17607E+07
        -0.22976E+07
        -0.20455E+06
        -0.37628E+06
         0.74537E+06
         0.14544E+07
        -0.48161E+05
        -0.16635E+06
        -0.60886E+05
        -0.23188E+07
        -0.22917E+07
        -0.16800E+07
        -0.42395E+06
        -0.74556E+06
        -0.69857E+06
        -0.13779E+07
        -0.12701E+07
        -0.16396E+07
        -0.85626E+06
        -0.33843E+06
        -0.37799E+06
         0.11266E+06
         0.63323E+06
         0.16418E+07
        -0.19832E+07
         0.67849E+06
        -0.14278E+07
         0.32435E+06
         0.16480E+07
         0.24976E+07
         0.16600E+07
         0.20621E+07
         0.14020E+07
         0.46560E+06
         0.73676E+06
         0.66686E+06
        -0.70948E+05
         0.11240E+07
        -0.74376E+06
        -0.24125E+07
        -0.25530E+07
        -0.25844E+07
        -0.25398E+07
        -0.99131E+06
        -0.84022E+06
        -0.14766E+07
        -0.22630E+07
        -0.16245E+07
         0.12669E+05
         0.11127E+07
         0.34048E+06
        -0.37161E+06
        -0.72792E+05
         0.12573E+07
         0.48725E+06
         0.14742E+07
        -0.82829E+06
        -0.19826E+07
         0.81618E+06
        -0.22292E+07
        -0.21987E+07
        -0.13031E+07
        -0.35542E+06
        -0.33251E+07
        -0.22329E+07
         0.27280E+05
         0.60059E+06
         0.92183E+06
        -0.90483E+06
        -0.11404E+06
        -0.56168E+06
         0.28016E+06
        -0.12811E+07
        -0.75243E+06
        -0.25320E+07
        -0.59741E+06
        -0.44565E+07
        -0.29912E+07
        -0.17634E+07
        -0.23035E+07
        -0.21455E+06
        -0.38433E+06
         0.73781E+06
         0.14529E+07
        -0.61547E+05
        -0.17525E+06
        -0.68730E+05
        -0.23396E+07
        -0.23055E+07
        -0.16893E+07
        -0.43034E+06
        -0.75112E+06
        -0.70730E+06
        -0.13867E+07
        -0.12785E+07
        -0.16486E+07
        -0.86528E+06
        -0.34699E+06
        -0.38626E+06
         0.10594E+06
         0.62551E+06
         0.16380E+07
        -0.20089E+07
         0.65691E+06
        -0.14439E+07
         0.31895E+06
         0.16409E+07
         0.24724E+07
         0.16236E+07
         0.20329E+07
         0.13822E+07
         0.44502E+06
         0.72400E+06
         0.65140E+06
        -0.93044E+05
         0.11089E+07
        -0.75952E+06
        -0.24309E+07
        -0.25656E+07
        -0.25989E+07
        -0.25575E+07
        -0.10109E+07
        -0.86275E+06
        -0.14999E+07
        -0.22798E+07
        -0.16401E+07
        -0.69490E+04
         0.10920E+07
         0.34772E+06
        -0.36768E+06
        -0.69655E+05
         0.12621E+07
         0.49539E+06
         0.14816E+07
        -0.82114E+06
        -0.19713E+07
         0.82198E+06
        -0.22240E+07
        -0.21888E+07
        -0.12920E+07
        -0.35179E+06
        -0.33068E+07
        -0.22103E+07
         0.36869E+05
         0.60517E+06
         0.92953E+06
        -0.89554E+06
        -0.10393E+06
        -0.54900E+06
         0.29388E+06
        -0.12699E+07
        -0.74309E+06
        -0.25278E+07
        -0.58857E+06
        -0.44408E+07
        -0.29817E+07
        -0.17492E+07
        -0.22892E+07
        -0.20329E+06
        -0.37678E+06
         0.74604E+06
         0.14623E+07
        -0.50843E+05
        -0.16737E+06
        -0.64161E+05
        -0.23263E+07
        -0.22927E+07
        -0.16716E+07
        -0.41394E+06
        -0.73862E+06
        -0.69401E+06
        -0.13781E+07
        -0.12716E+07
        -0.16415E+07
        -0.85784E+06
        -0.33762E+06
        -0.37629E+06
         0.11621E+06
         0.63476E+06
         0.16478E+07
        -0.19763E+07
         0.69211E+06
        -0.14109E+07
         0.33519E+06
         0.16355E+07
         0.24742E+07
         0.16500E+07
         0.20621E+07
         0.14017E+07
         0.47472E+06
         0.75222E+06
         0.66469E+06
        -0.69212E+05
         0.11330E+07
        -0.73749E+06
        -0.24141E+07
        -0.25545E+07
        -0.25847E+07
        -0.25441E+07
        -0.98969E+06
        -0.83784E+06
        -0.14759E+07
        -0.22591E+07
        -0.16222E+07
         0.19450E+05
         0.11229E+07
         0.34280E+06
        -0.37489E+06
        -0.76149E+05
         0.12548E+07
         0.48653E+06
         0.14731E+07
        -0.82940E+06
        -0.19816E+07
         0.81415E+06
        -0.22398E+07
        -0.22012E+07
        -0.13078E+07
        -0.36844E+06
        -0.33176E+07
        -0.22216E+07
         0.28027E+05
         0.59585E+06
         0.92100E+06
        -0.90678E+06
        -0.11156E+06
        -0.56416E+06
         0.27903E+06
        -0.12853E+07
        -0.75256E+06
        -0.25423E+07
        -0.59524E+06
        -0.44558E+07
        -0.29947E+07
        -0.17581E+07
        -0.22991E+07
        -0.21256E+06
        -0.38433E+06
         0.73241E+06
         0.14547E+07
        -0.63627E+05
        -0.17773E+06
        -0.77004E+05
        -0.23489E+07
        -0.23145E+07
        -0.16897E+07
        -0.43469E+06
        -0.75744E+06
        -0.70883E+06
        -0.13955E+07
        -0.12866E+07
        -0.16545E+07
        -0.87052E+06
        -0.35113E+06
        -0.38702E+06
         0.10860E+06
         0.62446E+06
         0.16383E+07
        -0.20017E+07
         0.67001E+06
        -0.14363E+07
         0.30620E+06
         0.16016E+07
         0.24420E+07
         0.16303E+07
         0.20369E+07
         0.13682E+07
         0.44166E+06
         0.71196E+06
         0.62482E+06
        -0.95627E+05
         0.11056E+07
        -0.76103E+06
        -0.24412E+07
        -0.25965E+07
        -0.26222E+07
        -0.25629E+07
        -0.10156E+07
        -0.86468E+06
        -0.14897E+07
        -0.22686E+07
        -0.16415E+07
        -0.70968E+04
         0.10966E+07
         0.34205E+06
        -0.37719E+06
        -0.78189E+05
         0.12523E+07
         0.48510E+06
         0.14703E+07
        -0.83082E+06
        -0.19835E+07
         0.81428E+06
        -0.22426E+07
        -0.22039E+07
        -0.13098E+07
        -0.37105E+06
        -0.33155E+07
        -0.22217E+07
         0.26477E+05
         0.59571E+06
         0.91939E+06
        -0.90828E+06
        -0.11158E+06
        -0.56772E+06
         0.27669E+06
        -0.12887E+07
        -0.75407E+06
        -0.25460E+07
        -0.59644E+06
        -0.44528E+07
        -0.29968E+07
        -0.17619E+07
        -0.23020E+07
        -0.21726E+06
        -0.38688E+06
         0.72559E+06
         0.14530E+07
        -0.66604E+05
        -0.18117E+06
        -0.80917E+05
        -0.23601E+07
        -0.23273E+07
        -0.16971E+07
        -0.43725E+06
        -0.75899E+06
        -0.71094E+06
        -0.13989E+07
        -0.12898E+07
        -0.16578E+07
        -0.87491E+06
        -0.35633E+06
        -0.39107E+06
         0.10734E+06
         0.62254E+06
         0.16360E+07
        -0.20023E+07
         0.67041E+06
        -0.14433E+07
         0.29501E+06
         0.16009E+07
         0.24415E+07
         0.16225E+07
         0.20159E+07
         0.13441E+07
         0.42840E+06
         0.71064E+06
         0.62080E+06
        -0.10226E+06
         0.10949E+07
        -0.77331E+06
        -0.24500E+07
        -0.26026E+07
        -0.26273E+07
        -0.25683E+07
        -0.10249E+07
        -0.87660E+06
        -0.14974E+07
        -0.22695E+07
        -0.16438E+07
        -0.18807E+05
         0.10861E+07
         0.36456E+06
        -0.35395E+06
        -0.59085E+05
         0.12655E+07
         0.50984E+06
         0.14881E+07
        -0.80719E+06
        -0.19582E+07
         0.82990E+06
        -0.22244E+07
        -0.21787E+07
        -0.12750E+07
        -0.34097E+06
        -0.32850E+07
        -0.21876E+07
         0.47012E+05
         0.61265E+06
         0.93356E+06
        -0.88736E+06
        -0.91478E+05
        -0.53911E+06
         0.30393E+06
        -0.12612E+07
        -0.73424E+06
        -0.25245E+07
        -0.57801E+06
        -0.44217E+07
        -0.29711E+07
        -0.17385E+07
        -0.22748E+07
        -0.19508E+06
        -0.36702E+06
         0.73946E+06
         0.14657E+07
        -0.37973E+05
        -0.15791E+06
        -0.56481E+05
        -0.23389E+07
        -0.23011E+07
        -0.16682E+07
        -0.40963E+06
        -0.73084E+06
        -0.68612E+06
        -0.13713E+07
        -0.12623E+07
        -0.16291E+07
        -0.85020E+06
        -0.33275E+06
        -0.37115E+06
         0.12553E+06
         0.64181E+06
         0.16529E+07
        -0.19430E+07
         0.72927E+06
        -0.13939E+07
         0.33094E+06
         0.16446E+07
         0.24972E+07
         0.16692E+07
         0.20514E+07
         0.13838E+07
         0.47190E+06
         0.74988E+06
         0.66668E+06
        -0.65846E+05
         0.11353E+07
        -0.72713E+06
        -0.24020E+07
        -0.25487E+07
        -0.25691E+07
        -0.25182E+07
        -0.97253E+06
        -0.83209E+06
        -0.14642E+07
        -0.22330E+07
        -0.15999E+07
         0.28730E+05
         0.11342E+07
         0.35537E+06
        -0.36041E+06
        -0.65123E+05
         0.12566E+07
         0.49883E+06
         0.14793E+07
        -0.81456E+06
        -0.19711E+07
         0.81886E+06
        -0.22434E+07
        -0.21909E+07
        -0.12871E+07
        -0.34831E+06
        -0.32966E+07
        -0.22034E+07
         0.35581E+05
         0.60098E+06
         0.92664E+06
        -0.90205E+06
        -0.10102E+06
        -0.54939E+06
         0.29037E+06
        -0.12707E+07
        -0.74574E+06
        -0.25412E+07
        -0.58788E+06
        -0.44351E+07
        -0.29800E+07
        -0.17421E+07
        -0.22820E+07
        -0.20172E+06
        -0.37570E+06
         0.72940E+06
         0.14564E+07
        -0.54444E+05
        -0.16730E+06
        -0.62773E+05
        -0.23644E+07
        -0.23190E+07
        -0.16762E+07
        -0.42280E+06
        -0.74540E+06
        -0.70319E+06
        -0.13843E+07
        -0.12754E+07
        -0.16414E+07
        -0.86082E+06
        -0.34026E+06
        -0.38010E+06
         0.11391E+06
         0.62948E+06
         0.16432E+07
        -0.19806E+07
         0.69744E+06
        -0.14231E+07
         0.31562E+06
         0.16393E+07
         0.24829E+07
         0.16376E+07
         0.20134E+07
         0.13467E+07
         0.43899E+06
         0.71107E+06
         0.62215E+06
        -0.97289E+05
         0.11196E+07
        -0.73443E+06
        -0.24069E+07
        -0.25643E+07
        -0.25957E+07
        -0.25379E+07
        -0.99582E+06
        -0.85362E+06
        -0.14884E+07
        -0.22589E+07
        -0.16160E+07
         0.13723E+05
         0.11092E+07
         0.33988E+06
        -0.37715E+06
        -0.81524E+05
         0.12448E+07
         0.48149E+06
         0.14632E+07
        -0.82690E+06
        -0.19862E+07
         0.80314E+06
        -0.22755E+07
        -0.22054E+07
        -0.13068E+07
        -0.36458E+06
        -0.33084E+07
        -0.22233E+07
         0.21510E+05
         0.58347E+06
         0.91860E+06
        -0.91418E+06
        -0.10525E+06
        -0.56199E+06
         0.27453E+06
        -0.12822E+07
        -0.75556E+06
        -0.25690E+07
        -0.59755E+06
        -0.44658E+07
        -0.29945E+07
        -0.17143E+07
        -0.22629E+07
        -0.21412E+06
        -0.38819E+06
         0.71940E+06
         0.14499E+07
        -0.72987E+05
        -0.18269E+06
        -0.77813E+05
        -0.24017E+07
        -0.23366E+07
        -0.16494E+07
        -0.42422E+06
        -0.76120E+06
        -0.72598E+06
        -0.13984E+07
        -0.12920E+07
        -0.16610E+07
        -0.87902E+06
        -0.35380E+06
        -0.39048E+06
         0.10466E+06
         0.61855E+06
         0.16312E+07
        -0.20056E+07
         0.67426E+06
        -0.14431E+07
         0.29836E+06
         0.16151E+07
         0.24439E+07
         0.15930E+07
         0.19709E+07
         0.13094E+07
         0.43036E+06
         0.64334E+06
         0.51556E+06
        -0.14149E+06
         0.10950E+07
        -0.75636E+06
        -0.24266E+07
        -0.25889E+07
        -0.26235E+07
        -0.25702E+07
        -0.10323E+07
        -0.87829E+06
        -0.15114E+07
        -0.22853E+07
        -0.16352E+07
        -0.16011E+05
         0.10759E+07
         0.36133E+06
        -0.35577E+06
        -0.60774E+05
         0.12609E+07
         0.50781E+06
         0.14824E+07
        -0.80612E+06
        -0.19613E+07
         0.81378E+06
        -0.22827E+07
        -0.21828E+07
        -0.12807E+07
        -0.34227E+06
        -0.32796E+07
        -0.21929E+07
         0.42270E+05
         0.59489E+06
         0.93191E+06
        -0.88992E+06
        -0.72712E+05
        -0.53826E+06
         0.29833E+06
        -0.12601E+07
        -0.73420E+06
        -0.25655E+07
        -0.57758E+06
        -0.44709E+07
        -0.29785E+07
        -0.16243E+07
        -0.21769E+07
        -0.19511E+06
        -0.36802E+06
         0.73288E+06
         0.14667E+07
        -0.42311E+05
        -0.15675E+06
        -0.54740E+05
        -0.24005E+07
        -0.23064E+07
        -0.15485E+07
        -0.37086E+06
        -0.73268E+06
        -0.71156E+06
        -0.13748E+07
        -0.12652E+07
        -0.16291E+07
        -0.85324E+06
        -0.33219E+06
        -0.36865E+06
         0.12926E+06
         0.64422E+06
         0.16513E+07
        -0.19446E+07
         0.73405E+06
        -0.13821E+07
         0.34117E+06
         0.16424E+07
         0.24755E+07
         0.16368E+07
         0.20153E+07
         0.13579E+07
         0.52513E+06
         0.62134E+06
         0.42978E+06
        -0.13828E+06
         0.11286E+07
        -0.72818E+06
        -0.24032E+07
        -0.25600E+07
        -0.25749E+07
        -0.25104E+07
        -0.97620E+06
        -0.83000E+06
        -0.14616E+07
        -0.22292E+07
        -0.15828E+07
         0.26433E+05
         0.11205E+07
         0.28206E+06
        -0.43367E+06
        -0.13602E+06
         0.11937E+07
         0.41216E+06
         0.13952E+07
        -0.88090E+06
        -0.20554E+07
         0.73052E+06
        -0.24001E+07
        -0.22750E+07
        -0.14035E+07
        -0.45621E+06
        -0.33809E+07
        -0.23190E+07
        -0.35072E+05
         0.51400E+06
         0.87311E+06
        -0.97337E+06
        -0.13774E+06
        -0.64529E+06
         0.19385E+06
        -0.13632E+07
        -0.80818E+06
        -0.26722E+07
        -0.64001E+06
        -0.45922E+07
        -0.30584E+07
        -0.16620E+07
        -0.22365E+07
        -0.27021E+06
        -0.43812E+06
         0.66061E+06
         0.13948E+07
        -0.15487E+06
        -0.25299E+06
        -0.15730E+06
        -0.25450E+07
        -0.24196E+07
        -0.16145E+07
        -0.47636E+06
        -0.84579E+06
        -0.82537E+06
        -0.14752E+07
        -0.13694E+07
        -0.17498E+07
        -0.95551E+06
        -0.42299E+06
        -0.45544E+06
         0.33677E+05
         0.52943E+06
         0.15533E+07
        -0.21569E+07
         0.52798E+06
        -0.15966E+07
         0.12302E+06
         0.14249E+07
         0.22662E+07
         0.14239E+07
         0.17869E+07
         0.11434E+07
         0.32988E+06
         0.34926E+06
         0.13370E+06
        -0.34795E+06
         0.95452E+06
        -0.91051E+06
        -0.25928E+07
        -0.27561E+07
        -0.27940E+07
        -0.27355E+07
        -0.11919E+07
        -0.10302E+07
        -0.16533E+07
        -0.24254E+07
        -0.17841E+07
        -0.16689E+06
         0.92861E+06
         0.32768E+06
        -0.42813E+06
        -0.12210E+06
         0.12186E+07
         0.44361E+06
         0.14230E+07
        -0.87015E+06
        -0.20001E+07
         0.78410E+06
        -0.23197E+07
        -0.22510E+07
        -0.14010E+07
        -0.48526E+06
        -0.33139E+07
        -0.22633E+07
         0.25446E+05
         0.56559E+06
         0.90536E+06
        -0.92906E+06
        -0.98206E+05
        -0.59746E+06
         0.22966E+06
        -0.12892E+07
        -0.75223E+06
        -0.25837E+07
        -0.59240E+06
        -0.44888E+07
        -0.29675E+07
        -0.15868E+07
        -0.21495E+07
        -0.22313E+06
        -0.40623E+06
         0.67815E+06
         0.13843E+07
        -0.13776E+06
        -0.26049E+06
        -0.18643E+06
        -0.24792E+07
        -0.23401E+07
        -0.15445E+07
        -0.42922E+06
        -0.78138E+06
        -0.75747E+06
        -0.14079E+07
        -0.13323E+07
        -0.17315E+07
        -0.94059E+06
        -0.38398E+06
        -0.42606E+06
         0.35739E+05
         0.53682E+06
         0.15551E+07
        -0.20752E+07
         0.63408E+06
        -0.15699E+07
         0.75944E+05
         0.13271E+07
         0.22068E+07
         0.15215E+07
         0.18873E+07
         0.12231E+07
         0.37721E+06
         0.36243E+06
         0.17415E+06
        -0.26866E+06
         0.99369E+06
        -0.82773E+06
        -0.24746E+07
        -0.26556E+07
        -0.27169E+07
        -0.27022E+07
        -0.11957E+07
        -0.98587E+06
        -0.15897E+07
        -0.23246E+07
        -0.16613E+07
        -0.70100E+05
         0.10289E+07
         0.31201E+09
         0.30925E+09
         0.30545E+09
         0.26669E+09
         0.37467E+09
         0.33945E+09
         0.31417E+09
         0.35434E+09
         0.29405E+09
         0.35442E+09
         0.36307E+09
         0.47010E+09
         0.41682E+09
         0.39039E+09
         0.48430E+09
         0.29102E+09
         0.29196E+09
         0.23419E+09
         0.31247E+09
         0.30577E+09
         0.38355E+09
         0.38601E+09
         0.36544E+09
         0.28711E+09
         0.34229E+09
         0.25372E+09
         0.38499E+09
         0.32558E+09
         0.34419E+09
         0.35612E+09
         0.28904E+09
         0.28088E+09
         0.26700E+09
         0.27704E+09
         0.42402E+09
         0.36525E+09
         0.37361E+09
         0.45542E+09
         0.43269E+09
         0.42438E+09
         0.44622E+09
         0.41911E+09
         0.39717E+09
         0.35114E+09
         0.36365E+09
         0.42693E+09
         0.37614E+09
         0.34566E+09
         0.33034E+09
         0.34951E+09
         0.40335E+09
         0.35738E+09
         0.77727E+09
         0.76142E+09
         0.77479E+09
         0.74984E+09
         0.77325E+09
         0.81100E+09
         0.81438E+09
         0.80558E+09
         0.81194E+09
         0.83464E+09
         0.80999E+09
         0.76393E+09
         0.67757E+09
         0.63966E+09
         0.64902E+09
         0.66392E+09
         0.67222E+09
         0.73223E+09
         0.78381E+09
         0.78717E+09
         0.72188E+09
         0.69616E+09
         0.72121E+09
         0.71423E+09
         0.70993E+09
         0.71144E+09
         0.36014E+10
         0.37738E+10
         0.37194E+10
         0.33938E+10
         0.41783E+10
         0.39245E+10
         0.40836E+10
         0.41145E+10
         0.35226E+10
         0.41123E+10
         0.44851E+10
         0.50243E+10
         0.45544E+10
         0.46155E+10
         0.52003E+10
         0.34516E+10
         0.37106E+10
         0.32380E+10
         0.38322E+10
         0.40326E+10
         0.41701E+10
         0.42617E+10
         0.40028E+10
         0.36857E+10
         0.41612E+10
         0.35564E+10
         0.45987E+10
         0.45212E+10
         0.45416E+10
         0.43086E+10
         0.34889E+10
         0.36696E+10
         0.34208E+10
         0.35777E+10
         0.45752E+10
         0.41981E+10
         0.42114E+10
         0.50359E+10
         0.49074E+10
         0.48487E+10
         0.49335E+10
         0.46845E+10
         0.44293E+10
         0.39079E+10
         0.40699E+10
         0.45728E+10
         0.42291E+10
         0.39765E+10
         0.38977E+10
         0.40413E+10
         0.43874E+10
         0.40532E+10
         0.72630E+10
         0.70740E+10
         0.72222E+10
         0.69933E+10
         0.72024E+10
         0.75748E+10
         0.76991E+10
         0.76844E+10
         0.77400E+10
         0.79181E+10
         0.76872E+10
         0.72225E+10
         0.64701E+10
         0.61125E+10
         0.61280E+10
         0.62061E+10
         0.62660E+10
         0.67990E+10
         0.72917E+10
         0.73209E+10
         0.67716E+10
         0.65608E+10
         0.67791E+10
         0.67312E+10
         0.66539E+10
         0.66353E+10
  
SCALARS                      stress_zz  double 1
LOOKUP_TABLE default
         0.12117E+13
         0.11962E+13
         0.12060E+13
         0.12236E+13
        -0.42794E+03
        -0.47987E+03
        -0.45949E+03
        -0.41743E+03
         0.11956E+13
         0.12009E+13
        -0.43152E+03
        -0.41761E+03
         0.11737E+13
         0.11728E+13
        -0.51274E+03
        -0.48211E+03
         0.12210E+13
         0.11741E+13
        -0.37886E+03
        -0.42022E+03
         0.11568E+13
         0.11433E+13
         0.11647E+13
        -0.50819E+03
        -0.44380E+03
        -0.45828E+03
         0.11438E+13
         0.11242E+13
        -0.48753E+03
        -0.41115E+03
         0.12202E+13
         0.11998E+13
         0.12400E+13
        -0.41604E+03
        -0.38677E+03
        -0.37604E+03
         0.12084E+13
         0.11823E+13
        -0.44015E+03
        -0.40164E+03
         0.11981E+13
         0.11780E+13
        -0.38041E+03
        -0.33677E+03
         0.12151E+13
         0.12226E+13
        -0.41688E+03
        -0.46581E+03
         0.11618E+13
        -0.40726E+03
         0.12211E+13
        -0.47855E+03
         0.11382E+13
        -0.43008E+03
         0.11320E+13
        -0.41253E+03
         0.11321E+13
         0.11540E+13
        -0.42032E+03
        -0.40935E+03
         0.12198E+13
         0.12119E+13
        -0.42148E+03
        -0.47647E+03
         0.12247E+13
        -0.40670E+03
         0.12154E+13
        -0.44386E+03
         0.11908E+13
         0.11883E+13
        -0.42726E+03
        -0.44769E+03
         0.11828E+13
        -0.45144E+03
         0.11172E+13
        -0.35667E+03
         0.11138E+13
        -0.34621E+03
         0.11155E+13
        -0.36504E+03
         0.11250E+13
         0.11349E+13
        -0.34780E+03
        -0.36260E+03
         0.11547E+13
        -0.33771E+03
         0.12147E+13
        -0.44287E+03
         0.12053E+13
        -0.45326E+03
         0.11977E+13
         0.11935E+13
        -0.43528E+03
        -0.44036E+03
         0.11987E+13
        -0.39998E+03
         0.12023E+13
        -0.39427E+03
         0.11990E+13
        -0.42207E+03
         0.11978E+13
         0.12012E+13
        -0.41390E+03
        -0.42605E+03
         0.11793E+13
         0.11882E+13
        -0.32135E+03
        -0.30225E+03
         0.11776E+13
        -0.30685E+03
         0.11879E+13
        -0.29422E+03
         0.11778E+13
        -0.29012E+03
         0.11554E+13
        -0.27417E+03
         0.11336E+13
        -0.24357E+03
         0.11206E+13
        -0.21932E+03
         0.11192E+13
        -0.21779E+03
         0.11197E+13
        -0.23619E+03
         0.11338E+13
        -0.24822E+03
         0.11602E+13
        -0.22666E+03
         0.11891E+13
        -0.20431E+03
         0.12061E+13
        -0.20407E+03
         0.12228E+13
        -0.22810E+03
         0.12338E+13
        -0.26009E+03
         0.12334E+13
        -0.27942E+03
         0.12066E+13
        -0.30177E+03
         0.11879E+13
        -0.32330E+03
         0.11815E+13
        -0.29616E+03
         0.11915E+13
        -0.25982E+03
         0.11967E+13
        -0.25901E+03
         0.11879E+13
        -0.28339E+03
         0.11881E+13
        -0.30212E+03
         0.11947E+13
        -0.28671E+03
         0.12033E+13
        -0.27718E+03
        -0.28508E+11
        -0.27905E+11
        -0.27989E+11
        -0.28754E+11
        -0.27286E+11
        -0.28059E+11
        -0.27093E+11
        -0.27608E+11
        -0.28638E+11
        -0.28011E+11
        -0.26514E+11
        -0.26333E+11
        -0.26812E+11
        -0.26844E+11
        -0.26537E+11
        -0.28720E+11
        -0.28582E+11
        -0.28962E+11
        -0.27838E+11
        -0.28054E+11
        -0.27744E+11
        -0.27950E+11
        -0.27566E+11
        -0.27667E+11
        -0.28036E+11
        -0.28010E+11
        -0.27370E+11
        -0.27429E+11
        -0.26932E+11
        -0.27676E+11
        -0.28652E+11
        -0.27896E+11
        -0.28646E+11
        -0.28158E+11
        -0.26206E+11
        -0.26867E+11
        -0.27170E+11
        -0.26813E+11
        -0.26766E+11
        -0.26158E+11
        -0.25698E+11
        -0.26793E+11
        -0.27757E+11
        -0.27631E+11
        -0.27141E+11
        -0.26231E+11
        -0.27011E+11
        -0.27796E+11
        -0.27743E+11
        -0.27138E+11
        -0.26486E+11
        -0.27357E+11
        -0.24528E+11
        -0.25416E+11
        -0.25272E+11
        -0.25475E+11
        -0.25423E+11
        -0.24950E+11
        -0.24451E+11
        -0.24285E+11
        -0.24356E+11
        -0.24305E+11
        -0.24087E+11
        -0.25378E+11
        -0.25838E+11
        -0.26012E+11
        -0.26303E+11
        -0.26521E+11
        -0.26511E+11
        -0.26139E+11
        -0.24829E+11
        -0.25151E+11
        -0.25605E+11
        -0.25600E+11
        -0.25522E+11
        -0.25085E+11
        -0.25725E+11
        -0.25955E+11
         0.29635E+07
         0.17970E+07
         0.21014E+07
         0.32386E+07
         0.24163E+07
         0.33812E+07
        -0.16217E+06
        -0.14368E+06
         0.36109E+07
        -0.32411E+06
        -0.15936E+07
         0.11492E+07
         0.16445E+07
        -0.34815E+07
        -0.59900E+05
         0.16105E+07
         0.23103E+07
         0.28094E+07
         0.82856E+06
         0.82946E+06
         0.87843E+06
         0.17969E+07
         0.17012E+06
         0.12090E+06
        -0.10505E+07
        -0.19609E+05
        -0.52007E+07
        -0.62609E+07
        -0.28162E+07
        -0.71285E+06
         0.14920E+07
         0.51031E+06
         0.28352E+07
         0.40928E+07
         0.11908E+07
         0.10842E+07
         0.15582E+07
        -0.36776E+06
        -0.20242E+06
         0.41209E+06
         0.12676E+07
         0.74287E+06
         0.95298E+06
         0.23389E+06
         0.35023E+06
         0.62092E+06
         0.11349E+07
         0.14289E+07
         0.19899E+07
         0.26640E+07
         0.26041E+07
         0.33298E+07
        -0.42473E+06
         0.24105E+07
         0.62327E+06
         0.28168E+07
         0.45910E+07
         0.58164E+07
         0.50021E+07
         0.53613E+07
         0.46239E+07
         0.34507E+07
         0.30668E+07
         0.26225E+07
         0.16847E+07
         0.28210E+07
         0.88617E+06
        -0.48824E+06
        -0.25160E+06
        -0.15931E+06
         0.33450E+06
         0.22297E+07
         0.22835E+07
         0.16003E+07
         0.61106E+06
         0.60435E+06
         0.18236E+07
         0.29535E+07
         0.28536E+07
         0.16725E+07
         0.19768E+07
         0.31150E+07
         0.22862E+07
         0.32524E+07
        -0.32129E+06
        -0.27007E+06
         0.34835E+07
        -0.46228E+06
        -0.17571E+07
         0.99697E+06
         0.15077E+07
        -0.36299E+07
        -0.21018E+06
         0.14851E+07
         0.21485E+07
         0.26694E+07
         0.67604E+06
         0.63578E+06
         0.74321E+06
         0.16640E+07
         0.29211E+05
        -0.47944E+05
        -0.12127E+07
        -0.19765E+06
        -0.53425E+07
        -0.64553E+07
        -0.30180E+07
        -0.87965E+06
         0.13670E+07
         0.35301E+06
         0.27095E+07
         0.39625E+07
         0.10500E+07
         0.95092E+06
         0.14299E+07
        -0.52288E+06
        -0.35223E+06
         0.26245E+06
         0.11146E+07
         0.59141E+06
         0.80889E+06
         0.94792E+05
         0.21603E+06
         0.48054E+06
         0.99740E+06
         0.12953E+07
         0.18630E+07
         0.25409E+07
         0.24732E+07
         0.32028E+07
        -0.64942E+06
         0.21916E+07
         0.40830E+06
         0.26109E+07
         0.43738E+07
         0.55753E+07
         0.47609E+07
         0.51160E+07
         0.43756E+07
         0.31977E+07
         0.28148E+07
         0.23895E+07
         0.14881E+07
         0.26368E+07
         0.69432E+06
        -0.69236E+06
        -0.45980E+06
        -0.37590E+06
         0.11650E+06
         0.19995E+07
         0.20651E+07
         0.14025E+07
         0.41348E+06
         0.40180E+06
         0.16193E+07
         0.27455E+07
         0.28794E+07
         0.16971E+07
         0.20035E+07
         0.31479E+07
         0.23203E+07
         0.32873E+07
        -0.28586E+06
        -0.24112E+06
         0.35043E+07
        -0.45540E+06
        -0.17239E+07
         0.10261E+07
         0.15338E+07
        -0.35965E+07
        -0.17305E+06
         0.14599E+07
         0.21401E+07
         0.27049E+07
         0.63868E+06
         0.59745E+06
         0.72086E+06
         0.16554E+07
        -0.63213E+05
        -0.16980E+06
        -0.12803E+07
        -0.32244E+06
        -0.53139E+07
        -0.64822E+07
        -0.30968E+07
        -0.99581E+06
         0.13674E+07
         0.31719E+06
         0.27436E+07
         0.40047E+07
         0.10868E+07
         0.98448E+06
         0.14583E+07
        -0.49569E+06
        -0.32738E+06
         0.27114E+06
         0.11108E+07
         0.53642E+06
         0.73129E+06
         0.16714E+04
         0.19300E+06
         0.49984E+06
         0.10223E+07
         0.13255E+07
         0.18975E+07
         0.25789E+07
         0.25104E+07
         0.32391E+07
        -0.58262E+06
         0.22515E+07
         0.47454E+06
         0.26619E+07
         0.44115E+07
         0.56127E+07
         0.48087E+07
         0.51643E+07
         0.44245E+07
         0.32483E+07
         0.28446E+07
         0.23884E+07
         0.14913E+07
         0.26707E+07
         0.71670E+06
        -0.73365E+06
        -0.50456E+06
        -0.36431E+06
         0.17633E+06
         0.20688E+07
         0.21272E+07
         0.14655E+07
         0.48386E+06
         0.46103E+06
         0.16674E+07
         0.27920E+07
         0.28638E+07
         0.16866E+07
         0.19931E+07
         0.31282E+07
         0.23081E+07
         0.32765E+07
        -0.29732E+06
        -0.25735E+06
         0.34674E+07
        -0.51398E+06
        -0.17408E+07
         0.10103E+07
         0.15229E+07
        -0.36163E+07
        -0.19155E+06
         0.13603E+07
         0.20451E+07
         0.26783E+07
         0.50551E+06
         0.43408E+06
         0.61828E+06
         0.15635E+07
        -0.27827E+06
        -0.44232E+06
        -0.14730E+07
        -0.60663E+06
        -0.53521E+07
        -0.66395E+07
        -0.33461E+07
        -0.12760E+07
         0.13069E+07
         0.17546E+06
         0.27244E+07
         0.39832E+07
         0.10686E+07
         0.97104E+06
         0.14481E+07
        -0.52406E+06
        -0.36366E+06
         0.20344E+06
         0.10242E+07
         0.36492E+06
         0.52086E+06
        -0.21781E+06
         0.81940E+05
         0.44330E+06
         0.97812E+06
         0.13007E+07
         0.18758E+07
         0.25557E+07
         0.24907E+07
         0.32253E+07
        -0.61410E+06
         0.22298E+07
         0.44052E+06
         0.26322E+07
         0.43915E+07
         0.55898E+07
         0.47702E+07
         0.51224E+07
         0.43839E+07
         0.31992E+07
         0.27670E+07
         0.22630E+07
         0.13721E+07
         0.26140E+07
         0.65340E+06
        -0.90719E+06
        -0.68814E+06
        -0.44985E+06
         0.13550E+06
         0.20300E+07
         0.20975E+07
         0.14303E+07
         0.44708E+06
         0.43594E+06
         0.16484E+07
         0.27731E+07
         0.28354E+07
         0.16652E+07
         0.19751E+07
         0.31079E+07
         0.22940E+07
         0.32613E+07
        -0.31650E+06
        -0.28446E+06
         0.34232E+07
        -0.57502E+06
        -0.17587E+07
         0.10005E+07
         0.15107E+07
        -0.36379E+07
        -0.20029E+06
         0.12929E+07
         0.19700E+07
         0.26535E+07
         0.41800E+06
         0.31581E+06
         0.55223E+06
         0.14975E+07
        -0.41040E+06
        -0.61121E+06
        -0.16106E+07
        -0.78868E+06
        -0.53855E+07
        -0.67530E+07
        -0.35170E+07
        -0.14617E+07
         0.12437E+07
         0.72522E+05
         0.26866E+07
         0.39534E+07
         0.10499E+07
         0.95384E+06
         0.14327E+07
        -0.54509E+06
        -0.39358E+06
         0.15223E+06
         0.96315E+06
         0.24967E+06
         0.38285E+06
        -0.35724E+06
         0.87399E+04
         0.40600E+06
         0.93891E+06
         0.12609E+07
         0.18380E+07
         0.25213E+07
         0.24599E+07
         0.32029E+07
        -0.64244E+06
         0.22109E+07
         0.41156E+06
         0.26091E+07
         0.43822E+07
         0.55830E+07
         0.47537E+07
         0.50947E+07
         0.43494E+07
         0.31688E+07
         0.27197E+07
         0.21762E+07
         0.12909E+07
         0.25701E+07
         0.60872E+06
        -0.10196E+07
        -0.81700E+06
        -0.51098E+06
         0.11692E+06
         0.19947E+07
         0.20580E+07
         0.13898E+07
         0.39977E+06
         0.39528E+06
         0.16233E+07
         0.27543E+07
         0.27667E+07
         0.16242E+07
         0.19573E+07
         0.31248E+07
         0.23117E+07
         0.32857E+07
        -0.32917E+06
        -0.33212E+06
         0.33613E+07
        -0.65780E+06
        -0.17446E+07
         0.10345E+07
         0.15244E+07
        -0.36344E+07
        -0.15773E+06
         0.13053E+07
         0.19527E+07
         0.26898E+07
         0.43627E+06
         0.33075E+06
         0.57138E+06
         0.15207E+07
        -0.40745E+06
        -0.61461E+06
        -0.16673E+07
        -0.81429E+06
        -0.53928E+07
        -0.67664E+07
        -0.35033E+07
        -0.14672E+07
         0.11682E+07
         0.18232E+05
         0.26231E+07
         0.39458E+07
         0.10661E+07
         0.95563E+06
         0.14298E+07
        -0.51753E+06
        -0.36828E+06
         0.18037E+06
         0.99307E+06
         0.26797E+06
         0.39762E+06
        -0.36607E+06
        -0.64124E+03
         0.39981E+06
         0.90496E+06
         0.11808E+07
         0.17457E+07
         0.24744E+07
         0.24498E+07
         0.32139E+07
        -0.58753E+06
         0.22676E+07
         0.45766E+06
         0.26400E+07
         0.44145E+07
         0.56268E+07
         0.48034E+07
         0.51427E+07
         0.44045E+07
         0.32415E+07
         0.27833E+07
         0.22146E+07
         0.13338E+07
         0.26149E+07
         0.65180E+06
        -0.98525E+06
        -0.79220E+06
        -0.48639E+06
         0.14645E+06
         0.20151E+07
         0.20535E+07
         0.13617E+07
         0.38113E+06
         0.40453E+06
         0.16508E+07
         0.27939E+07
         0.26619E+07
         0.15516E+07
         0.19145E+07
         0.31125E+07
         0.22978E+07
         0.32845E+07
        -0.39183E+06
        -0.42540E+06
         0.32572E+07
        -0.78038E+06
        -0.17835E+07
         0.10215E+07
         0.15023E+07
        -0.36837E+07
        -0.16670E+06
         0.12852E+07
         0.18913E+07
         0.26811E+07
         0.42120E+06
         0.30187E+06
         0.56212E+06
         0.15142E+07
        -0.41786E+06
        -0.63510E+06
        -0.17490E+07
        -0.86041E+06
        -0.54500E+07
        -0.68246E+07
        -0.35182E+07
        -0.14885E+07
         0.10625E+07
        -0.70917E+05
         0.25260E+07
         0.39060E+07
         0.10442E+07
         0.92776E+06
         0.13996E+07
        -0.53960E+06
        -0.38974E+06
         0.16865E+06
         0.98793E+06
         0.26555E+06
         0.39629E+06
        -0.38733E+06
        -0.41153E+05
         0.34707E+06
         0.82673E+06
         0.10602E+07
         0.16139E+07
         0.23925E+07
         0.24087E+07
         0.31987E+07
        -0.61064E+06
         0.22497E+07
         0.44390E+06
         0.26244E+07
         0.43919E+07
         0.55999E+07
         0.47811E+07
         0.51235E+07
         0.43851E+07
         0.32270E+07
         0.27717E+07
         0.22006E+07
         0.13313E+07
         0.26114E+07
         0.64238E+06
        -0.99051E+06
        -0.80308E+06
        -0.52510E+06
         0.88695E+05
         0.19516E+07
         0.19816E+07
         0.12728E+07
         0.30316E+06
         0.36314E+06
         0.16285E+07
         0.27764E+07
         0.26314E+07
         0.15246E+07
         0.18969E+07
         0.30959E+07
         0.22828E+07
         0.32698E+07
        -0.42261E+06
        -0.45742E+06
         0.32265E+07
        -0.81648E+06
        -0.18111E+07
         0.10032E+07
         0.14806E+07
        -0.37120E+07
        -0.18206E+06
         0.12671E+07
         0.18666E+07
         0.26614E+07
         0.40740E+06
         0.27895E+06
         0.54758E+06
         0.14990E+07
        -0.43156E+06
        -0.65078E+06
        -0.17759E+07
        -0.88672E+06
        -0.54740E+07
        -0.68558E+07
        -0.35465E+07
        -0.15087E+07
         0.10281E+07
        -0.10640E+06
         0.24948E+07
         0.38836E+07
         0.10257E+07
         0.91267E+06
         0.13812E+07
        -0.56750E+06
        -0.41462E+06
         0.14315E+06
         0.96235E+06
         0.24507E+06
         0.38313E+06
        -0.40634E+06
        -0.65363E+05
         0.32239E+06
         0.80087E+06
         0.10303E+07
         0.15811E+07
         0.23641E+07
         0.23833E+07
         0.31797E+07
        -0.64232E+06
         0.22186E+07
         0.42285E+06
         0.26029E+07
         0.43658E+07
         0.55771E+07
         0.47576E+07
         0.50909E+07
         0.43419E+07
         0.31817E+07
         0.27307E+07
         0.21821E+07
         0.13164E+07
         0.25795E+07
         0.60915E+06
        -0.10220E+07
        -0.84399E+06
        -0.56414E+06
         0.55775E+05
         0.19250E+07
         0.19597E+07
         0.12431E+07
         0.26389E+06
         0.32654E+06
         0.15978E+07
         0.27460E+07
         0.26508E+07
         0.15429E+07
         0.19105E+07
         0.31011E+07
         0.22991E+07
         0.32746E+07
        -0.39829E+06
        -0.43345E+06
         0.32462E+07
        -0.79209E+06
        -0.17911E+07
         0.10217E+07
         0.14946E+07
        -0.36878E+07
        -0.15291E+06
         0.12908E+07
         0.18904E+07
         0.26771E+07
         0.43411E+06
         0.30460E+06
         0.56714E+06
         0.15176E+07
        -0.41141E+06
        -0.62290E+06
        -0.17509E+07
        -0.85802E+06
        -0.54382E+07
        -0.68203E+07
        -0.35163E+07
        -0.14873E+07
         0.10485E+07
        -0.86386E+05
         0.25107E+07
         0.38909E+07
         0.10467E+07
         0.92998E+06
         0.13955E+07
        -0.54691E+06
        -0.39719E+06
         0.15872E+06
         0.98002E+06
         0.26456E+06
         0.40295E+06
        -0.38775E+06
        -0.49641E+05
         0.33816E+06
         0.81771E+06
         0.10511E+07
         0.16024E+07
         0.23801E+07
         0.23941E+07
         0.31846E+07
        -0.59545E+06
         0.22647E+07
         0.45026E+06
         0.26142E+07
         0.43886E+07
         0.56126E+07
         0.47971E+07
         0.51193E+07
         0.43528E+07
         0.31984E+07
         0.27609E+07
         0.22250E+07
         0.13543E+07
         0.26041E+07
         0.63229E+06
        -0.99531E+06
        -0.81700E+06
        -0.53094E+06
         0.87286E+05
         0.19620E+07
         0.19980E+07
         0.12773E+07
         0.29234E+06
         0.35183E+06
         0.16232E+07
         0.27735E+07
         0.26459E+07
         0.15414E+07
         0.19071E+07
         0.30900E+07
         0.22960E+07
         0.32668E+07
        -0.40034E+06
        -0.44173E+06
         0.32309E+07
        -0.80547E+06
        -0.18026E+07
         0.10106E+07
         0.14913E+07
        -0.37032E+07
        -0.16907E+06
         0.12797E+07
         0.18746E+07
         0.26562E+07
         0.42276E+06
         0.28634E+06
         0.55961E+06
         0.15079E+07
        -0.41849E+06
        -0.63317E+06
        -0.17565E+07
        -0.86897E+06
        -0.54454E+07
        -0.68242E+07
        -0.35209E+07
        -0.14962E+07
         0.10380E+07
        -0.97400E+05
         0.24938E+07
         0.38744E+07
         0.10400E+07
         0.92319E+06
         0.13912E+07
        -0.57099E+06
        -0.41082E+06
         0.14606E+06
         0.96763E+06
         0.25673E+06
         0.39171E+06
        -0.39312E+06
        -0.55299E+05
         0.33030E+06
         0.80568E+06
         0.10375E+07
         0.15894E+07
         0.23691E+07
         0.23842E+07
         0.31737E+07
        -0.60918E+06
         0.22538E+07
         0.42825E+06
         0.25955E+07
         0.43859E+07
         0.55994E+07
         0.47666E+07
         0.50851E+07
         0.43327E+07
         0.31682E+07
         0.27280E+07
         0.22086E+07
         0.13347E+07
         0.25933E+07
         0.62227E+06
        -0.10046E+07
        -0.81847E+06
        -0.53748E+06
         0.77827E+05
         0.19370E+07
         0.19668E+07
         0.12532E+07
         0.28000E+06
         0.34576E+06
         0.16093E+07
         0.27540E+07
         0.26319E+07
         0.15276E+07
         0.18971E+07
         0.30837E+07
         0.22855E+07
         0.32619E+07
        -0.41173E+06
        -0.45420E+06
         0.32170E+07
        -0.81879E+06
        -0.18156E+07
         0.99588E+06
         0.14815E+07
        -0.37156E+07
        -0.18559E+06
         0.12641E+07
         0.18621E+07
         0.26434E+07
         0.40877E+06
         0.27206E+06
         0.54991E+06
         0.14980E+07
        -0.42927E+06
        -0.64922E+06
        -0.17619E+07
        -0.88956E+06
        -0.54505E+07
        -0.68323E+07
        -0.35266E+07
        -0.15024E+07
         0.10227E+07
        -0.11534E+06
         0.24844E+07
         0.38712E+07
         0.10237E+07
         0.91134E+06
         0.13813E+07
        -0.59427E+06
        -0.42614E+06
         0.13506E+06
         0.96059E+06
         0.25008E+06
         0.38147E+06
        -0.40331E+06
        -0.65362E+05
         0.31971E+06
         0.79446E+06
         0.10257E+07
         0.15770E+07
         0.23594E+07
         0.23747E+07
         0.31690E+07
        -0.63653E+06
         0.22311E+07
         0.41149E+06
         0.25898E+07
         0.43785E+07
         0.55729E+07
         0.47282E+07
         0.50542E+07
         0.43118E+07
         0.31465E+07
         0.27145E+07
         0.21924E+07
         0.13112E+07
         0.25773E+07
         0.60557E+06
        -0.10239E+07
        -0.83127E+06
        -0.55251E+06
         0.59224E+05
         0.19163E+07
         0.19430E+07
         0.12285E+07
         0.26221E+06
         0.32888E+06
         0.15882E+07
         0.27319E+07
         0.26411E+07
         0.15333E+07
         0.19021E+07
         0.30931E+07
         0.22966E+07
         0.32733E+07
        -0.39541E+06
        -0.43742E+06
         0.32259E+07
        -0.80798E+06
        -0.17967E+07
         0.10085E+07
         0.14858E+07
        -0.36936E+07
        -0.15857E+06
         0.12775E+07
         0.18717E+07
         0.26591E+07
         0.42496E+06
         0.29228E+06
         0.56553E+06
         0.15146E+07
        -0.41564E+06
        -0.63204E+06
        -0.17486E+07
        -0.87137E+06
        -0.54273E+07
        -0.68097E+07
        -0.34931E+07
        -0.14792E+07
         0.10389E+07
        -0.10177E+06
         0.25035E+07
         0.38895E+07
         0.10367E+07
         0.92243E+06
         0.13873E+07
        -0.57767E+06
        -0.40881E+06
         0.15766E+06
         0.98028E+06
         0.26494E+06
         0.39741E+06
        -0.39193E+06
        -0.55839E+05
         0.32848E+06
         0.80470E+06
         0.10383E+07
         0.15910E+07
         0.23730E+07
         0.23861E+07
         0.31823E+07
        -0.60229E+06
         0.22682E+07
         0.44634E+06
         0.26069E+07
         0.43729E+07
         0.55747E+07
         0.47556E+07
         0.50847E+07
         0.43324E+07
         0.31777E+07
         0.27441E+07
         0.22065E+07
         0.13365E+07
         0.26030E+07
         0.62897E+06
        -0.10059E+07
        -0.81916E+06
        -0.53733E+06
         0.73492E+05
         0.19386E+07
         0.19694E+07
         0.12540E+07
         0.28410E+06
         0.34747E+06
         0.16158E+07
         0.27642E+07
         0.26347E+07
         0.15223E+07
         0.18924E+07
         0.30807E+07
         0.22858E+07
         0.32621E+07
        -0.41033E+06
        -0.44865E+06
         0.32147E+07
        -0.82454E+06
        -0.18155E+07
         0.99019E+06
         0.14658E+07
        -0.37128E+07
        -0.17026E+06
         0.12649E+07
         0.18556E+07
         0.26369E+07
         0.40774E+06
         0.27108E+06
         0.54800E+06
         0.14968E+07
        -0.43410E+06
        -0.65059E+06
        -0.17632E+07
        -0.88943E+06
        -0.54477E+07
        -0.68393E+07
        -0.35132E+07
        -0.14911E+07
         0.10247E+07
        -0.11874E+06
         0.24830E+07
         0.38745E+07
         0.10211E+07
         0.90860E+06
         0.13710E+07
        -0.60305E+06
        -0.43382E+06
         0.13572E+06
         0.95641E+06
         0.24251E+06
         0.37992E+06
        -0.41274E+06
        -0.74289E+05
         0.31305E+06
         0.78869E+06
         0.10197E+07
         0.15749E+07
         0.23621E+07
         0.23735E+07
         0.31698E+07
        -0.62932E+06
         0.22449E+07
         0.41982E+06
         0.25764E+07
         0.43374E+07
         0.55409E+07
         0.47348E+07
         0.50579E+07
         0.42971E+07
         0.31428E+07
         0.27017E+07
         0.21646E+07
         0.13085E+07
         0.25738E+07
         0.60402E+06
        -0.10343E+07
        -0.86312E+06
        -0.57657E+06
         0.53766E+05
         0.19113E+07
         0.19411E+07
         0.12394E+07
         0.27407E+06
         0.32662E+06
         0.15874E+07
         0.27359E+07
         0.26336E+07
         0.15187E+07
         0.18895E+07
         0.30769E+07
         0.22846E+07
         0.32590E+07
        -0.41125E+06
        -0.44912E+06
         0.32153E+07
        -0.82414E+06
        -0.18180E+07
         0.98771E+06
         0.14627E+07
        -0.37135E+07
        -0.16918E+06
         0.12626E+07
         0.18565E+07
         0.26308E+07
         0.40636E+06
         0.26769E+06
         0.54427E+06
         0.14941E+07
        -0.43815E+06
        -0.65402E+06
        -0.17617E+07
        -0.89471E+06
        -0.54427E+07
        -0.68435E+07
        -0.35117E+07
        -0.14929E+07
         0.10173E+07
        -0.12557E+06
         0.24749E+07
         0.38713E+07
         0.10175E+07
         0.90421E+06
         0.13661E+07
        -0.61508E+06
        -0.44779E+06
         0.12717E+06
         0.95385E+06
         0.24065E+06
         0.37754E+06
        -0.41621E+06
        -0.77680E+05
         0.30940E+06
         0.78352E+06
         0.10125E+07
         0.15685E+07
         0.23599E+07
         0.23711E+07
         0.31670E+07
        -0.63012E+06
         0.22453E+07
         0.41262E+06
         0.25646E+07
         0.43366E+07
         0.55402E+07
         0.47264E+07
         0.50355E+07
         0.42717E+07
         0.31288E+07
         0.27002E+07
         0.21604E+07
         0.13014E+07
         0.25624E+07
         0.59101E+06
        -0.10434E+07
        -0.86908E+06
        -0.58172E+06
         0.48148E+05
         0.19014E+07
         0.19286E+07
         0.12314E+07
         0.27309E+06
         0.32385E+06
         0.15747E+07
         0.27245E+07
         0.26625E+07
         0.15534E+07
         0.19190E+07
         0.31014E+07
         0.23170E+07
         0.32851E+07
        -0.36173E+06
        -0.41426E+06
         0.32388E+07
        -0.79631E+06
        -0.17732E+07
         0.10276E+07
         0.14986E+07
        -0.36743E+07
        -0.12902E+06
         0.12913E+07
         0.18889E+07
         0.26616E+07
         0.44144E+06
         0.31121E+06
         0.57887E+06
         0.15270E+07
        -0.40482E+06
        -0.61689E+06
        -0.17231E+07
        -0.85416E+06
        -0.53976E+07
        -0.67826E+07
        -0.34454E+07
        -0.14510E+07
         0.10496E+07
        -0.87032E+05
         0.25044E+07
         0.38957E+07
         0.10523E+07
         0.93639E+06
         0.13975E+07
        -0.58912E+06
        -0.41418E+06
         0.16367E+06
         0.98669E+06
         0.27413E+06
         0.40721E+06
        -0.38108E+06
        -0.41939E+05
         0.34410E+06
         0.81631E+06
         0.10445E+07
         0.15970E+07
         0.23845E+07
         0.23948E+07
         0.31899E+07
        -0.56780E+06
         0.23073E+07
         0.46478E+06
         0.26025E+07
         0.43826E+07
         0.55983E+07
         0.47751E+07
         0.50727E+07
         0.43136E+07
         0.31744E+07
         0.27415E+07
         0.22089E+07
         0.13401E+07
         0.26056E+07
         0.64002E+06
        -0.99253E+06
        -0.81185E+06
        -0.52033E+06
         0.10088E+06
         0.19565E+07
         0.19757E+07
         0.12665E+07
         0.31165E+06
         0.36988E+06
         0.16246E+07
         0.27749E+07
         0.26505E+07
         0.15435E+07
         0.19100E+07
         0.30861E+07
         0.23035E+07
         0.32736E+07
        -0.37481E+06
        -0.42893E+06
         0.32229E+07
        -0.81718E+06
        -0.17916E+07
         0.10136E+07
         0.14898E+07
        -0.36946E+07
        -0.14592E+06
         0.12751E+07
         0.18686E+07
         0.26432E+07
         0.41862E+06
         0.28564E+06
         0.56715E+06
         0.15107E+07
        -0.41618E+06
        -0.63927E+06
        -0.17409E+07
        -0.87964E+06
        -0.54158E+07
        -0.68028E+07
        -0.34419E+07
        -0.14591E+07
         0.10393E+07
        -0.10625E+06
         0.24904E+07
         0.38775E+07
         0.10322E+07
         0.92386E+06
         0.13896E+07
        -0.61787E+06
        -0.43442E+06
         0.15429E+06
         0.97169E+06
         0.25677E+06
         0.38704E+06
        -0.39658E+06
        -0.58003E+05
         0.32958E+06
         0.80300E+06
         0.10341E+07
         0.15835E+07
         0.23680E+07
         0.23797E+07
         0.31771E+07
        -0.60766E+06
         0.22738E+07
         0.43415E+06
         0.25863E+07
         0.43770E+07
         0.55833E+07
         0.47418E+07
         0.50325E+07
         0.42745E+07
         0.31397E+07
         0.27006E+07
         0.21620E+07
         0.13067E+07
         0.25889E+07
         0.63229E+06
        -0.99742E+06
        -0.82785E+06
        -0.54804E+06
         0.80202E+05
         0.19319E+07
         0.19531E+07
         0.12410E+07
         0.28428E+06
         0.35249E+06
         0.16084E+07
         0.27482E+07
         0.26304E+07
         0.15182E+07
         0.18852E+07
         0.30655E+07
         0.22819E+07
         0.32515E+07
        -0.39778E+06
        -0.44645E+06
         0.32001E+07
        -0.85494E+06
        -0.18140E+07
         0.99077E+06
         0.14703E+07
        -0.37153E+07
        -0.16742E+06
         0.12553E+07
         0.18376E+07
         0.26222E+07
         0.39997E+06
         0.27246E+06
         0.55266E+06
         0.14917E+07
        -0.42990E+06
        -0.65845E+06
        -0.17750E+07
        -0.90465E+06
        -0.54588E+07
        -0.68356E+07
        -0.33659E+07
        -0.14290E+07
         0.10205E+07
        -0.13321E+06
         0.24764E+07
         0.38649E+07
         0.10096E+07
         0.90311E+06
         0.13704E+07
        -0.66053E+06
        -0.45432E+06
         0.18800E+06
         0.97048E+06
         0.23796E+06
         0.36007E+06
        -0.41336E+06
        -0.78460E+05
         0.30634E+06
         0.77978E+06
         0.10155E+07
         0.15680E+07
         0.23548E+07
         0.23663E+07
         0.31614E+07
        -0.63426E+06
         0.22493E+07
         0.41331E+06
         0.25682E+07
         0.43517E+07
         0.55422E+07
         0.46949E+07
         0.49875E+07
         0.42351E+07
         0.31306E+07
         0.26292E+07
         0.20499E+07
         0.12597E+07
         0.25627E+07
         0.60906E+06
        -0.10181E+07
        -0.85341E+06
        -0.57710E+06
         0.46240E+05
         0.18936E+07
         0.19270E+07
         0.12166E+07
         0.25638E+06
         0.33181E+06
         0.15767E+07
         0.27127E+07
         0.26579E+07
         0.15502E+07
         0.19172E+07
         0.30954E+07
         0.23163E+07
         0.32797E+07
        -0.35424E+06
        -0.41212E+06
         0.32162E+07
        -0.86041E+06
        -0.17737E+07
         0.10206E+07
         0.14970E+07
        -0.36783E+07
        -0.13151E+06
         0.12843E+07
         0.18598E+07
         0.26510E+07
         0.44042E+06
         0.34523E+06
         0.58146E+06
         0.15204E+07
        -0.40309E+06
        -0.61841E+06
        -0.17632E+07
        -0.86045E+06
        -0.54655E+07
        -0.67976E+07
        -0.31477E+07
        -0.13021E+07
         0.10480E+07
        -0.94013E+05
         0.25053E+07
         0.38973E+07
         0.10469E+07
         0.93897E+06
         0.14002E+07
        -0.65794E+06
        -0.41591E+06
         0.31355E+06
         0.10335E+07
         0.27185E+06
         0.37737E+06
        -0.38321E+06
        -0.43506E+05
         0.34490E+06
         0.81398E+06
         0.10448E+07
         0.15992E+07
         0.23883E+07
         0.23978E+07
         0.31885E+07
        -0.57010E+06
         0.23123E+07
         0.47766E+06
         0.26132E+07
         0.43804E+07
         0.55752E+07
         0.47405E+07
         0.50341E+07
         0.42864E+07
         0.32301E+07
         0.26061E+07
         0.19596E+07
         0.12631E+07
         0.25985E+07
         0.63897E+06
        -0.99310E+06
        -0.82247E+06
        -0.52571E+06
         0.10927E+06
         0.19525E+07
         0.19782E+07
         0.12694E+07
         0.31567E+06
         0.38681E+06
         0.16212E+07
         0.27594E+07
         0.25556E+07
         0.14330E+07
         0.18023E+07
         0.29749E+07
         0.21941E+07
         0.31569E+07
        -0.50237E+06
        -0.53193E+06
         0.30941E+07
        -0.10093E+07
        -0.19273E+07
         0.87907E+06
         0.13606E+07
        -0.38260E+07
        -0.27440E+06
         0.11757E+07
         0.17130E+07
         0.25115E+07
         0.30596E+06
         0.19039E+06
         0.45449E+06
         0.13947E+07
        -0.52768E+06
        -0.75951E+06
        -0.19132E+07
        -0.10085E+07
        -0.56378E+07
        -0.69833E+07
        -0.32226E+07
        -0.13865E+07
         0.93674E+06
        -0.23783E+06
         0.23777E+07
         0.37582E+07
         0.91002E+06
         0.80753E+06
         0.12687E+07
        -0.82617E+06
        -0.55231E+06
         0.23223E+06
         0.91030E+06
         0.13725E+06
         0.24214E+06
        -0.50727E+06
        -0.17570E+06
         0.20027E+06
         0.68098E+06
         0.92097E+06
         0.14724E+07
         0.22557E+07
         0.22569E+07
         0.30574E+07
        -0.79437E+06
         0.20950E+07
         0.25216E+06
         0.23837E+07
         0.41521E+07
         0.53560E+07
         0.45172E+07
         0.47932E+07
         0.40601E+07
         0.30247E+07
         0.23196E+07
         0.16479E+07
         0.10401E+07
         0.24130E+07
         0.44558E+06
        -0.11933E+07
        -0.10290E+07
        -0.75574E+06
        -0.12766E+06
         0.17257E+07
         0.17667E+07
         0.10664E+07
         0.10838E+06
         0.17348E+06
         0.14166E+07
         0.25563E+07
         0.26143E+07
         0.14412E+07
         0.18238E+07
         0.30207E+07
         0.22351E+07
         0.31971E+07
        -0.47877E+06
        -0.45834E+06
         0.31734E+07
        -0.90059E+06
        -0.18845E+07
         0.88178E+06
         0.13258E+07
        -0.37350E+07
        -0.20954E+06
         0.12605E+07
         0.18089E+07
         0.25846E+07
         0.37900E+06
         0.27966E+06
         0.51199E+06
         0.14379E+07
        -0.43815E+06
        -0.65367E+06
        -0.17764E+07
        -0.89978E+06
        -0.54902E+07
        -0.67703E+07
        -0.30399E+07
        -0.12585E+07
         0.10057E+07
        -0.17479E+06
         0.24140E+07
         0.37378E+07
         0.93084E+06
         0.79758E+06
         0.12315E+07
        -0.74790E+06
        -0.45385E+06
         0.31931E+06
         0.96598E+06
         0.21381E+06
         0.32304E+06
        -0.42283E+06
        -0.12763E+06
         0.22245E+06
         0.70100E+06
         0.97396E+06
         0.15147E+07
         0.22580E+07
         0.22660E+07
         0.30601E+07
        -0.70829E+06
         0.22069E+07
         0.28037E+06
         0.23341E+07
         0.40495E+07
         0.52936E+07
         0.46193E+07
         0.48987E+07
         0.41441E+07
         0.30743E+07
         0.23335E+07
         0.16907E+07
         0.11244E+07
         0.24548E+07
         0.53342E+06
        -0.10682E+07
        -0.92257E+06
        -0.67458E+06
        -0.92530E+05
         0.17216E+07
         0.18136E+07
         0.11337E+07
         0.21487E+06
         0.30306E+06
         0.15185E+07
         0.26619E+07
         0.40031E+09
         0.44730E+09
         0.44770E+09
         0.43631E+09
         0.47657E+09
         0.46828E+09
         0.52251E+09
         0.45446E+09
         0.42028E+09
         0.45665E+09
         0.55196E+09
         0.54189E+09
         0.49768E+09
         0.53481E+09
         0.55374E+09
         0.40022E+09
         0.47451E+09
         0.45819E+09
         0.47422E+09
         0.53970E+09
         0.45586E+09
         0.46328E+09
         0.44051E+09
         0.47643E+09
         0.48343E+09
         0.49908E+09
         0.52854E+09
         0.60921E+09
         0.57940E+09
         0.49763E+09
         0.41391E+09
         0.48037E+09
         0.44050E+09
         0.46584E+09
         0.51272E+09
         0.48885E+09
         0.47450E+09
         0.53304E+09
         0.52514E+09
         0.52238E+09
         0.52174E+09
         0.49689E+09
         0.47124E+09
         0.43466E+09
         0.45966E+09
         0.51140E+09
         0.48506E+09
         0.46209E+09
         0.46581E+09
         0.47326E+09
         0.49286E+09
         0.47097E+09
         0.82153E+09
         0.80390E+09
         0.81655E+09
         0.79090E+09
         0.81376E+09
         0.85129E+09
         0.85635E+09
         0.85123E+09
         0.85888E+09
         0.87996E+09
         0.85400E+09
         0.80548E+09
         0.72140E+09
         0.68302E+09
         0.68938E+09
         0.70276E+09
         0.71058E+09
         0.77111E+09
         0.82742E+09
         0.83019E+09
         0.76522E+09
         0.73990E+09
         0.76405E+09
         0.75714E+09
         0.75102E+09
         0.75289E+09
         0.39129E+10
         0.41065E+10
         0.40525E+10
         0.37284E+10
         0.45016E+10
         0.42561E+10
         0.44268E+10
         0.44367E+10
         0.38505E+10
         0.44357E+10
         0.48297E+10
         0.53267E+10
         0.48651E+10
         0.49553E+10
         0.55004E+10
         0.37736E+10
         0.40490E+10
         0.35752E+10
         0.41693E+10
         0.43767E+10
         0.44703E+10
         0.45679E+10
         0.43055E+10
         0.40245E+10
         0.44973E+10
         0.38972E+10
         0.49383E+10
         0.48704E+10
         0.48894E+10
         0.46458E+10
         0.38164E+10
         0.40091E+10
         0.37561E+10
         0.39156E+10
         0.48929E+10
         0.45301E+10
         0.45346E+10
         0.53458E+10
         0.52292E+10
         0.51738E+10
         0.52408E+10
         0.49935E+10
         0.47330E+10
         0.42181E+10
         0.43897E+10
         0.48867E+10
         0.45561E+10
         0.43048E+10
         0.42307E+10
         0.43722E+10
         0.47044E+10
         0.43810E+10
         0.75116E+10
         0.73156E+10
         0.74606E+10
         0.72278E+10
         0.74336E+10
         0.78044E+10
         0.79354E+10
         0.79342E+10
         0.79943E+10
         0.81679E+10
         0.79341E+10
         0.74614E+10
         0.67163E+10
         0.63565E+10
         0.63615E+10
         0.64335E+10
         0.64906E+10
         0.70253E+10
         0.75346E+10
         0.75609E+10
         0.70124E+10
         0.68030E+10
         0.70190E+10
         0.69730E+10
         0.68900E+10
         0.68725E+10
  
SCALARS                      stress_yz  double 1
LOOKUP_TABLE default
         0.38152E+06
        -0.12691E+06
        -0.32973E+06
        -0.16958E+06
        -0.94583E+01
        -0.26069E+01
        -0.11722E+02
        -0.89406E+01
        -0.12359E+07
         0.81287E+06
        -0.17444E+02
        -0.15358E+02
        -0.10842E+07
        -0.55132E+05
         0.12484E+02
        -0.80040E+00
         0.37273E+06
         0.13894E+07
         0.18367E+00
         0.18793E+01
        -0.72098E+06
        -0.27140E+07
        -0.28212E+07
         0.28618E+02
         0.49422E+02
         0.41311E+02
        -0.26750E+06
        -0.27516E+07
         0.20585E+02
         0.39935E+02
         0.42597E+06
         0.37132E+06
        -0.31536E+06
         0.10672E+02
         0.10894E+02
        -0.22617E+00
         0.12660E+07
         0.12200E+07
         0.19638E+02
         0.15279E+02
         0.12445E+07
         0.79221E+06
         0.14841E+02
         0.13563E+02
         0.11286E+07
         0.38910E+06
        -0.49232E+00
         0.76151E+01
         0.10481E+07
         0.35854E+01
         0.10328E+06
        -0.29039E+00
         0.61749E+05
         0.13869E+02
        -0.40924E+06
         0.80677E+01
        -0.13347E+07
         0.23699E+06
         0.21887E+00
        -0.44423E+00
         0.51657E+06
         0.18849E+07
        -0.29821E+01
        -0.11154E+02
         0.31193E+06
        -0.60194E+01
         0.13392E+07
        -0.73331E+01
        -0.10877E+07
        -0.57614E+06
        -0.90623E+00
         0.11965E+02
        -0.20145E+07
         0.26274E+02
        -0.34928E+07
         0.25440E+02
        -0.35249E+07
         0.19312E+02
        -0.29036E+07
         0.16187E+02
        -0.42585E+07
        -0.32684E+07
         0.10384E+02
        -0.23022E+01
        -0.45708E+06
        -0.25761E+00
         0.17638E+07
        -0.16137E+02
         0.41687E+07
        -0.28251E+02
         0.58254E+07
         0.36110E+07
        -0.41901E+02
        -0.33915E+02
         0.25396E+07
        -0.26327E+02
         0.22787E+07
        -0.26934E+02
         0.22175E+07
        -0.28960E+02
         0.36900E+07
         0.30665E+07
        -0.26931E+02
        -0.12904E+02
        -0.24755E+07
         0.93700E+06
         0.94695E+01
        -0.11768E+02
        -0.60857E+07
         0.31503E+02
        -0.87118E+07
         0.46081E+02
        -0.10666E+08
         0.56910E+02
        -0.12510E+08
         0.56450E+02
        -0.14728E+08
         0.44673E+02
        -0.15055E+08
         0.34571E+02
        -0.14176E+08
         0.32154E+02
        -0.12615E+08
         0.30593E+02
        -0.91995E+07
         0.19551E+02
        -0.62125E+07
         0.64549E+01
        -0.31165E+07
         0.41709E+01
         0.22417E+06
         0.62692E+01
         0.29734E+07
         0.32380E+01
         0.53341E+07
        -0.97922E+01
         0.82550E+07
        -0.27640E+02
         0.92890E+07
        -0.43160E+02
         0.10161E+08
        -0.56583E+02
         0.12981E+08
        -0.56533E+02
         0.13446E+08
        -0.49352E+02
         0.12425E+08
        -0.48098E+02
         0.10106E+08
        -0.48397E+02
         0.68705E+07
        -0.38271E+02
         0.48663E+07
        -0.22631E+02
         0.34994E+07
        -0.17499E+02
         0.28647E+07
         0.14826E+07
         0.12941E+07
         0.40165E+06
         0.13263E+07
         0.14098E+07
         0.14870E+06
         0.22850E+07
         0.19598E+07
         0.28759E+07
        -0.15029E+07
        -0.64118E+07
        -0.43799E+07
        -0.50801E+06
        -0.64768E+07
        -0.75876E+06
         0.67227E+06
        -0.43279E+06
        -0.56514E+06
         0.42716E+06
        -0.39225E+06
        -0.32341E+06
         0.10868E+07
        -0.91600E+05
         0.19635E+07
        -0.29028E+06
        -0.15033E+05
        -0.26283E+06
        -0.31898E+06
         0.15393E+07
        -0.74064E+06
         0.80357E+06
        -0.53862E+06
         0.13120E+06
        -0.21663E+06
        -0.11741E+07
        -0.26329E+07
        -0.56915E+07
        -0.52006E+07
        -0.43947E+07
        -0.41382E+07
        -0.10278E+07
         0.84096E+06
         0.23066E+07
         0.38109E+07
         0.62240E+07
         0.40844E+07
         0.29297E+07
         0.31257E+07
         0.33202E+07
         0.38940E+07
         0.17799E+07
        -0.33524E+07
         0.40287E+07
        -0.10911E+08
        -0.15074E+08
        -0.19215E+08
        -0.22818E+08
        -0.22947E+08
        -0.20778E+08
        -0.19771E+08
        -0.18685E+08
        -0.12073E+08
        -0.52980E+07
        -0.23312E+07
        -0.10277E+07
         0.15738E+07
         0.62212E+07
         0.11433E+08
         0.14921E+08
         0.18066E+08
         0.20712E+08
         0.19508E+08
         0.18442E+08
         0.17158E+08
         0.11935E+08
         0.69697E+07
         0.61191E+07
        -0.17042E+09
        -0.17305E+09
        -0.16920E+09
        -0.57373E+08
        -0.12473E+09
        -0.79139E+08
        -0.13614E+09
        -0.16358E+09
        -0.16610E+09
        -0.16260E+09
         0.16879E+09
         0.18745E+09
         0.14302E+09
         0.39102E+08
         0.17702E+09
         0.87053E+08
        -0.50158E+08
         0.64604E+08
         0.16472E+09
         0.56297E+08
         0.48989E+08
         0.36888E+08
        -0.21914E+08
         0.65320E+08
        -0.16496E+09
         0.87179E+08
         0.88596E+07
         0.40668E+08
        -0.64960E+08
        -0.15245E+09
         0.10876E+09
         0.52132E+08
         0.10600E+09
         0.10567E+09
        -0.14190E+08
         0.69674E+08
         0.10461E+09
         0.16222E+09
         0.18219E+09
         0.17157E+09
         0.91204E+08
        -0.24666E+08
        -0.50497E+08
        -0.79887E+08
        -0.11424E+09
        -0.17467E+09
        -0.15025E+09
        -0.11556E+09
        -0.17397E+09
        -0.17577E+09
        -0.11535E+09
        -0.12267E+08
         0.37236E+08
        -0.52135E+08
         0.11655E+09
         0.15162E+09
         0.18469E+09
         0.20781E+09
         0.21130E+09
         0.20522E+09
         0.20133E+09
         0.18732E+09
         0.11979E+09
         0.39976E+08
         0.18929E+08
         0.16982E+08
        -0.72223E+07
        -0.57568E+08
        -0.11152E+09
        -0.14331E+09
        -0.19319E+09
        -0.20910E+09
        -0.20192E+09
        -0.20008E+09
        -0.18818E+09
        -0.13525E+09
        -0.68460E+08
        -0.65322E+08
        -0.17041E+09
        -0.17305E+09
        -0.16919E+09
        -0.57716E+08
        -0.12480E+09
        -0.79244E+08
        -0.13591E+09
        -0.16371E+09
        -0.16613E+09
        -0.16276E+09
         0.16889E+09
         0.18744E+09
         0.14301E+09
         0.39189E+08
         0.17708E+09
         0.86994E+08
        -0.50480E+08
         0.64507E+08
         0.16475E+09
         0.55983E+08
         0.49106E+08
         0.36925E+08
        -0.21921E+08
         0.65290E+08
        -0.16504E+09
         0.87020E+08
         0.89612E+07
         0.40895E+08
        -0.64531E+08
        -0.15252E+09
         0.10868E+09
         0.52034E+08
         0.10641E+09
         0.10576E+09
        -0.14051E+08
         0.69738E+08
         0.10463E+09
         0.16224E+09
         0.18220E+09
         0.17155E+09
         0.91219E+08
        -0.24588E+08
        -0.50543E+08
        -0.79929E+08
        -0.11426E+09
        -0.17468E+09
        -0.15026E+09
        -0.11550E+09
        -0.17397E+09
        -0.17576E+09
        -0.11536E+09
        -0.12099E+08
         0.37214E+08
        -0.52150E+08
         0.11658E+09
         0.15162E+09
         0.18469E+09
         0.20781E+09
         0.21129E+09
         0.20521E+09
         0.20133E+09
         0.18732E+09
         0.11979E+09
         0.39994E+08
         0.18929E+08
         0.17018E+08
        -0.71627E+07
        -0.57586E+08
        -0.11155E+09
        -0.14332E+09
        -0.19320E+09
        -0.20910E+09
        -0.20192E+09
        -0.20008E+09
        -0.18819E+09
        -0.13523E+09
        -0.68419E+08
        -0.65267E+08
        -0.17039E+09
        -0.17304E+09
        -0.16919E+09
        -0.58061E+08
        -0.12487E+09
        -0.79350E+08
        -0.13569E+09
        -0.16384E+09
        -0.16616E+09
        -0.16292E+09
         0.16900E+09
         0.18743E+09
         0.14299E+09
         0.39272E+08
         0.17713E+09
         0.86933E+08
        -0.50802E+08
         0.64409E+08
         0.16477E+09
         0.55664E+08
         0.49224E+08
         0.36962E+08
        -0.21930E+08
         0.65253E+08
        -0.16512E+09
         0.86839E+08
         0.90700E+07
         0.41137E+08
        -0.64064E+08
        -0.15259E+09
         0.10860E+09
         0.51912E+08
         0.10682E+09
         0.10583E+09
        -0.13911E+08
         0.69802E+08
         0.10465E+09
         0.16226E+09
         0.18222E+09
         0.17153E+09
         0.91236E+08
        -0.24503E+08
        -0.50585E+08
        -0.79979E+08
        -0.11429E+09
        -0.17469E+09
        -0.15027E+09
        -0.11544E+09
        -0.17397E+09
        -0.17575E+09
        -0.11537E+09
        -0.11931E+08
         0.37191E+08
        -0.52164E+08
         0.11660E+09
         0.15162E+09
         0.18470E+09
         0.20780E+09
         0.21128E+09
         0.20520E+09
         0.20134E+09
         0.18732E+09
         0.11978E+09
         0.40012E+08
         0.18929E+08
         0.17053E+08
        -0.71028E+07
        -0.57604E+08
        -0.11157E+09
        -0.14332E+09
        -0.19320E+09
        -0.20910E+09
        -0.20193E+09
        -0.20009E+09
        -0.18820E+09
        -0.13522E+09
        -0.68379E+08
        -0.65212E+08
        -0.17038E+09
        -0.17304E+09
        -0.16918E+09
        -0.58407E+08
        -0.12494E+09
        -0.79457E+08
        -0.13547E+09
        -0.16396E+09
        -0.16619E+09
        -0.16308E+09
         0.16910E+09
         0.18742E+09
         0.14297E+09
         0.39359E+08
         0.17719E+09
         0.86867E+08
        -0.51125E+08
         0.64309E+08
         0.16479E+09
         0.55325E+08
         0.49343E+08
         0.36995E+08
        -0.21949E+08
         0.65195E+08
        -0.16518E+09
         0.86602E+08
         0.91829E+07
         0.41457E+08
        -0.63484E+08
        -0.15265E+09
         0.10850E+09
         0.51738E+08
         0.10723E+09
         0.10591E+09
        -0.13773E+08
         0.69866E+08
         0.10466E+09
         0.16228E+09
         0.18223E+09
         0.17151E+09
         0.91260E+08
        -0.24397E+08
        -0.50617E+08
        -0.80049E+08
        -0.11434E+09
        -0.17470E+09
        -0.15029E+09
        -0.11537E+09
        -0.17397E+09
        -0.17574E+09
        -0.11538E+09
        -0.11763E+08
         0.37169E+08
        -0.52178E+08
         0.11662E+09
         0.15162E+09
         0.18470E+09
         0.20779E+09
         0.21127E+09
         0.20519E+09
         0.20134E+09
         0.18732E+09
         0.11978E+09
         0.40034E+08
         0.18931E+08
         0.17088E+08
        -0.70423E+07
        -0.57623E+08
        -0.11160E+09
        -0.14333E+09
        -0.19321E+09
        -0.20910E+09
        -0.20194E+09
        -0.20009E+09
        -0.18821E+09
        -0.13520E+09
        -0.68339E+08
        -0.65158E+08
        -0.17037E+09
        -0.17303E+09
        -0.16918E+09
        -0.58750E+08
        -0.12500E+09
        -0.79563E+08
        -0.13525E+09
        -0.16409E+09
        -0.16622E+09
        -0.16324E+09
         0.16920E+09
         0.18741E+09
         0.14296E+09
         0.39448E+08
         0.17725E+09
         0.86797E+08
        -0.51449E+08
         0.64208E+08
         0.16481E+09
         0.54968E+08
         0.49463E+08
         0.37023E+08
        -0.21977E+08
         0.65113E+08
        -0.16524E+09
         0.86303E+08
         0.93089E+07
         0.41849E+08
        -0.62787E+08
        -0.15270E+09
         0.10840E+09
         0.51504E+08
         0.10764E+09
         0.10599E+09
        -0.13633E+08
         0.69930E+08
         0.10468E+09
         0.16229E+09
         0.18225E+09
         0.17150E+09
         0.91293E+08
        -0.24270E+08
        -0.50637E+08
        -0.80141E+08
        -0.11440E+09
        -0.17471E+09
        -0.15030E+09
        -0.11531E+09
        -0.17397E+09
        -0.17573E+09
        -0.11539E+09
        -0.11593E+08
         0.37146E+08
        -0.52192E+08
         0.11664E+09
         0.15162E+09
         0.18471E+09
         0.20778E+09
         0.21126E+09
         0.20518E+09
         0.20135E+09
         0.18732E+09
         0.11977E+09
         0.40059E+08
         0.18933E+08
         0.17122E+08
        -0.69817E+07
        -0.57643E+08
        -0.11164E+09
        -0.14334E+09
        -0.19322E+09
        -0.20909E+09
        -0.20194E+09
        -0.20009E+09
        -0.18822E+09
        -0.13519E+09
        -0.68299E+08
        -0.65103E+08
        -0.17036E+09
        -0.17303E+09
        -0.16917E+09
        -0.59097E+08
        -0.12507E+09
        -0.79668E+08
        -0.13502E+09
        -0.16422E+09
        -0.16625E+09
        -0.16340E+09
         0.16929E+09
         0.18740E+09
         0.14294E+09
         0.39542E+08
         0.17731E+09
         0.86728E+08
        -0.51779E+08
         0.64110E+08
         0.16484E+09
         0.54604E+08
         0.49582E+08
         0.37050E+08
        -0.22008E+08
         0.65023E+08
        -0.16529E+09
         0.85984E+08
         0.94447E+07
         0.42282E+08
        -0.62042E+08
        -0.15275E+09
         0.10829E+09
         0.51247E+08
         0.10805E+09
         0.10608E+09
        -0.13492E+08
         0.69995E+08
         0.10470E+09
         0.16231E+09
         0.18227E+09
         0.17148E+09
         0.91327E+08
        -0.24136E+08
        -0.50651E+08
        -0.80239E+08
        -0.11447E+09
        -0.17473E+09
        -0.15032E+09
        -0.11526E+09
        -0.17397E+09
        -0.17572E+09
        -0.11540E+09
        -0.11422E+08
         0.37123E+08
        -0.52207E+08
         0.11666E+09
         0.15162E+09
         0.18471E+09
         0.20778E+09
         0.21125E+09
         0.20516E+09
         0.20135E+09
         0.18732E+09
         0.11977E+09
         0.40087E+08
         0.18937E+08
         0.17156E+08
        -0.69211E+07
        -0.57664E+08
        -0.11167E+09
        -0.14336E+09
        -0.19322E+09
        -0.20909E+09
        -0.20195E+09
        -0.20010E+09
        -0.18823E+09
        -0.13517E+09
        -0.68259E+08
        -0.65049E+08
        -0.17034E+09
        -0.17302E+09
        -0.16917E+09
        -0.59454E+08
        -0.12514E+09
        -0.79775E+08
        -0.13477E+09
        -0.16434E+09
        -0.16629E+09
        -0.16355E+09
         0.16939E+09
         0.18739E+09
         0.14293E+09
         0.39660E+08
         0.17737E+09
         0.86662E+08
        -0.52122E+08
         0.64010E+08
         0.16486E+09
         0.54239E+08
         0.49702E+08
         0.37077E+08
        -0.22039E+08
         0.64932E+08
        -0.16534E+09
         0.85663E+08
         0.96048E+07
         0.42742E+08
        -0.61282E+08
        -0.15279E+09
         0.10818E+09
         0.50980E+08
         0.10848E+09
         0.10618E+09
        -0.13351E+08
         0.70061E+08
         0.10472E+09
         0.16234E+09
         0.18228E+09
         0.17146E+09
         0.91364E+08
        -0.23999E+08
        -0.50665E+08
        -0.80336E+08
        -0.11454E+09
        -0.17474E+09
        -0.15035E+09
        -0.11522E+09
        -0.17398E+09
        -0.17570E+09
        -0.11540E+09
        -0.11249E+08
         0.37100E+08
        -0.52220E+08
         0.11669E+09
         0.15162E+09
         0.18472E+09
         0.20777E+09
         0.21124E+09
         0.20515E+09
         0.20135E+09
         0.18731E+09
         0.11977E+09
         0.40114E+08
         0.18940E+08
         0.17190E+08
        -0.68604E+07
        -0.57684E+08
        -0.11171E+09
        -0.14337E+09
        -0.19323E+09
        -0.20909E+09
        -0.20195E+09
        -0.20010E+09
        -0.18824E+09
        -0.13515E+09
        -0.68218E+08
        -0.64994E+08
        -0.17033E+09
        -0.17301E+09
        -0.16917E+09
        -0.59815E+08
        -0.12520E+09
        -0.79882E+08
        -0.13451E+09
        -0.16446E+09
        -0.16632E+09
        -0.16370E+09
         0.16949E+09
         0.18738E+09
         0.14292E+09
         0.39782E+08
         0.17742E+09
         0.86597E+08
        -0.52471E+08
         0.63909E+08
         0.16488E+09
         0.53875E+08
         0.49821E+08
         0.37105E+08
        -0.22070E+08
         0.64845E+08
        -0.16540E+09
         0.85344E+08
         0.97710E+07
         0.43215E+08
        -0.60520E+08
        -0.15283E+09
         0.10808E+09
         0.50705E+08
         0.10891E+09
         0.10629E+09
        -0.13209E+08
         0.70129E+08
         0.10474E+09
         0.16236E+09
         0.18230E+09
         0.17145E+09
         0.91400E+08
        -0.23862E+08
        -0.50677E+08
        -0.80433E+08
        -0.11460E+09
        -0.17475E+09
        -0.15039E+09
        -0.11520E+09
        -0.17399E+09
        -0.17569E+09
        -0.11541E+09
        -0.11075E+08
         0.37077E+08
        -0.52235E+08
         0.11671E+09
         0.15162E+09
         0.18472E+09
         0.20776E+09
         0.21123E+09
         0.20514E+09
         0.20136E+09
         0.18731E+09
         0.11977E+09
         0.40141E+08
         0.18943E+08
         0.17225E+08
        -0.67997E+07
        -0.57704E+08
        -0.11175E+09
        -0.14338E+09
        -0.19324E+09
        -0.20909E+09
        -0.20196E+09
        -0.20011E+09
        -0.18825E+09
        -0.13513E+09
        -0.68178E+08
        -0.64939E+08
        -0.17032E+09
        -0.17299E+09
        -0.16917E+09
        -0.60176E+08
        -0.12527E+09
        -0.79988E+08
        -0.13425E+09
        -0.16458E+09
        -0.16635E+09
        -0.16384E+09
         0.16958E+09
         0.18737E+09
         0.14291E+09
         0.39910E+08
         0.17748E+09
         0.86534E+08
        -0.52820E+08
         0.63807E+08
         0.16491E+09
         0.53508E+08
         0.49941E+08
         0.37132E+08
        -0.22100E+08
         0.64756E+08
        -0.16545E+09
         0.85027E+08
         0.99413E+07
         0.43682E+08
        -0.59760E+08
        -0.15286E+09
         0.10797E+09
         0.50433E+08
         0.10934E+09
         0.10639E+09
        -0.13065E+08
         0.70194E+08
         0.10476E+09
         0.16238E+09
         0.18232E+09
         0.17143E+09
         0.91436E+08
        -0.23726E+08
        -0.50689E+08
        -0.80529E+08
        -0.11467E+09
        -0.17477E+09
        -0.15042E+09
        -0.11518E+09
        -0.17399E+09
        -0.17568E+09
        -0.11541E+09
        -0.10900E+08
         0.37055E+08
        -0.52248E+08
         0.11673E+09
         0.15162E+09
         0.18473E+09
         0.20776E+09
         0.21122E+09
         0.20513E+09
         0.20136E+09
         0.18731E+09
         0.11977E+09
         0.40168E+08
         0.18947E+08
         0.17260E+08
        -0.67391E+07
        -0.57724E+08
        -0.11178E+09
        -0.14340E+09
        -0.19324E+09
        -0.20908E+09
        -0.20197E+09
        -0.20011E+09
        -0.18826E+09
        -0.13512E+09
        -0.68138E+08
        -0.64884E+08
        -0.17031E+09
        -0.17298E+09
        -0.16917E+09
        -0.60532E+08
        -0.12533E+09
        -0.80094E+08
        -0.13399E+09
        -0.16469E+09
        -0.16639E+09
        -0.16398E+09
         0.16967E+09
         0.18736E+09
         0.14290E+09
         0.40032E+08
         0.17754E+09
         0.86470E+08
        -0.53169E+08
         0.63704E+08
         0.16493E+09
         0.53138E+08
         0.50060E+08
         0.37160E+08
        -0.22130E+08
         0.64667E+08
        -0.16551E+09
         0.84710E+08
         0.10107E+08
         0.44145E+08
        -0.59003E+08
        -0.15290E+09
         0.10787E+09
         0.50160E+08
         0.10978E+09
         0.10650E+09
        -0.12923E+08
         0.70261E+08
         0.10478E+09
         0.16240E+09
         0.18233E+09
         0.17142E+09
         0.91471E+08
        -0.23591E+08
        -0.50703E+08
        -0.80624E+08
        -0.11474E+09
        -0.17478E+09
        -0.15046E+09
        -0.11515E+09
        -0.17400E+09
        -0.17567E+09
        -0.11541E+09
        -0.10724E+08
         0.37032E+08
        -0.52262E+08
         0.11675E+09
         0.15162E+09
         0.18473E+09
         0.20775E+09
         0.21121E+09
         0.20511E+09
         0.20137E+09
         0.18731E+09
         0.11977E+09
         0.40194E+08
         0.18951E+08
         0.17295E+08
        -0.66787E+07
        -0.57744E+08
        -0.11182E+09
        -0.14341E+09
        -0.19325E+09
        -0.20908E+09
        -0.20197E+09
        -0.20011E+09
        -0.18827E+09
        -0.13510E+09
        -0.68098E+08
        -0.64829E+08
        -0.17030E+09
        -0.17297E+09
        -0.16917E+09
        -0.60888E+08
        -0.12540E+09
        -0.80199E+08
        -0.13374E+09
        -0.16481E+09
        -0.16642E+09
        -0.16413E+09
         0.16976E+09
         0.18735E+09
         0.14288E+09
         0.40158E+08
         0.17760E+09
         0.86407E+08
        -0.53516E+08
         0.63603E+08
         0.16495E+09
         0.52766E+08
         0.50179E+08
         0.37186E+08
        -0.22161E+08
         0.64580E+08
        -0.16556E+09
         0.84393E+08
         0.10275E+08
         0.44600E+08
        -0.58246E+08
        -0.15294E+09
         0.10776E+09
         0.49887E+08
         0.11021E+09
         0.10660E+09
        -0.12780E+08
         0.70328E+08
         0.10480E+09
         0.16243E+09
         0.18235E+09
         0.17140E+09
         0.91507E+08
        -0.23456E+08
        -0.50715E+08
        -0.80720E+08
        -0.11481E+09
        -0.17480E+09
        -0.15049E+09
        -0.11513E+09
        -0.17401E+09
        -0.17566E+09
        -0.11542E+09
        -0.10548E+08
         0.37009E+08
        -0.52276E+08
         0.11677E+09
         0.15162E+09
         0.18474E+09
         0.20774E+09
         0.21120E+09
         0.20510E+09
         0.20137E+09
         0.18731E+09
         0.11976E+09
         0.40221E+08
         0.18954E+08
         0.17330E+08
        -0.66181E+07
        -0.57764E+08
        -0.11185E+09
        -0.14342E+09
        -0.19326E+09
        -0.20908E+09
        -0.20198E+09
        -0.20012E+09
        -0.18828E+09
        -0.13508E+09
        -0.68058E+08
        -0.64774E+08
        -0.17029E+09
        -0.17296E+09
        -0.16917E+09
        -0.61245E+08
        -0.12546E+09
        -0.80306E+08
        -0.13348E+09
        -0.16493E+09
        -0.16645E+09
        -0.16427E+09
         0.16985E+09
         0.18734E+09
         0.14287E+09
         0.40285E+08
         0.17766E+09
         0.86345E+08
        -0.53863E+08
         0.63499E+08
         0.16498E+09
         0.52397E+08
         0.50299E+08
         0.37212E+08
        -0.22191E+08
         0.64493E+08
        -0.16562E+09
         0.84079E+08
         0.10439E+08
         0.45054E+08
        -0.57488E+08
        -0.15298E+09
         0.10766E+09
         0.49613E+08
         0.11064E+09
         0.10671E+09
        -0.12636E+08
         0.70395E+08
         0.10482E+09
         0.16245E+09
         0.18237E+09
         0.17138E+09
         0.91542E+08
        -0.23322E+08
        -0.50727E+08
        -0.80815E+08
        -0.11488E+09
        -0.17481E+09
        -0.15053E+09
        -0.11511E+09
        -0.17402E+09
        -0.17564E+09
        -0.11542E+09
        -0.10372E+08
         0.36986E+08
        -0.52289E+08
         0.11679E+09
         0.15163E+09
         0.18474E+09
         0.20773E+09
         0.21119E+09
         0.20509E+09
         0.20138E+09
         0.18731E+09
         0.11976E+09
         0.40248E+08
         0.18958E+08
         0.17364E+08
        -0.65572E+07
        -0.57784E+08
        -0.11189E+09
        -0.14343E+09
        -0.19326E+09
        -0.20908E+09
        -0.20199E+09
        -0.20012E+09
        -0.18829E+09
        -0.13507E+09
        -0.68018E+08
        -0.64719E+08
        -0.17027E+09
        -0.17295E+09
        -0.16917E+09
        -0.61603E+08
        -0.12553E+09
        -0.80412E+08
        -0.13323E+09
        -0.16504E+09
        -0.16649E+09
        -0.16441E+09
         0.16993E+09
         0.18733E+09
         0.14286E+09
         0.40408E+08
         0.17772E+09
         0.86282E+08
        -0.54207E+08
         0.63394E+08
         0.16500E+09
         0.52030E+08
         0.50418E+08
         0.37238E+08
        -0.22221E+08
         0.64406E+08
        -0.16567E+09
         0.83762E+08
         0.10609E+08
         0.45502E+08
        -0.56734E+08
        -0.15301E+09
         0.10755E+09
         0.49336E+08
         0.11107E+09
         0.10681E+09
        -0.12492E+08
         0.70462E+08
         0.10484E+09
         0.16247E+09
         0.18238E+09
         0.17137E+09
         0.91577E+08
        -0.23187E+08
        -0.50740E+08
        -0.80911E+08
        -0.11494E+09
        -0.17482E+09
        -0.15056E+09
        -0.11508E+09
        -0.17402E+09
        -0.17563E+09
        -0.11542E+09
        -0.10196E+08
         0.36962E+08
        -0.52303E+08
         0.11681E+09
         0.15163E+09
         0.18475E+09
         0.20773E+09
         0.21119E+09
         0.20508E+09
         0.20138E+09
         0.18731E+09
         0.11976E+09
         0.40275E+08
         0.18961E+08
         0.17399E+08
        -0.64966E+07
        -0.57804E+08
        -0.11193E+09
        -0.14345E+09
        -0.19327E+09
        -0.20908E+09
        -0.20200E+09
        -0.20013E+09
        -0.18830E+09
        -0.13505E+09
        -0.67979E+08
        -0.64664E+08
        -0.17026E+09
        -0.17294E+09
        -0.16917E+09
        -0.61960E+08
        -0.12559E+09
        -0.80519E+08
        -0.13298E+09
        -0.16516E+09
        -0.16652E+09
        -0.16454E+09
         0.17002E+09
         0.18731E+09
         0.14285E+09
         0.40535E+08
         0.17777E+09
         0.86219E+08
        -0.54551E+08
         0.63291E+08
         0.16502E+09
         0.51663E+08
         0.50538E+08
         0.37265E+08
        -0.22252E+08
         0.64319E+08
        -0.16573E+09
         0.83444E+08
         0.10773E+08
         0.45945E+08
        -0.55783E+08
        -0.15305E+09
         0.10745E+09
         0.49062E+08
         0.11151E+09
         0.10692E+09
        -0.12348E+08
         0.70528E+08
         0.10486E+09
         0.16250E+09
         0.18240E+09
         0.17135E+09
         0.91613E+08
        -0.23052E+08
        -0.50752E+08
        -0.81005E+08
        -0.11501E+09
        -0.17484E+09
        -0.15060E+09
        -0.11506E+09
        -0.17403E+09
        -0.17562E+09
        -0.11543E+09
        -0.10020E+08
         0.36939E+08
        -0.52316E+08
         0.11683E+09
         0.15163E+09
         0.18476E+09
         0.20772E+09
         0.21118E+09
         0.20506E+09
         0.20138E+09
         0.18730E+09
         0.11976E+09
         0.40301E+08
         0.18965E+08
         0.17434E+08
        -0.64362E+07
        -0.57824E+08
        -0.11196E+09
        -0.14346E+09
        -0.19327E+09
        -0.20907E+09
        -0.20200E+09
        -0.20013E+09
        -0.18831E+09
        -0.13503E+09
        -0.67939E+08
        -0.64608E+08
        -0.17025E+09
        -0.17292E+09
        -0.16917E+09
        -0.62314E+08
        -0.12566E+09
        -0.80625E+08
        -0.13273E+09
        -0.16527E+09
        -0.16655E+09
        -0.16468E+09
         0.17010E+09
         0.18730E+09
         0.14284E+09
         0.40657E+08
         0.17783E+09
         0.86156E+08
        -0.54896E+08
         0.63188E+08
         0.16504E+09
         0.51293E+08
         0.50657E+08
         0.37291E+08
        -0.22282E+08
         0.64234E+08
        -0.16578E+09
         0.83127E+08
         0.10941E+08
         0.46379E+08
        -0.54806E+08
        -0.15309E+09
         0.10734E+09
         0.48785E+08
         0.11194E+09
         0.10703E+09
        -0.12204E+08
         0.70594E+08
         0.10488E+09
         0.16252E+09
         0.18242E+09
         0.17133E+09
         0.91649E+08
        -0.22918E+08
        -0.50765E+08
        -0.81100E+08
        -0.11508E+09
        -0.17485E+09
        -0.15063E+09
        -0.11504E+09
        -0.17404E+09
        -0.17561E+09
        -0.11543E+09
        -0.98424E+07
         0.36916E+08
        -0.52330E+08
         0.11686E+09
         0.15163E+09
         0.18476E+09
         0.20771E+09
         0.21117E+09
         0.20505E+09
         0.20139E+09
         0.18730E+09
         0.11976E+09
         0.40328E+08
         0.18968E+08
         0.17469E+08
        -0.63757E+07
        -0.57844E+08
        -0.11200E+09
        -0.14347E+09
        -0.19328E+09
        -0.20907E+09
        -0.20201E+09
        -0.20013E+09
        -0.18832E+09
        -0.13502E+09
        -0.67900E+08
        -0.64553E+08
        -0.17024E+09
        -0.17291E+09
        -0.16917E+09
        -0.62666E+08
        -0.12572E+09
        -0.80730E+08
        -0.13248E+09
        -0.16538E+09
        -0.16659E+09
        -0.16482E+09
         0.17018E+09
         0.18729E+09
         0.14283E+09
         0.40785E+08
         0.17789E+09
         0.86094E+08
        -0.55241E+08
         0.63084E+08
         0.16507E+09
         0.50924E+08
         0.50776E+08
         0.37316E+08
        -0.22311E+08
         0.64150E+08
        -0.16584E+09
         0.82810E+08
         0.11104E+08
         0.46809E+08
        -0.53839E+08
        -0.15313E+09
         0.10724E+09
         0.48509E+08
         0.11237E+09
         0.10713E+09
        -0.12059E+08
         0.70660E+08
         0.10490E+09
         0.16255E+09
         0.18243E+09
         0.17131E+09
         0.91685E+08
        -0.22784E+08
        -0.50778E+08
        -0.81195E+08
        -0.11515E+09
        -0.17486E+09
        -0.15067E+09
        -0.11502E+09
        -0.17404E+09
        -0.17560E+09
        -0.11544E+09
        -0.96644E+07
         0.36893E+08
        -0.52343E+08
         0.11688E+09
         0.15163E+09
         0.18477E+09
         0.20771E+09
         0.21116E+09
         0.20504E+09
         0.20139E+09
         0.18730E+09
         0.11975E+09
         0.40355E+08
         0.18972E+08
         0.17503E+08
        -0.63151E+07
        -0.57863E+08
        -0.11203E+09
        -0.14349E+09
        -0.19329E+09
        -0.20907E+09
        -0.20202E+09
        -0.20014E+09
        -0.18833E+09
        -0.13500E+09
        -0.67861E+08
        -0.64497E+08
        -0.17023E+09
        -0.17290E+09
        -0.16917E+09
        -0.63018E+08
        -0.12579E+09
        -0.80837E+08
        -0.13223E+09
        -0.16550E+09
        -0.16662E+09
        -0.16495E+09
         0.17025E+09
         0.18728E+09
         0.14281E+09
         0.40907E+08
         0.17795E+09
         0.86031E+08
        -0.55585E+08
         0.62978E+08
         0.16509E+09
         0.50560E+08
         0.50895E+08
         0.37340E+08
        -0.22341E+08
         0.64064E+08
        -0.16589E+09
         0.82491E+08
         0.11271E+08
         0.47233E+08
        -0.52880E+08
        -0.15316E+09
         0.10713E+09
         0.48232E+08
         0.11280E+09
         0.10724E+09
        -0.11914E+08
         0.70727E+08
         0.10492E+09
         0.16257E+09
         0.18245E+09
         0.17130E+09
         0.91721E+08
        -0.22651E+08
        -0.50792E+08
        -0.81289E+08
        -0.11522E+09
        -0.17488E+09
        -0.15070E+09
        -0.11499E+09
        -0.17405E+09
        -0.17558E+09
        -0.11544E+09
        -0.94873E+07
         0.36869E+08
        -0.52356E+08
         0.11690E+09
         0.15163E+09
         0.18477E+09
         0.20770E+09
         0.21115E+09
         0.20503E+09
         0.20140E+09
         0.18730E+09
         0.11975E+09
         0.40381E+08
         0.18974E+08
         0.17537E+08
        -0.62549E+07
        -0.57883E+08
        -0.11207E+09
        -0.14350E+09
        -0.19329E+09
        -0.20907E+09
        -0.20202E+09
        -0.20014E+09
        -0.18834E+09
        -0.13498E+09
        -0.67823E+08
        -0.64442E+08
        -0.17022E+09
        -0.17289E+09
        -0.16917E+09
        -0.63371E+08
        -0.12585E+09
        -0.80943E+08
        -0.13198E+09
        -0.16561E+09
        -0.16666E+09
        -0.16509E+09
         0.17033E+09
         0.18727E+09
         0.14280E+09
         0.41034E+08
         0.17800E+09
         0.85969E+08
        -0.55934E+08
         0.62872E+08
         0.16511E+09
         0.50212E+08
         0.51013E+08
         0.37364E+08
        -0.22372E+08
         0.63979E+08
        -0.16595E+09
         0.82175E+08
         0.11438E+08
         0.47655E+08
        -0.51927E+08
        -0.15319E+09
         0.10703E+09
         0.47951E+08
         0.11324E+09
         0.10734E+09
        -0.11769E+08
         0.70794E+08
         0.10494E+09
         0.16260E+09
         0.18246E+09
         0.17128E+09
         0.91759E+08
        -0.22518E+08
        -0.50807E+08
        -0.81384E+08
        -0.11529E+09
        -0.17489E+09
        -0.15073E+09
        -0.11497E+09
        -0.17406E+09
        -0.17557E+09
        -0.11545E+09
        -0.93098E+07
         0.36846E+08
        -0.52369E+08
         0.11692E+09
         0.15163E+09
         0.18478E+09
         0.20769E+09
         0.21114E+09
         0.20501E+09
         0.20140E+09
         0.18730E+09
         0.11975E+09
         0.40407E+08
         0.18975E+08
         0.17571E+08
        -0.61947E+07
        -0.57903E+08
        -0.11211E+09
        -0.14351E+09
        -0.19330E+09
        -0.20907E+09
        -0.20203E+09
        -0.20014E+09
        -0.18834E+09
        -0.13496E+09
        -0.67784E+08
        -0.64386E+08
        -0.17020E+09
        -0.17288E+09
        -0.16917E+09
        -0.63723E+08
        -0.12592E+09
        -0.81048E+08
        -0.13173E+09
        -0.16572E+09
        -0.16669E+09
        -0.16523E+09
         0.17040E+09
         0.18726E+09
         0.14279E+09
         0.41163E+08
         0.17806E+09
         0.85907E+08
        -0.56288E+08
         0.62765E+08
         0.16513E+09
         0.49879E+08
         0.51132E+08
         0.37388E+08
        -0.22402E+08
         0.63895E+08
        -0.16601E+09
         0.81856E+08
         0.11612E+08
         0.48072E+08
        -0.50982E+08
        -0.15322E+09
         0.10692E+09
         0.47673E+08
         0.11367E+09
         0.10745E+09
        -0.11623E+08
         0.70860E+08
         0.10496E+09
         0.16263E+09
         0.18248E+09
         0.17126E+09
         0.91799E+08
        -0.22387E+08
        -0.50826E+08
        -0.81478E+08
        -0.11535E+09
        -0.17491E+09
        -0.15077E+09
        -0.11495E+09
        -0.17407E+09
        -0.17556E+09
        -0.11545E+09
        -0.91303E+07
         0.36822E+08
        -0.52382E+08
         0.11694E+09
         0.15163E+09
         0.18478E+09
         0.20768E+09
         0.21113E+09
         0.20500E+09
         0.20140E+09
         0.18729E+09
         0.11976E+09
         0.40433E+08
         0.18975E+08
         0.17605E+08
        -0.61343E+07
        -0.57922E+08
        -0.11214E+09
        -0.14352E+09
        -0.19331E+09
        -0.20907E+09
        -0.20204E+09
        -0.20015E+09
        -0.18835E+09
        -0.13495E+09
        -0.67746E+08
        -0.64331E+08
        -0.17019E+09
        -0.17286E+09
        -0.16917E+09
        -0.64071E+08
        -0.12598E+09
        -0.81153E+08
        -0.13149E+09
        -0.16583E+09
        -0.16673E+09
        -0.16537E+09
         0.17047E+09
         0.18725E+09
         0.14278E+09
         0.41288E+08
         0.17812E+09
         0.85846E+08
        -0.56643E+08
         0.62659E+08
         0.16515E+09
         0.49555E+08
         0.51252E+08
         0.37411E+08
        -0.22430E+08
         0.63816E+08
        -0.16607E+09
         0.81548E+08
         0.11783E+08
         0.48472E+08
        -0.50055E+08
        -0.15325E+09
         0.10682E+09
         0.47400E+08
         0.11410E+09
         0.10755E+09
        -0.11478E+08
         0.70924E+08
         0.10497E+09
         0.16266E+09
         0.18249E+09
         0.17124E+09
         0.91839E+08
        -0.22259E+08
        -0.50846E+08
        -0.81570E+08
        -0.11542E+09
        -0.17492E+09
        -0.15080E+09
        -0.11492E+09
        -0.17407E+09
        -0.17555E+09
        -0.11545E+09
        -0.89514E+07
         0.36798E+08
        -0.52396E+08
         0.11696E+09
         0.15163E+09
         0.18479E+09
         0.20768E+09
         0.21112E+09
         0.20499E+09
         0.20141E+09
         0.18729E+09
         0.11976E+09
         0.40457E+08
         0.18973E+08
         0.17639E+08
        -0.60738E+07
        -0.57941E+08
        -0.11218E+09
        -0.14354E+09
        -0.19331E+09
        -0.20906E+09
        -0.20204E+09
        -0.20015E+09
        -0.18836E+09
        -0.13493E+09
        -0.67708E+08
        -0.64275E+08
        -0.16386E+09
        -0.15519E+09
        -0.15060E+09
        -0.53480E+08
        -0.11974E+09
        -0.74194E+08
        -0.95287E+08
        -0.15792E+09
        -0.15276E+09
        -0.15712E+09
         0.13477E+09
         0.18324E+09
         0.13862E+09
         0.36820E+08
         0.17466E+09
         0.80538E+08
        -0.45584E+08
         0.49244E+08
         0.14079E+09
         0.32600E+08
         0.50167E+08
         0.36421E+08
        -0.21866E+08
         0.49822E+08
        -0.14851E+09
         0.64566E+08
         0.10630E+08
         0.35764E+08
        -0.30765E+08
        -0.13701E+09
         0.97899E+08
         0.35421E+08
         0.94052E+08
         0.84186E+08
        -0.10937E+08
         0.65410E+08
         0.99820E+08
         0.15847E+09
         0.17544E+09
         0.16361E+09
         0.89589E+08
        -0.21559E+08
        -0.49633E+08
        -0.78969E+08
        -0.11037E+09
        -0.16939E+09
        -0.14208E+09
        -0.10697E+09
        -0.15721E+09
        -0.16183E+09
        -0.11119E+09
        -0.82031E+07
         0.36534E+08
        -0.52112E+08
         0.11634E+09
         0.15085E+09
         0.18390E+09
         0.20672E+09
         0.21004E+09
         0.20368E+09
         0.20005E+09
         0.18613E+09
         0.11903E+09
         0.40251E+08
         0.18843E+08
         0.17556E+08
        -0.59841E+07
        -0.57672E+08
        -0.11169E+09
        -0.14290E+09
        -0.19221E+09
        -0.20792E+09
        -0.20088E+09
        -0.19896E+09
        -0.18730E+09
        -0.13412E+09
        -0.67304E+08
        -0.63867E+08
        -0.81895E+08
        -0.52359E+08
        -0.49402E+08
        -0.14803E+08
        -0.53430E+08
        -0.26765E+08
        -0.21784E+08
        -0.71398E+08
        -0.55896E+08
        -0.69788E+08
         0.34134E+08
         0.10987E+09
         0.75198E+08
         0.11989E+08
         0.10739E+09
         0.33232E+08
        -0.11843E+08
         0.10307E+08
         0.40927E+08
         0.66281E+07
         0.29290E+08
         0.20265E+08
        -0.12335E+08
         0.12370E+08
        -0.49359E+08
         0.12417E+08
         0.35035E+07
         0.60676E+07
        -0.62515E+07
        -0.45521E+08
         0.35869E+08
         0.83454E+07
         0.25394E+08
         0.21058E+08
        -0.54118E+07
         0.24514E+08
         0.44787E+08
         0.89398E+08
         0.86205E+08
         0.76443E+08
         0.51332E+08
        -0.11977E+08
        -0.28580E+08
        -0.41063E+08
        -0.51464E+08
        -0.88938E+08
        -0.59822E+08
        -0.42158E+08
        -0.54102E+08
        -0.60766E+08
        -0.55441E+08
        -0.32618E+07
         0.29200E+08
        -0.42459E+08
         0.95749E+08
         0.12529E+09
         0.15435E+09
         0.17478E+09
         0.17510E+09
         0.16381E+09
         0.15878E+09
         0.14987E+09
         0.96287E+08
         0.33116E+08
         0.15077E+08
         0.14110E+08
        -0.49099E+07
        -0.48354E+08
        -0.94372E+08
        -0.12080E+09
        -0.15655E+09
        -0.17081E+09
        -0.16394E+09
        -0.16146E+09
        -0.15325E+09
        -0.10903E+09
        -0.55433E+08
        -0.52413E+08
  
SCALARS                      stress_xz  double 1
LOOKUP_TABLE default
         0.62958E+05
        -0.44402E+06
        -0.14658E+07
         0.10069E+06
        -0.97898E+01
         0.34712E+01
         0.11607E+02
         0.23181E+01
        -0.41245E+07
        -0.27556E+07
         0.34717E+02
         0.31271E+02
         0.17586E+06
        -0.71761E+06
        -0.42818E+01
        -0.20058E+02
        -0.14722E+06
        -0.68866E+06
        -0.14489E+02
        -0.21579E+02
        -0.10093E+07
        -0.17006E+07
        -0.16104E+07
        -0.14409E+02
        -0.66444E+01
         0.11608E+02
        -0.17964E+07
        -0.14587E+07
        -0.26972E+02
        -0.21396E+02
         0.34447E+06
        -0.76523E+06
         0.73228E+05
         0.27461E+01
        -0.10612E+02
        -0.65378E+01
         0.10220E+07
         0.49264E+06
        -0.15756E+02
        -0.16776E+02
         0.20371E+07
         0.28865E+07
        -0.35540E+02
        -0.26209E+02
         0.21795E+07
         0.11607E+07
        -0.39029E+02
        -0.18786E+02
        -0.62568E+06
        -0.11792E+02
         0.14899E+07
        -0.32824E+01
        -0.65269E+06
        -0.23041E+02
         0.48758E+06
        -0.60950E+01
         0.21333E+07
         0.58521E+06
        -0.52212E+01
        -0.12620E+02
        -0.36782E+05
         0.10147E+07
         0.10443E+02
         0.71612E+01
        -0.26354E+06
        -0.10504E+01
        -0.88219E+06
         0.69092E+01
        -0.58043E+07
        -0.39775E+07
         0.43184E+02
         0.31320E+02
        -0.25581E+07
         0.22805E+02
         0.60298E+06
        -0.15776E+02
         0.18869E+07
        -0.30962E+01
         0.40002E+07
        -0.48036E+01
         0.52927E+07
         0.37583E+07
        -0.17604E+02
        -0.20133E+02
         0.33196E+07
        -0.21652E+02
         0.26430E+07
        -0.31174E+02
         0.16460E+07
        -0.19883E+02
         0.25912E+07
         0.19057E+07
        -0.84861E+01
         0.11637E+02
        -0.43564E+06
         0.13650E+02
        -0.11958E+07
         0.57316E+01
        -0.28712E+07
         0.14154E+02
        -0.42444E+07
        -0.29129E+07
         0.32635E+02
         0.34055E+02
        -0.10395E+08
        -0.11510E+08
         0.60302E+02
         0.59426E+02
        -0.10296E+08
         0.51516E+02
        -0.93834E+07
         0.38498E+02
        -0.67321E+07
         0.21157E+02
        -0.48916E+07
         0.22624E+01
        -0.18150E+07
        -0.80578E+01
         0.23385E+07
        -0.64467E+01
         0.55806E+07
        -0.63364E+01
         0.82919E+07
        -0.14289E+02
         0.11154E+08
        -0.27185E+02
         0.13553E+08
        -0.32440E+02
         0.14407E+08
        -0.30608E+02
         0.13722E+08
        -0.33284E+02
         0.12575E+08
        -0.43198E+02
         0.11309E+08
        -0.50939E+02
         0.99745E+07
        -0.47353E+02
         0.79324E+07
        -0.38484E+02
         0.46544E+07
        -0.18168E+02
         0.39901E+06
         0.34692E+01
        -0.26029E+07
         0.84226E+01
        -0.40738E+07
         0.13773E+02
        -0.61271E+07
         0.26954E+02
        -0.80784E+07
         0.44230E+02
        -0.10618E+08
         0.53140E+02
        -0.12198E+08
         0.54352E+02
         0.88715E+06
        -0.46215E+06
        -0.54213E+06
         0.10909E+07
        -0.42288E+07
        -0.32686E+07
        -0.49397E+06
         0.72524E+06
         0.37379E+06
         0.66548E+06
        -0.36583E+06
        -0.15843E+07
        -0.33075E+07
         0.10580E+07
         0.12732E+07
        -0.14518E+07
        -0.12184E+07
         0.56480E+06
         0.87952E+06
         0.94592E+06
         0.51723E+07
         0.55060E+07
         0.49748E+07
         0.15460E+07
        -0.61963E+06
         0.46175E+06
         0.14844E+07
         0.16643E+06
         0.17038E+07
         0.11707E+07
        -0.12962E+07
        -0.25455E+06
         0.61082E+06
         0.19759E+06
        -0.62614E+07
        -0.39866E+07
        -0.36067E+07
         0.25256E+07
         0.14387E+07
         0.30797E+07
         0.63401E+07
         0.59025E+07
         0.58224E+07
         0.42805E+07
         0.30719E+07
         0.24055E+07
        -0.45142E+06
        -0.18841E+07
        -0.54487E+06
        -0.17283E+07
        -0.46197E+07
        -0.38878E+07
        -0.18315E+08
        -0.19209E+08
        -0.17172E+08
        -0.14606E+08
        -0.10876E+08
        -0.55420E+07
         0.32900E+06
         0.39507E+07
         0.60192E+07
         0.10334E+08
         0.16849E+08
         0.20477E+08
         0.18751E+08
         0.17980E+08
         0.18988E+08
         0.18979E+08
         0.17241E+08
         0.15101E+08
         0.76602E+07
        -0.12105E+07
        -0.46504E+07
        -0.51841E+07
        -0.87792E+07
        -0.14026E+08
        -0.18183E+08
        -0.19107E+08
        -0.57868E+08
         0.19125E+08
        -0.38470E+08
        -0.16013E+09
         0.13042E+09
         0.15722E+09
         0.99368E+08
        -0.74557E+08
        -0.53045E+08
        -0.74910E+08
        -0.29714E+08
         0.27819E+08
         0.11786E+09
        -0.17196E+09
        -0.69677E+08
         0.15313E+09
         0.16208E+09
        -0.13097E+09
        -0.49861E+08
        -0.15479E+09
        -0.17927E+09
        -0.18119E+09
        -0.18322E+09
        -0.15650E+09
         0.55538E+08
         0.79897E+08
        -0.17548E+09
         0.57532E+08
        -0.14501E+09
        -0.85744E+08
         0.13639E+09
         0.16059E+09
        -0.13339E+09
        -0.13217E+09
         0.18339E+09
         0.16304E+09
         0.14707E+09
        -0.93171E+08
        -0.19866E+08
        -0.61551E+08
        -0.16362E+09
        -0.18421E+09
        -0.17897E+09
        -0.16389E+09
        -0.14016E+09
        -0.61382E+08
         0.98068E+08
         0.13466E+09
        -0.21321E+08
         0.21970E+08
         0.14263E+09
         0.17809E+09
         0.20519E+09
         0.20240E+09
         0.17454E+09
         0.14491E+09
         0.10205E+09
         0.44072E+08
        -0.11358E+08
        -0.40931E+08
        -0.55197E+08
        -0.95147E+08
        -0.17211E+09
        -0.20558E+09
        -0.20486E+09
        -0.20406E+09
        -0.20644E+09
        -0.19976E+09
        -0.17631E+09
        -0.15399E+09
        -0.81266E+08
         0.20617E+08
         0.50144E+08
         0.53245E+08
         0.89303E+08
         0.15783E+09
         0.19685E+09
         0.19774E+09
        -0.57937E+08
         0.19192E+08
        -0.38522E+08
        -0.16002E+09
         0.13034E+09
         0.15716E+09
         0.99710E+08
        -0.74302E+08
        -0.53017E+08
        -0.74647E+08
        -0.29113E+08
         0.27887E+08
         0.11789E+09
        -0.17191E+09
        -0.69574E+08
         0.15318E+09
         0.16201E+09
        -0.13061E+09
        -0.49809E+08
        -0.15452E+09
        -0.17924E+09
        -0.18118E+09
        -0.18322E+09
        -0.15651E+09
         0.55439E+08
         0.80030E+08
        -0.17547E+09
         0.56450E+08
        -0.14603E+09
        -0.85657E+08
         0.13646E+09
         0.16062E+09
        -0.13305E+09
        -0.13212E+09
         0.18341E+09
         0.16300E+09
         0.14705E+09
        -0.93187E+08
        -0.20015E+08
        -0.61666E+08
        -0.16363E+09
        -0.18423E+09
        -0.17896E+09
        -0.16387E+09
        -0.14013E+09
        -0.61354E+08
         0.98047E+08
         0.13471E+09
        -0.21194E+08
         0.21923E+08
         0.14262E+09
         0.17808E+09
         0.20519E+09
         0.20239E+09
         0.17453E+09
         0.14491E+09
         0.10203E+09
         0.44072E+08
        -0.11376E+08
        -0.40967E+08
        -0.55163E+08
        -0.95136E+08
        -0.17211E+09
        -0.20558E+09
        -0.20485E+09
        -0.20405E+09
        -0.20644E+09
        -0.19976E+09
        -0.17630E+09
        -0.15399E+09
        -0.81248E+08
         0.20628E+08
         0.50112E+08
         0.53227E+08
         0.89265E+08
         0.15783E+09
         0.19685E+09
         0.19774E+09
        -0.58005E+08
         0.19258E+08
        -0.38573E+08
        -0.15991E+09
         0.13027E+09
         0.15710E+09
         0.10005E+09
        -0.74047E+08
        -0.52985E+08
        -0.74382E+08
        -0.28513E+08
         0.27956E+08
         0.11792E+09
        -0.17187E+09
        -0.69471E+08
         0.15322E+09
         0.16193E+09
        -0.13024E+09
        -0.49756E+08
        -0.15425E+09
        -0.17921E+09
        -0.18118E+09
        -0.18322E+09
        -0.15653E+09
         0.55351E+08
         0.80174E+08
        -0.17547E+09
         0.55382E+08
        -0.14705E+09
        -0.85574E+08
         0.13654E+09
         0.16066E+09
        -0.13270E+09
        -0.13206E+09
         0.18343E+09
         0.16297E+09
         0.14704E+09
        -0.93203E+08
        -0.20163E+08
        -0.61781E+08
        -0.16363E+09
        -0.18425E+09
        -0.17895E+09
        -0.16385E+09
        -0.14011E+09
        -0.61325E+08
         0.98029E+08
         0.13476E+09
        -0.21062E+08
         0.21874E+08
         0.14260E+09
         0.17808E+09
         0.20518E+09
         0.20238E+09
         0.17451E+09
         0.14491E+09
         0.10202E+09
         0.44072E+08
        -0.11393E+08
        -0.41002E+08
        -0.55129E+08
        -0.95124E+08
        -0.17211E+09
        -0.20557E+09
        -0.20485E+09
        -0.20405E+09
        -0.20644E+09
        -0.19976E+09
        -0.17629E+09
        -0.15399E+09
        -0.81230E+08
         0.20638E+08
         0.50080E+08
         0.53210E+08
         0.89227E+08
         0.15783E+09
         0.19685E+09
         0.19775E+09
        -0.58074E+08
         0.19326E+08
        -0.38624E+08
        -0.15980E+09
         0.13020E+09
         0.15704E+09
         0.10038E+09
        -0.73792E+08
        -0.52948E+08
        -0.74113E+08
        -0.27915E+08
         0.28025E+08
         0.11795E+09
        -0.17182E+09
        -0.69368E+08
         0.15327E+09
         0.16185E+09
        -0.12988E+09
        -0.49705E+08
        -0.15398E+09
        -0.17918E+09
        -0.18117E+09
        -0.18322E+09
        -0.15655E+09
         0.55293E+08
         0.80352E+08
        -0.17547E+09
         0.54347E+08
        -0.14808E+09
        -0.85501E+08
         0.13663E+09
         0.16071E+09
        -0.13235E+09
        -0.13201E+09
         0.18344E+09
         0.16294E+09
         0.14702E+09
        -0.93217E+08
        -0.20309E+08
        -0.61891E+08
        -0.16363E+09
        -0.18427E+09
        -0.17894E+09
        -0.16381E+09
        -0.14007E+09
        -0.61293E+08
         0.98007E+08
         0.13482E+09
        -0.20929E+08
         0.21825E+08
         0.14258E+09
         0.17807E+09
         0.20518E+09
         0.20237E+09
         0.17450E+09
         0.14491E+09
         0.10200E+09
         0.44072E+08
        -0.11410E+08
        -0.41037E+08
        -0.55095E+08
        -0.95112E+08
        -0.17211E+09
        -0.20557E+09
        -0.20485E+09
        -0.20405E+09
        -0.20645E+09
        -0.19976E+09
        -0.17628E+09
        -0.15399E+09
        -0.81211E+08
         0.20649E+08
         0.50048E+08
         0.53192E+08
         0.89189E+08
         0.15782E+09
         0.19685E+09
         0.19776E+09
        -0.58142E+08
         0.19394E+08
        -0.38675E+08
        -0.15968E+09
         0.13013E+09
         0.15698E+09
         0.10072E+09
        -0.73537E+08
        -0.52904E+08
        -0.73837E+08
        -0.27314E+08
         0.28094E+08
         0.11798E+09
        -0.17177E+09
        -0.69265E+08
         0.15332E+09
         0.16178E+09
        -0.12951E+09
        -0.49647E+08
        -0.15370E+09
        -0.17914E+09
        -0.18116E+09
        -0.18322E+09
        -0.15658E+09
         0.55265E+08
         0.80555E+08
        -0.17547E+09
         0.53345E+08
        -0.14909E+09
        -0.85437E+08
         0.13673E+09
         0.16079E+09
        -0.13200E+09
        -0.13195E+09
         0.18346E+09
         0.16291E+09
         0.14701E+09
        -0.93231E+08
        -0.20453E+08
        -0.61999E+08
        -0.16362E+09
        -0.18430E+09
        -0.17894E+09
        -0.16377E+09
        -0.14002E+09
        -0.61255E+08
         0.97985E+08
         0.13487E+09
        -0.20797E+08
         0.21776E+08
         0.14256E+09
         0.17806E+09
         0.20518E+09
         0.20236E+09
         0.17448E+09
         0.14491E+09
         0.10198E+09
         0.44072E+08
        -0.11427E+08
        -0.41072E+08
        -0.55061E+08
        -0.95100E+08
        -0.17211E+09
        -0.20557E+09
        -0.20485E+09
        -0.20404E+09
        -0.20645E+09
        -0.19976E+09
        -0.17626E+09
        -0.15398E+09
        -0.81192E+08
         0.20659E+08
         0.50017E+08
         0.53174E+08
         0.89151E+08
         0.15782E+09
         0.19686E+09
         0.19776E+09
        -0.58208E+08
         0.19469E+08
        -0.38718E+08
        -0.15957E+09
         0.13005E+09
         0.15692E+09
         0.10106E+09
        -0.73284E+08
        -0.52858E+08
        -0.73567E+08
        -0.26711E+08
         0.28163E+08
         0.11800E+09
        -0.17172E+09
        -0.69163E+08
         0.15338E+09
         0.16170E+09
        -0.12914E+09
        -0.49588E+08
        -0.15344E+09
        -0.17911E+09
        -0.18116E+09
        -0.18321E+09
        -0.15662E+09
         0.55241E+08
         0.80765E+08
        -0.17546E+09
         0.52349E+08
        -0.15012E+09
        -0.85385E+08
         0.13683E+09
         0.16087E+09
        -0.13164E+09
        -0.13189E+09
         0.18348E+09
         0.16288E+09
         0.14699E+09
        -0.93244E+08
        -0.20597E+08
        -0.62104E+08
        -0.16362E+09
        -0.18433E+09
        -0.17894E+09
        -0.16373E+09
        -0.13996E+09
        -0.61219E+08
         0.97959E+08
         0.13492E+09
        -0.20659E+08
         0.21733E+08
         0.14255E+09
         0.17805E+09
         0.20517E+09
         0.20235E+09
         0.17447E+09
         0.14491E+09
         0.10197E+09
         0.44073E+08
        -0.11444E+08
        -0.41107E+08
        -0.55027E+08
        -0.95088E+08
        -0.17211E+09
        -0.20556E+09
        -0.20485E+09
        -0.20404E+09
        -0.20646E+09
        -0.19977E+09
        -0.17625E+09
        -0.15398E+09
        -0.81173E+08
         0.20669E+08
         0.49984E+08
         0.53156E+08
         0.89114E+08
         0.15782E+09
         0.19686E+09
         0.19777E+09
        -0.58268E+08
         0.19563E+08
        -0.38748E+08
        -0.15945E+09
         0.12998E+09
         0.15686E+09
         0.10143E+09
        -0.73035E+08
        -0.52813E+08
        -0.73310E+08
        -0.26101E+08
         0.28231E+08
         0.11803E+09
        -0.17167E+09
        -0.69058E+08
         0.15343E+09
         0.16161E+09
        -0.12876E+09
        -0.49534E+08
        -0.15318E+09
        -0.17908E+09
        -0.18115E+09
        -0.18321E+09
        -0.15666E+09
         0.55204E+08
         0.80949E+08
        -0.17546E+09
         0.51330E+08
        -0.15115E+09
        -0.85342E+08
         0.13693E+09
         0.16095E+09
        -0.13127E+09
        -0.13182E+09
         0.18350E+09
         0.16285E+09
         0.14697E+09
        -0.93254E+08
        -0.20740E+08
        -0.62212E+08
        -0.16361E+09
        -0.18435E+09
        -0.17894E+09
        -0.16368E+09
        -0.13991E+09
        -0.61184E+08
         0.97917E+08
         0.13495E+09
        -0.20503E+08
         0.21705E+08
         0.14253E+09
         0.17805E+09
         0.20517E+09
         0.20235E+09
         0.17445E+09
         0.14491E+09
         0.10195E+09
         0.44073E+08
        -0.11462E+08
        -0.41143E+08
        -0.54993E+08
        -0.95077E+08
        -0.17211E+09
        -0.20556E+09
        -0.20485E+09
        -0.20404E+09
        -0.20646E+09
        -0.19977E+09
        -0.17623E+09
        -0.15397E+09
        -0.81154E+08
         0.20677E+08
         0.49950E+08
         0.53138E+08
         0.89078E+08
         0.15781E+09
         0.19686E+09
         0.19778E+09
        -0.58326E+08
         0.19662E+08
        -0.38771E+08
        -0.15933E+09
         0.12991E+09
         0.15679E+09
         0.10181E+09
        -0.72789E+08
        -0.52769E+08
        -0.73061E+08
        -0.25488E+08
         0.28299E+08
         0.11805E+09
        -0.17161E+09
        -0.68954E+08
         0.15348E+09
         0.16152E+09
        -0.12839E+09
        -0.49476E+08
        -0.15293E+09
        -0.17905E+09
        -0.18115E+09
        -0.18321E+09
        -0.15669E+09
         0.55159E+08
         0.81122E+08
        -0.17545E+09
         0.50305E+08
        -0.15220E+09
        -0.85304E+08
         0.13703E+09
         0.16103E+09
        -0.13090E+09
        -0.13174E+09
         0.18351E+09
         0.16282E+09
         0.14696E+09
        -0.93264E+08
        -0.20883E+08
        -0.62318E+08
        -0.16360E+09
        -0.18438E+09
        -0.17894E+09
        -0.16364E+09
        -0.13985E+09
        -0.61152E+08
         0.97868E+08
         0.13497E+09
        -0.20339E+08
         0.21683E+08
         0.14252E+09
         0.17804E+09
         0.20517E+09
         0.20234E+09
         0.17444E+09
         0.14491E+09
         0.10194E+09
         0.44073E+08
        -0.11479E+08
        -0.41178E+08
        -0.54959E+08
        -0.95066E+08
        -0.17210E+09
        -0.20555E+09
        -0.20485E+09
        -0.20403E+09
        -0.20647E+09
        -0.19977E+09
        -0.17622E+09
        -0.15396E+09
        -0.81136E+08
         0.20685E+08
         0.49915E+08
         0.53119E+08
         0.89042E+08
         0.15781E+09
         0.19686E+09
         0.19779E+09
        -0.58383E+08
         0.19761E+08
        -0.38794E+08
        -0.15920E+09
         0.12984E+09
         0.15673E+09
         0.10218E+09
        -0.72544E+08
        -0.52725E+08
        -0.72815E+08
        -0.24879E+08
         0.28367E+08
         0.11808E+09
        -0.17156E+09
        -0.68849E+08
         0.15352E+09
         0.16143E+09
        -0.12802E+09
        -0.49419E+08
        -0.15268E+09
        -0.17902E+09
        -0.18114E+09
        -0.18321E+09
        -0.15673E+09
         0.55114E+08
         0.81294E+08
        -0.17544E+09
         0.49281E+08
        -0.15325E+09
        -0.85265E+08
         0.13712E+09
         0.16111E+09
        -0.13052E+09
        -0.13167E+09
         0.18353E+09
         0.16279E+09
         0.14694E+09
        -0.93273E+08
        -0.21025E+08
        -0.62425E+08
        -0.16360E+09
        -0.18441E+09
        -0.17894E+09
        -0.16360E+09
        -0.13980E+09
        -0.61120E+08
         0.97823E+08
         0.13499E+09
        -0.20174E+08
         0.21663E+08
         0.14251E+09
         0.17803E+09
         0.20516E+09
         0.20233E+09
         0.17442E+09
         0.14491E+09
         0.10192E+09
         0.44073E+08
        -0.11496E+08
        -0.41213E+08
        -0.54926E+08
        -0.95055E+08
        -0.17210E+09
        -0.20555E+09
        -0.20485E+09
        -0.20403E+09
        -0.20647E+09
        -0.19977E+09
        -0.17620E+09
        -0.15396E+09
        -0.81117E+08
         0.20693E+08
         0.49879E+08
         0.53101E+08
         0.89007E+08
         0.15781E+09
         0.19687E+09
         0.19779E+09
        -0.58441E+08
         0.19863E+08
        -0.38817E+08
        -0.15908E+09
         0.12977E+09
         0.15667E+09
         0.10255E+09
        -0.72299E+08
        -0.52681E+08
        -0.72570E+08
        -0.24268E+08
         0.28434E+08
         0.11810E+09
        -0.17150E+09
        -0.68746E+08
         0.15357E+09
         0.16134E+09
        -0.12765E+09
        -0.49361E+08
        -0.15243E+09
        -0.17899E+09
        -0.18113E+09
        -0.18320E+09
        -0.15676E+09
         0.55070E+08
         0.81465E+08
        -0.17544E+09
         0.48264E+08
        -0.15429E+09
        -0.85226E+08
         0.13722E+09
         0.16119E+09
        -0.13014E+09
        -0.13159E+09
         0.18355E+09
         0.16276E+09
         0.14692E+09
        -0.93281E+08
        -0.21168E+08
        -0.62533E+08
        -0.16359E+09
        -0.18443E+09
        -0.17894E+09
        -0.16356E+09
        -0.13974E+09
        -0.61087E+08
         0.97774E+08
         0.13501E+09
        -0.20010E+08
         0.21640E+08
         0.14250E+09
         0.17802E+09
         0.20516E+09
         0.20232E+09
         0.17441E+09
         0.14491E+09
         0.10190E+09
         0.44073E+08
        -0.11513E+08
        -0.41247E+08
        -0.54891E+08
        -0.95044E+08
        -0.17210E+09
        -0.20555E+09
        -0.20484E+09
        -0.20403E+09
        -0.20648E+09
        -0.19977E+09
        -0.17619E+09
        -0.15395E+09
        -0.81098E+08
         0.20700E+08
         0.49844E+08
         0.53082E+08
         0.88971E+08
         0.15781E+09
         0.19687E+09
         0.19780E+09
        -0.58499E+08
         0.19963E+08
        -0.38841E+08
        -0.15896E+09
         0.12970E+09
         0.15661E+09
         0.10291E+09
        -0.72054E+08
        -0.52637E+08
        -0.72326E+08
        -0.23656E+08
         0.28503E+08
         0.11813E+09
        -0.17144E+09
        -0.68641E+08
         0.15362E+09
         0.16125E+09
        -0.12728E+09
        -0.49309E+08
        -0.15218E+09
        -0.17896E+09
        -0.18113E+09
        -0.18320E+09
        -0.15680E+09
         0.55026E+08
         0.81635E+08
        -0.17543E+09
         0.47245E+08
        -0.15534E+09
        -0.85187E+08
         0.13731E+09
         0.16127E+09
        -0.12975E+09
        -0.13151E+09
         0.18356E+09
         0.16273E+09
         0.14691E+09
        -0.93290E+08
        -0.21309E+08
        -0.62639E+08
        -0.16359E+09
        -0.18446E+09
        -0.17894E+09
        -0.16351E+09
        -0.13969E+09
        -0.61055E+08
         0.97726E+08
         0.13504E+09
        -0.19845E+08
         0.21617E+08
         0.14249E+09
         0.17802E+09
         0.20516E+09
         0.20231E+09
         0.17439E+09
         0.14491E+09
         0.10189E+09
         0.44073E+08
        -0.11529E+08
        -0.41282E+08
        -0.54858E+08
        -0.95032E+08
        -0.17210E+09
        -0.20554E+09
        -0.20484E+09
        -0.20402E+09
        -0.20648E+09
        -0.19977E+09
        -0.17617E+09
        -0.15395E+09
        -0.81079E+08
         0.20707E+08
         0.49809E+08
         0.53064E+08
         0.88936E+08
         0.15781E+09
         0.19687E+09
         0.19781E+09
        -0.58556E+08
         0.20063E+08
        -0.38862E+08
        -0.15883E+09
         0.12963E+09
         0.15655E+09
         0.10328E+09
        -0.71810E+08
        -0.52593E+08
        -0.72084E+08
        -0.23047E+08
         0.28572E+08
         0.11815E+09
        -0.17139E+09
        -0.68537E+08
         0.15367E+09
         0.16116E+09
        -0.12691E+09
        -0.49253E+08
        -0.15193E+09
        -0.17893E+09
        -0.18112E+09
        -0.18320E+09
        -0.15683E+09
         0.54981E+08
         0.81810E+08
        -0.17542E+09
         0.46231E+08
        -0.15637E+09
        -0.85150E+08
         0.13740E+09
         0.16135E+09
        -0.12937E+09
        -0.13144E+09
         0.18358E+09
         0.16270E+09
         0.14689E+09
        -0.93298E+08
        -0.21451E+08
        -0.62747E+08
        -0.16358E+09
        -0.18448E+09
        -0.17894E+09
        -0.16347E+09
        -0.13964E+09
        -0.61024E+08
         0.97679E+08
         0.13506E+09
        -0.19678E+08
         0.21597E+08
         0.14248E+09
         0.17801E+09
         0.20516E+09
         0.20230E+09
         0.17438E+09
         0.14491E+09
         0.10187E+09
         0.44073E+08
        -0.11546E+08
        -0.41317E+08
        -0.54824E+08
        -0.95022E+08
        -0.17209E+09
        -0.20554E+09
        -0.20484E+09
        -0.20402E+09
        -0.20649E+09
        -0.19977E+09
        -0.17616E+09
        -0.15394E+09
        -0.81061E+08
         0.20715E+08
         0.49774E+08
         0.53046E+08
         0.88900E+08
         0.15780E+09
         0.19687E+09
         0.19781E+09
        -0.58614E+08
         0.20164E+08
        -0.38884E+08
        -0.15871E+09
         0.12956E+09
         0.15649E+09
         0.10364E+09
        -0.71565E+08
        -0.52547E+08
        -0.71842E+08
        -0.22439E+08
         0.28639E+08
         0.11818E+09
        -0.17133E+09
        -0.68432E+08
         0.15372E+09
         0.16107E+09
        -0.12654E+09
        -0.49198E+08
        -0.15168E+09
        -0.17890E+09
        -0.18112E+09
        -0.18320E+09
        -0.15687E+09
         0.54935E+08
         0.81980E+08
        -0.17542E+09
         0.45215E+08
        -0.15741E+09
        -0.85112E+08
         0.13750E+09
         0.16143E+09
        -0.12898E+09
        -0.13136E+09
         0.18360E+09
         0.16267E+09
         0.14687E+09
        -0.93305E+08
        -0.21593E+08
        -0.62853E+08
        -0.16357E+09
        -0.18451E+09
        -0.17894E+09
        -0.16343E+09
        -0.13958E+09
        -0.60990E+08
         0.97631E+08
         0.13508E+09
        -0.19511E+08
         0.21575E+08
         0.14246E+09
         0.17800E+09
         0.20515E+09
         0.20230E+09
         0.17436E+09
         0.14491E+09
         0.10185E+09
         0.44073E+08
        -0.11563E+08
        -0.41352E+08
        -0.54789E+08
        -0.95011E+08
        -0.17209E+09
        -0.20553E+09
        -0.20484E+09
        -0.20402E+09
        -0.20649E+09
        -0.19977E+09
        -0.17614E+09
        -0.15394E+09
        -0.81042E+08
         0.20722E+08
         0.49738E+08
         0.53028E+08
         0.88865E+08
         0.15780E+09
         0.19688E+09
         0.19782E+09
        -0.58673E+08
         0.20264E+08
        -0.38906E+08
        -0.15858E+09
         0.12949E+09
         0.15642E+09
         0.10399E+09
        -0.71322E+08
        -0.52503E+08
        -0.71601E+08
        -0.21832E+08
         0.28707E+08
         0.11820E+09
        -0.17128E+09
        -0.68328E+08
         0.15377E+09
         0.16098E+09
        -0.12617E+09
        -0.49148E+08
        -0.15144E+09
        -0.17887E+09
        -0.18111E+09
        -0.18320E+09
        -0.15690E+09
         0.54890E+08
         0.82150E+08
        -0.17541E+09
         0.44206E+08
        -0.15789E+09
        -0.85073E+08
         0.13759E+09
         0.16151E+09
        -0.12858E+09
        -0.13128E+09
         0.18361E+09
         0.16263E+09
         0.14686E+09
        -0.93311E+08
        -0.21733E+08
        -0.62962E+08
        -0.16357E+09
        -0.18454E+09
        -0.17894E+09
        -0.16338E+09
        -0.13953E+09
        -0.60958E+08
         0.97582E+08
         0.13510E+09
        -0.19344E+08
         0.21552E+08
         0.14245E+09
         0.17799E+09
         0.20515E+09
         0.20229E+09
         0.17435E+09
         0.14491E+09
         0.10184E+09
         0.44073E+08
        -0.11580E+08
        -0.41386E+08
        -0.54755E+08
        -0.95000E+08
        -0.17209E+09
        -0.20553E+09
        -0.20484E+09
        -0.20401E+09
        -0.20650E+09
        -0.19977E+09
        -0.17613E+09
        -0.15393E+09
        -0.81023E+08
         0.20730E+08
         0.49703E+08
         0.53010E+08
         0.88829E+08
         0.15780E+09
         0.19688E+09
         0.19783E+09
        -0.58731E+08
         0.20362E+08
        -0.38927E+08
        -0.15845E+09
         0.12942E+09
         0.15636E+09
         0.10435E+09
        -0.71078E+08
        -0.52458E+08
        -0.71363E+08
        -0.21226E+08
         0.28777E+08
         0.11823E+09
        -0.17122E+09
        -0.68223E+08
         0.15381E+09
         0.16089E+09
        -0.12580E+09
        -0.49092E+08
        -0.15118E+09
        -0.17884E+09
        -0.18111E+09
        -0.18319E+09
        -0.15694E+09
         0.54844E+08
         0.82321E+08
        -0.17540E+09
         0.43197E+08
        -0.15826E+09
        -0.85033E+08
         0.13769E+09
         0.16159E+09
        -0.12819E+09
        -0.13120E+09
         0.18363E+09
         0.16260E+09
         0.14684E+09
        -0.93316E+08
        -0.21874E+08
        -0.63069E+08
        -0.16356E+09
        -0.18456E+09
        -0.17894E+09
        -0.16334E+09
        -0.13947E+09
        -0.60927E+08
         0.97535E+08
         0.13513E+09
        -0.19173E+08
         0.21531E+08
         0.14244E+09
         0.17798E+09
         0.20515E+09
         0.20228E+09
         0.17434E+09
         0.14491E+09
         0.10182E+09
         0.44073E+08
        -0.11597E+08
        -0.41420E+08
        -0.54721E+08
        -0.94989E+08
        -0.17209E+09
        -0.20553E+09
        -0.20484E+09
        -0.20401E+09
        -0.20650E+09
        -0.19977E+09
        -0.17611E+09
        -0.15392E+09
        -0.81004E+08
         0.20737E+08
         0.49668E+08
         0.52992E+08
         0.88794E+08
         0.15780E+09
         0.19688E+09
         0.19784E+09
        -0.58789E+08
         0.20464E+08
        -0.38949E+08
        -0.15833E+09
         0.12935E+09
         0.15630E+09
         0.10469E+09
        -0.70835E+08
        -0.52413E+08
        -0.71124E+08
        -0.20619E+08
         0.28845E+08
         0.11825E+09
        -0.17116E+09
        -0.68119E+08
         0.15386E+09
         0.16080E+09
        -0.12543E+09
        -0.49038E+08
        -0.15094E+09
        -0.17881E+09
        -0.18110E+09
        -0.18319E+09
        -0.15697E+09
         0.54796E+08
         0.82491E+08
        -0.17539E+09
         0.42188E+08
        -0.15862E+09
        -0.84994E+08
         0.13778E+09
         0.16167E+09
        -0.12779E+09
        -0.13113E+09
         0.18365E+09
         0.16257E+09
         0.14683E+09
        -0.93321E+08
        -0.22015E+08
        -0.63176E+08
        -0.16355E+09
        -0.18459E+09
        -0.17894E+09
        -0.16330E+09
        -0.13942E+09
        -0.60893E+08
         0.97487E+08
         0.13515E+09
        -0.19004E+08
         0.21508E+08
         0.14243E+09
         0.17797E+09
         0.20514E+09
         0.20227E+09
         0.17432E+09
         0.14491E+09
         0.10180E+09
         0.44073E+08
        -0.11613E+08
        -0.41455E+08
        -0.54687E+08
        -0.94979E+08
        -0.17208E+09
        -0.20552E+09
        -0.20484E+09
        -0.20401E+09
        -0.20651E+09
        -0.19977E+09
        -0.17610E+09
        -0.15392E+09
        -0.80985E+08
         0.20744E+08
         0.49632E+08
         0.52974E+08
         0.88758E+08
         0.15779E+09
         0.19688E+09
         0.19784E+09
        -0.58847E+08
         0.20564E+08
        -0.38971E+08
        -0.15820E+09
         0.12928E+09
         0.15624E+09
         0.10504E+09
        -0.70592E+08
        -0.52366E+08
        -0.70885E+08
        -0.20014E+08
         0.28913E+08
         0.11827E+09
        -0.17111E+09
        -0.68014E+08
         0.15391E+09
         0.16070E+09
        -0.12507E+09
        -0.48984E+08
        -0.15068E+09
        -0.17877E+09
        -0.18110E+09
        -0.18319E+09
        -0.15701E+09
         0.54746E+08
         0.82661E+08
        -0.17539E+09
         0.41170E+08
        -0.15897E+09
        -0.84957E+08
         0.13787E+09
         0.16175E+09
        -0.12739E+09
        -0.13105E+09
         0.18366E+09
         0.16254E+09
         0.14681E+09
        -0.93324E+08
        -0.22157E+08
        -0.63285E+08
        -0.16355E+09
        -0.18461E+09
        -0.17894E+09
        -0.16326E+09
        -0.13936E+09
        -0.60861E+08
         0.97438E+08
         0.13517E+09
        -0.18835E+08
         0.21485E+08
         0.14242E+09
         0.17797E+09
         0.20514E+09
         0.20226E+09
         0.17431E+09
         0.14491E+09
         0.10179E+09
         0.44074E+08
        -0.11630E+08
        -0.41489E+08
        -0.54653E+08
        -0.94968E+08
        -0.17208E+09
        -0.20552E+09
        -0.20484E+09
        -0.20400E+09
        -0.20651E+09
        -0.19978E+09
        -0.17608E+09
        -0.15391E+09
        -0.80966E+08
         0.20751E+08
         0.49597E+08
         0.52956E+08
         0.88723E+08
         0.15779E+09
         0.19688E+09
         0.19785E+09
        -0.58905E+08
         0.20663E+08
        -0.38992E+08
        -0.15807E+09
         0.12921E+09
         0.15618E+09
         0.10539E+09
        -0.70350E+08
        -0.52316E+08
        -0.70639E+08
        -0.19409E+08
         0.28982E+08
         0.11830E+09
        -0.17105E+09
        -0.67909E+08
         0.15396E+09
         0.16061E+09
        -0.12470E+09
        -0.48937E+08
        -0.15044E+09
        -0.17874E+09
        -0.18109E+09
        -0.18319E+09
        -0.15704E+09
         0.54689E+08
         0.82837E+08
        -0.17538E+09
         0.40127E+08
        -0.15932E+09
        -0.84928E+08
         0.13797E+09
         0.16182E+09
        -0.12699E+09
        -0.13097E+09
         0.18368E+09
         0.16251E+09
         0.14679E+09
        -0.93324E+08
        -0.22304E+08
        -0.63394E+08
        -0.16354E+09
        -0.18464E+09
        -0.17894E+09
        -0.16321E+09
        -0.13931E+09
        -0.60828E+08
         0.97392E+08
         0.13519E+09
        -0.18667E+08
         0.21463E+08
         0.14240E+09
         0.17796E+09
         0.20514E+09
         0.20226E+09
         0.17429E+09
         0.14491E+09
         0.10177E+09
         0.44074E+08
        -0.11646E+08
        -0.41523E+08
        -0.54620E+08
        -0.94958E+08
        -0.17208E+09
        -0.20552E+09
        -0.20484E+09
        -0.20400E+09
        -0.20652E+09
        -0.19978E+09
        -0.17607E+09
        -0.15391E+09
        -0.80948E+08
         0.20758E+08
         0.49562E+08
         0.52937E+08
         0.88688E+08
         0.15779E+09
         0.19688E+09
         0.19786E+09
        -0.58963E+08
         0.20762E+08
        -0.39013E+08
        -0.15794E+09
         0.12914E+09
         0.15612E+09
         0.10573E+09
        -0.70108E+08
        -0.52261E+08
        -0.70387E+08
        -0.18807E+08
         0.29050E+08
         0.11832E+09
        -0.17099E+09
        -0.67802E+08
         0.15400E+09
         0.16051E+09
        -0.12433E+09
        -0.48884E+08
        -0.15019E+09
        -0.17871E+09
        -0.18109E+09
        -0.18319E+09
        -0.15707E+09
         0.54624E+08
         0.83005E+08
        -0.17537E+09
         0.39052E+08
        -0.15965E+09
        -0.84902E+08
         0.13806E+09
         0.16190E+09
        -0.12658E+09
        -0.13090E+09
         0.18370E+09
         0.16248E+09
         0.14678E+09
        -0.93321E+08
        -0.22455E+08
        -0.63505E+08
        -0.16353E+09
        -0.18466E+09
        -0.17894E+09
        -0.16317E+09
        -0.13925E+09
        -0.60796E+08
         0.97343E+08
         0.13521E+09
        -0.18496E+08
         0.21441E+08
         0.14239E+09
         0.17795E+09
         0.20513E+09
         0.20225E+09
         0.17428E+09
         0.14491E+09
         0.10176E+09
         0.44074E+08
        -0.11662E+08
        -0.41557E+08
        -0.54588E+08
        -0.94948E+08
        -0.17207E+09
        -0.20551E+09
        -0.20484E+09
        -0.20400E+09
        -0.20652E+09
        -0.19978E+09
        -0.17605E+09
        -0.15390E+09
        -0.80929E+08
         0.20766E+08
         0.49527E+08
         0.52919E+08
         0.88653E+08
         0.15779E+09
         0.19689E+09
         0.19786E+09
        -0.59021E+08
         0.20862E+08
        -0.39034E+08
        -0.15782E+09
         0.12907E+09
         0.15605E+09
         0.10606E+09
        -0.69867E+08
        -0.52204E+08
        -0.70134E+08
        -0.18209E+08
         0.29117E+08
         0.11835E+09
        -0.17093E+09
        -0.67697E+08
         0.15405E+09
         0.16041E+09
        -0.12396E+09
        -0.48830E+08
        -0.14995E+09
        -0.17868E+09
        -0.18108E+09
        -0.18318E+09
        -0.15710E+09
         0.54556E+08
         0.83174E+08
        -0.17536E+09
         0.37973E+08
        -0.15998E+09
        -0.84877E+08
         0.13815E+09
         0.16198E+09
        -0.12618E+09
        -0.13082E+09
         0.18371E+09
         0.16245E+09
         0.14676E+09
        -0.93316E+08
        -0.22609E+08
        -0.63614E+08
        -0.16352E+09
        -0.18468E+09
        -0.17894E+09
        -0.16313E+09
        -0.13920E+09
        -0.60765E+08
         0.97297E+08
         0.13524E+09
        -0.18327E+08
         0.21417E+08
         0.14238E+09
         0.17794E+09
         0.20513E+09
         0.20224E+09
         0.17426E+09
         0.14491E+09
         0.10174E+09
         0.44074E+08
        -0.11679E+08
        -0.41590E+08
        -0.54555E+08
        -0.94938E+08
        -0.17206E+09
        -0.20551E+09
        -0.20484E+09
        -0.20399E+09
        -0.20653E+09
        -0.19978E+09
        -0.17604E+09
        -0.15389E+09
        -0.80909E+08
         0.20773E+08
         0.49493E+08
         0.52901E+08
         0.88618E+08
         0.15779E+09
         0.19689E+09
         0.19787E+09
        -0.56883E+08
         0.18797E+08
        -0.34763E+08
        -0.13093E+09
         0.12252E+09
         0.14243E+09
         0.77176E+08
        -0.66292E+08
        -0.47765E+08
        -0.66375E+08
        -0.13979E+08
         0.28546E+08
         0.11492E+09
        -0.15197E+09
        -0.66269E+08
         0.14463E+09
         0.12826E+09
        -0.97313E+08
        -0.41566E+08
        -0.99036E+08
        -0.17447E+09
        -0.17617E+09
        -0.17847E+09
        -0.12273E+09
         0.48706E+08
         0.66133E+08
        -0.15616E+09
         0.27103E+08
        -0.10004E+09
        -0.75828E+08
         0.12678E+09
         0.12155E+09
        -0.10333E+09
        -0.10224E+09
         0.17706E+09
         0.14972E+09
         0.13954E+09
        -0.90902E+08
        -0.21866E+08
        -0.60876E+08
        -0.15945E+09
        -0.17970E+09
        -0.17455E+09
        -0.15777E+09
        -0.13301E+09
        -0.58810E+08
         0.91632E+08
         0.12599E+09
        -0.16417E+08
         0.19721E+08
         0.13710E+09
         0.16635E+09
         0.20382E+09
         0.20106E+09
         0.17331E+09
         0.14416E+09
         0.10123E+09
         0.43865E+08
        -0.11638E+08
        -0.41352E+08
        -0.54153E+08
        -0.94334E+08
        -0.17102E+09
        -0.20438E+09
        -0.20351E+09
        -0.20268E+09
        -0.20541E+09
        -0.19881E+09
        -0.17521E+09
        -0.15319E+09
        -0.80426E+08
         0.20672E+08
         0.49182E+08
         0.52569E+08
         0.88088E+08
         0.15686E+09
         0.19582E+09
         0.19678E+09
        -0.28443E+08
         0.63620E+07
        -0.11404E+08
        -0.36059E+08
         0.54608E+08
         0.51297E+08
         0.17684E+08
        -0.29917E+08
        -0.17458E+08
        -0.29434E+08
        -0.34889E+07
         0.17122E+08
         0.62342E+08
        -0.49396E+08
        -0.40711E+08
         0.59693E+08
         0.33139E+08
        -0.20363E+08
        -0.12076E+08
        -0.20176E+08
        -0.10168E+09
        -0.97968E+08
        -0.10072E+09
        -0.30473E+08
         0.16164E+08
         0.12731E+08
        -0.50981E+08
         0.45081E+07
        -0.20511E+08
        -0.25171E+08
         0.46479E+08
         0.28666E+08
        -0.27764E+08
        -0.25550E+08
         0.88766E+08
         0.56086E+08
         0.62608E+08
        -0.51304E+08
        -0.10782E+08
        -0.28468E+08
        -0.91342E+08
        -0.10001E+09
        -0.10042E+09
        -0.82010E+08
        -0.62009E+08
        -0.30873E+08
         0.38573E+08
         0.49709E+08
        -0.56181E+07
         0.74015E+07
         0.68344E+08
         0.67118E+08
         0.16303E+09
         0.16374E+09
         0.14262E+09
         0.11974E+09
         0.84954E+08
         0.37077E+08
        -0.97171E+07
        -0.33267E+08
        -0.42963E+08
        -0.75947E+08
        -0.13833E+09
        -0.16815E+09
        -0.16292E+09
        -0.16270E+09
        -0.16963E+09
        -0.16668E+09
        -0.14803E+09
        -0.12949E+09
        -0.65493E+08
         0.16994E+08
         0.40131E+08
         0.42654E+08
         0.72063E+08
         0.12753E+09
         0.16133E+09
         0.16157E+09
  
SCALARS                      stress_xy  double 1
LOOKUP_TABLE default
        -0.76827E+00
        -0.18034E+01
        -0.15462E+02
         0.54591E+00
        -0.15361E-08
         0.15012E-09
         0.22571E-08
         0.34382E-09
        -0.16314E+03
         0.71672E+02
         0.10047E-07
         0.79671E-08
         0.61073E+01
        -0.12672E+01
         0.88679E-09
        -0.26634E-09
         0.17545E+01
         0.30645E+02
         0.44148E-10
         0.67276E-09
        -0.23321E+02
        -0.14799E+03
        -0.14557E+03
         0.68408E-08
         0.54477E-08
        -0.79554E-08
        -0.15408E+02
        -0.12879E+03
         0.92110E-08
         0.14175E-07
        -0.46918E+01
         0.90924E+01
         0.73786E+00
        -0.48617E-09
         0.19179E-08
        -0.24531E-10
        -0.41389E+02
        -0.19245E+02
         0.51329E-08
         0.42522E-08
        -0.81129E+02
        -0.73231E+02
         0.87503E-08
         0.58971E-08
        -0.78666E+02
        -0.14440E+02
        -0.31876E-09
         0.23732E-08
         0.21013E+02
         0.70137E-09
        -0.49200E+01
        -0.15813E-10
         0.12926E+01
         0.53012E-08
         0.64009E+01
         0.81575E-09
         0.91335E+02
        -0.44453E+01
         0.18958E-10
        -0.93006E-10
         0.60756E+00
        -0.61175E+02
         0.51662E-09
         0.13251E-08
         0.26281E+01
        -0.10489E-09
         0.37783E+02
         0.84051E-09
        -0.20208E+03
        -0.73358E+02
         0.64923E-09
        -0.62171E-08
        -0.16500E+03
        -0.99404E-08
         0.67595E+02
         0.66580E-08
         0.21350E+03
         0.99194E-09
         0.37281E+03
         0.12899E-08
         0.72317E+03
         0.39399E+03
         0.30325E-08
        -0.76894E-09
         0.48633E+02
        -0.92532E-10
        -0.14909E+03
        -0.83456E-08
        -0.21952E+03
        -0.93186E-08
        -0.48302E+03
        -0.22025E+03
        -0.58988E-08
         0.65476E-08
         0.35403E+02
         0.59618E-08
         0.87185E+02
         0.25610E-08
         0.20374E+03
         0.67999E-08
         0.50118E+03
         0.28581E+03
         0.14580E-07
         0.72902E-08
        -0.82396E+03
         0.34521E+03
        -0.94731E-08
         0.11601E-07
        -0.20063E+04
        -0.26923E-07
        -0.26165E+04
        -0.29430E-07
        -0.22992E+04
        -0.19974E-07
        -0.19610E+04
        -0.21187E-08
        -0.85728E+03
         0.59716E-08
         0.11296E+04
         0.36973E-08
         0.25385E+04
         0.33800E-08
         0.33562E+04
         0.72519E-08
         0.32906E+04
         0.88171E-08
         0.26975E+04
         0.34738E-08
         0.14369E+04
         0.21179E-08
        -0.98383E+02
         0.34616E-08
        -0.11952E+04
         0.23204E-08
        -0.19275E+04
        -0.82749E-08
        -0.26309E+04
        -0.21713E-07
        -0.23568E+04
        -0.27555E-07
        -0.15138E+04
        -0.17054E-07
        -0.16583E+03
         0.32536E-08
         0.11200E+04
         0.68957E-08
         0.16196E+04
         0.10990E-07
         0.19818E+04
         0.21641E-07
         0.17766E+04
         0.28081E-07
         0.16534E+04
         0.19951E-07
         0.13655E+04
         0.15778E-07
        -0.84926E+02
         0.22897E+02
         0.23445E+02
        -0.14641E+02
         0.18744E+03
         0.15400E+03
         0.24548E+01
        -0.55380E+02
        -0.24479E+02
        -0.63957E+02
        -0.18373E+02
        -0.33945E+03
        -0.48411E+03
         0.17961E+02
         0.27557E+03
        -0.36809E+02
         0.27372E+02
         0.81671E+01
         0.16611E+02
        -0.13503E+02
         0.67801E+02
         0.59509E+02
        -0.18068E+03
         0.47324E+01
         0.40658E+02
         0.44793E+01
         0.74570E+00
         0.14619E+01
         0.18162E+02
        -0.60220E+02
        -0.32080E+02
         0.68358E+01
         0.10994E+02
        -0.86631E+00
        -0.45327E+02
        -0.15642E+03
        -0.31735E+03
         0.48037E+03
         0.25004E+03
         0.45227E+03
         0.87674E+03
         0.20274E+03
        -0.16363E+03
        -0.32995E+03
        -0.39122E+03
        -0.50032E+03
         0.61616E+02
         0.18446E+03
         0.56916E+02
         0.19176E+03
         0.60115E+03
         0.23125E+03
        -0.20517E+04
         0.25860E+04
        -0.62608E+04
        -0.73569E+04
        -0.69829E+04
        -0.42256E+04
         0.25226E+03
         0.27428E+04
         0.39764E+04
         0.64522E+04
         0.67971E+04
         0.36251E+04
         0.14606E+04
         0.61749E+03
        -0.99859E+03
        -0.39455E+04
        -0.65871E+04
        -0.75295E+04
        -0.46243E+04
         0.83774E+03
         0.30314E+04
         0.31948E+04
         0.50334E+04
         0.55937E+04
         0.42349E+04
         0.39069E+04
        -0.30913E+06
         0.91703E+05
        -0.17634E+06
        -0.20441E+06
         0.51245E+06
         0.36493E+06
         0.25929E+06
        -0.38140E+06
        -0.24634E+06
        -0.37746E+06
         0.12210E+06
        -0.17056E+06
        -0.54646E+06
         0.19876E+06
         0.40378E+06
        -0.39225E+06
         0.17440E+06
         0.14037E+06
         0.20837E+06
         0.14457E+06
         0.28514E+06
         0.21636E+06
        -0.12979E+06
         0.21760E+06
         0.25341E+06
        -0.11555E+06
         0.45230E+05
        -0.38813E+05
        -0.15627E+06
        -0.37193E+06
        -0.41583E+06
        -0.16578E+06
         0.32149E+06
         0.28773E+06
         0.83920E+05
        -0.34252E+06
        -0.48474E+06
         0.49226E+06
         0.11634E+06
         0.33751E+06
         0.48630E+06
        -0.14754E+06
        -0.29352E+06
        -0.41856E+06
        -0.50602E+06
        -0.34735E+06
         0.45892E+06
         0.47053E+06
        -0.10666E+06
         0.11608E+06
         0.52931E+06
         0.67230E+05
        -0.25251E+06
         0.34878E+06
        -0.67257E+06
        -0.72638E+06
        -0.62327E+06
        -0.30297E+06
         0.79379E+05
         0.27767E+06
         0.36729E+06
         0.58927E+06
         0.68163E+06
         0.27167E+06
         0.12805E+06
         0.11440E+06
        -0.49247E+05
        -0.38000E+06
        -0.64983E+06
        -0.72967E+06
        -0.51901E+06
         0.14254E+06
         0.33458E+06
         0.35194E+06
         0.55537E+06
         0.70536E+06
         0.44537E+06
         0.42685E+06
        -0.30951E+06
         0.92029E+05
        -0.17661E+06
        -0.20567E+06
         0.51241E+06
         0.36522E+06
         0.26039E+06
        -0.38045E+06
        -0.24640E+06
        -0.37669E+06
         0.11970E+06
        -0.17097E+06
        -0.54654E+06
         0.19903E+06
         0.40333E+06
        -0.39218E+06
         0.17577E+06
         0.13977E+06
         0.20824E+06
         0.14351E+06
         0.28577E+06
         0.21657E+06
        -0.12983E+06
         0.21751E+06
         0.25348E+06
        -0.11553E+06
         0.45753E+05
        -0.38296E+05
        -0.15633E+06
        -0.37193E+06
        -0.41590E+06
        -0.16546E+06
         0.32155E+06
         0.28802E+06
         0.83108E+05
        -0.34275E+06
        -0.48476E+06
         0.49243E+06
         0.11724E+06
         0.33814E+06
         0.48640E+06
        -0.14709E+06
        -0.29378E+06
        -0.41873E+06
        -0.50603E+06
        -0.34720E+06
         0.45887E+06
         0.47046E+06
        -0.10598E+06
         0.11579E+06
         0.52927E+06
         0.66286E+05
        -0.25236E+06
         0.34886E+06
        -0.67264E+06
        -0.72638E+06
        -0.62319E+06
        -0.30296E+06
         0.79495E+05
         0.27790E+06
         0.36707E+06
         0.58920E+06
         0.68159E+06
         0.27179E+06
         0.12805E+06
         0.11464E+06
        -0.48842E+05
        -0.38012E+06
        -0.64994E+06
        -0.72970E+06
        -0.51891E+06
         0.14261E+06
         0.33438E+06
         0.35183E+06
         0.55516E+06
         0.70526E+06
         0.44511E+06
         0.42651E+06
        -0.30988E+06
         0.92349E+05
        -0.17688E+06
        -0.20695E+06
         0.51237E+06
         0.36551E+06
         0.26150E+06
        -0.37950E+06
        -0.24645E+06
        -0.37590E+06
         0.11731E+06
        -0.17138E+06
        -0.54662E+06
         0.19927E+06
         0.40287E+06
        -0.39211E+06
         0.17716E+06
         0.13917E+06
         0.20811E+06
         0.14244E+06
         0.28641E+06
         0.21678E+06
        -0.12989E+06
         0.21740E+06
         0.25359E+06
        -0.11550E+06
         0.46312E+05
        -0.37793E+05
        -0.15628E+06
        -0.37194E+06
        -0.41596E+06
        -0.16507E+06
         0.32160E+06
         0.28831E+06
         0.82291E+05
        -0.34298E+06
        -0.48477E+06
         0.49259E+06
         0.11813E+06
         0.33877E+06
         0.48651E+06
        -0.14660E+06
        -0.29401E+06
        -0.41893E+06
        -0.50606E+06
        -0.34706E+06
         0.45882E+06
         0.47037E+06
        -0.10528E+06
         0.11549E+06
         0.52923E+06
         0.65343E+05
        -0.25220E+06
         0.34894E+06
        -0.67271E+06
        -0.72638E+06
        -0.62311E+06
        -0.30295E+06
         0.79612E+05
         0.27812E+06
         0.36686E+06
         0.58912E+06
         0.68156E+06
         0.27191E+06
         0.12805E+06
         0.11488E+06
        -0.48435E+05
        -0.38024E+06
        -0.65006E+06
        -0.72973E+06
        -0.51881E+06
         0.14268E+06
         0.33417E+06
         0.35172E+06
         0.55495E+06
         0.70516E+06
         0.44485E+06
         0.42617E+06
        -0.31026E+06
         0.92681E+05
        -0.17715E+06
        -0.20823E+06
         0.51233E+06
         0.36580E+06
         0.26259E+06
        -0.37854E+06
        -0.24647E+06
        -0.37508E+06
         0.11491E+06
        -0.17179E+06
        -0.54670E+06
         0.19954E+06
         0.40241E+06
        -0.39203E+06
         0.17856E+06
         0.13856E+06
         0.20799E+06
         0.14133E+06
         0.28706E+06
         0.21696E+06
        -0.12999E+06
         0.21723E+06
         0.25380E+06
        -0.11544E+06
         0.46891E+05
        -0.37376E+05
        -0.15594E+06
        -0.37195E+06
        -0.41602E+06
        -0.16454E+06
         0.32164E+06
         0.28860E+06
         0.81480E+05
        -0.34321E+06
        -0.48478E+06
         0.49275E+06
         0.11902E+06
         0.33938E+06
         0.48665E+06
        -0.14599E+06
        -0.29418E+06
        -0.41922E+06
        -0.50612E+06
        -0.34690E+06
         0.45877E+06
         0.47030E+06
        -0.10457E+06
         0.11518E+06
         0.52918E+06
         0.64402E+05
        -0.25204E+06
         0.34902E+06
        -0.67278E+06
        -0.72639E+06
        -0.62303E+06
        -0.30294E+06
         0.79730E+05
         0.27834E+06
         0.36664E+06
         0.58904E+06
         0.68153E+06
         0.27205E+06
         0.12806E+06
         0.11511E+06
        -0.48024E+05
        -0.38037E+06
        -0.65019E+06
        -0.72977E+06
        -0.51871E+06
         0.14275E+06
         0.33397E+06
         0.35161E+06
         0.55475E+06
         0.70506E+06
         0.44459E+06
         0.42582E+06
        -0.31063E+06
         0.93012E+05
        -0.17742E+06
        -0.20950E+06
         0.51229E+06
         0.36609E+06
         0.26368E+06
        -0.37757E+06
        -0.24646E+06
        -0.37423E+06
         0.11251E+06
        -0.17220E+06
        -0.54678E+06
         0.19981E+06
         0.40196E+06
        -0.39195E+06
         0.17998E+06
         0.13795E+06
         0.20784E+06
         0.14016E+06
         0.28771E+06
         0.21712E+06
        -0.13016E+06
         0.21698E+06
         0.25413E+06
        -0.11533E+06
         0.47537E+05
        -0.37033E+05
        -0.15529E+06
        -0.37197E+06
        -0.41606E+06
        -0.16384E+06
         0.32166E+06
         0.28888E+06
         0.80662E+05
        -0.34344E+06
        -0.48479E+06
         0.49291E+06
         0.11989E+06
         0.33998E+06
         0.48682E+06
        -0.14525E+06
        -0.29430E+06
        -0.41960E+06
        -0.50620E+06
        -0.34671E+06
         0.45873E+06
         0.47023E+06
        -0.10386E+06
         0.11488E+06
         0.52914E+06
         0.63452E+05
        -0.25188E+06
         0.34910E+06
        -0.67285E+06
        -0.72639E+06
        -0.62294E+06
        -0.30293E+06
         0.79847E+05
         0.27856E+06
         0.36642E+06
         0.58897E+06
         0.68150E+06
         0.27222E+06
         0.12808E+06
         0.11534E+06
        -0.47611E+05
        -0.38050E+06
        -0.65034E+06
        -0.72981E+06
        -0.51861E+06
         0.14282E+06
         0.33377E+06
         0.35149E+06
         0.55454E+06
         0.70496E+06
         0.44434E+06
         0.42548E+06
        -0.31099E+06
         0.93375E+05
        -0.17765E+06
        -0.21078E+06
         0.51225E+06
         0.36638E+06
         0.26475E+06
        -0.37661E+06
        -0.24644E+06
        -0.37338E+06
         0.11009E+06
        -0.17261E+06
        -0.54686E+06
         0.20010E+06
         0.40150E+06
        -0.39187E+06
         0.18142E+06
         0.13735E+06
         0.20769E+06
         0.13899E+06
         0.28835E+06
         0.21727E+06
        -0.13034E+06
         0.21670E+06
         0.25445E+06
        -0.11521E+06
         0.48232E+05
        -0.36718E+05
        -0.15451E+06
        -0.37201E+06
        -0.41609E+06
        -0.16307E+06
         0.32168E+06
         0.28918E+06
         0.79839E+05
        -0.34368E+06
        -0.48481E+06
         0.49306E+06
         0.12076E+06
         0.34057E+06
         0.48700E+06
        -0.14447E+06
        -0.29439E+06
        -0.42001E+06
        -0.50630E+06
        -0.34654E+06
         0.45867E+06
         0.47017E+06
        -0.10313E+06
         0.11461E+06
         0.52910E+06
         0.62498E+05
        -0.25172E+06
         0.34918E+06
        -0.67292E+06
        -0.72639E+06
        -0.62286E+06
        -0.30292E+06
         0.79962E+05
         0.27878E+06
         0.36620E+06
         0.58889E+06
         0.68148E+06
         0.27240E+06
         0.12810E+06
         0.11556E+06
        -0.47199E+05
        -0.38064E+06
        -0.65050E+06
        -0.72985E+06
        -0.51851E+06
         0.14289E+06
         0.33356E+06
         0.35138E+06
         0.55434E+06
         0.70486E+06
         0.44408E+06
         0.42514E+06
        -0.31132E+06
         0.93819E+05
        -0.17782E+06
        -0.21209E+06
         0.51221E+06
         0.36667E+06
         0.26581E+06
        -0.37564E+06
        -0.24643E+06
        -0.37257E+06
         0.10766E+06
        -0.17302E+06
        -0.54694E+06
         0.20051E+06
         0.40103E+06
        -0.39180E+06
         0.18290E+06
         0.13674E+06
         0.20756E+06
         0.13783E+06
         0.28900E+06
         0.21742E+06
        -0.13053E+06
         0.21643E+06
         0.25471E+06
        -0.11504E+06
         0.49052E+05
        -0.36395E+05
        -0.15367E+06
        -0.37208E+06
        -0.41611E+06
        -0.16224E+06
         0.32169E+06
         0.28948E+06
         0.79014E+05
        -0.34392E+06
        -0.48484E+06
         0.49321E+06
         0.12163E+06
         0.34118E+06
         0.48718E+06
        -0.14368E+06
        -0.29447E+06
        -0.42041E+06
        -0.50641E+06
        -0.34637E+06
         0.45858E+06
         0.47016E+06
        -0.10232E+06
         0.11442E+06
         0.52905E+06
         0.61530E+05
        -0.25157E+06
         0.34926E+06
        -0.67299E+06
        -0.72639E+06
        -0.62278E+06
        -0.30291E+06
         0.80077E+05
         0.27900E+06
         0.36598E+06
         0.58882E+06
         0.68146E+06
         0.27258E+06
         0.12812E+06
         0.11579E+06
        -0.46787E+05
        -0.38078E+06
        -0.65065E+06
        -0.72989E+06
        -0.51840E+06
         0.14294E+06
         0.33334E+06
         0.35127E+06
         0.55414E+06
         0.70476E+06
         0.44382E+06
         0.42479E+06
        -0.31163E+06
         0.94287E+05
        -0.17797E+06
        -0.21342E+06
         0.51218E+06
         0.36696E+06
         0.26686E+06
        -0.37469E+06
        -0.24642E+06
        -0.37178E+06
         0.10521E+06
        -0.17343E+06
        -0.54702E+06
         0.20094E+06
         0.40057E+06
        -0.39174E+06
         0.18439E+06
         0.13612E+06
         0.20742E+06
         0.13669E+06
         0.28965E+06
         0.21758E+06
        -0.13071E+06
         0.21617E+06
         0.25492E+06
        -0.11485E+06
         0.49903E+05
        -0.36062E+05
        -0.15281E+06
        -0.37217E+06
        -0.41613E+06
        -0.16137E+06
         0.32169E+06
         0.28978E+06
         0.78180E+05
        -0.34418E+06
        -0.48487E+06
         0.49335E+06
         0.12250E+06
         0.34178E+06
         0.48737E+06
        -0.14288E+06
        -0.29454E+06
        -0.42082E+06
        -0.50652E+06
        -0.34622E+06
         0.45848E+06
         0.47015E+06
        -0.10147E+06
         0.11427E+06
         0.52901E+06
         0.60559E+05
        -0.25141E+06
         0.34934E+06
        -0.67305E+06
        -0.72639E+06
        -0.62270E+06
        -0.30290E+06
         0.80192E+05
         0.27922E+06
         0.36576E+06
         0.58874E+06
         0.68144E+06
         0.27276E+06
         0.12814E+06
         0.11602E+06
        -0.46373E+05
        -0.38091E+06
        -0.65081E+06
        -0.72993E+06
        -0.51830E+06
         0.14299E+06
         0.33312E+06
         0.35115E+06
         0.55395E+06
         0.70466E+06
         0.44356E+06
         0.42445E+06
        -0.31194E+06
         0.94760E+05
        -0.17811E+06
        -0.21474E+06
         0.51214E+06
         0.36725E+06
         0.26790E+06
        -0.37373E+06
        -0.24642E+06
        -0.37100E+06
         0.10277E+06
        -0.17384E+06
        -0.54710E+06
         0.20139E+06
         0.40010E+06
        -0.39168E+06
         0.18588E+06
         0.13551E+06
         0.20728E+06
         0.13553E+06
         0.29030E+06
         0.21773E+06
        -0.13089E+06
         0.21591E+06
         0.25513E+06
        -0.11467E+06
         0.50775E+05
        -0.35711E+05
        -0.15193E+06
        -0.37225E+06
        -0.41615E+06
        -0.16051E+06
         0.32168E+06
         0.29008E+06
         0.77343E+05
        -0.34442E+06
        -0.48490E+06
         0.49349E+06
         0.12337E+06
         0.34238E+06
         0.48755E+06
        -0.14209E+06
        -0.29462E+06
        -0.42122E+06
        -0.50663E+06
        -0.34607E+06
         0.45838E+06
         0.47015E+06
        -0.10062E+06
         0.11412E+06
         0.52897E+06
         0.59581E+05
        -0.25125E+06
         0.34942E+06
        -0.67312E+06
        -0.72639E+06
        -0.62261E+06
        -0.30289E+06
         0.80308E+05
         0.27944E+06
         0.36554E+06
         0.58867E+06
         0.68142E+06
         0.27294E+06
         0.12817E+06
         0.11626E+06
        -0.45961E+05
        -0.38104E+06
        -0.65097E+06
        -0.72997E+06
        -0.51820E+06
         0.14305E+06
         0.33290E+06
         0.35104E+06
         0.55375E+06
         0.70456E+06
         0.44330E+06
         0.42410E+06
        -0.31226E+06
         0.95239E+05
        -0.17825E+06
        -0.21604E+06
         0.51210E+06
         0.36753E+06
         0.26894E+06
        -0.37276E+06
        -0.24641E+06
        -0.37021E+06
         0.10032E+06
        -0.17424E+06
        -0.54718E+06
         0.20182E+06
         0.39963E+06
        -0.39162E+06
         0.18737E+06
         0.13491E+06
         0.20713E+06
         0.13438E+06
         0.29094E+06
         0.21789E+06
        -0.13106E+06
         0.21565E+06
         0.25534E+06
        -0.11448E+06
         0.51622E+05
        -0.35344E+05
        -0.15102E+06
        -0.37233E+06
        -0.41616E+06
        -0.15964E+06
         0.32165E+06
         0.29039E+06
         0.76509E+05
        -0.34467E+06
        -0.48493E+06
         0.49363E+06
         0.12424E+06
         0.34298E+06
         0.48774E+06
        -0.14131E+06
        -0.29470E+06
        -0.42162E+06
        -0.50674E+06
        -0.34591E+06
         0.45828E+06
         0.47015E+06
        -0.99775E+05
         0.11396E+06
         0.52892E+06
         0.58606E+05
        -0.25109E+06
         0.34950E+06
        -0.67319E+06
        -0.72639E+06
        -0.62253E+06
        -0.30288E+06
         0.80423E+05
         0.27966E+06
         0.36532E+06
         0.58860E+06
         0.68140E+06
         0.27311E+06
         0.12819E+06
         0.11649E+06
        -0.45551E+05
        -0.38118E+06
        -0.65112E+06
        -0.73001E+06
        -0.51809E+06
         0.14310E+06
         0.33267E+06
         0.35092E+06
         0.55356E+06
         0.70446E+06
         0.44305E+06
         0.42376E+06
        -0.31257E+06
         0.95713E+05
        -0.17839E+06
        -0.21734E+06
         0.51206E+06
         0.36781E+06
         0.26996E+06
        -0.37180E+06
        -0.24641E+06
        -0.36943E+06
         0.97861E+05
        -0.17465E+06
        -0.54726E+06
         0.20226E+06
         0.39916E+06
        -0.39156E+06
         0.18887E+06
         0.13430E+06
         0.20701E+06
         0.13321E+06
         0.29159E+06
         0.21803E+06
        -0.13124E+06
         0.21539E+06
         0.25555E+06
        -0.11429E+06
         0.52484E+05
        -0.34955E+05
        -0.15009E+06
        -0.37240E+06
        -0.41617E+06
        -0.15878E+06
         0.32161E+06
         0.29069E+06
         0.75670E+05
        -0.34492E+06
        -0.48496E+06
         0.49377E+06
         0.12510E+06
         0.34357E+06
         0.48792E+06
        -0.14052E+06
        -0.29477E+06
        -0.42202E+06
        -0.50685E+06
        -0.34576E+06
         0.45818E+06
         0.47015E+06
        -0.98920E+05
         0.11380E+06
         0.52888E+06
         0.57624E+05
        -0.25093E+06
         0.34957E+06
        -0.67325E+06
        -0.72639E+06
        -0.62245E+06
        -0.30287E+06
         0.80535E+05
         0.27988E+06
         0.36511E+06
         0.58852E+06
         0.68138E+06
         0.27329E+06
         0.12822E+06
         0.11672E+06
        -0.45138E+05
        -0.38132E+06
        -0.65128E+06
        -0.73005E+06
        -0.51799E+06
         0.14315E+06
         0.33245E+06
         0.35081E+06
         0.55336E+06
         0.70436E+06
         0.44279E+06
         0.42341E+06
        -0.31288E+06
         0.96186E+05
        -0.17853E+06
        -0.21865E+06
         0.51202E+06
         0.36810E+06
         0.27098E+06
        -0.37084E+06
        -0.24640E+06
        -0.36865E+06
         0.95409E+05
        -0.17506E+06
        -0.54734E+06
         0.20270E+06
         0.39870E+06
        -0.39150E+06
         0.19035E+06
         0.13369E+06
         0.20687E+06
         0.13207E+06
         0.29223E+06
         0.21818E+06
        -0.13142E+06
         0.21513E+06
         0.25575E+06
        -0.11411E+06
         0.53326E+05
        -0.34553E+05
        -0.14913E+06
        -0.37249E+06
        -0.41618E+06
        -0.15791E+06
         0.32155E+06
         0.29099E+06
         0.74827E+05
        -0.34517E+06
        -0.48499E+06
         0.49391E+06
         0.12596E+06
         0.34418E+06
         0.48810E+06
        -0.13974E+06
        -0.29485E+06
        -0.42242E+06
        -0.50696E+06
        -0.34561E+06
         0.45808E+06
         0.47015E+06
        -0.98062E+05
         0.11365E+06
         0.52884E+06
         0.56643E+05
        -0.25077E+06
         0.34965E+06
        -0.67332E+06
        -0.72639E+06
        -0.62236E+06
        -0.30287E+06
         0.80649E+05
         0.28010E+06
         0.36489E+06
         0.58845E+06
         0.68135E+06
         0.27347E+06
         0.12824E+06
         0.11695E+06
        -0.44724E+05
        -0.38145E+06
        -0.65143E+06
        -0.73009E+06
        -0.51789E+06
         0.14320E+06
         0.33222E+06
         0.35070E+06
         0.55317E+06
         0.70426E+06
         0.44254E+06
         0.42306E+06
        -0.31320E+06
         0.96664E+05
        -0.17866E+06
        -0.21996E+06
         0.51198E+06
         0.36838E+06
         0.27199E+06
        -0.36987E+06
        -0.24638E+06
        -0.36786E+06
         0.92959E+05
        -0.17547E+06
        -0.54742E+06
         0.20312E+06
         0.39823E+06
        -0.39143E+06
         0.19184E+06
         0.13308E+06
         0.20673E+06
         0.13093E+06
         0.29288E+06
         0.21833E+06
        -0.13160E+06
         0.21488E+06
         0.25594E+06
        -0.11392E+06
         0.54193E+05
        -0.34130E+05
        -0.14815E+06
        -0.37256E+06
        -0.41619E+06
        -0.15704E+06
         0.32148E+06
         0.29129E+06
         0.73986E+05
        -0.34542E+06
        -0.48502E+06
         0.49404E+06
         0.12683E+06
         0.34477E+06
         0.48829E+06
        -0.13895E+06
        -0.29492E+06
        -0.42282E+06
        -0.50707E+06
        -0.34545E+06
         0.45798E+06
         0.47015E+06
        -0.97198E+05
         0.11349E+06
         0.52879E+06
         0.55662E+05
        -0.25061E+06
         0.34973E+06
        -0.67339E+06
        -0.72639E+06
        -0.62228E+06
        -0.30285E+06
         0.80764E+05
         0.28032E+06
         0.36467E+06
         0.58838E+06
         0.68133E+06
         0.27364E+06
         0.12826E+06
         0.11719E+06
        -0.44312E+05
        -0.38158E+06
        -0.65159E+06
        -0.73013E+06
        -0.51779E+06
         0.14325E+06
         0.33200E+06
         0.35058E+06
         0.55297E+06
         0.70416E+06
         0.44228E+06
         0.42272E+06
        -0.31351E+06
         0.97133E+05
        -0.17880E+06
        -0.22126E+06
         0.51194E+06
         0.36867E+06
         0.27298E+06
        -0.36890E+06
        -0.24637E+06
        -0.36707E+06
         0.90511E+05
        -0.17588E+06
        -0.54750E+06
         0.20357E+06
         0.39776E+06
        -0.39137E+06
         0.19332E+06
         0.13247E+06
         0.20661E+06
         0.12979E+06
         0.29352E+06
         0.21848E+06
        -0.13178E+06
         0.21463E+06
         0.25613E+06
        -0.11372E+06
         0.55036E+05
        -0.33692E+05
        -0.14663E+06
        -0.37264E+06
        -0.41620E+06
        -0.15617E+06
         0.32140E+06
         0.29159E+06
         0.73141E+05
        -0.34567E+06
        -0.48505E+06
         0.49417E+06
         0.12768E+06
         0.34538E+06
         0.48847E+06
        -0.13817E+06
        -0.29500E+06
        -0.42321E+06
        -0.50718E+06
        -0.34530E+06
         0.45787E+06
         0.47015E+06
        -0.96337E+05
         0.11333E+06
         0.52875E+06
         0.54684E+05
        -0.25044E+06
         0.34980E+06
        -0.67345E+06
        -0.72639E+06
        -0.62220E+06
        -0.30284E+06
         0.80879E+05
         0.28053E+06
         0.36445E+06
         0.58830E+06
         0.68131E+06
         0.27382E+06
         0.12829E+06
         0.11742E+06
        -0.43901E+05
        -0.38172E+06
        -0.65175E+06
        -0.73017E+06
        -0.51768E+06
         0.14329E+06
         0.33178E+06
         0.35047E+06
         0.55278E+06
         0.70405E+06
         0.44203E+06
         0.42237E+06
        -0.31383E+06
         0.97600E+05
        -0.17893E+06
        -0.22255E+06
         0.51190E+06
         0.36895E+06
         0.27398E+06
        -0.36793E+06
        -0.24636E+06
        -0.36629E+06
         0.88060E+05
        -0.17629E+06
        -0.54758E+06
         0.20398E+06
         0.39728E+06
        -0.39131E+06
         0.19481E+06
         0.13187E+06
         0.20647E+06
         0.12865E+06
         0.29417E+06
         0.21862E+06
        -0.13196E+06
         0.21438E+06
         0.25631E+06
        -0.11352E+06
         0.55894E+05
        -0.33234E+05
        -0.14500E+06
        -0.37271E+06
        -0.41621E+06
        -0.15529E+06
         0.32130E+06
         0.29189E+06
         0.72298E+05
        -0.34592E+06
        -0.48508E+06
         0.49430E+06
         0.12854E+06
         0.34598E+06
         0.48865E+06
        -0.13739E+06
        -0.29508E+06
        -0.42360E+06
        -0.50729E+06
        -0.34515E+06
         0.45777E+06
         0.47015E+06
        -0.95460E+05
         0.11318E+06
         0.52871E+06
         0.53698E+05
        -0.25028E+06
         0.34987E+06
        -0.67352E+06
        -0.72639E+06
        -0.62212E+06
        -0.30283E+06
         0.80991E+05
         0.28075E+06
         0.36423E+06
         0.58823E+06
         0.68129E+06
         0.27399E+06
         0.12831E+06
         0.11765E+06
        -0.43489E+05
        -0.38185E+06
        -0.65190E+06
        -0.73021E+06
        -0.51758E+06
         0.14334E+06
         0.33155E+06
         0.35036E+06
         0.55258E+06
         0.70395E+06
         0.44178E+06
         0.42202E+06
        -0.31414E+06
         0.98080E+05
        -0.17907E+06
        -0.22384E+06
         0.51185E+06
         0.36923E+06
         0.27495E+06
        -0.36696E+06
        -0.24634E+06
        -0.36550E+06
         0.85605E+05
        -0.17670E+06
        -0.54766E+06
         0.20442E+06
         0.39681E+06
        -0.39125E+06
         0.19630E+06
         0.13127E+06
         0.20634E+06
         0.12751E+06
         0.29481E+06
         0.21876E+06
        -0.13213E+06
         0.21413E+06
         0.25648E+06
        -0.11332E+06
         0.56728E+05
        -0.32759E+05
        -0.14337E+06
        -0.37278E+06
        -0.41622E+06
        -0.15442E+06
         0.32119E+06
         0.29219E+06
         0.71447E+05
        -0.34617E+06
        -0.48511E+06
         0.49442E+06
         0.12940E+06
         0.34657E+06
         0.48884E+06
        -0.13661E+06
        -0.29516E+06
        -0.42400E+06
        -0.50740E+06
        -0.34499E+06
         0.45767E+06
         0.47015E+06
        -0.94591E+05
         0.11301E+06
         0.52866E+06
         0.52709E+05
        -0.25012E+06
         0.34995E+06
        -0.67358E+06
        -0.72639E+06
        -0.62203E+06
        -0.30282E+06
         0.81103E+05
         0.28096E+06
         0.36401E+06
         0.58816E+06
         0.68127E+06
         0.27417E+06
         0.12833E+06
         0.11788E+06
        -0.43077E+05
        -0.38198E+06
        -0.65206E+06
        -0.73025E+06
        -0.51748E+06
         0.14339E+06
         0.33133E+06
         0.35025E+06
         0.55239E+06
         0.70385E+06
         0.44153E+06
         0.42167E+06
        -0.31445E+06
         0.98551E+05
        -0.17921E+06
        -0.22513E+06
         0.51181E+06
         0.36951E+06
         0.27593E+06
        -0.36598E+06
        -0.24632E+06
        -0.36470E+06
         0.83149E+05
        -0.17711E+06
        -0.54774E+06
         0.20483E+06
         0.39634E+06
        -0.39118E+06
         0.19779E+06
         0.13067E+06
         0.20621E+06
         0.12639E+06
         0.29545E+06
         0.21890E+06
        -0.13231E+06
         0.21389E+06
         0.25664E+06
        -0.11312E+06
         0.57586E+05
        -0.32259E+05
        -0.14171E+06
        -0.37286E+06
        -0.41622E+06
        -0.15354E+06
         0.32107E+06
         0.29249E+06
         0.70595E+05
        -0.34642E+06
        -0.48514E+06
         0.49454E+06
         0.13026E+06
         0.34718E+06
         0.48902E+06
        -0.13583E+06
        -0.29524E+06
        -0.42439E+06
        -0.50751E+06
        -0.34484E+06
         0.45757E+06
         0.47015E+06
        -0.93723E+05
         0.11285E+06
         0.52862E+06
         0.51726E+05
        -0.24996E+06
         0.35002E+06
        -0.67365E+06
        -0.72639E+06
        -0.62195E+06
        -0.30281E+06
         0.81213E+05
         0.28118E+06
         0.36379E+06
         0.58809E+06
         0.68125E+06
         0.27435E+06
         0.12835E+06
         0.11811E+06
        -0.42667E+05
        -0.38212E+06
        -0.65221E+06
        -0.73029E+06
        -0.51737E+06
         0.14344E+06
         0.33110E+06
         0.35013E+06
         0.55220E+06
         0.70375E+06
         0.44128E+06
         0.42133E+06
        -0.31477E+06
         0.99020E+05
        -0.17934E+06
        -0.22641E+06
         0.51177E+06
         0.36979E+06
         0.27689E+06
        -0.36501E+06
        -0.24628E+06
        -0.36387E+06
         0.80694E+05
        -0.17752E+06
        -0.54782E+06
         0.20527E+06
         0.39586E+06
        -0.39112E+06
         0.19929E+06
         0.13006E+06
         0.20610E+06
         0.12532E+06
         0.29609E+06
         0.21903E+06
        -0.13249E+06
         0.21363E+06
         0.25677E+06
        -0.11293E+06
         0.58437E+05
        -0.31722E+05
        -0.14003E+06
        -0.37295E+06
        -0.41622E+06
        -0.15265E+06
         0.32093E+06
         0.29279E+06
         0.69745E+05
        -0.34667E+06
        -0.48517E+06
         0.49465E+06
         0.13116E+06
         0.34778E+06
         0.48921E+06
        -0.13506E+06
        -0.29533E+06
        -0.42478E+06
        -0.50762E+06
        -0.34468E+06
         0.45746E+06
         0.47015E+06
        -0.92858E+05
         0.11269E+06
         0.52858E+06
         0.50741E+05
        -0.24979E+06
         0.35010E+06
        -0.67371E+06
        -0.72639E+06
        -0.62187E+06
        -0.30281E+06
         0.81325E+05
         0.28139E+06
         0.36358E+06
         0.58802E+06
         0.68123E+06
         0.27452E+06
         0.12836E+06
         0.11834E+06
        -0.42258E+05
        -0.38225E+06
        -0.65237E+06
        -0.73032E+06
        -0.51727E+06
         0.14349E+06
         0.33088E+06
         0.35002E+06
         0.55200E+06
         0.70365E+06
         0.44103E+06
         0.42098E+06
        -0.31508E+06
         0.99488E+05
        -0.17947E+06
        -0.22769E+06
         0.51172E+06
         0.37006E+06
         0.27785E+06
        -0.36403E+06
        -0.24622E+06
        -0.36301E+06
         0.78243E+05
        -0.17793E+06
        -0.54790E+06
         0.20570E+06
         0.39538E+06
        -0.39106E+06
         0.20081E+06
         0.12946E+06
         0.20597E+06
         0.12428E+06
         0.29673E+06
         0.21917E+06
        -0.13266E+06
         0.21339E+06
         0.25685E+06
        -0.11272E+06
         0.59328E+05
        -0.31142E+05
        -0.13835E+06
        -0.37304E+06
        -0.41622E+06
        -0.15176E+06
         0.32078E+06
         0.29309E+06
         0.68888E+05
        -0.34691E+06
        -0.48520E+06
         0.49475E+06
         0.13208E+06
         0.34839E+06
         0.48940E+06
        -0.13429E+06
        -0.29544E+06
        -0.42517E+06
        -0.50773E+06
        -0.34453E+06
         0.45736E+06
         0.47015E+06
        -0.91980E+05
         0.11253E+06
         0.52854E+06
         0.49746E+05
        -0.24963E+06
         0.35017E+06
        -0.67377E+06
        -0.72639E+06
        -0.62179E+06
        -0.30280E+06
         0.81435E+05
         0.28160E+06
         0.36336E+06
         0.58795E+06
         0.68122E+06
         0.27469E+06
         0.12835E+06
         0.11856E+06
        -0.41846E+05
        -0.38238E+06
        -0.65252E+06
        -0.73036E+06
        -0.51717E+06
         0.14354E+06
         0.33066E+06
         0.34990E+06
         0.55181E+06
         0.70355E+06
         0.44079E+06
         0.42063E+06
        -0.31539E+06
         0.99958E+05
        -0.17960E+06
        -0.22896E+06
         0.51168E+06
         0.37034E+06
         0.27879E+06
        -0.36306E+06
        -0.24616E+06
        -0.36214E+06
         0.75807E+05
        -0.17833E+06
        -0.54798E+06
         0.20612E+06
         0.39490E+06
        -0.39099E+06
         0.20233E+06
         0.12886E+06
         0.20584E+06
         0.12327E+06
         0.29737E+06
         0.21930E+06
        -0.13283E+06
         0.21316E+06
         0.25692E+06
        -0.11252E+06
         0.60195E+05
        -0.30534E+05
        -0.13666E+06
        -0.37312E+06
        -0.41623E+06
        -0.15090E+06
         0.32062E+06
         0.29340E+06
         0.68039E+05
        -0.34715E+06
        -0.48522E+06
         0.49484E+06
         0.13301E+06
         0.34898E+06
         0.48959E+06
        -0.13354E+06
        -0.29555E+06
        -0.42555E+06
        -0.50783E+06
        -0.34438E+06
         0.45726E+06
         0.47015E+06
        -0.91110E+05
         0.11237E+06
         0.52849E+06
         0.48755E+05
        -0.24946E+06
         0.35024E+06
        -0.67384E+06
        -0.72639E+06
        -0.62170E+06
        -0.30278E+06
         0.81544E+05
         0.28181E+06
         0.36315E+06
         0.58787E+06
         0.68122E+06
         0.27485E+06
         0.12834E+06
         0.11879E+06
        -0.41435E+05
        -0.38251E+06
        -0.65268E+06
        -0.73040E+06
        -0.51706E+06
         0.14359E+06
         0.33044E+06
         0.34979E+06
         0.55162E+06
         0.70345E+06
         0.44054E+06
         0.42028E+06
        -0.29479E+06
         0.84329E+05
        -0.14946E+06
        -0.17795E+06
         0.46574E+06
         0.31774E+06
         0.18359E+06
        -0.33108E+06
        -0.21322E+06
        -0.32898E+06
         0.51855E+05
        -0.17139E+06
        -0.51815E+06
         0.16914E+06
         0.37967E+06
        -0.35116E+06
         0.14967E+06
         0.98784E+05
         0.16140E+06
         0.75225E+05
         0.28492E+06
         0.20832E+06
        -0.12654E+06
         0.15295E+06
         0.21354E+06
        -0.87473E+05
         0.50090E+05
        -0.21084E+05
        -0.75743E+05
        -0.30939E+06
        -0.36164E+06
        -0.10405E+06
         0.24483E+06
         0.21219E+06
         0.62738E+05
        -0.30122E+06
        -0.44244E+06
         0.47069E+06
         0.12423E+06
         0.32094E+06
         0.46673E+06
        -0.12618E+06
        -0.28213E+06
        -0.40032E+06
        -0.46749E+06
        -0.32380E+06
         0.41038E+06
         0.41507E+06
        -0.76312E+05
         0.97482E+05
         0.49230E+06
         0.42405E+05
        -0.24628E+06
         0.34656E+06
        -0.66708E+06
        -0.71943E+06
        -0.61608E+06
        -0.30016E+06
         0.80905E+05
         0.27863E+06
         0.35832E+06
         0.58094E+06
         0.67348E+06
         0.27214E+06
         0.12673E+06
         0.11756E+06
        -0.40632E+05
        -0.37914E+06
        -0.64722E+06
        -0.72428E+06
        -0.51141E+06
         0.14220E+06
         0.32672E+06
         0.34578E+06
         0.54562E+06
         0.69560E+06
         0.43584E+06
         0.41559E+06
        -0.77138E+05
         0.11033E+05
        -0.18658E+05
        -0.17662E+05
         0.96728E+05
         0.45492E+05
         0.12767E+05
        -0.70805E+05
        -0.32304E+05
        -0.68092E+05
         0.39497E+04
        -0.62450E+05
        -0.15552E+06
         0.19646E+05
         0.14517E+06
        -0.65661E+05
         0.12997E+05
         0.69414E+04
         0.16372E+05
         0.44314E+04
         0.98746E+05
         0.65833E+05
        -0.41180E+05
         0.12482E+05
         0.26446E+05
        -0.52329E+04
         0.59249E+04
        -0.90722E+03
        -0.42528E+04
        -0.37991E+05
        -0.55186E+05
        -0.79213E+04
         0.23332E+05
         0.17812E+05
         0.15937E+05
        -0.45579E+05
        -0.92964E+05
         0.15225E+06
         0.30847E+05
         0.72220E+05
         0.15563E+06
        -0.39742E+05
        -0.95194E+05
        -0.11160E+06
        -0.10578E+06
        -0.91092E+05
         0.76503E+05
         0.69445E+05
        -0.10070E+05
         0.14906E+05
         0.12566E+06
         0.72560E+04
        -0.15830E+06
         0.23116E+06
        -0.45410E+06
        -0.49878E+06
        -0.43601E+06
        -0.21552E+06
         0.56589E+05
         0.18125E+06
         0.22691E+06
         0.37862E+06
         0.44302E+06
         0.18516E+06
         0.81649E+05
         0.76293E+05
        -0.27680E+05
        -0.26786E+06
        -0.46429E+06
        -0.52005E+06
        -0.34095E+06
         0.96527E+05
         0.21872E+06
         0.22894E+06
         0.36716E+06
         0.46227E+06
         0.29730E+06
         0.28152E+06
  
SCALARS                      strain_xx  double 1
LOOKUP_TABLE default
         0.15809E-04
         0.75367E-03
         0.84362E-02
         0.41768E-04
        -0.52862E-19
        -0.66459E-20
        -0.74308E-19
        -0.29639E-20
         0.64791E-01
         0.29378E-01
        -0.66480E-18
        -0.53937E-18
         0.11102E-03
         0.18444E-02
        -0.10112E-19
        -0.22192E-18
         0.88668E-04
         0.17041E-02
        -0.11579E-18
        -0.25683E-18
         0.34845E-02
         0.95071E-02
         0.90668E-02
        -0.11452E-18
        -0.24351E-19
        -0.74325E-19
         0.10632E-01
         0.66117E-02
        -0.40126E-18
        -0.25250E-18
         0.48432E-03
         0.22607E-02
         0.23073E-04
        -0.41594E-20
        -0.62115E-19
        -0.23576E-19
         0.41279E-02
         0.89263E-03
        -0.13692E-18
        -0.15522E-18
         0.15937E-01
         0.30247E-01
        -0.69668E-18
        -0.37888E-18
         0.19108E-01
         0.55338E-02
        -0.84018E-18
        -0.19465E-18
         0.13587E-02
        -0.76693E-19
         0.90814E-02
        -0.59426E-20
         0.13809E-02
        -0.29282E-18
         0.75675E-03
        -0.20490E-19
         0.14481E-01
         0.11625E-02
        -0.15036E-19
        -0.87851E-19
         0.55159E-05
         0.41077E-02
        -0.60151E-19
        -0.28286E-19
         0.28691E-03
        -0.60859E-21
         0.31344E-02
        -0.26330E-19
         0.12637E+00
         0.59067E-01
        -0.10286E-17
        -0.54107E-18
         0.24074E-01
        -0.28686E-18
         0.11062E-02
        -0.13727E-18
         0.10717E-01
        -0.52876E-20
         0.48375E-01
        -0.12727E-19
         0.86934E-01
         0.45230E-01
        -0.17093E-18
        -0.22358E-18
         0.37440E-01
        -0.25859E-18
         0.28056E-01
        -0.53602E-18
         0.10596E-01
        -0.21806E-18
         0.25650E-01
         0.13754E-01
        -0.39720E-19
        -0.74699E-19
         0.72991E-03
        -0.10278E-18
         0.55557E-02
        -0.18120E-19
         0.31714E-01
        -0.11050E-18
         0.68926E-01
         0.32819E-01
        -0.58745E-18
        -0.63967E-18
         0.38909E+00
         0.48778E+00
        -0.20057E-17
        -0.19479E-17
         0.37863E+00
        -0.14638E-17
         0.32272E+00
        -0.81750E-18
         0.16164E+00
        -0.24688E-18
         0.79959E-01
        -0.28231E-20
         0.10301E-01
        -0.35812E-19
         0.16443E-01
        -0.22923E-19
         0.93277E-01
        -0.22145E-19
         0.20626E+00
        -0.11262E-18
         0.38965E+00
        -0.40762E-18
         0.61939E+00
        -0.58046E-18
         0.75858E+00
        -0.51674E-18
         0.72285E+00
        -0.61104E-18
         0.63639E+00
        -0.10292E-17
         0.53059E+00
        -0.14312E-17
         0.41170E+00
        -0.12368E-17
         0.24308E+00
        -0.81688E-18
         0.79768E-01
        -0.18205E-18
         0.57303E-03
        -0.66382E-20
         0.25009E-01
        -0.39128E-19
         0.62262E-01
        -0.10463E-18
         0.13802E+00
        -0.40073E-18
         0.24078E+00
        -0.10790E-17
         0.42236E+00
        -0.15575E-17
         0.56897E+00
        -0.16294E-17
        -0.18451E-05
        -0.47751E-06
        -0.66146E-06
        -0.28435E-05
        -0.38056E-04
        -0.24182E-04
        -0.51104E-06
        -0.11485E-05
        -0.33087E-06
        -0.99853E-06
        -0.26729E-06
        -0.49408E-05
        -0.22401E-04
        -0.22973E-05
        -0.32458E-05
        -0.50229E-05
        -0.35001E-05
        -0.77452E-06
        -0.17202E-05
        -0.20241E-05
        -0.59070E-04
        -0.68047E-04
        -0.53872E-04
        -0.52428E-05
        -0.86734E-06
        -0.48065E-06
        -0.47194E-05
        -0.59617E-07
        -0.60009E-05
        -0.30085E-05
        -0.39830E-05
        -0.14477E-06
        -0.88405E-06
        -0.89046E-07
        -0.76354E-04
        -0.32687E-04
        -0.27424E-04
        -0.13065E-04
        -0.42227E-05
        -0.18394E-04
        -0.75019E-04
        -0.71236E-04
        -0.74936E-04
        -0.40090E-04
        -0.19848E-04
        -0.11294E-04
        -0.42406E-06
        -0.78689E-05
        -0.65533E-06
        -0.62799E-05
        -0.42544E-04
        -0.32351E-04
        -0.56776E-03
        -0.67538E-03
        -0.53325E-03
        -0.39274E-03
        -0.21694E-03
        -0.54119E-04
        -0.18242E-06
        -0.25889E-04
        -0.60463E-04
        -0.17749E-03
        -0.46246E-03
        -0.76564E-03
        -0.66688E-03
        -0.62199E-03
        -0.71123E-03
        -0.72391E-03
        -0.59716E-03
        -0.44428E-03
        -0.10206E-03
        -0.26228E-05
        -0.40238E-04
        -0.49960E-04
        -0.14233E-03
        -0.34969E-03
        -0.62134E-03
        -0.69984E-03
        -0.22048E-04
        -0.92908E-06
        -0.33674E-05
        -0.28549E-04
        -0.12012E-03
        -0.87724E-04
        -0.74464E-05
        -0.35485E-04
        -0.74919E-05
        -0.32072E-04
        -0.13089E-05
        -0.17423E-04
        -0.18856E-03
        -0.11089E-03
        -0.11897E-03
        -0.85100E-04
        -0.26374E-04
        -0.94615E-05
        -0.42850E-05
        -0.13215E-04
        -0.46526E-03
        -0.42258E-03
        -0.41149E-03
        -0.24073E-04
        -0.77661E-05
        -0.35209E-05
        -0.10355E-03
        -0.18255E-05
        -0.11598E-04
        -0.21568E-04
        -0.50232E-04
        -0.21033E-04
        -0.21130E-04
        -0.15739E-04
        -0.38204E-03
        -0.11638E-03
        -0.15313E-03
        -0.14631E-03
        -0.41013E-05
        -0.34476E-04
        -0.46531E-03
        -0.49237E-03
        -0.47043E-03
        -0.24595E-03
        -0.14585E-03
        -0.49933E-04
        -0.58324E-04
        -0.81288E-04
        -0.14204E-05
        -0.20592E-05
        -0.21635E-03
        -0.16788E-03
        -0.66742E-02
        -0.67779E-02
        -0.54614E-02
        -0.37154E-02
        -0.20684E-02
        -0.43872E-03
        -0.27046E-04
        -0.28398E-03
        -0.49282E-03
        -0.16558E-02
        -0.52242E-02
        -0.72705E-02
        -0.51136E-02
        -0.46286E-02
        -0.56174E-02
        -0.59576E-02
        -0.49628E-02
        -0.44400E-02
        -0.11527E-02
        -0.77868E-04
        -0.38094E-03
        -0.39102E-03
        -0.12359E-02
        -0.37052E-02
        -0.60703E-02
        -0.60322E-02
        -0.22131E-04
        -0.93599E-06
        -0.33801E-05
        -0.28587E-04
        -0.11989E-03
        -0.87562E-04
        -0.75413E-05
        -0.35306E-04
        -0.75084E-05
        -0.32021E-04
        -0.12564E-05
        -0.17508E-04
        -0.18879E-03
        -0.11034E-03
        -0.11884E-03
        -0.85276E-04
        -0.26490E-04
        -0.94093E-05
        -0.42808E-05
        -0.13169E-04
        -0.46517E-03
        -0.42249E-03
        -0.41144E-03
        -0.24076E-04
        -0.78012E-05
        -0.35327E-05
        -0.10361E-03
        -0.17576E-05
        -0.11761E-04
        -0.21595E-04
        -0.50378E-04
        -0.21027E-04
        -0.20955E-04
        -0.15754E-04
        -0.38243E-03
        -0.11627E-03
        -0.15303E-03
        -0.14678E-03
        -0.41802E-05
        -0.34693E-04
        -0.46590E-03
        -0.49293E-03
        -0.47048E-03
        -0.24587E-03
        -0.14575E-03
        -0.49881E-04
        -0.58302E-04
        -0.81342E-04
        -0.13997E-05
        -0.20451E-05
        -0.21607E-03
        -0.16739E-03
        -0.66696E-02
        -0.67744E-02
        -0.54604E-02
        -0.37154E-02
        -0.20671E-02
        -0.43845E-03
        -0.27107E-04
        -0.28433E-03
        -0.49199E-03
        -0.16545E-02
        -0.52226E-02
        -0.72708E-02
        -0.51126E-02
        -0.46280E-02
        -0.56188E-02
        -0.59601E-02
        -0.49645E-02
        -0.44417E-02
        -0.11520E-02
        -0.77939E-04
        -0.38038E-03
        -0.39071E-03
        -0.12341E-02
        -0.37007E-02
        -0.60642E-02
        -0.60268E-02
        -0.22215E-04
        -0.94282E-06
        -0.33928E-05
        -0.28625E-04
        -0.11965E-03
        -0.87404E-04
        -0.76374E-05
        -0.35127E-04
        -0.75238E-05
        -0.31967E-04
        -0.12052E-05
        -0.17593E-04
        -0.18902E-03
        -0.10980E-03
        -0.11872E-03
        -0.85458E-04
        -0.26609E-04
        -0.93566E-05
        -0.42765E-05
        -0.13124E-04
        -0.46509E-03
        -0.42239E-03
        -0.41138E-03
        -0.24078E-04
        -0.78387E-05
        -0.35454E-05
        -0.10367E-03
        -0.16917E-05
        -0.11927E-04
        -0.21622E-04
        -0.50529E-04
        -0.21024E-04
        -0.20779E-04
        -0.15768E-04
        -0.38282E-03
        -0.11617E-03
        -0.15293E-03
        -0.14725E-03
        -0.42599E-05
        -0.34913E-04
        -0.46649E-03
        -0.49352E-03
        -0.47055E-03
        -0.24581E-03
        -0.14565E-03
        -0.49833E-04
        -0.58280E-04
        -0.81396E-04
        -0.13787E-05
        -0.20307E-05
        -0.21580E-03
        -0.16690E-03
        -0.66650E-02
        -0.67709E-02
        -0.54594E-02
        -0.37154E-02
        -0.20659E-02
        -0.43819E-03
        -0.27169E-04
        -0.28468E-03
        -0.49116E-03
        -0.16532E-02
        -0.52210E-02
        -0.72711E-02
        -0.51117E-02
        -0.46275E-02
        -0.56203E-02
        -0.59628E-02
        -0.49663E-02
        -0.44435E-02
        -0.11514E-02
        -0.78010E-04
        -0.37983E-03
        -0.39041E-03
        -0.12323E-02
        -0.36961E-02
        -0.60582E-02
        -0.60214E-02
        -0.22299E-04
        -0.94991E-06
        -0.34053E-05
        -0.28663E-04
        -0.11942E-03
        -0.87243E-04
        -0.77329E-05
        -0.34947E-04
        -0.75374E-05
        -0.31904E-04
        -0.11551E-05
        -0.17680E-04
        -0.18925E-03
        -0.10926E-03
        -0.11859E-03
        -0.85656E-04
        -0.26733E-04
        -0.93039E-05
        -0.42729E-05
        -0.13077E-04
        -0.46504E-03
        -0.42233E-03
        -0.41139E-03
        -0.24081E-04
        -0.78834E-05
        -0.35611E-05
        -0.10372E-03
        -0.16290E-05
        -0.12094E-04
        -0.21648E-04
        -0.50692E-04
        -0.21028E-04
        -0.20603E-04
        -0.15782E-04
        -0.38319E-03
        -0.11607E-03
        -0.15283E-03
        -0.14772E-03
        -0.43402E-05
        -0.35132E-04
        -0.46710E-03
        -0.49414E-03
        -0.47067E-03
        -0.24577E-03
        -0.14553E-03
        -0.49779E-04
        -0.58264E-04
        -0.81452E-04
        -0.13578E-05
        -0.20163E-05
        -0.21552E-03
        -0.16640E-03
        -0.66604E-02
        -0.67674E-02
        -0.54585E-02
        -0.37155E-02
        -0.20646E-02
        -0.43792E-03
        -0.27232E-04
        -0.28503E-03
        -0.49034E-03
        -0.16519E-02
        -0.52194E-02
        -0.72715E-02
        -0.51110E-02
        -0.46271E-02
        -0.56220E-02
        -0.59659E-02
        -0.49683E-02
        -0.44452E-02
        -0.11508E-02
        -0.78081E-04
        -0.37927E-03
        -0.39010E-03
        -0.12305E-02
        -0.36916E-02
        -0.60522E-02
        -0.60160E-02
        -0.22383E-04
        -0.95702E-06
        -0.34179E-05
        -0.28700E-04
        -0.11919E-03
        -0.87081E-04
        -0.78302E-05
        -0.34767E-04
        -0.75491E-05
        -0.31831E-04
        -0.11060E-05
        -0.17765E-04
        -0.18948E-03
        -0.10872E-03
        -0.11846E-03
        -0.85868E-04
        -0.26862E-04
        -0.92511E-05
        -0.42682E-05
        -0.13030E-04
        -0.46501E-03
        -0.42228E-03
        -0.41142E-03
        -0.24084E-04
        -0.79353E-05
        -0.35792E-05
        -0.10376E-03
        -0.15695E-05
        -0.12260E-04
        -0.21671E-04
        -0.50866E-04
        -0.21038E-04
        -0.20427E-04
        -0.15796E-04
        -0.38358E-03
        -0.11596E-03
        -0.15273E-03
        -0.14819E-03
        -0.44208E-05
        -0.35355E-04
        -0.46773E-03
        -0.49480E-03
        -0.47086E-03
        -0.24574E-03
        -0.14542E-03
        -0.49721E-04
        -0.58250E-04
        -0.81513E-04
        -0.13372E-05
        -0.20021E-05
        -0.21525E-03
        -0.16591E-03
        -0.66559E-02
        -0.67639E-02
        -0.54575E-02
        -0.37155E-02
        -0.20633E-02
        -0.43766E-03
        -0.27293E-04
        -0.28539E-03
        -0.48950E-03
        -0.16506E-02
        -0.52177E-02
        -0.72720E-02
        -0.51105E-02
        -0.46268E-02
        -0.56237E-02
        -0.59694E-02
        -0.49705E-02
        -0.44469E-02
        -0.11501E-02
        -0.78152E-04
        -0.37871E-03
        -0.38979E-03
        -0.12287E-02
        -0.36871E-02
        -0.60462E-02
        -0.60107E-02
        -0.22463E-04
        -0.96476E-06
        -0.34291E-05
        -0.28737E-04
        -0.11895E-03
        -0.86921E-04
        -0.79281E-05
        -0.34584E-04
        -0.75603E-05
        -0.31757E-04
        -0.10579E-05
        -0.17851E-04
        -0.18971E-03
        -0.10817E-03
        -0.11833E-03
        -0.86085E-04
        -0.26992E-04
        -0.91984E-05
        -0.42634E-05
        -0.12986E-04
        -0.46500E-03
        -0.42225E-03
        -0.41149E-03
        -0.24088E-04
        -0.79872E-05
        -0.35978E-05
        -0.10380E-03
        -0.15114E-05
        -0.12430E-04
        -0.21699E-04
        -0.51039E-04
        -0.21048E-04
        -0.20250E-04
        -0.15809E-04
        -0.38398E-03
        -0.11587E-03
        -0.15264E-03
        -0.14865E-03
        -0.45022E-05
        -0.35578E-04
        -0.46837E-03
        -0.49548E-03
        -0.47107E-03
        -0.24571E-03
        -0.14531E-03
        -0.49672E-04
        -0.58234E-04
        -0.81572E-04
        -0.13162E-05
        -0.19892E-05
        -0.21498E-03
        -0.16542E-03
        -0.66513E-02
        -0.67604E-02
        -0.54565E-02
        -0.37156E-02
        -0.20620E-02
        -0.43740E-03
        -0.27353E-04
        -0.28574E-03
        -0.48868E-03
        -0.16493E-02
        -0.52161E-02
        -0.72727E-02
        -0.51101E-02
        -0.46265E-02
        -0.56255E-02
        -0.59730E-02
        -0.49727E-02
        -0.44485E-02
        -0.11495E-02
        -0.78216E-04
        -0.37815E-03
        -0.38949E-03
        -0.12269E-02
        -0.36826E-02
        -0.60402E-02
        -0.60053E-02
        -0.22537E-04
        -0.97410E-06
        -0.34378E-05
        -0.28773E-04
        -0.11873E-03
        -0.86764E-04
        -0.80284E-05
        -0.34397E-04
        -0.75722E-05
        -0.31686E-04
        -0.10107E-05
        -0.17938E-04
        -0.18994E-03
        -0.10763E-03
        -0.11820E-03
        -0.86302E-04
        -0.27117E-04
        -0.91454E-05
        -0.42595E-05
        -0.12942E-04
        -0.46499E-03
        -0.42223E-03
        -0.41157E-03
        -0.24094E-04
        -0.80332E-05
        -0.36143E-05
        -0.10384E-03
        -0.14532E-05
        -0.12602E-04
        -0.21731E-04
        -0.51203E-04
        -0.21049E-04
        -0.20070E-04
        -0.15818E-04
        -0.38437E-03
        -0.11578E-03
        -0.15256E-03
        -0.14912E-03
        -0.45850E-05
        -0.35806E-04
        -0.46902E-03
        -0.49617E-03
        -0.47129E-03
        -0.24570E-03
        -0.14522E-03
        -0.49627E-04
        -0.58207E-04
        -0.81627E-04
        -0.12935E-05
        -0.19792E-05
        -0.21475E-03
        -0.16494E-03
        -0.66467E-02
        -0.67569E-02
        -0.54555E-02
        -0.37156E-02
        -0.20608E-02
        -0.43713E-03
        -0.27414E-04
        -0.28609E-03
        -0.48786E-03
        -0.16480E-02
        -0.52144E-02
        -0.72733E-02
        -0.51097E-02
        -0.46262E-02
        -0.56273E-02
        -0.59767E-02
        -0.49750E-02
        -0.44501E-02
        -0.11488E-02
        -0.78269E-04
        -0.37757E-03
        -0.38919E-03
        -0.12251E-02
        -0.36781E-02
        -0.60342E-02
        -0.59999E-02
        -0.22608E-04
        -0.98397E-06
        -0.34453E-05
        -0.28807E-04
        -0.11851E-03
        -0.86602E-04
        -0.81306E-05
        -0.34210E-04
        -0.75845E-05
        -0.31618E-04
        -0.96438E-06
        -0.18024E-04
        -0.19018E-03
        -0.10709E-03
        -0.11807E-03
        -0.86518E-04
        -0.27240E-04
        -0.90923E-05
        -0.42550E-05
        -0.12901E-04
        -0.46498E-03
        -0.42220E-03
        -0.41163E-03
        -0.24098E-04
        -0.80763E-05
        -0.36297E-05
        -0.10389E-03
        -0.13957E-05
        -0.12777E-04
        -0.21766E-04
        -0.51363E-04
        -0.21047E-04
        -0.19889E-04
        -0.15825E-04
        -0.38480E-03
        -0.11571E-03
        -0.15249E-03
        -0.14959E-03
        -0.46686E-05
        -0.36034E-04
        -0.46966E-03
        -0.49688E-03
        -0.47152E-03
        -0.24570E-03
        -0.14513E-03
        -0.49590E-04
        -0.58177E-04
        -0.81678E-04
        -0.12703E-05
        -0.19705E-05
        -0.21452E-03
        -0.16448E-03
        -0.66421E-02
        -0.67535E-02
        -0.54544E-02
        -0.37156E-02
        -0.20595E-02
        -0.43686E-03
        -0.27475E-04
        -0.28644E-03
        -0.48703E-03
        -0.16467E-02
        -0.52126E-02
        -0.72738E-02
        -0.51093E-02
        -0.46258E-02
        -0.56291E-02
        -0.59804E-02
        -0.49773E-02
        -0.44516E-02
        -0.11481E-02
        -0.78318E-04
        -0.37698E-03
        -0.38889E-03
        -0.12234E-02
        -0.36737E-02
        -0.60282E-02
        -0.59946E-02
        -0.22679E-04
        -0.99400E-06
        -0.34526E-05
        -0.28842E-04
        -0.11828E-03
        -0.86441E-04
        -0.82327E-05
        -0.34023E-04
        -0.75971E-05
        -0.31552E-04
        -0.91935E-06
        -0.18111E-04
        -0.19042E-03
        -0.10656E-03
        -0.11794E-03
        -0.86734E-04
        -0.27363E-04
        -0.90397E-05
        -0.42504E-05
        -0.12858E-04
        -0.46496E-03
        -0.42218E-03
        -0.41171E-03
        -0.24105E-04
        -0.81194E-05
        -0.36451E-05
        -0.10394E-03
        -0.13395E-05
        -0.12954E-04
        -0.21801E-04
        -0.51523E-04
        -0.21044E-04
        -0.19709E-04
        -0.15833E-04
        -0.38522E-03
        -0.11563E-03
        -0.15242E-03
        -0.15005E-03
        -0.47532E-05
        -0.36262E-04
        -0.47031E-03
        -0.49758E-03
        -0.47175E-03
        -0.24570E-03
        -0.14505E-03
        -0.49553E-04
        -0.58147E-04
        -0.81729E-04
        -0.12474E-05
        -0.19623E-05
        -0.21431E-03
        -0.16400E-03
        -0.66376E-02
        -0.67500E-02
        -0.54534E-02
        -0.37156E-02
        -0.20582E-02
        -0.43659E-03
        -0.27535E-04
        -0.28678E-03
        -0.48621E-03
        -0.16454E-02
        -0.52109E-02
        -0.72744E-02
        -0.51089E-02
        -0.46255E-02
        -0.56309E-02
        -0.59840E-02
        -0.49795E-02
        -0.44532E-02
        -0.11475E-02
        -0.78369E-04
        -0.37638E-03
        -0.38858E-03
        -0.12216E-02
        -0.36692E-02
        -0.60223E-02
        -0.59893E-02
        -0.22750E-04
        -0.10042E-05
        -0.34600E-05
        -0.28877E-04
        -0.11806E-03
        -0.86281E-04
        -0.83361E-05
        -0.33836E-04
        -0.76096E-05
        -0.31485E-04
        -0.87538E-06
        -0.18198E-04
        -0.19066E-03
        -0.10603E-03
        -0.11781E-03
        -0.86949E-04
        -0.27486E-04
        -0.89877E-05
        -0.42457E-05
        -0.12817E-04
        -0.46495E-03
        -0.42215E-03
        -0.41177E-03
        -0.24112E-04
        -0.81626E-05
        -0.36605E-05
        -0.10399E-03
        -0.12847E-05
        -0.13131E-04
        -0.21835E-04
        -0.51682E-04
        -0.21041E-04
        -0.19530E-04
        -0.15841E-04
        -0.38563E-03
        -0.11555E-03
        -0.15234E-03
        -0.15052E-03
        -0.48387E-05
        -0.36494E-04
        -0.47097E-03
        -0.49827E-03
        -0.47198E-03
        -0.24570E-03
        -0.14496E-03
        -0.49513E-04
        -0.58117E-04
        -0.81782E-04
        -0.12248E-05
        -0.19534E-05
        -0.21408E-03
        -0.16353E-03
        -0.66330E-02
        -0.67466E-02
        -0.54523E-02
        -0.37156E-02
        -0.20569E-02
        -0.43632E-03
        -0.27595E-04
        -0.28713E-03
        -0.48539E-03
        -0.16441E-02
        -0.52092E-02
        -0.72750E-02
        -0.51085E-02
        -0.46252E-02
        -0.56328E-02
        -0.59877E-02
        -0.49818E-02
        -0.44547E-02
        -0.11468E-02
        -0.78417E-04
        -0.37579E-03
        -0.38828E-03
        -0.12199E-02
        -0.36648E-02
        -0.60164E-02
        -0.59839E-02
        -0.22820E-04
        -0.10143E-05
        -0.34676E-05
        -0.28911E-04
        -0.11784E-03
        -0.86125E-04
        -0.84392E-05
        -0.33650E-04
        -0.76221E-05
        -0.31419E-04
        -0.83242E-06
        -0.18286E-04
        -0.19090E-03
        -0.10550E-03
        -0.11767E-03
        -0.87164E-04
        -0.27610E-04
        -0.89358E-05
        -0.42421E-05
        -0.12774E-04
        -0.46494E-03
        -0.42213E-03
        -0.41185E-03
        -0.24118E-04
        -0.82055E-05
        -0.36758E-05
        -0.10404E-03
        -0.12311E-05
        -0.13309E-04
        -0.21869E-04
        -0.51842E-04
        -0.21038E-04
        -0.19352E-04
        -0.15848E-04
        -0.38605E-03
        -0.11547E-03
        -0.15227E-03
        -0.15099E-03
        -0.49251E-05
        -0.36723E-04
        -0.47162E-03
        -0.49897E-03
        -0.47220E-03
        -0.24569E-03
        -0.14488E-03
        -0.49477E-04
        -0.58086E-04
        -0.81834E-04
        -0.12022E-05
        -0.19447E-05
        -0.21387E-03
        -0.16306E-03
        -0.66284E-02
        -0.67431E-02
        -0.54513E-02
        -0.37156E-02
        -0.20556E-02
        -0.43606E-03
        -0.27654E-04
        -0.28748E-03
        -0.48457E-03
        -0.16427E-02
        -0.52076E-02
        -0.72756E-02
        -0.51081E-02
        -0.46249E-02
        -0.56346E-02
        -0.59913E-02
        -0.49840E-02
        -0.44563E-02
        -0.11461E-02
        -0.78464E-04
        -0.37520E-03
        -0.38798E-03
        -0.12181E-02
        -0.36603E-02
        -0.60104E-02
        -0.59786E-02
        -0.22891E-04
        -0.10245E-05
        -0.34747E-05
        -0.28946E-04
        -0.11762E-03
        -0.85965E-04
        -0.85435E-05
        -0.33464E-04
        -0.76344E-05
        -0.31352E-04
        -0.79066E-06
        -0.18375E-04
        -0.19114E-03
        -0.10497E-03
        -0.11754E-03
        -0.87380E-04
        -0.27733E-04
        -0.88837E-05
        -0.42378E-05
        -0.12732E-04
        -0.46492E-03
        -0.42210E-03
        -0.41193E-03
        -0.24126E-04
        -0.82482E-05
        -0.36916E-05
        -0.10408E-03
        -0.11788E-05
        -0.13486E-04
        -0.21904E-04
        -0.52003E-04
        -0.21035E-04
        -0.19173E-04
        -0.15856E-04
        -0.38648E-03
        -0.11539E-03
        -0.15220E-03
        -0.15145E-03
        -0.50125E-05
        -0.36957E-04
        -0.47227E-03
        -0.49966E-03
        -0.47243E-03
        -0.24569E-03
        -0.14479E-03
        -0.49441E-04
        -0.58056E-04
        -0.81887E-04
        -0.11798E-05
        -0.19365E-05
        -0.21364E-03
        -0.16259E-03
        -0.66238E-02
        -0.67397E-02
        -0.54502E-02
        -0.37156E-02
        -0.20544E-02
        -0.43580E-03
        -0.27713E-04
        -0.28782E-03
        -0.48375E-03
        -0.16414E-02
        -0.52059E-02
        -0.72762E-02
        -0.51077E-02
        -0.46246E-02
        -0.56364E-02
        -0.59950E-02
        -0.49863E-02
        -0.44578E-02
        -0.11455E-02
        -0.78513E-04
        -0.37460E-03
        -0.38768E-03
        -0.12164E-02
        -0.36559E-02
        -0.60045E-02
        -0.59733E-02
        -0.22963E-04
        -0.10349E-05
        -0.34819E-05
        -0.28980E-04
        -0.11740E-03
        -0.85806E-04
        -0.86482E-05
        -0.33279E-04
        -0.76464E-05
        -0.31284E-04
        -0.75009E-06
        -0.18462E-04
        -0.19138E-03
        -0.10444E-03
        -0.11741E-03
        -0.87596E-04
        -0.27857E-04
        -0.88316E-05
        -0.42336E-05
        -0.12690E-04
        -0.46490E-03
        -0.42208E-03
        -0.41199E-03
        -0.24133E-04
        -0.82906E-05
        -0.37069E-05
        -0.10413E-03
        -0.11276E-05
        -0.13667E-04
        -0.21938E-04
        -0.52163E-04
        -0.21032E-04
        -0.18995E-04
        -0.15864E-04
        -0.38689E-03
        -0.11532E-03
        -0.15213E-03
        -0.15192E-03
        -0.51009E-05
        -0.37189E-04
        -0.47293E-03
        -0.50036E-03
        -0.47266E-03
        -0.24570E-03
        -0.14471E-03
        -0.49399E-04
        -0.58026E-04
        -0.81939E-04
        -0.11575E-05
        -0.19279E-05
        -0.21341E-03
        -0.16212E-03
        -0.66192E-02
        -0.67363E-02
        -0.54492E-02
        -0.37156E-02
        -0.20531E-02
        -0.43553E-03
        -0.27774E-04
        -0.28816E-03
        -0.48293E-03
        -0.16401E-02
        -0.52041E-02
        -0.72767E-02
        -0.51073E-02
        -0.46243E-02
        -0.56382E-02
        -0.59987E-02
        -0.49886E-02
        -0.44594E-02
        -0.11448E-02
        -0.78560E-04
        -0.37401E-03
        -0.38738E-03
        -0.12147E-02
        -0.36515E-02
        -0.59986E-02
        -0.59680E-02
        -0.23035E-04
        -0.10451E-05
        -0.34891E-05
        -0.29014E-04
        -0.11719E-03
        -0.85645E-04
        -0.87524E-05
        -0.33094E-04
        -0.76587E-05
        -0.31217E-04
        -0.71065E-06
        -0.18550E-04
        -0.19162E-03
        -0.10391E-03
        -0.11727E-03
        -0.87811E-04
        -0.27981E-04
        -0.87801E-05
        -0.42301E-05
        -0.12649E-04
        -0.46489E-03
        -0.42205E-03
        -0.41207E-03
        -0.24140E-04
        -0.83330E-05
        -0.37223E-05
        -0.10418E-03
        -0.10778E-05
        -0.13848E-04
        -0.21972E-04
        -0.52323E-04
        -0.21029E-04
        -0.18819E-04
        -0.15871E-04
        -0.38732E-03
        -0.11524E-03
        -0.15205E-03
        -0.15238E-03
        -0.51900E-05
        -0.37425E-04
        -0.47358E-03
        -0.50105E-03
        -0.47289E-03
        -0.24570E-03
        -0.14462E-03
        -0.49362E-04
        -0.57995E-04
        -0.81990E-04
        -0.11354E-05
        -0.19193E-05
        -0.21319E-03
        -0.16165E-03
        -0.66146E-02
        -0.67329E-02
        -0.54481E-02
        -0.37156E-02
        -0.20519E-02
        -0.43526E-03
        -0.27833E-04
        -0.28850E-03
        -0.48211E-03
        -0.16388E-02
        -0.52024E-02
        -0.72773E-02
        -0.51069E-02
        -0.46240E-02
        -0.56400E-02
        -0.60024E-02
        -0.49908E-02
        -0.44609E-02
        -0.11441E-02
        -0.78606E-04
        -0.37343E-03
        -0.38709E-03
        -0.12129E-02
        -0.36470E-02
        -0.59927E-02
        -0.59626E-02
        -0.23106E-04
        -0.10553E-05
        -0.34963E-05
        -0.29048E-04
        -0.11696E-03
        -0.85486E-04
        -0.88582E-05
        -0.32910E-04
        -0.76709E-05
        -0.31150E-04
        -0.67229E-06
        -0.18640E-04
        -0.19185E-03
        -0.10339E-03
        -0.11714E-03
        -0.88027E-04
        -0.28105E-04
        -0.87288E-05
        -0.42258E-05
        -0.12607E-04
        -0.46488E-03
        -0.42202E-03
        -0.41213E-03
        -0.24147E-04
        -0.83753E-05
        -0.37378E-05
        -0.10422E-03
        -0.10291E-05
        -0.14030E-04
        -0.22005E-04
        -0.52484E-04
        -0.21025E-04
        -0.18642E-04
        -0.15879E-04
        -0.38774E-03
        -0.11517E-03
        -0.15198E-03
        -0.15284E-03
        -0.52800E-05
        -0.37659E-04
        -0.47423E-03
        -0.50174E-03
        -0.47311E-03
        -0.24569E-03
        -0.14454E-03
        -0.49327E-04
        -0.57964E-04
        -0.82043E-04
        -0.11133E-05
        -0.19110E-05
        -0.21297E-03
        -0.16118E-03
        -0.66100E-02
        -0.67295E-02
        -0.54471E-02
        -0.37157E-02
        -0.20506E-02
        -0.43499E-03
        -0.27892E-04
        -0.28883E-03
        -0.48129E-03
        -0.16375E-02
        -0.52008E-02
        -0.72779E-02
        -0.51065E-02
        -0.46237E-02
        -0.56419E-02
        -0.60060E-02
        -0.49931E-02
        -0.44624E-02
        -0.11434E-02
        -0.78651E-04
        -0.37284E-03
        -0.38680E-03
        -0.12112E-02
        -0.36426E-02
        -0.59867E-02
        -0.59573E-02
        -0.23178E-04
        -0.10658E-05
        -0.35035E-05
        -0.29082E-04
        -0.11674E-03
        -0.85331E-04
        -0.89639E-05
        -0.32726E-04
        -0.76831E-05
        -0.31083E-04
        -0.63497E-06
        -0.18728E-04
        -0.19210E-03
        -0.10287E-03
        -0.11700E-03
        -0.88243E-04
        -0.28229E-04
        -0.86781E-05
        -0.42216E-05
        -0.12566E-04
        -0.46486E-03
        -0.42199E-03
        -0.41221E-03
        -0.24154E-04
        -0.84169E-05
        -0.37533E-05
        -0.10427E-03
        -0.98165E-06
        -0.14213E-04
        -0.22038E-04
        -0.52644E-04
        -0.21022E-04
        -0.18467E-04
        -0.15886E-04
        -0.38817E-03
        -0.11510E-03
        -0.15191E-03
        -0.15330E-03
        -0.53712E-05
        -0.37894E-04
        -0.47487E-03
        -0.50243E-03
        -0.47334E-03
        -0.24568E-03
        -0.14446E-03
        -0.49286E-04
        -0.57934E-04
        -0.82094E-04
        -0.10916E-05
        -0.19024E-05
        -0.21275E-03
        -0.16071E-03
        -0.66055E-02
        -0.67261E-02
        -0.54460E-02
        -0.37157E-02
        -0.20493E-02
        -0.43472E-03
        -0.27949E-04
        -0.28916E-03
        -0.48048E-03
        -0.16362E-02
        -0.51991E-02
        -0.72786E-02
        -0.51060E-02
        -0.46234E-02
        -0.56437E-02
        -0.60097E-02
        -0.49954E-02
        -0.44639E-02
        -0.11428E-02
        -0.78697E-04
        -0.37224E-03
        -0.38650E-03
        -0.12095E-02
        -0.36382E-02
        -0.59808E-02
        -0.59520E-02
        -0.23250E-04
        -0.10762E-05
        -0.35109E-05
        -0.29116E-04
        -0.11653E-03
        -0.85172E-04
        -0.90706E-05
        -0.32542E-04
        -0.76948E-05
        -0.31013E-04
        -0.59875E-06
        -0.18818E-04
        -0.19234E-03
        -0.10235E-03
        -0.11686E-03
        -0.88461E-04
        -0.28354E-04
        -0.86275E-05
        -0.42177E-05
        -0.12524E-04
        -0.46485E-03
        -0.42196E-03
        -0.41228E-03
        -0.24162E-04
        -0.84578E-05
        -0.37687E-05
        -0.10431E-03
        -0.93485E-06
        -0.14396E-04
        -0.22071E-04
        -0.52806E-04
        -0.21019E-04
        -0.18294E-04
        -0.15895E-04
        -0.38860E-03
        -0.11502E-03
        -0.15184E-03
        -0.15375E-03
        -0.54642E-05
        -0.38132E-04
        -0.47551E-03
        -0.50312E-03
        -0.47355E-03
        -0.24569E-03
        -0.14437E-03
        -0.49250E-04
        -0.57904E-04
        -0.82148E-04
        -0.10702E-05
        -0.18938E-05
        -0.21252E-03
        -0.16025E-03
        -0.66009E-02
        -0.67227E-02
        -0.54450E-02
        -0.37156E-02
        -0.20480E-02
        -0.43445E-03
        -0.28006E-04
        -0.28950E-03
        -0.47967E-03
        -0.16349E-02
        -0.51974E-02
        -0.72793E-02
        -0.51057E-02
        -0.46231E-02
        -0.56454E-02
        -0.60133E-02
        -0.49976E-02
        -0.44654E-02
        -0.11421E-02
        -0.78743E-04
        -0.37166E-03
        -0.38620E-03
        -0.12077E-02
        -0.36338E-02
        -0.59749E-02
        -0.59467E-02
        -0.23322E-04
        -0.10866E-05
        -0.35178E-05
        -0.29149E-04
        -0.11631E-03
        -0.85014E-04
        -0.91773E-05
        -0.32360E-04
        -0.77054E-05
        -0.30936E-04
        -0.56364E-06
        -0.18908E-04
        -0.19257E-03
        -0.10182E-03
        -0.11672E-03
        -0.88677E-04
        -0.28478E-04
        -0.85766E-05
        -0.42149E-05
        -0.12484E-04
        -0.46483E-03
        -0.42193E-03
        -0.41236E-03
        -0.24168E-04
        -0.84962E-05
        -0.37848E-05
        -0.10433E-03
        -0.88807E-06
        -0.14581E-04
        -0.22107E-04
        -0.52968E-04
        -0.21015E-04
        -0.18120E-04
        -0.15902E-04
        -0.38901E-03
        -0.11495E-03
        -0.15177E-03
        -0.15420E-03
        -0.55606E-05
        -0.38367E-04
        -0.47609E-03
        -0.50374E-03
        -0.47374E-03
        -0.24569E-03
        -0.14429E-03
        -0.49211E-04
        -0.57874E-04
        -0.82202E-04
        -0.10490E-05
        -0.18853E-05
        -0.21231E-03
        -0.15978E-03
        -0.65963E-02
        -0.67193E-02
        -0.54439E-02
        -0.37156E-02
        -0.20468E-02
        -0.43419E-03
        -0.28063E-04
        -0.28983E-03
        -0.47887E-03
        -0.16335E-02
        -0.51957E-02
        -0.72804E-02
        -0.51056E-02
        -0.46228E-02
        -0.56472E-02
        -0.60170E-02
        -0.49999E-02
        -0.44670E-02
        -0.11414E-02
        -0.78789E-04
        -0.37107E-03
        -0.38590E-03
        -0.12060E-02
        -0.36294E-02
        -0.59690E-02
        -0.59414E-02
        -0.23394E-04
        -0.10970E-05
        -0.35249E-05
        -0.29183E-04
        -0.11609E-03
        -0.84855E-04
        -0.92850E-05
        -0.32177E-04
        -0.77149E-05
        -0.30852E-04
        -0.52968E-06
        -0.18997E-04
        -0.19281E-03
        -0.10130E-03
        -0.11657E-03
        -0.88893E-04
        -0.28600E-04
        -0.85260E-05
        -0.42110E-05
        -0.12442E-04
        -0.46482E-03
        -0.42189E-03
        -0.41243E-03
        -0.24176E-04
        -0.85316E-05
        -0.38002E-05
        -0.10434E-03
        -0.84112E-06
        -0.14767E-04
        -0.22141E-04
        -0.53129E-04
        -0.21012E-04
        -0.17946E-04
        -0.15910E-04
        -0.38945E-03
        -0.11487E-03
        -0.15170E-03
        -0.15464E-03
        -0.56605E-05
        -0.38603E-04
        -0.47664E-03
        -0.50432E-03
        -0.47391E-03
        -0.24569E-03
        -0.14420E-03
        -0.49175E-04
        -0.57843E-04
        -0.82254E-04
        -0.10278E-05
        -0.18769E-05
        -0.21208E-03
        -0.15930E-03
        -0.65917E-02
        -0.67159E-02
        -0.54428E-02
        -0.37156E-02
        -0.20455E-02
        -0.43392E-03
        -0.28120E-04
        -0.29016E-03
        -0.47807E-03
        -0.16321E-02
        -0.51938E-02
        -0.72818E-02
        -0.51056E-02
        -0.46226E-02
        -0.56490E-02
        -0.60206E-02
        -0.50022E-02
        -0.44684E-02
        -0.11408E-02
        -0.78834E-04
        -0.37049E-03
        -0.38560E-03
        -0.12043E-02
        -0.36249E-02
        -0.59631E-02
        -0.59361E-02
        -0.23467E-04
        -0.11076E-05
        -0.35322E-05
        -0.29217E-04
        -0.11588E-03
        -0.84701E-04
        -0.93921E-05
        -0.31996E-04
        -0.77238E-05
        -0.30766E-04
        -0.49701E-06
        -0.19085E-04
        -0.19305E-03
        -0.10078E-03
        -0.11643E-03
        -0.89109E-04
        -0.28724E-04
        -0.84761E-05
        -0.42070E-05
        -0.12402E-04
        -0.46480E-03
        -0.42185E-03
        -0.41250E-03
        -0.24184E-04
        -0.85660E-05
        -0.38156E-05
        -0.10435E-03
        -0.79530E-06
        -0.14952E-04
        -0.22174E-04
        -0.53292E-04
        -0.21009E-04
        -0.17775E-04
        -0.15919E-04
        -0.38988E-03
        -0.11480E-03
        -0.15163E-03
        -0.15508E-03
        -0.57623E-05
        -0.38834E-04
        -0.47715E-03
        -0.50487E-03
        -0.47407E-03
        -0.24569E-03
        -0.14412E-03
        -0.49138E-04
        -0.57815E-04
        -0.82311E-04
        -0.10071E-05
        -0.18682E-05
        -0.21187E-03
        -0.15884E-03
        -0.65871E-02
        -0.67126E-02
        -0.54418E-02
        -0.37157E-02
        -0.20442E-02
        -0.43364E-03
        -0.28176E-04
        -0.29048E-03
        -0.47729E-03
        -0.16307E-02
        -0.51920E-02
        -0.72835E-02
        -0.51057E-02
        -0.46223E-02
        -0.56508E-02
        -0.60243E-02
        -0.50044E-02
        -0.44700E-02
        -0.11401E-02
        -0.78883E-04
        -0.36991E-03
        -0.38531E-03
        -0.12026E-02
        -0.36206E-02
        -0.59572E-02
        -0.59308E-02
        -0.23776E-04
        -0.11274E-05
        -0.35764E-05
        -0.29539E-04
        -0.11685E-03
        -0.85413E-04
        -0.95863E-05
        -0.32171E-04
        -0.78091E-05
        -0.31019E-04
        -0.47450E-06
        -0.19362E-04
        -0.19529E-03
        -0.10140E-03
        -0.11762E-03
        -0.90198E-04
        -0.29135E-04
        -0.85131E-05
        -0.42440E-05
        -0.12485E-04
        -0.46945E-03
        -0.42613E-03
        -0.41663E-03
        -0.24432E-04
        -0.86871E-05
        -0.38677E-05
        -0.10551E-03
        -0.76177E-06
        -0.15286E-04
        -0.22438E-04
        -0.53979E-04
        -0.21214E-04
        -0.17796E-04
        -0.16089E-04
        -0.39441E-03
        -0.11592E-03
        -0.15312E-03
        -0.15723E-03
        -0.59201E-05
        -0.39471E-04
        -0.48288E-03
        -0.51085E-03
        -0.47920E-03
        -0.24810E-03
        -0.14548E-03
        -0.49605E-04
        -0.58390E-04
        -0.83221E-04
        -0.99899E-06
        -0.18786E-05
        -0.21388E-03
        -0.16003E-03
        -0.66675E-02
        -0.67938E-02
        -0.55106E-02
        -0.37622E-02
        -0.20692E-02
        -0.43899E-03
        -0.28626E-04
        -0.29460E-03
        -0.48293E-03
        -0.16516E-02
        -0.52601E-02
        -0.73784E-02
        -0.51666E-02
        -0.46751E-02
        -0.57170E-02
        -0.60964E-02
        -0.50640E-02
        -0.45257E-02
        -0.11541E-02
        -0.79986E-04
        -0.37398E-03
        -0.38962E-03
        -0.12157E-02
        -0.36607E-02
        -0.60235E-02
        -0.59970E-02
        -0.54017E-04
        -0.25987E-05
        -0.80989E-05
        -0.67241E-04
        -0.24656E-03
        -0.18342E-03
        -0.22014E-04
        -0.72335E-04
        -0.17621E-04
        -0.69508E-04
        -0.10197E-05
        -0.39667E-04
        -0.41099E-03
        -0.22194E-03
        -0.24347E-03
        -0.20507E-03
        -0.65995E-04
        -0.19285E-04
        -0.94019E-05
        -0.27814E-04
        -0.98421E-03
        -0.91703E-03
        -0.87751E-03
        -0.54945E-04
        -0.19868E-04
        -0.88481E-05
        -0.23506E-03
        -0.16842E-05
        -0.35454E-04
        -0.51225E-04
        -0.12287E-03
        -0.48038E-04
        -0.40324E-04
        -0.36671E-04
        -0.80417E-03
        -0.24907E-03
        -0.32932E-03
        -0.34067E-03
        -0.13271E-04
        -0.88599E-04
        -0.10526E-02
        -0.11284E-02
        -0.10553E-02
        -0.52980E-03
        -0.30887E-03
        -0.99670E-04
        -0.12324E-03
        -0.18015E-03
        -0.21535E-05
        -0.40586E-05
        -0.44147E-03
        -0.34181E-03
        -0.10849E-01
        -0.11005E-01
        -0.89429E-02
        -0.61334E-02
        -0.33713E-02
        -0.71993E-03
        -0.48206E-04
        -0.50327E-03
        -0.82101E-03
        -0.27790E-02
        -0.88646E-02
        -0.12359E-01
        -0.88094E-02
        -0.80051E-02
        -0.95414E-02
        -0.99494E-02
        -0.82165E-02
        -0.72844E-02
        -0.18594E-02
        -0.12942E-03
        -0.61485E-03
        -0.64549E-03
        -0.20018E-02
        -0.60686E-02
        -0.99201E-02
        -0.98045E-02
  
SCALARS                      strain_yy  double 1
LOOKUP_TABLE default
         0.58058E-03
         0.61569E-04
         0.42689E-03
         0.11846E-03
        -0.49343E-19
        -0.37485E-20
        -0.75785E-19
        -0.44089E-19
         0.58178E-02
         0.25564E-02
        -0.16784E-18
        -0.13009E-18
         0.42199E-02
         0.10886E-04
        -0.85964E-19
        -0.35336E-21
         0.56833E-03
         0.69361E-02
        -0.18607E-22
        -0.19481E-20
         0.17782E-02
         0.24212E-01
         0.27824E-01
        -0.45172E-18
        -0.13472E-17
        -0.94128E-18
         0.23576E-03
         0.23527E-01
        -0.23373E-18
        -0.87966E-18
         0.74059E-03
         0.53231E-03
         0.42792E-03
        -0.62817E-19
        -0.65462E-19
        -0.28215E-22
         0.63335E-02
         0.54745E-02
        -0.21272E-18
        -0.12877E-18
         0.59479E-02
         0.22783E-02
        -0.12149E-18
        -0.10146E-18
         0.51238E-02
         0.62187E-03
        -0.13369E-21
        -0.31985E-19
         0.38124E-02
        -0.70904E-20
         0.43635E-04
        -0.46512E-22
         0.12360E-04
        -0.10609E-18
         0.53311E-03
        -0.35901E-19
         0.56687E-02
         0.19065E-03
        -0.26422E-22
        -0.10885E-21
         0.10879E-02
         0.14173E-01
        -0.49050E-20
        -0.68627E-19
         0.40196E-03
        -0.19985E-19
         0.72229E-02
        -0.29660E-19
         0.44378E-02
         0.12394E-02
        -0.45298E-21
        -0.78968E-19
         0.14929E-01
        -0.38077E-18
         0.37115E-01
        -0.35697E-18
         0.37400E-01
        -0.20570E-18
         0.25488E-01
        -0.14451E-18
         0.56279E-01
         0.34205E-01
        -0.59471E-19
        -0.29235E-20
         0.70981E-03
        -0.36603E-22
         0.12494E-01
        -0.14364E-18
         0.67963E-01
        -0.44020E-18
         0.12964E+00
         0.49380E-01
        -0.96838E-18
        -0.63443E-18
         0.24806E-01
        -0.38229E-18
         0.20174E-01
        -0.40013E-18
         0.18916E-01
        -0.46258E-18
         0.52095E-01
         0.36372E-01
        -0.40004E-18
        -0.91845E-19
         0.22064E-01
         0.32323E-02
        -0.49460E-19
        -0.76379E-19
         0.13229E+00
        -0.54739E-18
         0.27818E+00
        -0.11712E-17
         0.40578E+00
        -0.17864E-17
         0.52299E+00
        -0.17576E-17
         0.67826E+00
        -0.11007E-17
         0.68152E+00
        -0.65922E-18
         0.60191E+00
        -0.57027E-18
         0.47737E+00
        -0.51622E-18
         0.26508E+00
        -0.21083E-18
         0.13015E+00
        -0.22981E-19
         0.35498E-01
        -0.95954E-20
         0.19293E-03
        -0.21678E-19
         0.35582E-01
        -0.57828E-20
         0.11804E+00
        -0.52888E-19
         0.28199E+00
        -0.42137E-18
         0.33333E+00
        -0.10275E-17
         0.38017E+00
        -0.17659E-17
         0.60650E+00
        -0.17628E-17
         0.66733E+00
        -0.13434E-17
         0.57917E+00
        -0.12760E-17
         0.37544E+00
        -0.12919E-17
         0.17416E+00
        -0.80786E-18
         0.88717E-01
        -0.28250E-18
         0.46824E-01
        -0.16889E-18
        -0.19240E-04
        -0.49141E-05
        -0.37691E-05
        -0.38546E-06
        -0.37437E-05
        -0.44987E-05
        -0.46313E-07
        -0.11401E-04
        -0.90951E-05
        -0.18647E-04
        -0.45110E-05
        -0.80929E-04
        -0.39283E-04
        -0.52963E-06
        -0.83992E-04
        -0.13719E-05
        -0.10655E-05
        -0.45476E-06
        -0.71021E-06
        -0.41276E-06
        -0.33972E-06
        -0.23477E-06
        -0.25710E-05
        -0.18406E-07
        -0.87089E-05
        -0.18995E-06
        -0.48405E-09
        -0.14868E-06
        -0.21032E-06
        -0.52017E-05
        -0.13003E-05
        -0.14426E-05
        -0.68741E-06
        -0.39259E-07
        -0.91398E-07
        -0.28353E-05
        -0.14615E-04
        -0.66349E-04
        -0.55174E-04
        -0.37457E-04
        -0.31960E-04
        -0.21601E-05
        -0.15633E-05
        -0.11641E-04
        -0.30546E-04
        -0.75610E-04
        -0.34716E-04
        -0.19026E-04
        -0.21566E-04
        -0.23177E-04
        -0.30229E-04
        -0.67804E-05
        -0.19022E-04
        -0.29707E-04
        -0.21530E-03
        -0.41834E-03
        -0.67721E-03
        -0.91746E-03
        -0.88747E-03
        -0.71606E-03
        -0.65229E-03
        -0.58024E-03
        -0.23744E-03
        -0.51256E-04
        -0.10308E-04
        -0.20321E-05
        -0.48861E-05
        -0.77784E-04
        -0.26262E-03
        -0.43373E-03
        -0.56766E-03
        -0.76787E-03
        -0.70808E-03
        -0.63225E-03
        -0.54364E-03
        -0.25318E-03
        -0.91288E-04
        -0.71779E-04
        -0.19122E-03
        -0.76069E-04
        -0.65139E-04
        -0.36647E-05
        -0.10988E-03
        -0.22227E-04
        -0.13976E-04
        -0.17081E-03
        -0.73458E-04
        -0.15110E-03
        -0.42236E-04
        -0.79107E-03
        -0.27765E-03
        -0.57338E-05
        -0.76787E-03
        -0.27502E-04
        -0.25257E-05
        -0.23021E-05
        -0.46768E-04
        -0.17482E-05
        -0.34744E-04
        -0.17514E-04
        -0.58865E-05
        -0.41937E-05
        -0.68518E-04
        -0.41920E-05
        -0.26395E-06
        -0.91218E-06
        -0.23275E-05
        -0.68181E-04
        -0.31942E-04
        -0.22164E-05
        -0.13345E-04
        -0.10061E-04
        -0.22873E-05
        -0.21254E-04
        -0.77479E-04
        -0.44353E-03
        -0.34492E-03
        -0.26788E-03
        -0.14457E-03
        -0.88274E-05
        -0.37452E-04
        -0.58436E-04
        -0.96894E-04
        -0.40432E-03
        -0.13690E-03
        -0.59867E-04
        -0.94567E-04
        -0.13179E-03
        -0.14150E-03
        -0.79658E-06
        -0.21979E-03
        -0.44972E-03
        -0.24353E-02
        -0.40673E-02
        -0.67747E-02
        -0.97545E-02
        -0.93595E-02
        -0.71390E-02
        -0.65567E-02
        -0.64178E-02
        -0.25308E-02
        -0.27493E-03
        -0.43659E-04
        -0.32056E-04
        -0.68757E-05
        -0.49476E-03
        -0.19856E-02
        -0.38457E-02
        -0.65141E-02
        -0.80095E-02
        -0.61770E-02
        -0.55214E-02
        -0.54880E-02
        -0.27208E-02
        -0.73422E-03
        -0.65828E-03
        -0.19146E-03
        -0.76096E-04
        -0.65204E-04
        -0.37187E-05
        -0.10991E-03
        -0.22262E-04
        -0.14012E-04
        -0.17139E-03
        -0.73722E-04
        -0.15223E-03
        -0.42286E-04
        -0.79093E-03
        -0.27779E-03
        -0.57341E-05
        -0.76984E-03
        -0.27505E-04
        -0.25719E-05
        -0.22952E-05
        -0.46832E-04
        -0.17287E-05
        -0.34916E-04
        -0.17548E-04
        -0.58893E-05
        -0.41897E-05
        -0.69141E-04
        -0.41768E-05
        -0.27021E-06
        -0.92241E-06
        -0.22969E-05
        -0.68470E-04
        -0.31954E-04
        -0.22068E-05
        -0.13404E-04
        -0.10094E-04
        -0.22445E-05
        -0.21282E-04
        -0.77473E-04
        -0.44489E-03
        -0.34640E-03
        -0.26850E-03
        -0.14480E-03
        -0.87800E-05
        -0.37529E-04
        -0.58496E-04
        -0.96900E-04
        -0.40432E-03
        -0.13693E-03
        -0.59795E-04
        -0.94313E-04
        -0.13144E-03
        -0.14137E-03
        -0.77263E-06
        -0.21938E-03
        -0.44977E-03
        -0.24362E-02
        -0.40674E-02
        -0.67731E-02
        -0.97479E-02
        -0.93517E-02
        -0.71347E-02
        -0.65539E-02
        -0.64143E-02
        -0.25298E-02
        -0.27518E-03
        -0.43652E-04
        -0.32188E-04
        -0.67641E-05
        -0.49529E-03
        -0.19874E-02
        -0.38475E-02
        -0.65139E-02
        -0.80084E-02
        -0.61761E-02
        -0.55209E-02
        -0.54852E-02
        -0.27169E-02
        -0.73260E-03
        -0.65655E-03
        -0.19170E-03
        -0.76126E-04
        -0.65269E-04
        -0.37737E-05
        -0.10993E-03
        -0.22299E-04
        -0.14047E-04
        -0.17197E-03
        -0.73988E-04
        -0.15336E-03
        -0.42337E-04
        -0.79079E-03
        -0.27793E-03
        -0.57329E-05
        -0.77179E-03
        -0.27508E-04
        -0.26189E-05
        -0.22883E-05
        -0.46897E-04
        -0.17090E-05
        -0.35090E-04
        -0.17580E-04
        -0.58938E-05
        -0.41846E-05
        -0.69759E-04
        -0.41594E-05
        -0.27698E-06
        -0.93335E-06
        -0.22637E-05
        -0.68749E-04
        -0.31964E-04
        -0.21951E-05
        -0.13464E-04
        -0.10126E-04
        -0.22019E-05
        -0.21311E-04
        -0.77462E-04
        -0.44627E-03
        -0.34790E-03
        -0.26913E-03
        -0.14503E-03
        -0.87278E-05
        -0.37601E-04
        -0.58571E-04
        -0.96924E-04
        -0.40435E-03
        -0.13695E-03
        -0.59721E-04
        -0.94064E-04
        -0.13109E-03
        -0.14126E-03
        -0.74916E-06
        -0.21898E-03
        -0.44983E-03
        -0.24371E-02
        -0.40674E-02
        -0.67715E-02
        -0.97414E-02
        -0.93438E-02
        -0.71304E-02
        -0.65511E-02
        -0.64107E-02
        -0.25287E-02
        -0.27545E-03
        -0.43647E-04
        -0.32321E-04
        -0.66529E-05
        -0.49582E-03
        -0.19893E-02
        -0.38493E-02
        -0.65137E-02
        -0.80075E-02
        -0.61753E-02
        -0.55205E-02
        -0.54824E-02
        -0.27130E-02
        -0.73099E-03
        -0.65482E-03
        -0.19194E-03
        -0.76153E-04
        -0.65335E-04
        -0.38292E-05
        -0.10996E-03
        -0.22335E-04
        -0.14084E-04
        -0.17254E-03
        -0.74256E-04
        -0.15448E-03
        -0.42387E-04
        -0.79066E-03
        -0.27808E-03
        -0.57332E-05
        -0.77376E-03
        -0.27513E-04
        -0.26673E-05
        -0.22811E-05
        -0.46966E-04
        -0.16883E-05
        -0.35268E-04
        -0.17610E-04
        -0.59040E-05
        -0.41763E-05
        -0.70358E-04
        -0.41367E-05
        -0.28406E-06
        -0.94792E-06
        -0.22229E-05
        -0.69003E-04
        -0.31968E-04
        -0.21793E-05
        -0.13523E-04
        -0.10159E-04
        -0.21599E-05
        -0.21339E-04
        -0.77452E-04
        -0.44765E-03
        -0.34943E-03
        -0.26980E-03
        -0.14530E-03
        -0.86615E-05
        -0.37660E-04
        -0.58686E-04
        -0.96981E-04
        -0.40439E-03
        -0.13700E-03
        -0.59649E-04
        -0.93814E-04
        -0.13073E-03
        -0.14113E-03
        -0.72609E-06
        -0.21857E-03
        -0.44988E-03
        -0.24380E-02
        -0.40675E-02
        -0.67698E-02
        -0.97348E-02
        -0.93360E-02
        -0.71261E-02
        -0.65484E-02
        -0.64072E-02
        -0.25278E-02
        -0.27578E-03
        -0.43648E-04
        -0.32451E-04
        -0.65417E-05
        -0.49641E-03
        -0.19914E-02
        -0.38514E-02
        -0.65135E-02
        -0.80065E-02
        -0.61744E-02
        -0.55200E-02
        -0.54796E-02
        -0.27092E-02
        -0.72939E-03
        -0.65310E-03
        -0.19218E-03
        -0.76181E-04
        -0.65401E-04
        -0.38849E-05
        -0.10998E-03
        -0.22370E-04
        -0.14118E-04
        -0.17311E-03
        -0.74523E-04
        -0.15559E-03
        -0.42438E-04
        -0.79053E-03
        -0.27822E-03
        -0.57338E-05
        -0.77574E-03
        -0.27518E-04
        -0.27168E-05
        -0.22740E-05
        -0.47037E-04
        -0.16666E-05
        -0.35450E-04
        -0.17636E-04
        -0.59195E-05
        -0.41647E-05
        -0.70938E-04
        -0.41082E-05
        -0.29205E-06
        -0.96592E-06
        -0.21743E-05
        -0.69229E-04
        -0.31968E-04
        -0.21588E-05
        -0.13582E-04
        -0.10192E-04
        -0.21180E-05
        -0.21367E-04
        -0.77445E-04
        -0.44905E-03
        -0.35099E-03
        -0.27051E-03
        -0.14561E-03
        -0.85806E-05
        -0.37706E-04
        -0.58843E-04
        -0.97077E-04
        -0.40449E-03
        -0.13706E-03
        -0.59584E-04
        -0.93569E-04
        -0.13038E-03
        -0.14101E-03
        -0.70325E-06
        -0.21816E-03
        -0.44993E-03
        -0.24389E-02
        -0.40676E-02
        -0.67682E-02
        -0.97281E-02
        -0.93281E-02
        -0.71218E-02
        -0.65457E-02
        -0.64036E-02
        -0.25269E-02
        -0.27616E-03
        -0.43656E-04
        -0.32579E-04
        -0.64313E-05
        -0.49704E-03
        -0.19939E-02
        -0.38537E-02
        -0.65134E-02
        -0.80055E-02
        -0.61735E-02
        -0.55196E-02
        -0.54768E-02
        -0.27053E-02
        -0.72779E-03
        -0.65137E-03
        -0.19241E-03
        -0.76199E-04
        -0.65465E-04
        -0.39417E-05
        -0.11001E-03
        -0.22406E-04
        -0.14150E-04
        -0.17366E-03
        -0.74793E-04
        -0.15667E-03
        -0.42496E-04
        -0.79040E-03
        -0.27837E-03
        -0.57358E-05
        -0.77770E-03
        -0.27525E-04
        -0.27678E-05
        -0.22670E-05
        -0.47110E-04
        -0.16446E-05
        -0.35632E-04
        -0.17662E-04
        -0.59374E-05
        -0.41518E-05
        -0.71506E-04
        -0.40779E-05
        -0.30076E-06
        -0.98601E-06
        -0.21230E-05
        -0.69444E-04
        -0.31965E-04
        -0.21361E-05
        -0.13643E-04
        -0.10227E-04
        -0.20763E-05
        -0.21398E-04
        -0.77443E-04
        -0.45045E-03
        -0.35257E-03
        -0.27125E-03
        -0.14593E-03
        -0.84954E-05
        -0.37745E-04
        -0.59014E-04
        -0.97196E-04
        -0.40462E-03
        -0.13713E-03
        -0.59531E-04
        -0.93336E-04
        -0.13003E-03
        -0.14089E-03
        -0.68078E-06
        -0.21774E-03
        -0.44998E-03
        -0.24398E-02
        -0.40676E-02
        -0.67665E-02
        -0.97215E-02
        -0.93201E-02
        -0.71175E-02
        -0.65430E-02
        -0.64000E-02
        -0.25261E-02
        -0.27657E-03
        -0.43669E-04
        -0.32708E-04
        -0.63218E-05
        -0.49769E-03
        -0.19964E-02
        -0.38561E-02
        -0.65132E-02
        -0.80044E-02
        -0.61727E-02
        -0.55192E-02
        -0.54740E-02
        -0.27015E-02
        -0.72620E-03
        -0.64965E-03
        -0.19261E-03
        -0.76195E-04
        -0.65529E-04
        -0.40004E-05
        -0.11004E-03
        -0.22443E-04
        -0.14174E-04
        -0.17416E-03
        -0.75069E-04
        -0.15771E-03
        -0.42565E-04
        -0.79033E-03
        -0.27855E-03
        -0.57447E-05
        -0.77971E-03
        -0.27534E-04
        -0.28206E-05
        -0.22600E-05
        -0.47183E-04
        -0.16227E-05
        -0.35816E-04
        -0.17688E-04
        -0.59556E-05
        -0.41393E-05
        -0.72064E-04
        -0.40475E-05
        -0.31119E-06
        -0.10076E-05
        -0.20714E-05
        -0.69654E-04
        -0.31959E-04
        -0.21119E-05
        -0.13705E-04
        -0.10263E-04
        -0.20349E-05
        -0.21430E-04
        -0.77448E-04
        -0.45188E-03
        -0.35417E-03
        -0.27199E-03
        -0.14626E-03
        -0.84086E-05
        -0.37782E-04
        -0.59185E-04
        -0.97324E-04
        -0.40478E-03
        -0.13724E-03
        -0.59512E-04
        -0.93141E-04
        -0.12970E-03
        -0.14077E-03
        -0.65841E-06
        -0.21733E-03
        -0.45003E-03
        -0.24407E-02
        -0.40677E-02
        -0.67649E-02
        -0.97149E-02
        -0.93122E-02
        -0.71132E-02
        -0.65402E-02
        -0.63964E-02
        -0.25253E-02
        -0.27698E-03
        -0.43681E-04
        -0.32837E-04
        -0.62132E-05
        -0.49834E-03
        -0.19990E-02
        -0.38585E-02
        -0.65129E-02
        -0.80034E-02
        -0.61721E-02
        -0.55189E-02
        -0.54712E-02
        -0.26976E-02
        -0.72461E-03
        -0.64793E-03
        -0.19281E-03
        -0.76185E-04
        -0.65592E-04
        -0.40603E-05
        -0.11007E-03
        -0.22479E-04
        -0.14193E-04
        -0.17463E-03
        -0.75348E-04
        -0.15873E-03
        -0.42642E-04
        -0.79024E-03
        -0.27874E-03
        -0.57550E-05
        -0.78170E-03
        -0.27545E-04
        -0.28746E-05
        -0.22529E-05
        -0.47256E-04
        -0.16009E-05
        -0.36000E-04
        -0.17714E-04
        -0.59733E-05
        -0.41272E-05
        -0.72617E-04
        -0.40174E-05
        -0.32222E-06
        -0.10300E-05
        -0.20202E-05
        -0.69862E-04
        -0.31953E-04
        -0.20868E-05
        -0.13769E-04
        -0.10301E-04
        -0.19935E-05
        -0.21466E-04
        -0.77459E-04
        -0.45333E-03
        -0.35578E-03
        -0.27274E-03
        -0.14658E-03
        -0.83223E-05
        -0.37819E-04
        -0.59358E-04
        -0.97457E-04
        -0.40497E-03
        -0.13737E-03
        -0.59502E-04
        -0.92963E-04
        -0.12938E-03
        -0.14066E-03
        -0.63643E-06
        -0.21693E-03
        -0.45008E-03
        -0.24415E-02
        -0.40678E-02
        -0.67633E-02
        -0.97083E-02
        -0.93042E-02
        -0.71088E-02
        -0.65375E-02
        -0.63928E-02
        -0.25245E-02
        -0.27739E-03
        -0.43693E-04
        -0.32969E-04
        -0.61053E-05
        -0.49899E-03
        -0.20015E-02
        -0.38608E-02
        -0.65125E-02
        -0.80023E-02
        -0.61715E-02
        -0.55187E-02
        -0.54683E-02
        -0.26937E-02
        -0.72301E-03
        -0.64621E-03
        -0.19301E-03
        -0.76175E-04
        -0.65655E-04
        -0.41207E-05
        -0.11010E-03
        -0.22514E-04
        -0.14212E-04
        -0.17510E-03
        -0.75628E-04
        -0.15974E-03
        -0.42715E-04
        -0.79017E-03
        -0.27892E-03
        -0.57668E-05
        -0.78373E-03
        -0.27555E-04
        -0.29293E-05
        -0.22456E-05
        -0.47328E-04
        -0.15792E-05
        -0.36184E-04
        -0.17741E-04
        -0.59911E-05
        -0.41151E-05
        -0.73172E-04
        -0.39876E-05
        -0.33372E-06
        -0.10524E-05
        -0.19698E-05
        -0.70071E-04
        -0.31945E-04
        -0.20621E-05
        -0.13833E-04
        -0.10338E-04
        -0.19523E-05
        -0.21498E-04
        -0.77468E-04
        -0.45478E-03
        -0.35740E-03
        -0.27348E-03
        -0.14691E-03
        -0.82370E-05
        -0.37856E-04
        -0.59533E-04
        -0.97593E-04
        -0.40515E-03
        -0.13749E-03
        -0.59495E-04
        -0.92787E-04
        -0.12905E-03
        -0.14055E-03
        -0.61471E-06
        -0.21652E-03
        -0.45012E-03
        -0.24424E-02
        -0.40678E-02
        -0.67616E-02
        -0.97017E-02
        -0.92963E-02
        -0.71045E-02
        -0.65348E-02
        -0.63891E-02
        -0.25237E-02
        -0.27779E-03
        -0.43708E-04
        -0.33102E-04
        -0.59987E-05
        -0.49963E-03
        -0.20040E-02
        -0.38631E-02
        -0.65121E-02
        -0.80013E-02
        -0.61710E-02
        -0.55185E-02
        -0.54654E-02
        -0.26899E-02
        -0.72143E-03
        -0.64450E-03
        -0.19320E-03
        -0.76163E-04
        -0.65717E-04
        -0.41811E-05
        -0.11012E-03
        -0.22550E-04
        -0.14231E-04
        -0.17558E-03
        -0.75909E-04
        -0.16076E-03
        -0.42791E-04
        -0.79009E-03
        -0.27912E-03
        -0.57769E-05
        -0.78574E-03
        -0.27566E-04
        -0.29848E-05
        -0.22385E-05
        -0.47400E-04
        -0.15574E-05
        -0.36368E-04
        -0.17767E-04
        -0.60082E-05
        -0.41031E-05
        -0.73728E-04
        -0.39579E-05
        -0.34511E-06
        -0.10748E-05
        -0.19201E-05
        -0.70280E-04
        -0.31938E-04
        -0.20375E-05
        -0.13896E-04
        -0.10376E-04
        -0.19116E-05
        -0.21534E-04
        -0.77480E-04
        -0.45624E-03
        -0.35902E-03
        -0.27422E-03
        -0.14724E-03
        -0.81523E-05
        -0.37893E-04
        -0.59705E-04
        -0.97725E-04
        -0.40533E-03
        -0.13762E-03
        -0.59491E-04
        -0.92608E-04
        -0.12873E-03
        -0.14043E-03
        -0.59346E-06
        -0.21610E-03
        -0.45017E-03
        -0.24432E-02
        -0.40679E-02
        -0.67600E-02
        -0.96950E-02
        -0.92882E-02
        -0.71002E-02
        -0.65322E-02
        -0.63855E-02
        -0.25229E-02
        -0.27819E-03
        -0.43722E-04
        -0.33236E-04
        -0.58933E-05
        -0.50029E-03
        -0.20066E-02
        -0.38654E-02
        -0.65117E-02
        -0.80002E-02
        -0.61704E-02
        -0.55182E-02
        -0.54625E-02
        -0.26860E-02
        -0.71986E-03
        -0.64279E-03
        -0.19340E-03
        -0.76150E-04
        -0.65779E-04
        -0.42420E-05
        -0.11015E-03
        -0.22585E-04
        -0.14253E-04
        -0.17605E-03
        -0.76191E-04
        -0.16179E-03
        -0.42868E-04
        -0.79000E-03
        -0.27930E-03
        -0.57881E-05
        -0.78776E-03
        -0.27576E-04
        -0.30410E-05
        -0.22313E-05
        -0.47473E-04
        -0.15357E-05
        -0.36553E-04
        -0.17792E-04
        -0.60262E-05
        -0.40913E-05
        -0.74285E-04
        -0.39284E-05
        -0.35689E-06
        -0.10971E-05
        -0.18712E-05
        -0.70490E-04
        -0.31931E-04
        -0.20131E-05
        -0.13960E-04
        -0.10413E-04
        -0.18712E-05
        -0.21568E-04
        -0.77493E-04
        -0.45770E-03
        -0.36065E-03
        -0.27496E-03
        -0.14757E-03
        -0.80680E-05
        -0.37930E-04
        -0.59876E-04
        -0.97859E-04
        -0.40552E-03
        -0.13775E-03
        -0.59483E-04
        -0.92432E-04
        -0.12840E-03
        -0.14032E-03
        -0.57252E-06
        -0.21569E-03
        -0.45021E-03
        -0.24440E-02
        -0.40679E-02
        -0.67584E-02
        -0.96883E-02
        -0.92802E-02
        -0.70958E-02
        -0.65295E-02
        -0.63818E-02
        -0.25220E-02
        -0.27859E-03
        -0.43735E-04
        -0.33367E-04
        -0.57883E-05
        -0.50094E-03
        -0.20091E-02
        -0.38677E-02
        -0.65114E-02
        -0.79992E-02
        -0.61698E-02
        -0.55180E-02
        -0.54596E-02
        -0.26821E-02
        -0.71829E-03
        -0.64108E-03
        -0.19359E-03
        -0.76139E-04
        -0.65842E-04
        -0.43039E-05
        -0.11018E-03
        -0.22621E-04
        -0.14272E-04
        -0.17652E-03
        -0.76474E-04
        -0.16281E-03
        -0.42944E-04
        -0.78992E-03
        -0.27948E-03
        -0.57993E-05
        -0.78977E-03
        -0.27588E-04
        -0.30977E-05
        -0.22241E-05
        -0.47545E-04
        -0.15143E-05
        -0.36739E-04
        -0.17817E-04
        -0.60440E-05
        -0.40797E-05
        -0.74843E-04
        -0.38992E-05
        -0.36861E-06
        -0.11195E-05
        -0.18228E-05
        -0.70698E-04
        -0.31923E-04
        -0.19888E-05
        -0.14024E-04
        -0.10452E-04
        -0.18310E-05
        -0.21603E-04
        -0.77501E-04
        -0.45917E-03
        -0.36227E-03
        -0.27570E-03
        -0.14790E-03
        -0.79850E-05
        -0.37966E-04
        -0.60048E-04
        -0.97993E-04
        -0.40571E-03
        -0.13787E-03
        -0.59480E-04
        -0.92257E-04
        -0.12808E-03
        -0.14021E-03
        -0.55199E-06
        -0.21528E-03
        -0.45025E-03
        -0.24449E-02
        -0.40680E-02
        -0.67567E-02
        -0.96817E-02
        -0.92722E-02
        -0.70915E-02
        -0.65268E-02
        -0.63781E-02
        -0.25212E-02
        -0.27900E-03
        -0.43749E-04
        -0.33500E-04
        -0.56840E-05
        -0.50159E-03
        -0.20117E-02
        -0.38700E-02
        -0.65110E-02
        -0.79981E-02
        -0.61692E-02
        -0.55177E-02
        -0.54567E-02
        -0.26783E-02
        -0.71673E-03
        -0.63937E-03
        -0.19379E-03
        -0.76127E-04
        -0.65905E-04
        -0.43664E-05
        -0.11021E-03
        -0.22657E-04
        -0.14291E-04
        -0.17699E-03
        -0.76757E-04
        -0.16383E-03
        -0.43021E-04
        -0.78985E-03
        -0.27968E-03
        -0.58091E-05
        -0.79181E-03
        -0.27598E-04
        -0.31550E-05
        -0.22167E-05
        -0.47617E-04
        -0.14932E-05
        -0.36925E-04
        -0.17842E-04
        -0.60616E-05
        -0.40680E-05
        -0.75402E-04
        -0.38698E-05
        -0.38086E-06
        -0.11419E-05
        -0.17753E-05
        -0.70906E-04
        -0.31916E-04
        -0.19644E-05
        -0.14088E-04
        -0.10489E-04
        -0.17912E-05
        -0.21639E-04
        -0.77512E-04
        -0.46063E-03
        -0.36391E-03
        -0.27645E-03
        -0.14823E-03
        -0.79015E-05
        -0.38003E-04
        -0.60223E-04
        -0.98131E-04
        -0.40587E-03
        -0.13800E-03
        -0.59474E-04
        -0.92083E-04
        -0.12776E-03
        -0.14009E-03
        -0.53188E-06
        -0.21487E-03
        -0.45030E-03
        -0.24457E-02
        -0.40681E-02
        -0.67551E-02
        -0.96751E-02
        -0.92642E-02
        -0.70871E-02
        -0.65241E-02
        -0.63743E-02
        -0.25204E-02
        -0.27940E-03
        -0.43762E-04
        -0.33633E-04
        -0.55808E-05
        -0.50223E-03
        -0.20142E-02
        -0.38723E-02
        -0.65107E-02
        -0.79971E-02
        -0.61686E-02
        -0.55175E-02
        -0.54538E-02
        -0.26744E-02
        -0.71518E-03
        -0.63767E-03
        -0.19398E-03
        -0.76117E-04
        -0.65968E-04
        -0.44292E-05
        -0.11024E-03
        -0.22693E-04
        -0.14313E-04
        -0.17746E-03
        -0.77041E-04
        -0.16486E-03
        -0.43098E-04
        -0.78977E-03
        -0.27986E-03
        -0.58202E-05
        -0.79383E-03
        -0.27608E-04
        -0.32131E-05
        -0.22095E-05
        -0.47689E-04
        -0.14722E-05
        -0.37111E-04
        -0.17867E-04
        -0.60794E-05
        -0.40565E-05
        -0.75964E-04
        -0.38405E-05
        -0.39297E-06
        -0.11643E-05
        -0.17285E-05
        -0.71114E-04
        -0.31908E-04
        -0.19404E-05
        -0.14152E-04
        -0.10528E-04
        -0.17517E-05
        -0.21673E-04
        -0.77520E-04
        -0.46211E-03
        -0.36555E-03
        -0.27718E-03
        -0.14856E-03
        -0.78186E-05
        -0.38040E-04
        -0.60396E-04
        -0.98266E-04
        -0.40606E-03
        -0.13813E-03
        -0.59467E-04
        -0.91904E-04
        -0.12744E-03
        -0.13998E-03
        -0.51227E-06
        -0.21446E-03
        -0.45034E-03
        -0.24465E-02
        -0.40681E-02
        -0.67535E-02
        -0.96684E-02
        -0.92561E-02
        -0.70828E-02
        -0.65214E-02
        -0.63706E-02
        -0.25195E-02
        -0.27981E-03
        -0.43775E-04
        -0.33767E-04
        -0.54791E-05
        -0.50288E-03
        -0.20168E-02
        -0.38747E-02
        -0.65104E-02
        -0.79961E-02
        -0.61680E-02
        -0.55172E-02
        -0.54509E-02
        -0.26706E-02
        -0.71363E-03
        -0.63596E-03
        -0.19417E-03
        -0.76106E-04
        -0.66030E-04
        -0.44924E-05
        -0.11026E-03
        -0.22728E-04
        -0.14332E-04
        -0.17793E-03
        -0.77327E-04
        -0.16589E-03
        -0.43175E-04
        -0.78969E-03
        -0.28004E-03
        -0.58297E-05
        -0.79587E-03
        -0.27619E-04
        -0.32720E-05
        -0.22023E-05
        -0.47761E-04
        -0.14512E-05
        -0.37299E-04
        -0.17892E-04
        -0.60968E-05
        -0.40452E-05
        -0.76528E-04
        -0.38114E-05
        -0.40550E-06
        -0.11864E-05
        -0.16826E-05
        -0.71324E-04
        -0.31900E-04
        -0.19164E-05
        -0.14216E-04
        -0.10566E-04
        -0.17126E-05
        -0.21708E-04
        -0.77531E-04
        -0.46360E-03
        -0.36720E-03
        -0.27792E-03
        -0.14890E-03
        -0.77363E-05
        -0.38077E-04
        -0.60568E-04
        -0.98401E-04
        -0.40625E-03
        -0.13825E-03
        -0.59464E-04
        -0.91728E-04
        -0.12712E-03
        -0.13987E-03
        -0.49289E-06
        -0.21405E-03
        -0.45037E-03
        -0.24473E-02
        -0.40682E-02
        -0.67519E-02
        -0.96618E-02
        -0.92481E-02
        -0.70784E-02
        -0.65187E-02
        -0.63668E-02
        -0.25187E-02
        -0.28021E-03
        -0.43788E-04
        -0.33900E-04
        -0.53780E-05
        -0.50353E-03
        -0.20193E-02
        -0.38770E-02
        -0.65100E-02
        -0.79950E-02
        -0.61675E-02
        -0.55170E-02
        -0.54479E-02
        -0.26668E-02
        -0.71209E-03
        -0.63426E-03
        -0.19436E-03
        -0.76091E-04
        -0.66092E-04
        -0.45558E-05
        -0.11029E-03
        -0.22764E-04
        -0.14352E-04
        -0.17840E-03
        -0.77615E-04
        -0.16691E-03
        -0.43252E-04
        -0.78962E-03
        -0.28024E-03
        -0.58405E-05
        -0.79789E-03
        -0.27629E-04
        -0.33317E-05
        -0.21951E-05
        -0.47834E-04
        -0.14304E-05
        -0.37487E-04
        -0.17916E-04
        -0.61145E-05
        -0.40340E-05
        -0.77094E-04
        -0.37823E-05
        -0.41788E-06
        -0.12084E-05
        -0.16374E-05
        -0.71533E-04
        -0.31893E-04
        -0.18927E-05
        -0.14280E-04
        -0.10605E-04
        -0.16737E-05
        -0.21743E-04
        -0.77541E-04
        -0.46509E-03
        -0.36885E-03
        -0.27865E-03
        -0.14923E-03
        -0.76546E-05
        -0.38115E-04
        -0.60739E-04
        -0.98540E-04
        -0.40643E-03
        -0.13838E-03
        -0.59457E-04
        -0.91555E-04
        -0.12680E-03
        -0.13975E-03
        -0.47389E-06
        -0.21363E-03
        -0.45041E-03
        -0.24481E-02
        -0.40682E-02
        -0.67503E-02
        -0.96551E-02
        -0.92399E-02
        -0.70740E-02
        -0.65161E-02
        -0.63630E-02
        -0.25179E-02
        -0.28062E-03
        -0.43800E-04
        -0.34033E-04
        -0.52778E-05
        -0.50417E-03
        -0.20219E-02
        -0.38793E-02
        -0.65097E-02
        -0.79940E-02
        -0.61669E-02
        -0.55167E-02
        -0.54450E-02
        -0.26629E-02
        -0.71055E-03
        -0.63256E-03
        -0.19455E-03
        -0.76079E-04
        -0.66155E-04
        -0.46200E-05
        -0.11032E-03
        -0.22800E-04
        -0.14373E-04
        -0.17886E-03
        -0.77904E-04
        -0.16795E-03
        -0.43330E-04
        -0.78954E-03
        -0.28043E-03
        -0.58497E-05
        -0.79994E-03
        -0.27640E-04
        -0.33923E-05
        -0.21877E-05
        -0.47906E-04
        -0.14100E-05
        -0.37674E-04
        -0.17939E-04
        -0.61321E-05
        -0.40228E-05
        -0.77661E-04
        -0.37532E-05
        -0.43080E-06
        -0.12305E-05
        -0.15928E-05
        -0.71737E-04
        -0.31884E-04
        -0.18690E-05
        -0.14344E-04
        -0.10643E-04
        -0.16352E-05
        -0.21777E-04
        -0.77549E-04
        -0.46659E-03
        -0.37050E-03
        -0.27938E-03
        -0.14956E-03
        -0.75740E-05
        -0.38152E-04
        -0.60914E-04
        -0.98676E-04
        -0.40662E-03
        -0.13851E-03
        -0.59454E-04
        -0.91382E-04
        -0.12648E-03
        -0.13964E-03
        -0.45541E-06
        -0.21322E-03
        -0.45045E-03
        -0.24489E-02
        -0.40683E-02
        -0.67486E-02
        -0.96483E-02
        -0.92318E-02
        -0.70696E-02
        -0.65134E-02
        -0.63591E-02
        -0.25171E-02
        -0.28103E-03
        -0.43810E-04
        -0.34164E-04
        -0.51790E-05
        -0.50481E-03
        -0.20245E-02
        -0.38816E-02
        -0.65093E-02
        -0.79929E-02
        -0.61663E-02
        -0.55165E-02
        -0.54421E-02
        -0.26591E-02
        -0.70903E-03
        -0.63087E-03
        -0.19474E-03
        -0.76068E-04
        -0.66218E-04
        -0.46849E-05
        -0.11035E-03
        -0.22835E-04
        -0.14393E-04
        -0.17932E-03
        -0.78195E-04
        -0.16898E-03
        -0.43407E-04
        -0.78946E-03
        -0.28061E-03
        -0.58601E-05
        -0.80196E-03
        -0.27651E-04
        -0.34540E-05
        -0.21803E-05
        -0.47979E-04
        -0.13907E-05
        -0.37862E-04
        -0.17962E-04
        -0.61500E-05
        -0.40115E-05
        -0.78230E-04
        -0.37246E-05
        -0.44378E-06
        -0.12526E-05
        -0.15489E-05
        -0.71930E-04
        -0.31876E-04
        -0.18452E-05
        -0.14407E-04
        -0.10682E-04
        -0.15971E-05
        -0.21813E-04
        -0.77560E-04
        -0.46811E-03
        -0.37215E-03
        -0.28007E-03
        -0.14988E-03
        -0.74928E-05
        -0.38192E-04
        -0.61087E-04
        -0.98814E-04
        -0.40681E-03
        -0.13863E-03
        -0.59448E-04
        -0.91205E-04
        -0.12616E-03
        -0.13953E-03
        -0.43728E-06
        -0.21281E-03
        -0.45048E-03
        -0.24497E-02
        -0.40684E-02
        -0.67470E-02
        -0.96417E-02
        -0.92237E-02
        -0.70653E-02
        -0.65107E-02
        -0.63551E-02
        -0.25164E-02
        -0.28144E-03
        -0.43814E-04
        -0.34296E-04
        -0.50813E-05
        -0.50545E-03
        -0.20270E-02
        -0.38839E-02
        -0.65090E-02
        -0.79919E-02
        -0.61658E-02
        -0.55162E-02
        -0.54391E-02
        -0.26552E-02
        -0.70751E-03
        -0.62917E-03
        -0.19493E-03
        -0.76056E-04
        -0.66280E-04
        -0.47501E-05
        -0.11037E-03
        -0.22870E-04
        -0.14413E-04
        -0.17979E-03
        -0.78489E-04
        -0.17001E-03
        -0.43483E-04
        -0.78939E-03
        -0.28080E-03
        -0.58705E-05
        -0.80401E-03
        -0.27661E-04
        -0.35174E-05
        -0.21729E-05
        -0.48051E-04
        -0.13723E-05
        -0.38051E-04
        -0.17984E-04
        -0.61677E-05
        -0.40005E-05
        -0.78802E-04
        -0.36957E-05
        -0.45752E-06
        -0.12746E-05
        -0.15058E-05
        -0.72111E-04
        -0.31868E-04
        -0.18218E-05
        -0.14471E-04
        -0.10721E-04
        -0.15591E-05
        -0.21848E-04
        -0.77569E-04
        -0.46965E-03
        -0.37378E-03
        -0.28074E-03
        -0.15020E-03
        -0.74123E-05
        -0.38234E-04
        -0.61260E-04
        -0.98953E-04
        -0.40700E-03
        -0.13876E-03
        -0.59442E-04
        -0.91032E-04
        -0.12583E-03
        -0.13941E-03
        -0.41938E-06
        -0.21240E-03
        -0.45051E-03
        -0.24505E-02
        -0.40684E-02
        -0.67453E-02
        -0.96350E-02
        -0.92155E-02
        -0.70610E-02
        -0.65079E-02
        -0.63508E-02
        -0.25158E-02
        -0.28186E-03
        -0.43811E-04
        -0.34429E-04
        -0.49839E-05
        -0.50610E-03
        -0.20296E-02
        -0.38862E-02
        -0.65086E-02
        -0.79908E-02
        -0.61652E-02
        -0.55159E-02
        -0.54361E-02
        -0.26514E-02
        -0.70601E-03
        -0.62748E-03
        -0.19512E-03
        -0.76045E-04
        -0.66347E-04
        -0.48155E-05
        -0.11041E-03
        -0.22906E-04
        -0.14435E-04
        -0.18025E-03
        -0.78786E-04
        -0.17105E-03
        -0.43561E-04
        -0.78931E-03
        -0.28099E-03
        -0.58795E-05
        -0.80605E-03
        -0.27672E-04
        -0.35816E-05
        -0.21656E-05
        -0.48125E-04
        -0.13545E-05
        -0.38241E-04
        -0.18006E-04
        -0.61843E-05
        -0.39903E-05
        -0.79377E-04
        -0.36680E-05
        -0.47111E-06
        -0.12959E-05
        -0.14638E-05
        -0.72289E-04
        -0.31861E-04
        -0.17990E-05
        -0.14535E-04
        -0.10760E-04
        -0.15220E-05
        -0.21882E-04
        -0.77574E-04
        -0.47120E-03
        -0.37542E-03
        -0.28139E-03
        -0.15052E-03
        -0.73338E-05
        -0.38278E-04
        -0.61430E-04
        -0.99086E-04
        -0.40719E-03
        -0.13889E-03
        -0.59438E-04
        -0.90860E-04
        -0.12552E-03
        -0.13931E-03
        -0.40198E-06
        -0.21198E-03
        -0.45056E-03
        -0.24513E-02
        -0.40685E-02
        -0.67438E-02
        -0.96284E-02
        -0.92074E-02
        -0.70567E-02
        -0.65051E-02
        -0.63465E-02
        -0.25152E-02
        -0.28226E-03
        -0.43802E-04
        -0.34561E-04
        -0.48875E-05
        -0.50673E-03
        -0.20321E-02
        -0.38886E-02
        -0.65084E-02
        -0.79897E-02
        -0.61646E-02
        -0.55156E-02
        -0.54332E-02
        -0.26476E-02
        -0.70451E-03
        -0.62580E-03
        -0.19731E-03
        -0.76844E-04
        -0.67120E-04
        -0.49282E-05
        -0.11162E-03
        -0.23177E-04
        -0.14614E-04
        -0.18257E-03
        -0.79868E-04
        -0.17382E-03
        -0.44103E-04
        -0.79785E-03
        -0.28413E-03
        -0.59522E-05
        -0.81704E-03
        -0.27968E-04
        -0.36800E-05
        -0.21800E-05
        -0.48693E-04
        -0.13528E-05
        -0.38811E-04
        -0.18214E-04
        -0.62537E-05
        -0.40262E-05
        -0.80768E-04
        -0.36866E-05
        -0.48895E-06
        -0.13264E-05
        -0.14457E-05
        -0.73252E-04
        -0.32188E-04
        -0.18015E-05
        -0.14744E-04
        -0.10909E-04
        -0.15050E-05
        -0.22126E-04
        -0.78358E-04
        -0.47784E-03
        -0.38110E-03
        -0.28509E-03
        -0.15245E-03
        -0.73529E-05
        -0.38746E-04
        -0.62158E-04
        -0.10017E-03
        -0.41151E-03
        -0.14038E-03
        -0.60001E-04
        -0.91600E-04
        -0.12650E-03
        -0.14067E-03
        -0.38918E-06
        -0.21422E-03
        -0.45640E-03
        -0.24832E-02
        -0.41194E-02
        -0.68285E-02
        -0.97496E-02
        -0.93235E-02
        -0.71474E-02
        -0.65903E-02
        -0.64296E-02
        -0.25483E-02
        -0.28617E-03
        -0.44293E-04
        -0.35079E-04
        -0.48519E-05
        -0.51303E-03
        -0.20576E-02
        -0.39379E-02
        -0.65919E-02
        -0.80918E-02
        -0.62391E-02
        -0.55810E-02
        -0.54964E-02
        -0.26762E-02
        -0.71159E-03
        -0.63174E-03
        -0.44782E-03
        -0.17601E-03
        -0.15198E-03
        -0.11332E-04
        -0.23605E-03
        -0.49933E-04
        -0.33405E-04
        -0.41201E-03
        -0.18063E-03
        -0.39074E-03
        -0.97604E-04
        -0.16336E-02
        -0.59798E-03
        -0.13076E-04
        -0.16942E-02
        -0.63556E-04
        -0.84293E-05
        -0.49405E-05
        -0.10799E-03
        -0.30019E-05
        -0.81667E-04
        -0.39237E-04
        -0.13161E-04
        -0.90537E-05
        -0.18527E-03
        -0.84179E-05
        -0.11101E-05
        -0.30510E-05
        -0.32936E-05
        -0.16754E-03
        -0.73175E-04
        -0.40714E-05
        -0.33734E-04
        -0.24911E-04
        -0.29890E-05
        -0.47583E-04
        -0.16852E-03
        -0.10344E-02
        -0.84844E-03
        -0.63881E-03
        -0.33242E-03
        -0.16183E-04
        -0.85486E-04
        -0.13282E-03
        -0.21275E-03
        -0.82713E-03
        -0.29644E-03
        -0.12957E-03
        -0.19971E-03
        -0.27356E-03
        -0.29052E-03
        -0.80728E-06
        -0.34804E-03
        -0.74001E-03
        -0.40306E-02
        -0.67154E-02
        -0.11128E-01
        -0.15998E-01
        -0.15653E-01
        -0.12203E-01
        -0.11214E-01
        -0.10822E-01
        -0.42946E-02
        -0.47941E-03
        -0.75446E-04
        -0.60203E-04
        -0.79935E-05
        -0.83735E-03
        -0.33396E-02
        -0.63389E-02
        -0.10624E-01
        -0.13074E-01
        -0.10260E-01
        -0.92493E-02
        -0.90534E-02
        -0.44356E-02
        -0.11711E-02
        -0.10317E-02
  
SCALARS                      strain_zz  double 1
LOOKUP_TABLE default
         0.18587E+02
         0.18348E+02
         0.18491E+02
         0.18771E+02
        -0.40652E-08
        -0.45585E-08
        -0.43649E-08
        -0.39654E-08
         0.18270E+02
         0.18390E+02
        -0.40992E-08
        -0.39670E-08
         0.18000E+02
         0.17990E+02
        -0.48708E-08
        -0.45797E-08
         0.18730E+02
         0.18001E+02
        -0.35990E-08
        -0.39918E-08
         0.17739E+02
         0.17505E+02
         0.17830E+02
        -0.48275E-08
        -0.42159E-08
        -0.43534E-08
         0.17536E+02
         0.17215E+02
        -0.46313E-08
        -0.39057E-08
         0.18717E+02
         0.18402E+02
         0.19021E+02
        -0.39521E-08
        -0.36741E-08
        -0.35722E-08
         0.18526E+02
         0.18131E+02
        -0.41812E-08
        -0.38153E-08
         0.18357E+02
         0.18037E+02
        -0.36137E-08
        -0.31992E-08
         0.18615E+02
         0.18749E+02
        -0.39602E-08
        -0.44249E-08
         0.17817E+02
        -0.38687E-08
         0.18723E+02
        -0.45459E-08
         0.17458E+02
        -0.40855E-08
         0.17364E+02
        -0.39188E-08
         0.17346E+02
         0.17702E+02
        -0.39928E-08
        -0.38886E-08
         0.18711E+02
         0.18573E+02
        -0.40038E-08
        -0.45262E-08
         0.18786E+02
        -0.38634E-08
         0.18633E+02
        -0.42164E-08
         0.18136E+02
         0.18169E+02
        -0.40587E-08
        -0.42528E-08
         0.18105E+02
        -0.42885E-08
         0.17100E+02
        -0.33882E-08
         0.17037E+02
        -0.32888E-08
         0.17037E+02
        -0.34677E-08
         0.17114E+02
         0.17329E+02
        -0.33039E-08
        -0.34445E-08
         0.17676E+02
        -0.32081E-08
         0.18593E+02
        -0.42070E-08
         0.18411E+02
        -0.43058E-08
         0.18217E+02
         0.18245E+02
        -0.41349E-08
        -0.41832E-08
         0.18362E+02
        -0.37996E-08
         0.18418E+02
        -0.37453E-08
         0.18342E+02
        -0.40094E-08
         0.18254E+02
         0.18357E+02
        -0.39318E-08
        -0.40472E-08
         0.17680E+02
         0.17736E+02
        -0.30527E-08
        -0.28712E-08
         0.17554E+02
        -0.29149E-08
         0.17621E+02
        -0.27949E-08
         0.17500E+02
        -0.27560E-08
         0.17120E+02
        -0.26044E-08
         0.16701E+02
        -0.23137E-08
         0.16491E+02
        -0.20834E-08
         0.16474E+02
        -0.20689E-08
         0.16492E+02
        -0.22436E-08
         0.16738E+02
        -0.23580E-08
         0.17048E+02
        -0.21531E-08
         0.17447E+02
        -0.19408E-08
         0.17778E+02
        -0.19386E-08
         0.18086E+02
        -0.21669E-08
         0.18278E+02
        -0.24707E-08
         0.18227E+02
        -0.26543E-08
         0.17933E+02
        -0.28666E-08
         0.17762E+02
        -0.30712E-08
         0.17516E+02
        -0.28134E-08
         0.17585E+02
        -0.24681E-08
         0.17716E+02
        -0.24605E-08
         0.17710E+02
        -0.26921E-08
         0.17810E+02
        -0.28699E-08
         0.17816E+02
        -0.27235E-08
         0.17843E+02
        -0.26330E-08
        -0.44179E+00
        -0.43256E+00
        -0.43385E+00
        -0.44558E+00
        -0.42303E+00
        -0.43489E+00
        -0.42010E+00
        -0.42800E+00
        -0.44379E+00
        -0.43416E+00
        -0.41123E+00
        -0.40837E+00
        -0.41574E+00
        -0.41629E+00
        -0.41150E+00
        -0.44505E+00
        -0.44293E+00
        -0.44877E+00
        -0.43153E+00
        -0.43484E+00
        -0.43003E+00
        -0.43318E+00
        -0.42730E+00
        -0.42890E+00
        -0.43456E+00
        -0.43417E+00
        -0.42435E+00
        -0.42527E+00
        -0.41763E+00
        -0.42904E+00
        -0.44401E+00
        -0.43243E+00
        -0.44393E+00
        -0.43644E+00
        -0.40643E+00
        -0.41661E+00
        -0.42125E+00
        -0.41574E+00
        -0.41504E+00
        -0.40571E+00
        -0.39862E+00
        -0.41544E+00
        -0.43021E+00
        -0.42830E+00
        -0.42079E+00
        -0.40680E+00
        -0.41882E+00
        -0.43086E+00
        -0.43006E+00
        -0.42077E+00
        -0.41073E+00
        -0.42412E+00
        -0.38018E+00
        -0.39368E+00
        -0.39143E+00
        -0.39447E+00
        -0.39360E+00
        -0.38627E+00
        -0.37869E+00
        -0.37630E+00
        -0.37742E+00
        -0.37659E+00
        -0.37331E+00
        -0.39299E+00
        -0.40018E+00
        -0.40290E+00
        -0.40727E+00
        -0.41052E+00
        -0.41031E+00
        -0.40459E+00
        -0.38472E+00
        -0.38955E+00
        -0.39653E+00
        -0.39652E+00
        -0.39532E+00
        -0.38871E+00
        -0.39841E+00
        -0.40188E+00
         0.23865E-03
         0.88411E-04
         0.83648E-04
         0.59997E-04
         0.24821E-03
         0.14049E-03
         0.14318E-04
         0.19130E-03
         0.11405E-03
         0.16620E-03
         0.17786E-04
         0.80814E-03
         0.47347E-03
         0.61986E-04
         0.86936E-03
         0.12123E-03
         0.46739E-04
         0.35091E-04
         0.51931E-04
         0.18568E-04
         0.49667E-03
         0.44949E-03
         0.40475E-03
         0.23107E-04
         0.53785E-04
         0.53230E-05
         0.28893E-04
        -0.57520E-04
        -0.16806E-04
         0.70570E-04
         0.89845E-04
         0.22697E-04
         0.57991E-04
         0.62083E-04
         0.38568E-03
         0.13935E-03
         0.23757E-03
         0.56902E-03
         0.33179E-03
         0.29370E-03
         0.61160E-03
         0.49600E-03
         0.50555E-03
         0.29333E-03
         0.23377E-03
         0.44758E-03
         0.19694E-03
         0.14717E-03
         0.10948E-03
         0.15547E-03
         0.37832E-03
         0.19875E-03
         0.68664E-02
         0.72419E-02
         0.78843E-02
         0.78029E-02
         0.88895E-02
         0.10258E-01
         0.94390E-02
         0.74810E-02
         0.70966E-02
         0.81032E-02
         0.77789E-02
         0.75628E-02
         0.51615E-02
         0.46818E-02
         0.56166E-02
         0.64240E-02
         0.69234E-02
         0.82616E-02
         0.76502E-02
         0.80988E-02
         0.65706E-02
         0.59151E-02
         0.67117E-02
         0.64138E-02
         0.68103E-02
         0.67129E-02
         0.23754E-03
         0.86960E-04
         0.82257E-04
         0.58770E-04
         0.24630E-03
         0.13877E-03
         0.12825E-04
         0.19005E-03
         0.11280E-03
         0.16548E-03
         0.15960E-04
         0.80595E-03
         0.47196E-03
         0.59632E-04
         0.86908E-03
         0.11986E-03
         0.45196E-04
         0.33718E-04
         0.50251E-04
         0.16681E-04
         0.49490E-03
         0.44762E-03
         0.40278E-03
         0.21332E-04
         0.52468E-04
         0.36291E-05
         0.27213E-04
        -0.59407E-04
        -0.18628E-04
         0.68850E-04
         0.88499E-04
         0.21081E-04
         0.56515E-04
         0.60785E-04
         0.38412E-03
         0.13759E-03
         0.23579E-03
         0.56871E-03
         0.33133E-03
         0.29253E-03
         0.61029E-03
         0.49445E-03
         0.50370E-03
         0.29146E-03
         0.23191E-03
         0.44562E-03
         0.19516E-03
         0.14547E-03
         0.10766E-03
         0.15356E-03
         0.37616E-03
         0.19661E-03
         0.68581E-02
         0.72352E-02
         0.78811E-02
         0.77999E-02
         0.88834E-02
         0.10247E-01
         0.94276E-02
         0.74734E-02
         0.70893E-02
         0.80946E-02
         0.77725E-02
         0.75599E-02
         0.51576E-02
         0.46786E-02
         0.56151E-02
         0.64240E-02
         0.69238E-02
         0.82619E-02
         0.76461E-02
         0.80944E-02
         0.65659E-02
         0.59115E-02
         0.67042E-02
         0.64024E-02
         0.67996E-02
         0.67027E-02
         0.23820E-03
         0.87289E-04
         0.82648E-04
         0.59219E-04
         0.24653E-03
         0.13908E-03
         0.13289E-04
         0.19082E-03
         0.11334E-03
         0.16663E-03
         0.16330E-04
         0.80631E-03
         0.47269E-03
         0.59536E-04
         0.87142E-03
         0.11973E-03
         0.45271E-04
         0.34013E-04
         0.49883E-04
         0.16271E-04
         0.49469E-03
         0.44744E-03
         0.40148E-03
         0.20050E-04
         0.52274E-04
         0.24404E-05
         0.27626E-04
        -0.59703E-04
        -0.19281E-04
         0.67733E-04
         0.88661E-04
         0.20703E-04
         0.56764E-04
         0.61275E-04
         0.38496E-03
         0.13795E-03
         0.23605E-03
         0.57092E-03
         0.33323E-03
         0.29349E-03
         0.61107E-03
         0.49422E-03
         0.50277E-03
         0.29024E-03
         0.23153E-03
         0.44586E-03
         0.19549E-03
         0.14583E-03
         0.10781E-03
         0.15367E-03
         0.37627E-03
         0.19656E-03
         0.68541E-02
         0.72327E-02
         0.78820E-02
         0.78008E-02
         0.88810E-02
         0.10241E-01
         0.94205E-02
         0.74702E-02
         0.70865E-02
         0.80905E-02
         0.77704E-02
         0.75604E-02
         0.51567E-02
         0.46788E-02
         0.56168E-02
         0.64267E-02
         0.69268E-02
         0.82656E-02
         0.76462E-02
         0.80945E-02
         0.65654E-02
         0.59116E-02
         0.67006E-02
         0.63949E-02
         0.67927E-02
         0.66963E-02
         0.23832E-03
         0.87198E-04
         0.82604E-04
         0.59105E-04
         0.24616E-03
         0.13882E-03
         0.13283E-04
         0.19099E-03
         0.11318E-03
         0.16691E-03
         0.16142E-04
         0.80604E-03
         0.47292E-03
         0.58783E-04
         0.87300E-03
         0.11870E-03
         0.44438E-04
         0.33717E-04
         0.48429E-04
         0.14671E-04
         0.49341E-03
         0.44616E-03
         0.39857E-03
         0.17183E-04
         0.50574E-04
        -0.26418E-06
         0.27208E-04
        -0.61231E-04
        -0.21560E-04
         0.64601E-04
         0.88098E-04
         0.19249E-04
         0.56438E-04
         0.61104E-04
         0.38504E-03
         0.13770E-03
         0.23581E-03
         0.57237E-03
         0.33434E-03
         0.29347E-03
         0.61074E-03
         0.49243E-03
         0.50007E-03
         0.28738E-03
         0.23002E-03
         0.44507E-03
         0.19495E-03
         0.14550E-03
         0.10728E-03
         0.15302E-03
         0.37560E-03
         0.19586E-03
         0.68486E-02
         0.72289E-02
         0.78814E-02
         0.78005E-02
         0.88778E-02
         0.10234E-01
         0.94121E-02
         0.74656E-02
         0.70823E-02
         0.80849E-02
         0.77667E-02
         0.75593E-02
         0.51542E-02
         0.46777E-02
         0.56173E-02
         0.64278E-02
         0.69283E-02
         0.82682E-02
         0.76447E-02
         0.80930E-02
         0.65635E-02
         0.59103E-02
         0.66955E-02
         0.63861E-02
         0.67848E-02
         0.66890E-02
         0.23827E-03
         0.86978E-04
         0.82469E-04
         0.58984E-04
         0.24578E-03
         0.13850E-03
         0.13198E-04
         0.19103E-03
         0.11293E-03
         0.16714E-03
         0.15943E-04
         0.80586E-03
         0.47312E-03
         0.58009E-04
         0.87472E-03
         0.11808E-03
         0.43822E-04
         0.33439E-04
         0.47495E-04
         0.13498E-04
         0.49266E-03
         0.44524E-03
         0.39683E-03
         0.15402E-04
         0.49518E-04
        -0.20011E-05
         0.26844E-04
        -0.62338E-04
        -0.23099E-04
         0.62586E-04
         0.87509E-04
         0.18192E-04
         0.55912E-04
         0.60847E-04
         0.38513E-03
         0.13741E-03
         0.23550E-03
         0.57393E-03
         0.33556E-03
         0.29372E-03
         0.61084E-03
         0.49143E-03
         0.49841E-03
         0.28565E-03
         0.22903E-03
         0.44460E-03
         0.19449E-03
         0.14500E-03
         0.10656E-03
         0.15221E-03
         0.37480E-03
         0.19506E-03
         0.68432E-02
         0.72252E-02
         0.78809E-02
         0.78002E-02
         0.88747E-02
         0.10227E-01
         0.94041E-02
         0.74612E-02
         0.70783E-02
         0.80796E-02
         0.77634E-02
         0.75590E-02
         0.51526E-02
         0.46768E-02
         0.56183E-02
         0.64302E-02
         0.69309E-02
         0.82713E-02
         0.76437E-02
         0.80916E-02
         0.65615E-02
         0.59090E-02
         0.66902E-02
         0.63772E-02
         0.67768E-02
         0.66816E-02
         0.23768E-03
         0.86514E-04
         0.82334E-04
         0.59262E-04
         0.24580E-03
         0.13868E-03
         0.13176E-04
         0.19077E-03
         0.11247E-03
         0.16706E-03
         0.16109E-04
         0.80630E-03
         0.47368E-03
         0.57547E-04
         0.87715E-03
         0.11845E-03
         0.43816E-04
         0.33742E-04
         0.47766E-04
         0.13592E-04
         0.49310E-03
         0.44555E-03
         0.39696E-03
         0.15359E-04
         0.49417E-04
        -0.22526E-05
         0.26797E-04
        -0.62493E-04
        -0.22885E-04
         0.62747E-04
         0.86767E-04
         0.17627E-04
         0.55108E-04
         0.60821E-04
         0.38571E-03
         0.13737E-03
         0.23538E-03
         0.57618E-03
         0.33755E-03
         0.29505E-03
         0.61220E-03
         0.49227E-03
         0.49887E-03
         0.28568E-03
         0.22892E-03
         0.44460E-03
         0.19410E-03
         0.14399E-03
         0.10518E-03
         0.15127E-03
         0.37428E-03
         0.19469E-03
         0.68391E-02
         0.72226E-02
         0.78815E-02
         0.78008E-02
         0.88723E-02
         0.10220E-01
         0.93969E-02
         0.74580E-02
         0.70755E-02
         0.80758E-02
         0.77619E-02
         0.75606E-02
         0.51528E-02
         0.46773E-02
         0.56206E-02
         0.64350E-02
         0.69361E-02
         0.82757E-02
         0.76433E-02
         0.80909E-02
         0.65601E-02
         0.59079E-02
         0.66853E-02
         0.63689E-02
         0.67696E-02
         0.66751E-02
         0.23659E-03
         0.85652E-04
         0.81900E-04
         0.59228E-04
         0.24542E-03
         0.13854E-03
         0.12645E-04
         0.18986E-03
         0.11151E-03
         0.16642E-03
         0.15694E-04
         0.80613E-03
         0.47380E-03
         0.56439E-04
         0.87889E-03
         0.11842E-03
         0.43340E-04
         0.33615E-04
         0.47660E-04
         0.13271E-04
         0.49314E-03
         0.44547E-03
         0.39691E-03
         0.15138E-04
         0.49000E-04
        -0.27007E-05
         0.26145E-04
        -0.63073E-04
        -0.22941E-04
         0.62718E-04
         0.85650E-04
         0.16700E-04
         0.53943E-04
         0.60458E-04
         0.38577E-03
         0.13697E-03
         0.23490E-03
         0.57776E-03
         0.33894E-03
         0.29585E-03
         0.61311E-03
         0.49284E-03
         0.49911E-03
         0.28555E-03
         0.22842E-03
         0.44400E-03
         0.19317E-03
         0.14250E-03
         0.10337E-03
         0.14990E-03
         0.37338E-03
         0.19400E-03
         0.68338E-02
         0.72189E-02
         0.78811E-02
         0.78006E-02
         0.88691E-02
         0.10213E-01
         0.93887E-02
         0.74537E-02
         0.70717E-02
         0.80706E-02
         0.77592E-02
         0.75614E-02
         0.51524E-02
         0.46770E-02
         0.56222E-02
         0.64392E-02
         0.69408E-02
         0.82790E-02
         0.76414E-02
         0.80890E-02
         0.65578E-02
         0.59060E-02
         0.66796E-02
         0.63600E-02
         0.67617E-02
         0.66678E-02
         0.23646E-03
         0.85331E-04
         0.81763E-04
         0.59147E-04
         0.24504E-03
         0.13824E-03
         0.12432E-04
         0.18972E-03
         0.11143E-03
         0.16689E-03
         0.15412E-04
         0.80587E-03
         0.47392E-03
         0.55595E-04
         0.88054E-03
         0.11842E-03
         0.43252E-04
         0.33385E-04
         0.47567E-04
         0.13008E-04
         0.49311E-03
         0.44526E-03
         0.39681E-03
         0.14967E-04
         0.49233E-04
        -0.29611E-05
         0.25901E-04
        -0.63394E-04
        -0.23120E-04
         0.62702E-04
         0.85387E-04
         0.16316E-04
         0.53489E-04
         0.60276E-04
         0.38590E-03
         0.13674E-03
         0.23460E-03
         0.57928E-03
         0.34028E-03
         0.29648E-03
         0.61373E-03
         0.49318E-03
         0.49919E-03
         0.28547E-03
         0.22815E-03
         0.44381E-03
         0.19293E-03
         0.14217E-03
         0.10277E-03
         0.14921E-03
         0.37269E-03
         0.19326E-03
         0.68283E-02
         0.72150E-02
         0.78806E-02
         0.78004E-02
         0.88658E-02
         0.10206E-01
         0.93805E-02
         0.74493E-02
         0.70676E-02
         0.80650E-02
         0.77561E-02
         0.75621E-02
         0.51518E-02
         0.46764E-02
         0.56234E-02
         0.64431E-02
         0.69449E-02
         0.82823E-02
         0.76399E-02
         0.80876E-02
         0.65563E-02
         0.59050E-02
         0.66744E-02
         0.63511E-02
         0.67537E-02
         0.66602E-02
         0.23699E-03
         0.85549E-04
         0.81992E-04
         0.59301E-04
         0.24505E-03
         0.13817E-03
         0.12778E-04
         0.19032E-03
         0.11196E-03
         0.16814E-03
         0.15659E-04
         0.80614E-03
         0.47454E-03
         0.55405E-04
         0.88284E-03
         0.11894E-03
         0.43679E-04
         0.33492E-04
         0.47936E-04
         0.13206E-04
         0.49355E-03
         0.44551E-03
         0.39718E-03
         0.15255E-04
         0.50089E-04
        -0.26988E-05
         0.26395E-04
        -0.63081E-04
        -0.22744E-04
         0.63191E-04
         0.85781E-04
         0.16496E-04
         0.53543E-04
         0.60402E-04
         0.38656E-03
         0.13691E-03
         0.23472E-03
         0.58148E-03
         0.34220E-03
         0.29764E-03
         0.61495E-03
         0.49405E-03
         0.49973E-03
         0.28589E-03
         0.22841E-03
         0.44417E-03
         0.19324E-03
         0.14247E-03
         0.10283E-03
         0.14908E-03
         0.37251E-03
         0.19283E-03
         0.68240E-02
         0.72123E-02
         0.78808E-02
         0.78006E-02
         0.88632E-02
         0.10200E-01
         0.93731E-02
         0.74457E-02
         0.70642E-02
         0.80603E-02
         0.77540E-02
         0.75637E-02
         0.51520E-02
         0.46766E-02
         0.56255E-02
         0.64478E-02
         0.69501E-02
         0.82866E-02
         0.76393E-02
         0.80871E-02
         0.65557E-02
         0.59050E-02
         0.66701E-02
         0.63432E-02
         0.67465E-02
         0.66536E-02
         0.23719E-03
         0.85529E-04
         0.82020E-04
         0.59282E-04
         0.24482E-03
         0.13795E-03
         0.12858E-04
         0.19049E-03
         0.11207E-03
         0.16890E-03
         0.15558E-04
         0.80599E-03
         0.47493E-03
         0.54726E-04
         0.88448E-03
         0.11902E-03
         0.43686E-04
         0.33251E-04
         0.47869E-04
         0.12987E-04
         0.49362E-03
         0.44538E-03
         0.39716E-03
         0.15143E-04
         0.50580E-04
        -0.28130E-05
         0.26360E-04
        -0.63141E-04
        -0.22696E-04
         0.63313E-04
         0.85802E-04
         0.16361E-04
         0.53245E-04
         0.60280E-04
         0.38684E-03
         0.13678E-03
         0.23461E-03
         0.58306E-03
         0.34371E-03
         0.29845E-03
         0.61575E-03
         0.49455E-03
         0.49983E-03
         0.28599E-03
         0.22838E-03
         0.44421E-03
         0.19318E-03
         0.14235E-03
         0.10247E-03
         0.14861E-03
         0.37203E-03
         0.19219E-03
         0.68188E-02
         0.72088E-02
         0.78803E-02
         0.78004E-02
         0.88603E-02
         0.10192E-01
         0.93647E-02
         0.74412E-02
         0.70604E-02
         0.80549E-02
         0.77510E-02
         0.75645E-02
         0.51513E-02
         0.46763E-02
         0.56270E-02
         0.64520E-02
         0.69549E-02
         0.82904E-02
         0.76382E-02
         0.80857E-02
         0.65541E-02
         0.59041E-02
         0.66653E-02
         0.63348E-02
         0.67388E-02
         0.66463E-02
         0.23727E-03
         0.85362E-04
         0.81971E-04
         0.59312E-04
         0.24449E-03
         0.13777E-03
         0.12844E-04
         0.19061E-03
         0.11220E-03
         0.16967E-03
         0.15442E-04
         0.80579E-03
         0.47521E-03
         0.54087E-04
         0.88614E-03
         0.11905E-03
         0.43729E-04
         0.33087E-04
         0.47775E-04
         0.12805E-04
         0.49365E-03
         0.44525E-03
         0.39710E-03
         0.14970E-04
         0.51073E-04
        -0.30188E-05
         0.26355E-04
        -0.63240E-04
        -0.22658E-04
         0.63467E-04
         0.85767E-04
         0.16155E-04
         0.53028E-04
         0.60297E-04
         0.38700E-03
         0.13659E-03
         0.23442E-03
         0.58466E-03
         0.34521E-03
         0.29926E-03
         0.61663E-03
         0.49507E-03
         0.49996E-03
         0.28601E-03
         0.22830E-03
         0.44421E-03
         0.19313E-03
         0.14224E-03
         0.10213E-03
         0.14816E-03
         0.37158E-03
         0.19164E-03
         0.68134E-02
         0.72050E-02
         0.78798E-02
         0.78004E-02
         0.88572E-02
         0.10185E-01
         0.93562E-02
         0.74368E-02
         0.70566E-02
         0.80496E-02
         0.77483E-02
         0.75652E-02
         0.51506E-02
         0.46758E-02
         0.56285E-02
         0.64560E-02
         0.69595E-02
         0.82940E-02
         0.76368E-02
         0.80844E-02
         0.65525E-02
         0.59032E-02
         0.66604E-02
         0.63263E-02
         0.67310E-02
         0.66389E-02
         0.23765E-03
         0.85429E-04
         0.82099E-04
         0.59514E-04
         0.24444E-03
         0.13778E-03
         0.13111E-04
         0.19111E-03
         0.11261E-03
         0.17075E-03
         0.15684E-04
         0.80597E-03
         0.47569E-03
         0.53877E-04
         0.88839E-03
         0.11944E-03
         0.44008E-04
         0.33194E-04
         0.48023E-04
         0.12953E-04
         0.49404E-03
         0.44547E-03
         0.39738E-03
         0.15147E-04
         0.51794E-04
        -0.28556E-05
         0.26694E-04
        -0.63047E-04
        -0.22248E-04
         0.63979E-04
         0.86111E-04
         0.16270E-04
         0.53119E-04
         0.60538E-04
         0.38756E-03
         0.13669E-03
         0.23443E-03
         0.58681E-03
         0.34714E-03
         0.30053E-03
         0.61788E-03
         0.49588E-03
         0.50044E-03
         0.28634E-03
         0.22847E-03
         0.44448E-03
         0.19335E-03
         0.14245E-03
         0.10210E-03
         0.14800E-03
         0.37140E-03
         0.19132E-03
         0.68089E-02
         0.72022E-02
         0.78801E-02
         0.78007E-02
         0.88542E-02
         0.10178E-01
         0.93487E-02
         0.74333E-02
         0.70534E-02
         0.80450E-02
         0.77462E-02
         0.75664E-02
         0.51505E-02
         0.46761E-02
         0.56305E-02
         0.64606E-02
         0.69645E-02
         0.82981E-02
         0.76360E-02
         0.80837E-02
         0.65518E-02
         0.59030E-02
         0.66561E-02
         0.63183E-02
         0.67239E-02
         0.66324E-02
         0.23783E-03
         0.85297E-04
         0.82054E-04
         0.59479E-04
         0.24411E-03
         0.13752E-03
         0.13062E-04
         0.19124E-03
         0.11277E-03
         0.17147E-03
         0.15505E-04
         0.80573E-03
         0.47585E-03
         0.53157E-04
         0.89012E-03
         0.11951E-03
         0.44013E-04
         0.32940E-04
         0.47891E-04
         0.12706E-04
         0.49397E-03
         0.44523E-03
         0.39722E-03
         0.14948E-04
         0.52179E-04
        -0.30372E-05
         0.26497E-04
        -0.63348E-04
        -0.22343E-04
         0.64063E-04
         0.86089E-04
         0.16074E-04
         0.52783E-04
         0.60432E-04
         0.38772E-03
         0.13648E-03
         0.23416E-03
         0.58838E-03
         0.34852E-03
         0.30121E-03
         0.61854E-03
         0.49618E-03
         0.50046E-03
         0.28624E-03
         0.22829E-03
         0.44439E-03
         0.19325E-03
         0.14226E-03
         0.10172E-03
         0.14754E-03
         0.37088E-03
         0.19067E-03
         0.68035E-02
         0.71985E-02
         0.78795E-02
         0.78003E-02
         0.88508E-02
         0.10171E-01
         0.93404E-02
         0.74288E-02
         0.70494E-02
         0.80394E-02
         0.77430E-02
         0.75667E-02
         0.51497E-02
         0.46755E-02
         0.56319E-02
         0.64645E-02
         0.69687E-02
         0.83014E-02
         0.76347E-02
         0.80824E-02
         0.65502E-02
         0.59022E-02
         0.66513E-02
         0.63097E-02
         0.67160E-02
         0.66249E-02
         0.23808E-03
         0.85253E-04
         0.82089E-04
         0.59538E-04
         0.24391E-03
         0.13736E-03
         0.13156E-04
         0.19152E-03
         0.11308E-03
         0.17242E-03
         0.15509E-04
         0.80570E-03
         0.47623E-03
         0.52668E-04
         0.89202E-03
         0.11970E-03
         0.44201E-04
         0.32841E-04
         0.47940E-04
         0.12630E-04
         0.49408E-03
         0.44518E-03
         0.39726E-03
         0.14909E-04
         0.52760E-04
        -0.30972E-05
         0.26611E-04
        -0.63408E-04
        -0.22268E-04
         0.64270E-04
         0.86148E-04
         0.15982E-04
         0.52583E-04
         0.60449E-04
         0.38806E-03
         0.13638E-03
         0.23403E-03
         0.59015E-03
         0.35005E-03
         0.30205E-03
         0.61949E-03
         0.49677E-03
         0.50069E-03
         0.28636E-03
         0.22829E-03
         0.44450E-03
         0.19328E-03
         0.14221E-03
         0.10144E-03
         0.14718E-03
         0.37052E-03
         0.19015E-03
         0.67985E-02
         0.71951E-02
         0.78792E-02
         0.78002E-02
         0.88479E-02
         0.10164E-01
         0.93323E-02
         0.74245E-02
         0.70455E-02
         0.80342E-02
         0.77405E-02
         0.75677E-02
         0.51492E-02
         0.46751E-02
         0.56334E-02
         0.64686E-02
         0.69734E-02
         0.83052E-02
         0.76337E-02
         0.80812E-02
         0.65489E-02
         0.59016E-02
         0.66466E-02
         0.63013E-02
         0.67084E-02
         0.66177E-02
         0.23872E-03
         0.85667E-04
         0.82505E-04
         0.59904E-04
         0.24414E-03
         0.13755E-03
         0.13763E-04
         0.19225E-03
         0.11366E-03
         0.17372E-03
         0.16042E-04
         0.80628E-03
         0.47714E-03
         0.52672E-04
         0.89449E-03
         0.12028E-03
         0.44726E-04
         0.33092E-04
         0.48404E-04
         0.12998E-04
         0.49474E-03
         0.44563E-03
         0.39779E-03
         0.15295E-04
         0.53793E-04
        -0.27217E-05
         0.27219E-04
        -0.62848E-04
        -0.21581E-04
         0.65009E-04
         0.86686E-04
         0.16350E-04
         0.52786E-04
         0.60753E-04
         0.38890E-03
         0.13675E-03
         0.23438E-03
         0.59245E-03
         0.35223E-03
         0.30351E-03
         0.62092E-03
         0.49783E-03
         0.50136E-03
         0.28700E-03
         0.22881E-03
         0.44512E-03
         0.19379E-03
         0.14267E-03
         0.10159E-03
         0.14716E-03
         0.37050E-03
         0.18995E-03
         0.67944E-02
         0.71927E-02
         0.78797E-02
         0.78009E-02
         0.88457E-02
         0.10158E-01
         0.93250E-02
         0.74210E-02
         0.70426E-02
         0.80298E-02
         0.77386E-02
         0.75694E-02
         0.51494E-02
         0.46756E-02
         0.56359E-02
         0.64737E-02
         0.69791E-02
         0.83099E-02
         0.76334E-02
         0.80810E-02
         0.65484E-02
         0.59016E-02
         0.66425E-02
         0.62938E-02
         0.67017E-02
         0.66115E-02
         0.23883E-03
         0.85545E-04
         0.82467E-04
         0.59839E-04
         0.24377E-03
         0.13729E-03
         0.13734E-04
         0.19234E-03
         0.11377E-03
         0.17439E-03
         0.15871E-04
         0.80609E-03
         0.47746E-03
         0.51947E-04
         0.89613E-03
         0.12030E-03
         0.44689E-04
         0.32876E-04
         0.48208E-04
         0.12711E-04
         0.49475E-03
         0.44541E-03
         0.39773E-03
         0.15056E-04
         0.54146E-04
        -0.29735E-05
         0.27049E-04
        -0.63058E-04
        -0.21489E-04
         0.65140E-04
         0.86711E-04
         0.16132E-04
         0.52524E-04
         0.60615E-04
         0.38902E-03
         0.13655E-03
         0.23422E-03
         0.59399E-03
         0.35368E-03
         0.30434E-03
         0.62169E-03
         0.49820E-03
         0.50134E-03
         0.28695E-03
         0.22865E-03
         0.44507E-03
         0.19372E-03
         0.14258E-03
         0.10124E-03
         0.14663E-03
         0.36997E-03
         0.18929E-03
         0.67888E-02
         0.71888E-02
         0.78790E-02
         0.78007E-02
         0.88428E-02
         0.10151E-01
         0.93164E-02
         0.74163E-02
         0.70385E-02
         0.80242E-02
         0.77355E-02
         0.75697E-02
         0.51485E-02
         0.46752E-02
         0.56375E-02
         0.64780E-02
         0.69837E-02
         0.83134E-02
         0.76321E-02
         0.80797E-02
         0.65469E-02
         0.59006E-02
         0.66375E-02
         0.62852E-02
         0.66940E-02
         0.66040E-02
         0.23883E-03
         0.85241E-04
         0.82243E-04
         0.59719E-04
         0.24330E-03
         0.13690E-03
         0.13605E-04
         0.19239E-03
         0.11380E-03
         0.17485E-03
         0.15656E-04
         0.80579E-03
         0.47762E-03
         0.51215E-04
         0.89772E-03
         0.12028E-03
         0.44539E-04
         0.32635E-04
         0.48060E-04
         0.12541E-04
         0.49472E-03
         0.44514E-03
         0.39763E-03
         0.14852E-04
         0.54302E-04
        -0.32209E-05
         0.26569E-04
        -0.63388E-04
        -0.20704E-04
         0.65730E-04
         0.86634E-04
         0.15836E-04
         0.52264E-04
         0.60536E-04
         0.38911E-03
         0.13624E-03
         0.23390E-03
         0.59535E-03
         0.35514E-03
         0.30575E-03
         0.62263E-03
         0.49854E-03
         0.50123E-03
         0.28690E-03
         0.22843E-03
         0.44490E-03
         0.19352E-03
         0.14240E-03
         0.10086E-03
         0.14613E-03
         0.36945E-03
         0.18861E-03
         0.67834E-02
         0.71851E-02
         0.78784E-02
         0.78005E-02
         0.88394E-02
         0.10143E-01
         0.93076E-02
         0.74116E-02
         0.70345E-02
         0.80188E-02
         0.77319E-02
         0.75692E-02
         0.51475E-02
         0.46746E-02
         0.56388E-02
         0.64819E-02
         0.69881E-02
         0.83167E-02
         0.76306E-02
         0.80781E-02
         0.65453E-02
         0.58997E-02
         0.66324E-02
         0.62767E-02
         0.66861E-02
         0.65965E-02
         0.23945E-03
         0.85621E-04
         0.82689E-04
         0.60142E-04
         0.24356E-03
         0.13712E-03
         0.14155E-04
         0.19311E-03
         0.11429E-03
         0.17572E-03
         0.16143E-04
         0.80622E-03
         0.47840E-03
         0.51194E-04
         0.90011E-03
         0.12086E-03
         0.44959E-04
         0.32867E-04
         0.48587E-04
         0.13190E-04
         0.49528E-03
         0.44552E-03
         0.39809E-03
         0.15269E-04
         0.55015E-04
        -0.28099E-05
         0.26520E-04
        -0.63044E-04
        -0.18553E-04
         0.67489E-04
         0.87116E-04
         0.16211E-04
         0.52462E-04
         0.60925E-04
         0.38999E-03
         0.13666E-03
         0.23423E-03
         0.59735E-03
         0.35739E-03
         0.30834E-03
         0.62441E-03
         0.49955E-03
         0.50170E-03
         0.28748E-03
         0.22894E-03
         0.44558E-03
         0.19405E-03
         0.14281E-03
         0.10104E-03
         0.14623E-03
         0.36955E-03
         0.18847E-03
         0.67794E-02
         0.71827E-02
         0.78791E-02
         0.78012E-02
         0.88370E-02
         0.10137E-01
         0.93003E-02
         0.74083E-02
         0.70317E-02
         0.80149E-02
         0.77292E-02
         0.75694E-02
         0.51474E-02
         0.46750E-02
         0.56409E-02
         0.64866E-02
         0.69934E-02
         0.83213E-02
         0.76305E-02
         0.80780E-02
         0.65450E-02
         0.59000E-02
         0.66286E-02
         0.62693E-02
         0.66793E-02
         0.65902E-02
         0.23838E-03
         0.84223E-04
         0.81402E-04
         0.58944E-04
         0.24177E-03
         0.13548E-03
         0.12747E-04
         0.19183E-03
         0.11313E-03
         0.17472E-03
         0.14463E-04
         0.80425E-03
         0.47697E-03
         0.48895E-04
         0.90000E-03
         0.11974E-03
         0.43570E-04
         0.31500E-04
         0.47117E-04
         0.11676E-04
         0.49372E-03
         0.44379E-03
         0.39649E-03
         0.13785E-04
         0.53771E-04
        -0.42263E-05
         0.24422E-04
        -0.64826E-04
        -0.19204E-04
         0.66666E-04
         0.85924E-04
         0.14728E-04
         0.50984E-04
         0.59529E-04
         0.38853E-03
         0.13497E-03
         0.23245E-03
         0.59699E-03
         0.35727E-03
         0.30816E-03
         0.62357E-03
         0.49820E-03
         0.50005E-03
         0.28599E-03
         0.22727E-03
         0.44376E-03
         0.19243E-03
         0.14130E-03
         0.99310E-04
         0.14424E-03
         0.36731E-03
         0.18631E-03
         0.67711E-02
         0.71761E-02
         0.78755E-02
         0.77978E-02
         0.88307E-02
         0.10126E-01
         0.92889E-02
         0.74008E-02
         0.70248E-02
         0.80062E-02
         0.77225E-02
         0.75666E-02
         0.51441E-02
         0.46721E-02
         0.56398E-02
         0.64879E-02
         0.69952E-02
         0.83217E-02
         0.76260E-02
         0.80736E-02
         0.65407E-02
         0.58964E-02
         0.66208E-02
         0.62579E-02
         0.66689E-02
         0.65802E-02
         0.23941E-03
         0.84319E-04
         0.81729E-04
         0.59540E-04
         0.24213E-03
         0.13586E-03
         0.13094E-04
         0.19307E-03
         0.11439E-03
         0.17706E-03
         0.14979E-04
         0.80430E-03
         0.47691E-03
         0.49539E-04
         0.90280E-03
         0.12101E-03
         0.44779E-04
         0.32153E-04
         0.48016E-04
         0.12483E-04
         0.49468E-03
         0.44436E-03
         0.39778E-03
         0.14894E-04
         0.55994E-04
        -0.32019E-05
         0.26254E-04
        -0.62820E-04
        -0.17382E-04
         0.68425E-04
         0.86907E-04
         0.15346E-04
         0.51266E-04
         0.59368E-04
         0.38921E-03
         0.13480E-03
         0.23190E-03
         0.60004E-03
         0.36033E-03
         0.31020E-03
         0.62516E-03
         0.49972E-03
         0.50136E-03
         0.28729E-03
         0.22794E-03
         0.44421E-03
         0.19278E-03
         0.14202E-03
         0.99633E-04
         0.14394E-03
         0.36711E-03
         0.18586E-03
         0.67674E-02
         0.71744E-02
         0.78757E-02
         0.77972E-02
         0.88263E-02
         0.10119E-01
         0.92823E-02
         0.73983E-02
         0.70225E-02
         0.80012E-02
         0.77203E-02
         0.75693E-02
         0.51455E-02
         0.46726E-02
         0.56428E-02
         0.64940E-02
         0.70016E-02
         0.83267E-02
         0.76256E-02
         0.80725E-02
         0.65402E-02
         0.58968E-02
         0.66177E-02
         0.62516E-02
         0.66630E-02
         0.65748E-02
         0.54645E-02
         0.55332E-02
         0.54887E-02
         0.49927E-02
         0.64990E-02
         0.59743E-02
         0.59113E-02
         0.61676E-02
         0.52488E-02
         0.61696E-02
         0.65847E-02
         0.84037E-02
         0.72902E-02
         0.68334E-02
         0.87260E-02
         0.51403E-02
         0.54449E-02
         0.47495E-02
         0.56777E-02
         0.59015E-02
         0.67592E-02
         0.67581E-02
         0.64095E-02
         0.54010E-02
         0.60669E-02
         0.51560E-02
         0.67443E-02
         0.64491E-02
         0.65004E-02
         0.62862E-02
         0.51593E-02
         0.53519E-02
         0.50170E-02
         0.52435E-02
         0.73511E-02
         0.63723E-02
         0.64791E-02
         0.80235E-02
         0.75046E-02
         0.73419E-02
         0.78661E-02
         0.73422E-02
         0.69868E-02
         0.61228E-02
         0.63161E-02
         0.74488E-02
         0.65298E-02
         0.60423E-02
         0.58584E-02
         0.61287E-02
         0.70008E-02
         0.62211E-02
         0.19029E-01
         0.19145E-01
         0.20094E-01
         0.19598E-01
         0.20975E-01
         0.22847E-01
         0.22071E-01
         0.20044E-01
         0.19779E-01
         0.21125E-01
         0.20461E-01
         0.19593E-01
         0.15826E-01
         0.14741E-01
         0.15881E-01
         0.16990E-01
         0.17630E-01
         0.19898E-01
         0.20002E-01
         0.20478E-01
         0.17919E-01
         0.16883E-01
         0.18003E-01
         0.17515E-01
         0.17834E-01
         0.17752E-01
         0.57361E-01
         0.59791E-01
         0.58939E-01
         0.53869E-01
         0.66253E-01
         0.62152E-01
         0.64475E-01
         0.65271E-01
         0.55931E-01
         0.65220E-01
         0.70686E-01
         0.80321E-01
         0.72487E-01
         0.72798E-01
         0.83275E-01
         0.54880E-01
         0.58745E-01
         0.51437E-01
         0.60648E-01
         0.63672E-01
         0.66591E-01
         0.67918E-01
         0.63861E-01
         0.58354E-01
         0.65779E-01
         0.56335E-01
         0.72541E-01
         0.71170E-01
         0.71510E-01
         0.68061E-01
         0.55409E-01
         0.58100E-01
         0.54283E-01
         0.56691E-01
         0.72639E-01
         0.66415E-01
         0.66776E-01
         0.80239E-01
         0.77814E-01
         0.76796E-01
         0.78662E-01
         0.74609E-01
         0.70661E-01
         0.62216E-01
         0.64611E-01
         0.72705E-01
         0.66989E-01
         0.63009E-01
         0.61717E-01
         0.63985E-01
         0.69679E-01
         0.64216E-01
         0.12392E+00
         0.12153E+00
         0.12502E+00
         0.12136E+00
         0.12621E+00
         0.13414E+00
         0.13506E+00
         0.13191E+00
         0.13211E+00
         0.13639E+00
         0.13238E+00
         0.12489E+00
         0.10943E+00
         0.10311E+00
         0.10477E+00
         0.10718E+00
         0.10886E+00
         0.11911E+00
         0.12562E+00
         0.12678E+00
         0.11602E+00
         0.11182E+00
         0.11631E+00
         0.11503E+00
         0.11440E+00
         0.11387E+00
  
SCALARS                      strain_yz  double 1
LOOKUP_TABLE default
        -0.85616E-01
         0.27689E-01
         0.73205E-01
         0.38879E-01
        -0.31447E-09
        -0.86675E-10
        -0.38973E-09
        -0.29726E-09
         0.26829E+00
        -0.17856E+00
        -0.57999E-09
        -0.51061E-09
         0.22687E+00
         0.11520E-01
         0.41507E-09
        -0.26612E-10
        -0.85060E-01
        -0.29086E+00
         0.61067E-11
         0.62484E-10
         0.14612E+00
         0.53514E+00
         0.57934E+00
         0.95148E-09
         0.16432E-08
         0.13735E-08
         0.52872E-01
         0.52283E+00
         0.68442E-09
         0.13278E-08
        -0.97060E-01
        -0.81539E-01
         0.74422E-01
         0.35482E-09
         0.36221E-09
        -0.75198E-11
        -0.28225E+00
        -0.25940E+00
         0.65293E-09
         0.50800E-09
        -0.27214E+00
        -0.16682E+00
         0.49345E-09
         0.45095E-09
        -0.25448E+00
        -0.89017E-01
        -0.16369E-10
         0.25319E-09
        -0.21446E+00
         0.11921E-09
        -0.23562E-01
        -0.96550E-11
        -0.12079E-01
         0.46111E-09
         0.79097E-01
         0.26824E-09
         0.25772E+00
        -0.47793E-01
         0.72770E-11
        -0.14770E-10
        -0.11762E+00
        -0.42275E+00
        -0.99149E-10
        -0.37086E-09
        -0.71648E-01
        -0.20013E-09
        -0.30235E+00
        -0.24381E-09
         0.23321E+00
         0.12348E+00
        -0.30130E-10
         0.39783E-09
         0.42785E+00
         0.87357E-09
         0.65424E+00
         0.84583E-09
         0.65535E+00
         0.64208E-09
         0.54083E+00
         0.53817E-09
         0.80479E+00
         0.63222E+00
         0.34524E-09
        -0.76545E-10
         0.92100E-01
        -0.85649E-11
        -0.39704E+00
        -0.53654E-09
        -0.92070E+00
        -0.93928E-09
        -0.12631E+01
        -0.78112E+00
        -0.13931E-08
        -0.11276E-08
        -0.55582E+00
        -0.87532E-09
        -0.50207E+00
        -0.89550E-09
        -0.48492E+00
        -0.96286E-09
        -0.80192E+00
        -0.67256E+00
        -0.89541E-09
        -0.42904E-09
         0.51095E+00
        -0.19569E+00
         0.31484E-09
        -0.39125E-09
         0.12446E+01
         0.10474E-08
         0.18063E+01
         0.15321E-08
         0.21743E+01
         0.18921E-08
         0.24378E+01
         0.18769E-08
         0.27353E+01
         0.14853E-08
         0.27225E+01
         0.11494E-08
         0.25572E+01
         0.10691E-08
         0.22791E+01
         0.10171E-08
         0.17129E+01
         0.65003E-09
         0.12107E+01
         0.21461E-09
         0.64002E+00
         0.13868E-09
        -0.47721E-01
         0.20844E-09
        -0.65465E+00
         0.10766E-09
        -0.11997E+01
        -0.32557E-09
        -0.18503E+01
        -0.91897E-09
        -0.19970E+01
        -0.14350E-08
        -0.21249E+01
        -0.18813E-08
        -0.26582E+01
        -0.18796E-08
        -0.27910E+01
        -0.16408E-08
        -0.26126E+01
        -0.15992E-08
        -0.21067E+01
        -0.16091E-08
        -0.14412E+01
        -0.12724E-08
        -0.10275E+01
        -0.75244E-09
        -0.74601E+00
        -0.58180E-09
        -0.66616E-02
        -0.33626E-02
        -0.29454E-02
        -0.94338E-03
        -0.29313E-02
        -0.32183E-02
        -0.32591E-03
        -0.51187E-02
        -0.45814E-02
        -0.65517E-02
         0.32129E-02
         0.13603E-01
         0.94865E-02
         0.11016E-02
         0.13864E-01
         0.17797E-02
        -0.15679E-02
         0.10251E-02
         0.12782E-02
        -0.97483E-03
         0.88383E-03
         0.73504E-03
        -0.24305E-02
         0.20569E-03
        -0.44776E-02
         0.66125E-03
         0.33338E-04
         0.58434E-03
         0.69431E-03
        -0.34580E-02
         0.17323E-02
        -0.18219E-02
         0.12595E-02
        -0.30071E-03
         0.45703E-03
         0.25489E-02
         0.57904E-02
         0.12329E-01
         0.11242E-01
         0.92514E-02
         0.85380E-02
         0.22244E-02
        -0.18960E-02
        -0.51726E-02
        -0.83708E-02
        -0.13146E-01
        -0.89216E-02
        -0.66150E-02
        -0.70419E-02
        -0.72914E-02
        -0.83163E-02
        -0.39455E-02
         0.65713E-02
        -0.82259E-02
         0.22139E-01
         0.30871E-01
         0.39274E-01
         0.45670E-01
         0.44876E-01
         0.40298E-01
         0.38467E-01
         0.36277E-01
         0.23197E-01
         0.10804E-01
         0.48495E-02
         0.21540E-02
        -0.33418E-02
        -0.13339E-01
        -0.24509E-01
        -0.31474E-01
        -0.35918E-01
        -0.41799E-01
        -0.40174E-01
        -0.37963E-01
        -0.35196E-01
        -0.23999E-01
        -0.14428E-01
        -0.12800E-01
        -0.19576E-01
        -0.12347E-01
        -0.11426E-01
        -0.27101E-02
        -0.14839E-01
        -0.66742E-02
        -0.52925E-02
        -0.18501E-01
        -0.12133E-01
        -0.17401E-01
         0.92003E-02
         0.39809E-01
         0.23587E-01
         0.33898E-02
         0.39221E-01
         0.74239E-02
        -0.22499E-02
         0.21480E-02
         0.96814E-02
         0.18718E-02
         0.83436E-02
         0.59240E-02
        -0.34344E-02
         0.28991E-02
        -0.11718E-01
         0.28985E-02
         0.72732E-03
         0.13521E-02
        -0.21598E-02
        -0.11689E-01
         0.80009E-02
         0.21076E-02
         0.51715E-02
         0.44903E-02
        -0.21408E-02
         0.65264E-02
         0.12460E-01
         0.29810E-01
         0.26290E-01
         0.23169E-01
         0.17019E-01
        -0.42056E-02
        -0.86626E-02
        -0.10821E-01
        -0.13934E-01
        -0.28463E-01
        -0.16563E-01
        -0.10953E-01
        -0.13767E-01
        -0.16252E-01
        -0.16838E-01
        -0.12635E-02
         0.20952E-01
        -0.29968E-01
         0.69725E-01
         0.90110E-01
         0.11626E+00
         0.13946E+00
         0.13664E+00
         0.11939E+00
         0.11443E+00
         0.11318E+00
         0.71081E-01
         0.23429E-01
         0.93420E-02
         0.80060E-02
        -0.37069E-02
        -0.31439E-01
        -0.62974E-01
        -0.87611E-01
        -0.11404E+00
        -0.12644E+00
        -0.11108E+00
        -0.10504E+00
        -0.10470E+00
        -0.73726E-01
        -0.38295E-01
        -0.36261E-01
        -0.19588E-01
        -0.12349E-01
        -0.11431E-01
        -0.27300E-02
        -0.14841E-01
        -0.66794E-02
        -0.52992E-02
        -0.18533E-01
        -0.12155E-01
        -0.17466E-01
         0.92058E-02
         0.39806E-01
         0.23593E-01
         0.33899E-02
         0.39271E-01
         0.74243E-02
        -0.22703E-02
         0.21448E-02
         0.96879E-02
         0.18613E-02
         0.83642E-02
         0.59296E-02
        -0.34352E-02
         0.28977E-02
        -0.11771E-01
         0.28933E-02
         0.73589E-03
         0.13597E-02
        -0.21455E-02
        -0.11714E-01
         0.80024E-02
         0.21030E-02
         0.51830E-02
         0.44977E-02
        -0.21207E-02
         0.65306E-02
         0.12460E-01
         0.29856E-01
         0.26346E-01
         0.23196E-01
         0.17032E-01
        -0.41943E-02
        -0.86715E-02
        -0.10827E-01
        -0.13935E-01
        -0.28463E-01
        -0.16565E-01
        -0.10947E-01
        -0.13748E-01
        -0.16230E-01
        -0.16831E-01
        -0.12443E-02
         0.20933E-01
        -0.29969E-01
         0.69738E-01
         0.90111E-01
         0.11625E+00
         0.13942E+00
         0.13658E+00
         0.11936E+00
         0.11441E+00
         0.11315E+00
         0.71066E-01
         0.23440E-01
         0.93413E-02
         0.80225E-02
        -0.36767E-02
        -0.31455E-01
        -0.63002E-01
        -0.87630E-01
        -0.11404E+00
        -0.12643E+00
        -0.11107E+00
        -0.10503E+00
        -0.10467E+00
        -0.73673E-01
        -0.38253E-01
        -0.36214E-01
        -0.19600E-01
        -0.12352E-01
        -0.11437E-01
        -0.27501E-02
        -0.14842E-01
        -0.66849E-02
        -0.53058E-02
        -0.18564E-01
        -0.12177E-01
        -0.17531E-01
         0.92113E-02
         0.39803E-01
         0.23599E-01
         0.33896E-02
         0.39321E-01
         0.74248E-02
        -0.22910E-02
         0.21415E-02
         0.96947E-02
         0.18507E-02
         0.83850E-02
         0.59352E-02
        -0.34365E-02
         0.28960E-02
        -0.11824E-01
         0.28872E-02
         0.74505E-03
         0.13677E-02
        -0.21300E-02
        -0.11738E-01
         0.80036E-02
         0.20974E-02
         0.51945E-02
         0.45049E-02
        -0.21005E-02
         0.65351E-02
         0.12459E-01
         0.29902E-01
         0.26403E-01
         0.23223E-01
         0.17046E-01
        -0.41818E-02
        -0.86799E-02
        -0.10834E-01
        -0.13937E-01
        -0.28464E-01
        -0.16567E-01
        -0.10940E-01
        -0.13730E-01
        -0.16208E-01
        -0.16824E-01
        -0.12253E-02
         0.20913E-01
        -0.29971E-01
         0.69751E-01
         0.90112E-01
         0.11624E+00
         0.13937E+00
         0.13652E+00
         0.11932E+00
         0.11438E+00
         0.11312E+00
         0.71052E-01
         0.23452E-01
         0.93408E-02
         0.80389E-02
        -0.36464E-02
        -0.31473E-01
        -0.63032E-01
        -0.87651E-01
        -0.11404E+00
        -0.12643E+00
        -0.11107E+00
        -0.10503E+00
        -0.10465E+00
        -0.73621E-01
        -0.38211E-01
        -0.36166E-01
        -0.19612E-01
        -0.12354E-01
        -0.11443E-01
        -0.27702E-02
        -0.14844E-01
        -0.66903E-02
        -0.53128E-02
        -0.18595E-01
        -0.12199E-01
        -0.17595E-01
         0.92168E-02
         0.39799E-01
         0.23605E-01
         0.33897E-02
         0.39371E-01
         0.74254E-02
        -0.23120E-02
         0.21382E-02
         0.97018E-02
         0.18395E-02
         0.84063E-02
         0.59402E-02
        -0.34395E-02
         0.28931E-02
        -0.11875E-01
         0.28793E-02
         0.75451E-03
         0.13783E-02
        -0.21107E-02
        -0.11760E-01
         0.80042E-02
         0.20899E-02
         0.52059E-02
         0.45122E-02
        -0.20804E-02
         0.65394E-02
         0.12458E-01
         0.29948E-01
         0.26461E-01
         0.23252E-01
         0.17062E-01
        -0.41659E-02
        -0.86867E-02
        -0.10844E-01
        -0.13941E-01
        -0.28465E-01
        -0.16569E-01
        -0.10933E-01
        -0.13712E-01
        -0.16186E-01
        -0.16817E-01
        -0.12063E-02
         0.20894E-01
        -0.29973E-01
         0.69764E-01
         0.90112E-01
         0.11622E+00
         0.13932E+00
         0.13647E+00
         0.11928E+00
         0.11436E+00
         0.11309E+00
         0.71038E-01
         0.23465E-01
         0.93409E-02
         0.80552E-02
        -0.36158E-02
        -0.31491E-01
        -0.63066E-01
        -0.87675E-01
        -0.11404E+00
        -0.12642E+00
        -0.11106E+00
        -0.10503E+00
        -0.10462E+00
        -0.73569E-01
        -0.38169E-01
        -0.36118E-01
        -0.19624E-01
        -0.12356E-01
        -0.11449E-01
        -0.27903E-02
        -0.14846E-01
        -0.66956E-02
        -0.53193E-02
        -0.18626E-01
        -0.12221E-01
        -0.17658E-01
         0.92224E-02
         0.39796E-01
         0.23611E-01
         0.33899E-02
         0.39421E-01
         0.74261E-02
        -0.23334E-02
         0.21348E-02
         0.97092E-02
         0.18276E-02
         0.84279E-02
         0.59446E-02
        -0.34440E-02
         0.28890E-02
        -0.11923E-01
         0.28694E-02
         0.76504E-03
         0.13914E-02
        -0.20875E-02
        -0.11779E-01
         0.80042E-02
         0.20800E-02
         0.52173E-02
         0.45195E-02
        -0.20601E-02
         0.65437E-02
         0.12458E-01
         0.29995E-01
         0.26520E-01
         0.23282E-01
         0.17080E-01
        -0.41464E-02
        -0.86919E-02
        -0.10859E-01
        -0.13948E-01
        -0.28469E-01
        -0.16573E-01
        -0.10927E-01
        -0.13694E-01
        -0.16164E-01
        -0.16809E-01
        -0.11871E-02
         0.20874E-01
        -0.29975E-01
         0.69777E-01
         0.90113E-01
         0.11621E+00
         0.13927E+00
         0.13641E+00
         0.11925E+00
         0.11433E+00
         0.11306E+00
         0.71026E-01
         0.23482E-01
         0.93418E-02
         0.80711E-02
        -0.35851E-02
        -0.31511E-01
        -0.63105E-01
        -0.87702E-01
        -0.11404E+00
        -0.12641E+00
        -0.11105E+00
        -0.10502E+00
        -0.10459E+00
        -0.73516E-01
        -0.38127E-01
        -0.36071E-01
        -0.19636E-01
        -0.12358E-01
        -0.11454E-01
        -0.28106E-02
        -0.14848E-01
        -0.67009E-02
        -0.53252E-02
        -0.18655E-01
        -0.12243E-01
        -0.17719E-01
         0.92286E-02
         0.39793E-01
         0.23617E-01
         0.33904E-02
         0.39471E-01
         0.74270E-02
        -0.23552E-02
         0.21315E-02
         0.97167E-02
         0.18155E-02
         0.84495E-02
         0.59489E-02
        -0.34492E-02
         0.28846E-02
        -0.11971E-01
         0.28588E-02
         0.77637E-03
         0.14058E-02
        -0.20627E-02
        -0.11797E-01
         0.80038E-02
         0.20691E-02
         0.52289E-02
         0.45272E-02
        -0.20397E-02
         0.65484E-02
         0.12458E-01
         0.30042E-01
         0.26580E-01
         0.23314E-01
         0.17099E-01
        -0.41258E-02
        -0.86964E-02
        -0.10875E-01
        -0.13956E-01
        -0.28474E-01
        -0.16577E-01
        -0.10923E-01
        -0.13677E-01
        -0.16143E-01
        -0.16802E-01
        -0.11680E-02
         0.20854E-01
        -0.29976E-01
         0.69789E-01
         0.90114E-01
         0.11620E+00
         0.13923E+00
         0.13635E+00
         0.11921E+00
         0.11431E+00
         0.11303E+00
         0.71015E-01
         0.23499E-01
         0.93431E-02
         0.80869E-02
        -0.35545E-02
        -0.31532E-01
        -0.63145E-01
        -0.87729E-01
        -0.11403E+00
        -0.12640E+00
        -0.11104E+00
        -0.10502E+00
        -0.10457E+00
        -0.73464E-01
        -0.38085E-01
        -0.36023E-01
        -0.19646E-01
        -0.12357E-01
        -0.11460E-01
        -0.28315E-02
        -0.14850E-01
        -0.67064E-02
        -0.53298E-02
        -0.18682E-01
        -0.12266E-01
        -0.17778E-01
         0.92362E-02
         0.39791E-01
         0.23625E-01
         0.33931E-02
         0.39522E-01
         0.74283E-02
        -0.23776E-02
         0.21282E-02
         0.97242E-02
         0.18034E-02
         0.84713E-02
         0.59533E-02
        -0.34545E-02
         0.28802E-02
        -0.12018E-01
         0.28481E-02
         0.78972E-03
         0.14211E-02
        -0.20375E-02
        -0.11815E-01
         0.80031E-02
         0.20573E-02
         0.52409E-02
         0.45352E-02
        -0.20193E-02
         0.65534E-02
         0.12458E-01
         0.30090E-01
         0.26640E-01
         0.23346E-01
         0.17118E-01
        -0.41046E-02
        -0.87007E-02
        -0.10890E-01
        -0.13965E-01
        -0.28479E-01
        -0.16584E-01
        -0.10921E-01
        -0.13662E-01
        -0.16122E-01
        -0.16795E-01
        -0.11487E-02
         0.20835E-01
        -0.29978E-01
         0.69802E-01
         0.90115E-01
         0.11618E+00
         0.13918E+00
         0.13629E+00
         0.11918E+00
         0.11429E+00
         0.11300E+00
         0.71004E-01
         0.23516E-01
         0.93444E-02
         0.81029E-02
        -0.35238E-02
        -0.31552E-01
        -0.63185E-01
        -0.87755E-01
        -0.11403E+00
        -0.12639E+00
        -0.11104E+00
        -0.10502E+00
        -0.10454E+00
        -0.73412E-01
        -0.38044E-01
        -0.35976E-01
        -0.19657E-01
        -0.12356E-01
        -0.11465E-01
        -0.28526E-02
        -0.14852E-01
        -0.67118E-02
        -0.53334E-02
        -0.18707E-01
        -0.12288E-01
        -0.17835E-01
         0.92445E-02
         0.39789E-01
         0.23633E-01
         0.33961E-02
         0.39572E-01
         0.74297E-02
        -0.24002E-02
         0.21249E-02
         0.97317E-02
         0.17912E-02
         0.84930E-02
         0.59577E-02
        -0.34596E-02
         0.28760E-02
        -0.12064E-01
         0.28375E-02
         0.80359E-03
         0.14368E-02
        -0.20122E-02
        -0.11833E-01
         0.80022E-02
         0.20450E-02
         0.52531E-02
         0.45435E-02
        -0.19986E-02
         0.65588E-02
         0.12459E-01
         0.30138E-01
         0.26701E-01
         0.23378E-01
         0.17137E-01
        -0.40835E-02
        -0.87050E-02
        -0.10906E-01
        -0.13975E-01
        -0.28486E-01
        -0.16592E-01
        -0.10920E-01
        -0.13649E-01
        -0.16102E-01
        -0.16788E-01
        -0.11293E-02
         0.20815E-01
        -0.29980E-01
         0.69814E-01
         0.90115E-01
         0.11617E+00
         0.13913E+00
         0.13624E+00
         0.11914E+00
         0.11426E+00
         0.11296E+00
         0.70993E-01
         0.23534E-01
         0.93458E-02
         0.81191E-02
        -0.34931E-02
        -0.31573E-01
        -0.63225E-01
        -0.87781E-01
        -0.11403E+00
        -0.12639E+00
        -0.11103E+00
        -0.10501E+00
        -0.10451E+00
        -0.73359E-01
        -0.38002E-01
        -0.35928E-01
        -0.19667E-01
        -0.12356E-01
        -0.11471E-01
        -0.28737E-02
        -0.14853E-01
        -0.67171E-02
        -0.53370E-02
        -0.18732E-01
        -0.12311E-01
        -0.17892E-01
         0.92523E-02
         0.39787E-01
         0.23640E-01
         0.33996E-02
         0.39624E-01
         0.74312E-02
        -0.24230E-02
         0.21215E-02
         0.97392E-02
         0.17790E-02
         0.85147E-02
         0.59622E-02
        -0.34648E-02
         0.28718E-02
        -0.12110E-01
         0.28270E-02
         0.81781E-03
         0.14523E-02
        -0.19869E-02
        -0.11850E-01
         0.80013E-02
         0.20329E-02
         0.52653E-02
         0.45518E-02
        -0.19779E-02
         0.65638E-02
         0.12460E-01
         0.30186E-01
         0.26761E-01
         0.23410E-01
         0.17157E-01
        -0.40625E-02
        -0.87092E-02
        -0.10922E-01
        -0.13985E-01
        -0.28492E-01
        -0.16599E-01
        -0.10919E-01
        -0.13636E-01
        -0.16082E-01
        -0.16782E-01
        -0.11099E-02
         0.20796E-01
        -0.29981E-01
         0.69826E-01
         0.90116E-01
         0.11615E+00
         0.13909E+00
         0.13618E+00
         0.11910E+00
         0.11424E+00
         0.11293E+00
         0.70981E-01
         0.23551E-01
         0.93473E-02
         0.81356E-02
        -0.34625E-02
        -0.31593E-01
        -0.63265E-01
        -0.87808E-01
        -0.11402E+00
        -0.12638E+00
        -0.11103E+00
        -0.10501E+00
        -0.10448E+00
        -0.73307E-01
        -0.37960E-01
        -0.35880E-01
        -0.19676E-01
        -0.12355E-01
        -0.11476E-01
        -0.28947E-02
        -0.14855E-01
        -0.67224E-02
        -0.53406E-02
        -0.18758E-01
        -0.12334E-01
        -0.17949E-01
         0.92607E-02
         0.39785E-01
         0.23649E-01
         0.34026E-02
         0.39674E-01
         0.74326E-02
        -0.24458E-02
         0.21181E-02
         0.97466E-02
         0.17667E-02
         0.85364E-02
         0.59665E-02
        -0.34697E-02
         0.28676E-02
        -0.12156E-01
         0.28164E-02
         0.83165E-03
         0.14677E-02
        -0.19617E-02
        -0.11868E-01
         0.80004E-02
         0.20207E-02
         0.52773E-02
         0.45600E-02
        -0.19572E-02
         0.65692E-02
         0.12461E-01
         0.30234E-01
         0.26822E-01
         0.23442E-01
         0.17176E-01
        -0.40416E-02
        -0.87135E-02
        -0.10938E-01
        -0.13994E-01
        -0.28499E-01
        -0.16607E-01
        -0.10919E-01
        -0.13623E-01
        -0.16062E-01
        -0.16775E-01
        -0.10905E-02
         0.20776E-01
        -0.29983E-01
         0.69838E-01
         0.90116E-01
         0.11614E+00
         0.13904E+00
         0.13612E+00
         0.11907E+00
         0.11422E+00
         0.11290E+00
         0.70970E-01
         0.23568E-01
         0.93488E-02
         0.81520E-02
        -0.34319E-02
        -0.31614E-01
        -0.63305E-01
        -0.87834E-01
        -0.11402E+00
        -0.12637E+00
        -0.11102E+00
        -0.10501E+00
        -0.10446E+00
        -0.73254E-01
        -0.37919E-01
        -0.35833E-01
        -0.19686E-01
        -0.12354E-01
        -0.11482E-01
        -0.29157E-02
        -0.14857E-01
        -0.67277E-02
        -0.53446E-02
        -0.18783E-01
        -0.12357E-01
        -0.18006E-01
         0.92689E-02
         0.39783E-01
         0.23657E-01
         0.34059E-02
         0.39725E-01
         0.74340E-02
        -0.24687E-02
         0.21147E-02
         0.97540E-02
         0.17544E-02
         0.85580E-02
         0.59707E-02
        -0.34749E-02
         0.28635E-02
        -0.12201E-01
         0.28059E-02
         0.84573E-03
         0.14828E-02
        -0.19365E-02
        -0.11886E-01
         0.79995E-02
         0.20086E-02
         0.52894E-02
         0.45683E-02
        -0.19364E-02
         0.65745E-02
         0.12462E-01
         0.30283E-01
         0.26882E-01
         0.23473E-01
         0.17195E-01
        -0.40206E-02
        -0.87178E-02
        -0.10954E-01
        -0.14004E-01
        -0.28505E-01
        -0.16615E-01
        -0.10918E-01
        -0.13610E-01
        -0.16041E-01
        -0.16768E-01
        -0.10711E-02
         0.20756E-01
        -0.29984E-01
         0.69850E-01
         0.90117E-01
         0.11613E+00
         0.13899E+00
         0.13606E+00
         0.11903E+00
         0.11419E+00
         0.11287E+00
         0.70958E-01
         0.23585E-01
         0.93503E-02
         0.81681E-02
        -0.34012E-02
        -0.31634E-01
        -0.63345E-01
        -0.87860E-01
        -0.11402E+00
        -0.12636E+00
        -0.11102E+00
        -0.10501E+00
        -0.10443E+00
        -0.73202E-01
        -0.37878E-01
        -0.35785E-01
        -0.19696E-01
        -0.12353E-01
        -0.11487E-01
        -0.29369E-02
        -0.14859E-01
        -0.67330E-02
        -0.53481E-02
        -0.18808E-01
        -0.12380E-01
        -0.18063E-01
         0.92772E-02
         0.39781E-01
         0.23664E-01
         0.34092E-02
         0.39776E-01
         0.74355E-02
        -0.24916E-02
         0.21112E-02
         0.97614E-02
         0.17421E-02
         0.85798E-02
         0.59749E-02
        -0.34801E-02
         0.28594E-02
        -0.12247E-01
         0.27955E-02
         0.85950E-03
         0.14979E-02
        -0.19114E-02
        -0.11903E-01
         0.79985E-02
         0.19965E-02
         0.53015E-02
         0.45767E-02
        -0.19154E-02
         0.65797E-02
         0.12462E-01
         0.30331E-01
         0.26943E-01
         0.23505E-01
         0.17214E-01
        -0.39999E-02
        -0.87219E-02
        -0.10969E-01
        -0.14013E-01
        -0.28512E-01
        -0.16622E-01
        -0.10918E-01
        -0.13597E-01
        -0.16021E-01
        -0.16761E-01
        -0.10518E-02
         0.20736E-01
        -0.29986E-01
         0.69862E-01
         0.90118E-01
         0.11611E+00
         0.13894E+00
         0.13600E+00
         0.11900E+00
         0.11417E+00
         0.11283E+00
         0.70946E-01
         0.23602E-01
         0.93517E-02
         0.81843E-02
        -0.33704E-02
        -0.31655E-01
        -0.63385E-01
        -0.87886E-01
        -0.11401E+00
        -0.12635E+00
        -0.11101E+00
        -0.10500E+00
        -0.10440E+00
        -0.73149E-01
        -0.37837E-01
        -0.35737E-01
        -0.19706E-01
        -0.12352E-01
        -0.11493E-01
        -0.29582E-02
        -0.14861E-01
        -0.67384E-02
        -0.53518E-02
        -0.18833E-01
        -0.12403E-01
        -0.18120E-01
         0.92855E-02
         0.39779E-01
         0.23673E-01
         0.34120E-02
         0.39827E-01
         0.74369E-02
        -0.25146E-02
         0.21077E-02
         0.97688E-02
         0.17299E-02
         0.86015E-02
         0.59792E-02
        -0.34851E-02
         0.28553E-02
        -0.12293E-01
         0.27849E-02
         0.87366E-03
         0.15128E-02
        -0.18863E-02
        -0.11921E-01
         0.79976E-02
         0.19842E-02
         0.53135E-02
         0.45849E-02
        -0.18945E-02
         0.65852E-02
         0.12463E-01
         0.30379E-01
         0.27004E-01
         0.23536E-01
         0.17233E-01
        -0.39789E-02
        -0.87261E-02
        -0.10985E-01
        -0.14023E-01
        -0.28518E-01
        -0.16630E-01
        -0.10917E-01
        -0.13585E-01
        -0.16001E-01
        -0.16754E-01
        -0.10324E-02
         0.20716E-01
        -0.29987E-01
         0.69873E-01
         0.90118E-01
         0.11610E+00
         0.13890E+00
         0.13594E+00
         0.11896E+00
         0.11415E+00
         0.11280E+00
         0.70934E-01
         0.23619E-01
         0.93531E-02
         0.82005E-02
        -0.33397E-02
        -0.31675E-01
        -0.63425E-01
        -0.87913E-01
        -0.11401E+00
        -0.12634E+00
        -0.11101E+00
        -0.10500E+00
        -0.10437E+00
        -0.73097E-01
        -0.37796E-01
        -0.35690E-01
        -0.19716E-01
        -0.12351E-01
        -0.11498E-01
        -0.29794E-02
        -0.14863E-01
        -0.67437E-02
        -0.53558E-02
        -0.18858E-01
        -0.12426E-01
        -0.18176E-01
         0.92938E-02
         0.39777E-01
         0.23680E-01
         0.34153E-02
         0.39878E-01
         0.74383E-02
        -0.25376E-02
         0.21043E-02
         0.97762E-02
         0.17177E-02
         0.86232E-02
         0.59834E-02
        -0.34902E-02
         0.28513E-02
        -0.12339E-01
         0.27744E-02
         0.88745E-03
         0.15275E-02
        -0.18613E-02
        -0.11938E-01
         0.79966E-02
         0.19720E-02
         0.53256E-02
         0.45933E-02
        -0.18735E-02
         0.65904E-02
         0.12464E-01
         0.30428E-01
         0.27065E-01
         0.23568E-01
         0.17253E-01
        -0.39580E-02
        -0.87303E-02
        -0.11001E-01
        -0.14033E-01
        -0.28524E-01
        -0.16638E-01
        -0.10917E-01
        -0.13571E-01
        -0.15981E-01
        -0.16748E-01
        -0.10132E-02
         0.20697E-01
        -0.29988E-01
         0.69885E-01
         0.90119E-01
         0.11608E+00
         0.13885E+00
         0.13588E+00
         0.11892E+00
         0.11412E+00
         0.11277E+00
         0.70923E-01
         0.23636E-01
         0.93545E-02
         0.82168E-02
        -0.33091E-02
        -0.31695E-01
        -0.63465E-01
        -0.87939E-01
        -0.11401E+00
        -0.12634E+00
        -0.11100E+00
        -0.10500E+00
        -0.10435E+00
        -0.73044E-01
        -0.37755E-01
        -0.35642E-01
        -0.19726E-01
        -0.12350E-01
        -0.11504E-01
        -0.30005E-02
        -0.14865E-01
        -0.67490E-02
        -0.53595E-02
        -0.18883E-01
        -0.12449E-01
        -0.18233E-01
         0.93021E-02
         0.39775E-01
         0.23688E-01
         0.34181E-02
         0.39929E-01
         0.74397E-02
        -0.25607E-02
         0.21009E-02
         0.97836E-02
         0.17054E-02
         0.86449E-02
         0.59876E-02
        -0.34952E-02
         0.28473E-02
        -0.12384E-01
         0.27638E-02
         0.90148E-03
         0.15420E-02
        -0.18364E-02
        -0.11956E-01
         0.79957E-02
         0.19598E-02
         0.53376E-02
         0.46016E-02
        -0.18525E-02
         0.65958E-02
         0.12465E-01
         0.30477E-01
         0.27126E-01
         0.23599E-01
         0.17272E-01
        -0.39371E-02
        -0.87346E-02
        -0.11017E-01
        -0.14042E-01
        -0.28531E-01
        -0.16645E-01
        -0.10916E-01
        -0.13558E-01
        -0.15961E-01
        -0.16741E-01
        -0.99386E-03
         0.20677E-01
        -0.29990E-01
         0.69897E-01
         0.90120E-01
         0.11607E+00
         0.13880E+00
         0.13583E+00
         0.11889E+00
         0.11410E+00
         0.11273E+00
         0.70911E-01
         0.23653E-01
         0.93559E-02
         0.82331E-02
        -0.32784E-02
        -0.31716E-01
        -0.63506E-01
        -0.87965E-01
        -0.11401E+00
        -0.12633E+00
        -0.11100E+00
        -0.10500E+00
        -0.10432E+00
        -0.72992E-01
        -0.37714E-01
        -0.35595E-01
        -0.19735E-01
        -0.12349E-01
        -0.11509E-01
        -0.30217E-02
        -0.14867E-01
        -0.67543E-02
        -0.53632E-02
        -0.18908E-01
        -0.12472E-01
        -0.18289E-01
         0.93104E-02
         0.39773E-01
         0.23696E-01
         0.34213E-02
         0.39980E-01
         0.74411E-02
        -0.25840E-02
         0.20974E-02
         0.97911E-02
         0.16931E-02
         0.86666E-02
         0.59916E-02
        -0.35003E-02
         0.28434E-02
        -0.12430E-01
         0.27533E-02
         0.91514E-03
         0.15563E-02
        -0.18115E-02
        -0.11973E-01
         0.79947E-02
         0.19476E-02
         0.53496E-02
         0.46101E-02
        -0.18313E-02
         0.66010E-02
         0.12465E-01
         0.30526E-01
         0.27186E-01
         0.23630E-01
         0.17291E-01
        -0.39163E-02
        -0.87389E-02
        -0.11032E-01
        -0.14052E-01
        -0.28537E-01
        -0.16653E-01
        -0.10916E-01
        -0.13546E-01
        -0.15941E-01
        -0.16734E-01
        -0.97450E-03
         0.20657E-01
        -0.29991E-01
         0.69908E-01
         0.90121E-01
         0.11606E+00
         0.13875E+00
         0.13577E+00
         0.11885E+00
         0.11408E+00
         0.11270E+00
         0.70900E-01
         0.23670E-01
         0.93572E-02
         0.82491E-02
        -0.32477E-02
        -0.31736E-01
        -0.63546E-01
        -0.87991E-01
        -0.11400E+00
        -0.12632E+00
        -0.11099E+00
        -0.10499E+00
        -0.10429E+00
        -0.72939E-01
        -0.37674E-01
        -0.35547E-01
        -0.19745E-01
        -0.12348E-01
        -0.11514E-01
        -0.30429E-02
        -0.14868E-01
        -0.67596E-02
        -0.53671E-02
        -0.18932E-01
        -0.12495E-01
        -0.18346E-01
         0.93187E-02
         0.39771E-01
         0.23704E-01
         0.34239E-02
         0.40031E-01
         0.74426E-02
        -0.26074E-02
         0.20939E-02
         0.97985E-02
         0.16810E-02
         0.86883E-02
         0.59954E-02
        -0.35053E-02
         0.28394E-02
        -0.12476E-01
         0.27426E-02
         0.92918E-03
         0.15704E-02
        -0.17867E-02
        -0.11990E-01
         0.79937E-02
         0.19354E-02
         0.53616E-02
         0.46185E-02
        -0.18101E-02
         0.66062E-02
         0.12466E-01
         0.30575E-01
         0.27247E-01
         0.23661E-01
         0.17310E-01
        -0.38956E-02
        -0.87433E-02
        -0.11048E-01
        -0.14062E-01
        -0.28544E-01
        -0.16660E-01
        -0.10915E-01
        -0.13533E-01
        -0.15921E-01
        -0.16727E-01
        -0.95532E-03
         0.20637E-01
        -0.29992E-01
         0.69920E-01
         0.90121E-01
         0.11604E+00
         0.13871E+00
         0.13571E+00
         0.11881E+00
         0.11405E+00
         0.11267E+00
         0.70889E-01
         0.23687E-01
         0.93582E-02
         0.82651E-02
        -0.32172E-02
        -0.31756E-01
        -0.63586E-01
        -0.88017E-01
        -0.11400E+00
        -0.12631E+00
        -0.11099E+00
        -0.10499E+00
        -0.10426E+00
        -0.72887E-01
        -0.37633E-01
        -0.35499E-01
        -0.19755E-01
        -0.12347E-01
        -0.11520E-01
        -0.30642E-02
        -0.14870E-01
        -0.67648E-02
        -0.53709E-02
        -0.18957E-01
        -0.12518E-01
        -0.18402E-01
         0.93270E-02
         0.39769E-01
         0.23712E-01
         0.34270E-02
         0.40082E-01
         0.74440E-02
        -0.26310E-02
         0.20904E-02
         0.98059E-02
         0.16695E-02
         0.87099E-02
         0.59992E-02
        -0.35104E-02
         0.28354E-02
        -0.12521E-01
         0.27322E-02
         0.94307E-03
         0.15844E-02
        -0.17619E-02
        -0.12006E-01
         0.79927E-02
         0.19230E-02
         0.53735E-02
         0.46269E-02
        -0.17889E-02
         0.66117E-02
         0.12467E-01
         0.30625E-01
         0.27308E-01
         0.23690E-01
         0.17329E-01
        -0.38747E-02
        -0.87478E-02
        -0.11064E-01
        -0.14072E-01
        -0.28551E-01
        -0.16668E-01
        -0.10915E-01
        -0.13520E-01
        -0.15900E-01
        -0.16721E-01
        -0.93611E-03
         0.20617E-01
        -0.29993E-01
         0.69931E-01
         0.90122E-01
         0.11603E+00
         0.13866E+00
         0.13565E+00
         0.11878E+00
         0.11403E+00
         0.11263E+00
         0.70879E-01
         0.23705E-01
         0.93586E-02
         0.82810E-02
        -0.31867E-02
        -0.31776E-01
        -0.63626E-01
        -0.88044E-01
        -0.11400E+00
        -0.12630E+00
        -0.11098E+00
        -0.10499E+00
        -0.10423E+00
        -0.72835E-01
        -0.37593E-01
        -0.35452E-01
        -0.19764E-01
        -0.12346E-01
        -0.11525E-01
        -0.30854E-02
        -0.14872E-01
        -0.67700E-02
        -0.53746E-02
        -0.18981E-01
        -0.12542E-01
        -0.18458E-01
         0.93353E-02
         0.39767E-01
         0.23720E-01
         0.34300E-02
         0.40133E-01
         0.74454E-02
        -0.26550E-02
         0.20868E-02
         0.98133E-02
         0.16584E-02
         0.87316E-02
         0.60028E-02
        -0.35155E-02
         0.28315E-02
        -0.12567E-01
         0.27215E-02
         0.95756E-03
         0.15983E-02
        -0.17372E-02
        -0.12022E-01
         0.79916E-02
         0.19108E-02
         0.53854E-02
         0.46353E-02
        -0.17675E-02
         0.66169E-02
         0.12468E-01
         0.30675E-01
         0.27368E-01
         0.23719E-01
         0.17347E-01
        -0.38538E-02
        -0.87526E-02
        -0.11080E-01
        -0.14082E-01
        -0.28557E-01
        -0.16676E-01
        -0.10914E-01
        -0.13507E-01
        -0.15880E-01
        -0.16714E-01
        -0.91675E-03
         0.20597E-01
        -0.29995E-01
         0.69942E-01
         0.90122E-01
         0.11601E+00
         0.13861E+00
         0.13559E+00
         0.11874E+00
         0.11401E+00
         0.11259E+00
         0.70870E-01
         0.23722E-01
         0.93583E-02
         0.82970E-02
        -0.31560E-02
        -0.31796E-01
        -0.63666E-01
        -0.88070E-01
        -0.11399E+00
        -0.12629E+00
        -0.11098E+00
        -0.10499E+00
        -0.10421E+00
        -0.72782E-01
        -0.37553E-01
        -0.35404E-01
        -0.19774E-01
        -0.12345E-01
        -0.11531E-01
        -0.31066E-02
        -0.14874E-01
        -0.67753E-02
        -0.53787E-02
        -0.19006E-01
        -0.12566E-01
        -0.18514E-01
         0.93436E-02
         0.39765E-01
         0.23728E-01
         0.34327E-02
         0.40184E-01
         0.74469E-02
        -0.26792E-02
         0.20833E-02
         0.98208E-02
         0.16476E-02
         0.87534E-02
         0.60065E-02
        -0.35202E-02
         0.28279E-02
        -0.12613E-01
         0.27113E-02
         0.97168E-03
         0.16116E-02
        -0.17128E-02
        -0.12036E-01
         0.79907E-02
         0.18988E-02
         0.53973E-02
         0.46438E-02
        -0.17464E-02
         0.66220E-02
         0.12468E-01
         0.30726E-01
         0.27428E-01
         0.23746E-01
         0.17366E-01
        -0.38333E-02
        -0.87576E-02
        -0.11095E-01
        -0.14091E-01
        -0.28564E-01
        -0.16683E-01
        -0.10914E-01
        -0.13494E-01
        -0.15860E-01
        -0.16708E-01
        -0.89754E-03
         0.20577E-01
        -0.29996E-01
         0.69953E-01
         0.90123E-01
         0.11600E+00
         0.13856E+00
         0.13553E+00
         0.11870E+00
         0.11398E+00
         0.11256E+00
         0.70862E-01
         0.23740E-01
         0.93574E-02
         0.83129E-02
        -0.31253E-02
        -0.31816E-01
        -0.63706E-01
        -0.88096E-01
        -0.11399E+00
        -0.12629E+00
        -0.11097E+00
        -0.10498E+00
        -0.10418E+00
        -0.72730E-01
        -0.37513E-01
        -0.35357E-01
        -0.19867E-01
        -0.12398E-01
        -0.11588E-01
        -0.31401E-02
        -0.14940E-01
        -0.68087E-02
        -0.54065E-02
        -0.19109E-01
        -0.12641E-01
        -0.18645E-01
         0.93912E-02
         0.39929E-01
         0.23833E-01
         0.34499E-02
         0.40404E-01
         0.74803E-02
        -0.27133E-02
         0.20886E-02
         0.98694E-02
         0.16450E-02
         0.88092E-02
         0.60348E-02
        -0.35364E-02
         0.28381E-02
        -0.12710E-01
         0.27159E-02
         0.98879E-03
         0.16287E-02
        -0.17003E-02
        -0.12104E-01
         0.80249E-02
         0.18984E-02
         0.54315E-02
         0.46718E-02
        -0.17346E-02
         0.66520E-02
         0.12518E-01
         0.30903E-01
         0.27601E-01
         0.23874E-01
         0.17456E-01
        -0.38340E-02
        -0.88014E-02
        -0.11150E-01
        -0.14153E-01
        -0.28682E-01
        -0.16755E-01
        -0.10955E-01
        -0.13536E-01
        -0.15906E-01
        -0.16770E-01
        -0.88224E-03
         0.20643E-01
        -0.30129E-01
         0.70264E-01
         0.90506E-01
         0.11649E+00
         0.13913E+00
         0.13609E+00
         0.11921E+00
         0.11448E+00
         0.11304E+00
         0.71175E-01
         0.23855E-01
         0.93929E-02
         0.83609E-02
        -0.31086E-02
        -0.31957E-01
        -0.63990E-01
        -0.88481E-01
        -0.11448E+00
        -0.12683E+00
        -0.11143E+00
        -0.10541E+00
        -0.10458E+00
        -0.72984E-01
        -0.37631E-01
        -0.35458E-01
        -0.29670E-01
        -0.18594E-01
        -0.17281E-01
        -0.47228E-02
        -0.21509E-01
        -0.98997E-02
        -0.80942E-02
        -0.28421E-01
        -0.18849E-01
        -0.27678E-01
         0.13821E-01
         0.56442E-01
         0.34197E-01
         0.50568E-02
         0.57450E-01
         0.11183E-01
        -0.40699E-02
         0.31197E-02
         0.14562E-01
         0.24267E-02
         0.12650E-01
         0.87666E-02
        -0.50807E-02
         0.42182E-02
        -0.19057E-01
         0.40688E-02
         0.14735E-02
         0.24434E-02
        -0.25385E-02
        -0.18116E-01
         0.11998E-01
         0.28288E-02
         0.81480E-02
         0.69990E-02
        -0.24177E-02
         0.96570E-02
         0.18172E-01
         0.44916E-01
         0.40697E-01
         0.35320E-01
         0.25469E-01
        -0.56236E-02
        -0.12934E-01
        -0.16145E-01
        -0.20426E-01
        -0.40217E-01
        -0.24101E-01
        -0.15945E-01
        -0.19800E-01
        -0.23164E-01
        -0.23848E-01
        -0.12583E-02
         0.25837E-01
        -0.37689E-01
         0.87896E-01
         0.11353E+00
         0.14600E+00
         0.17478E+00
         0.17287E+00
         0.15276E+00
         0.14644E+00
         0.14374E+00
         0.90612E-01
         0.30314E-01
         0.12062E-01
         0.10787E-01
        -0.39291E-02
        -0.40193E-01
        -0.80240E-01
        -0.11033E+00
        -0.14269E+00
        -0.15825E+00
        -0.14048E+00
        -0.13349E+00
        -0.13195E+00
        -0.92385E-01
        -0.47473E-01
        -0.44564E-01
  
SCALARS                      strain_xz  double 1
LOOKUP_TABLE default
        -0.14128E-01
         0.96874E-01
         0.32543E+00
        -0.23086E-01
        -0.32549E-09
         0.11541E-09
         0.38591E-09
         0.77073E-10
         0.89534E+00
         0.60531E+00
         0.11543E-08
         0.10397E-08
        -0.36799E-01
         0.14995E+00
        -0.14236E-09
        -0.66690E-09
         0.33598E-01
         0.14417E+00
        -0.48173E-09
        -0.71745E-09
         0.20455E+00
         0.33533E+00
         0.33071E+00
        -0.47908E-09
        -0.22092E-09
         0.38595E-09
         0.35505E+00
         0.27716E+00
        -0.89677E-09
        -0.71137E-09
        -0.78491E-01
         0.16804E+00
        -0.17281E-01
         0.91303E-10
        -0.35283E-09
        -0.21737E-09
        -0.22787E+00
        -0.10475E+00
        -0.52384E-09
        -0.55775E-09
        -0.44547E+00
        -0.60785E+00
        -0.11816E-08
        -0.87140E-09
        -0.49143E+00
        -0.26554E+00
        -0.12976E-08
        -0.62458E-09
         0.12803E+00
        -0.39205E-09
        -0.33991E+00
        -0.10913E-09
         0.12767E+00
        -0.76607E-09
        -0.94239E-01
        -0.20265E-09
        -0.41192E+00
        -0.11802E+00
        -0.17360E-09
        -0.41960E-09
         0.83749E-02
        -0.22759E+00
         0.34721E-09
         0.23810E-09
         0.60533E-01
        -0.34924E-10
         0.19917E+00
         0.22972E-09
         0.12445E+01
         0.85243E+00
         0.14358E-08
         0.10413E-08
         0.54332E+00
         0.75824E-09
        -0.11295E+00
        -0.52451E-09
        -0.35081E+00
        -0.10294E-09
        -0.74508E+00
        -0.15971E-09
        -0.10002E+01
        -0.72700E+00
        -0.58530E-09
        -0.66939E-09
        -0.66889E+00
        -0.71990E-09
        -0.59497E+00
        -0.10365E-08
        -0.36354E+00
        -0.66108E-09
        -0.56184E+00
        -0.41224E+00
        -0.28215E-09
         0.38692E-09
         0.95343E-01
         0.45385E-09
         0.26347E+00
         0.19056E-09
         0.62789E+00
         0.47059E-09
         0.92241E+00
         0.63887E+00
         0.10851E-08
         0.11323E-08
         0.21457E+01
         0.24040E+01
         0.20049E-08
         0.19758E-08
         0.21056E+01
         0.17128E-08
         0.19455E+01
         0.12800E-08
         0.13723E+01
         0.70342E-09
         0.95321E+00
         0.75219E-10
         0.33709E+00
        -0.26791E-09
        -0.42288E+00
        -0.21434E-09
        -0.10067E+01
        -0.21067E-09
        -0.14981E+01
        -0.47508E-09
        -0.20768E+01
        -0.90384E-09
        -0.26412E+01
        -0.10786E-08
        -0.29586E+01
        -0.10177E-08
        -0.29210E+01
        -0.11066E-08
        -0.27686E+01
        -0.14362E-08
        -0.25435E+01
        -0.16936E-08
        -0.22357E+01
        -0.15744E-08
        -0.17053E+01
        -0.12795E-08
        -0.97335E+00
        -0.60404E-09
        -0.81706E-01
         0.11534E-09
         0.54030E+00
         0.28004E-09
         0.85660E+00
         0.45792E-09
         0.12773E+01
         0.89618E-09
         0.16946E+01
         0.14706E-08
         0.22419E+01
         0.17668E-08
         0.26005E+01
         0.18071E-08
        -0.20630E-02
         0.10482E-02
         0.12339E-02
        -0.25622E-02
         0.93459E-02
         0.74616E-02
         0.10826E-02
        -0.16246E-02
        -0.87383E-03
        -0.15161E-02
         0.78207E-03
         0.33611E-02
         0.71637E-02
        -0.22943E-02
        -0.27254E-02
         0.34052E-02
         0.28417E-02
        -0.13378E-02
        -0.19892E-02
        -0.21587E-02
        -0.11654E-01
        -0.12514E-01
        -0.11126E-01
        -0.34716E-02
         0.14131E-02
        -0.10519E-02
        -0.32918E-02
        -0.37002E-03
        -0.37087E-02
        -0.26298E-02
         0.30319E-02
         0.57714E-03
        -0.14284E-02
        -0.45288E-03
         0.13210E-01
         0.86544E-02
         0.79319E-02
        -0.54709E-02
        -0.31100E-02
        -0.64831E-02
        -0.13081E-01
        -0.12774E-01
        -0.13127E-01
        -0.95990E-02
        -0.67476E-02
        -0.50807E-02
         0.98603E-03
         0.42542E-02
         0.12276E-02
         0.37955E-02
         0.98660E-02
         0.86182E-02
         0.35901E-01
         0.39222E-01
         0.34841E-01
         0.29912E-01
         0.22229E-01
         0.11092E-01
        -0.64338E-03
        -0.76624E-02
        -0.11712E-01
        -0.20064E-01
        -0.32374E-01
        -0.41756E-01
        -0.39006E-01
        -0.37684E-01
        -0.40319E-01
        -0.40693E-01
        -0.36958E-01
        -0.31855E-01
        -0.15229E-01
         0.24429E-02
         0.95769E-02
         0.10671E-01
         0.18009E-01
         0.28205E-01
         0.37642E-01
         0.39967E-01
        -0.66470E-02
         0.13645E-02
        -0.25978E-02
        -0.75640E-02
         0.15515E-01
         0.13259E-01
         0.38631E-02
        -0.84328E-02
        -0.38748E-02
        -0.80170E-02
        -0.16196E-02
         0.59080E-02
         0.19438E-01
        -0.14907E-01
        -0.15438E-01
         0.13059E-01
         0.72703E-02
        -0.43546E-02
        -0.29305E-02
        -0.51464E-02
        -0.30532E-01
        -0.29099E-01
        -0.28715E-01
        -0.69460E-02
         0.39451E-02
         0.26564E-02
        -0.14405E-01
         0.19128E-02
        -0.48212E-02
        -0.65745E-02
         0.10033E-01
         0.64925E-02
        -0.65075E-02
        -0.56164E-02
         0.27668E-01
         0.15272E-01
         0.17517E-01
        -0.17121E-01
        -0.28668E-02
        -0.83117E-02
        -0.30533E-01
        -0.31409E-01
        -0.30702E-01
        -0.22200E-01
        -0.17096E-01
        -0.10003E-01
         0.10811E-01
         0.12763E-01
        -0.16872E-02
         0.20314E-02
         0.20821E-01
         0.18342E-01
         0.11546E+00
         0.11634E+00
         0.10441E+00
         0.86123E-01
         0.64242E-01
         0.29576E-01
        -0.73450E-02
        -0.23812E-01
        -0.31372E-01
        -0.57491E-01
        -0.10212E+00
        -0.12048E+00
        -0.10110E+00
        -0.96202E-01
        -0.10596E+00
        -0.10909E+00
        -0.99559E-01
        -0.94137E-01
        -0.47972E-01
         0.12467E-01
         0.27586E-01
         0.27953E-01
         0.49686E-01
         0.86035E-01
         0.11011E+00
         0.10977E+00
        -0.66596E-02
         0.13696E-02
        -0.26027E-02
        -0.75691E-02
         0.15500E-01
         0.13247E-01
         0.38877E-02
        -0.84114E-02
        -0.38791E-02
        -0.80107E-02
        -0.15868E-02
         0.59224E-02
         0.19449E-01
        -0.14871E-01
        -0.15430E-01
         0.13073E-01
         0.72863E-02
        -0.43425E-02
        -0.29290E-02
        -0.51374E-02
        -0.30529E-01
        -0.29095E-01
        -0.28713E-01
        -0.69463E-02
         0.39540E-02
         0.26608E-02
        -0.14410E-01
         0.18768E-02
        -0.48551E-02
        -0.65786E-02
         0.10048E-01
         0.64917E-02
        -0.64804E-02
        -0.56189E-02
         0.27682E-01
         0.15265E-01
         0.17512E-01
        -0.17149E-01
        -0.28942E-02
        -0.83379E-02
        -0.30553E-01
        -0.31427E-01
        -0.30703E-01
        -0.22197E-01
        -0.17090E-01
        -0.99974E-02
         0.10809E-01
         0.12768E-01
        -0.16749E-02
         0.20245E-02
         0.20808E-01
         0.18315E-01
         0.11542E+00
         0.11631E+00
         0.10441E+00
         0.86124E-01
         0.64222E-01
         0.29568E-01
        -0.73534E-02
        -0.23827E-01
        -0.31346E-01
        -0.57468E-01
        -0.10211E+00
        -0.12049E+00
        -0.10109E+00
        -0.96196E-01
        -0.10597E+00
        -0.10912E+00
        -0.99576E-01
        -0.94155E-01
        -0.47959E-01
         0.12473E-01
         0.27565E-01
         0.27942E-01
         0.49650E-01
         0.85983E-01
         0.11006E+00
         0.10972E+00
        -0.66722E-02
         0.13746E-02
        -0.26076E-02
        -0.75742E-02
         0.15485E-01
         0.13235E-01
         0.39123E-02
        -0.83900E-02
        -0.38831E-02
        -0.80039E-02
        -0.15541E-02
         0.59367E-02
         0.19461E-01
        -0.14834E-01
        -0.15421E-01
         0.13087E-01
         0.73025E-02
        -0.43304E-02
        -0.29276E-02
        -0.51286E-02
        -0.30527E-01
        -0.29092E-01
        -0.28711E-01
        -0.69467E-02
         0.39635E-02
         0.26656E-02
        -0.14414E-01
         0.18413E-02
        -0.48892E-02
        -0.65828E-02
         0.10063E-01
         0.64912E-02
        -0.64532E-02
        -0.56214E-02
         0.27696E-01
         0.15258E-01
         0.17506E-01
        -0.17176E-01
        -0.29217E-02
        -0.83643E-02
        -0.30572E-01
        -0.31446E-01
        -0.30705E-01
        -0.22194E-01
        -0.17084E-01
        -0.99925E-02
         0.10807E-01
         0.12772E-01
        -0.16622E-02
         0.20173E-02
         0.20795E-01
         0.18288E-01
         0.11538E+00
         0.11628E+00
         0.10440E+00
         0.86124E-01
         0.64203E-01
         0.29559E-01
        -0.73618E-02
        -0.23842E-01
        -0.31319E-01
        -0.57445E-01
        -0.10209E+00
        -0.12049E+00
        -0.10109E+00
        -0.96191E-01
        -0.10598E+00
        -0.10914E+00
        -0.99594E-01
        -0.94174E-01
        -0.47946E-01
         0.12478E-01
         0.27545E-01
         0.27931E-01
         0.49613E-01
         0.85930E-01
         0.11000E+00
         0.10967E+00
        -0.66848E-02
         0.13797E-02
        -0.26124E-02
        -0.75792E-02
         0.15469E-01
         0.13223E-01
         0.39367E-02
        -0.83686E-02
        -0.38866E-02
        -0.79960E-02
        -0.15215E-02
         0.59513E-02
         0.19473E-01
        -0.14797E-01
        -0.15413E-01
         0.13102E-01
         0.73195E-02
        -0.43181E-02
        -0.29263E-02
        -0.51195E-02
        -0.30525E-01
        -0.29090E-01
        -0.28711E-01
        -0.69471E-02
         0.39748E-02
         0.26715E-02
        -0.14417E-01
         0.18069E-02
        -0.49232E-02
        -0.65867E-02
         0.10079E-01
         0.64918E-02
        -0.64258E-02
        -0.56240E-02
         0.27710E-01
         0.15251E-01
         0.17500E-01
        -0.17204E-01
        -0.29491E-02
        -0.83905E-02
        -0.30592E-01
        -0.31466E-01
        -0.30709E-01
        -0.22192E-01
        -0.17077E-01
        -0.99872E-02
         0.10805E-01
         0.12776E-01
        -0.16496E-02
         0.20101E-02
         0.20781E-01
         0.18261E-01
         0.11534E+00
         0.11625E+00
         0.10439E+00
         0.86125E-01
         0.64183E-01
         0.29550E-01
        -0.73703E-02
        -0.23856E-01
        -0.31293E-01
        -0.57422E-01
        -0.10208E+00
        -0.12049E+00
        -0.10108E+00
        -0.96187E-01
        -0.10600E+00
        -0.10917E+00
        -0.99613E-01
        -0.94192E-01
        -0.47932E-01
         0.12484E-01
         0.27525E-01
         0.27920E-01
         0.49577E-01
         0.85878E-01
         0.10995E+00
         0.10962E+00
        -0.66973E-02
         0.13849E-02
        -0.26172E-02
        -0.75841E-02
         0.15454E-01
         0.13210E-01
         0.39614E-02
        -0.83469E-02
        -0.38896E-02
        -0.79869E-02
        -0.14888E-02
         0.59658E-02
         0.19485E-01
        -0.14761E-01
        -0.15405E-01
         0.13118E-01
         0.73372E-02
        -0.43059E-02
        -0.29247E-02
        -0.51103E-02
        -0.30524E-01
        -0.29088E-01
        -0.28712E-01
        -0.69475E-02
         0.39879E-02
         0.26783E-02
        -0.14420E-01
         0.17736E-02
        -0.49570E-02
        -0.65903E-02
         0.10096E-01
         0.64934E-02
        -0.63983E-02
        -0.56265E-02
         0.27724E-01
         0.15244E-01
         0.17495E-01
        -0.17231E-01
        -0.29763E-02
        -0.84170E-02
        -0.30613E-01
        -0.31487E-01
        -0.30715E-01
        -0.22191E-01
        -0.17071E-01
        -0.99814E-02
         0.10804E-01
         0.12781E-01
        -0.16370E-02
         0.20031E-02
         0.20768E-01
         0.18234E-01
         0.11530E+00
         0.11622E+00
         0.10438E+00
         0.86125E-01
         0.64163E-01
         0.29541E-01
        -0.73786E-02
        -0.23871E-01
        -0.31266E-01
        -0.57399E-01
        -0.10206E+00
        -0.12050E+00
        -0.10107E+00
        -0.96183E-01
        -0.10602E+00
        -0.10920E+00
        -0.99635E-01
        -0.94210E-01
        -0.47919E-01
         0.12490E-01
         0.27505E-01
         0.27909E-01
         0.49540E-01
         0.85825E-01
         0.10989E+00
         0.10957E+00
        -0.67093E-02
         0.13905E-02
        -0.26215E-02
        -0.75889E-02
         0.15439E-01
         0.13198E-01
         0.39861E-02
        -0.83250E-02
        -0.38925E-02
        -0.79775E-02
        -0.14561E-02
         0.59802E-02
         0.19497E-01
        -0.14724E-01
        -0.15397E-01
         0.13135E-01
         0.73549E-02
        -0.42936E-02
        -0.29231E-02
        -0.51015E-02
        -0.30524E-01
        -0.29087E-01
        -0.28715E-01
        -0.69481E-02
         0.40009E-02
         0.26853E-02
        -0.14423E-01
         0.17405E-02
        -0.49911E-02
        -0.65945E-02
         0.10114E-01
         0.64948E-02
        -0.63705E-02
        -0.56287E-02
         0.27738E-01
         0.15238E-01
         0.17490E-01
        -0.17258E-01
        -0.30036E-02
        -0.84436E-02
        -0.30633E-01
        -0.31508E-01
        -0.30722E-01
        -0.22190E-01
        -0.17064E-01
        -0.99764E-02
         0.10803E-01
         0.12786E-01
        -0.16241E-02
         0.19966E-02
         0.20755E-01
         0.18207E-01
         0.11526E+00
         0.11619E+00
         0.10437E+00
         0.86126E-01
         0.64144E-01
         0.29532E-01
        -0.73868E-02
        -0.23886E-01
        -0.31240E-01
        -0.57377E-01
        -0.10205E+00
        -0.12050E+00
        -0.10107E+00
        -0.96180E-01
        -0.10603E+00
        -0.10924E+00
        -0.99657E-01
        -0.94227E-01
        -0.47905E-01
         0.12495E-01
         0.27484E-01
         0.27898E-01
         0.49504E-01
         0.85773E-01
         0.10984E+00
         0.10952E+00
        -0.67203E-02
         0.13972E-02
        -0.26248E-02
        -0.75937E-02
         0.15425E-01
         0.13186E-01
         0.40112E-02
        -0.83025E-02
        -0.38955E-02
        -0.79686E-02
        -0.14232E-02
         0.59947E-02
         0.19509E-01
        -0.14687E-01
        -0.15388E-01
         0.13151E-01
         0.73720E-02
        -0.42812E-02
        -0.29217E-02
        -0.50928E-02
        -0.30524E-01
        -0.29087E-01
        -0.28717E-01
        -0.69489E-02
         0.40124E-02
         0.26914E-02
        -0.14426E-01
         0.17066E-02
        -0.50255E-02
        -0.65994E-02
         0.10130E-01
         0.64951E-02
        -0.63421E-02
        -0.56303E-02
         0.27753E-01
         0.15233E-01
         0.17485E-01
        -0.17285E-01
        -0.30311E-02
        -0.84706E-02
        -0.30654E-01
        -0.31530E-01
        -0.30730E-01
        -0.22189E-01
        -0.17059E-01
        -0.99719E-02
         0.10800E-01
         0.12790E-01
        -0.16101E-02
         0.19916E-02
         0.20744E-01
         0.18181E-01
         0.11522E+00
         0.11616E+00
         0.10436E+00
         0.86126E-01
         0.64124E-01
         0.29523E-01
        -0.73950E-02
        -0.23901E-01
        -0.31214E-01
        -0.57354E-01
        -0.10203E+00
        -0.12051E+00
        -0.10107E+00
        -0.96177E-01
        -0.10605E+00
        -0.10927E+00
        -0.99680E-01
        -0.94244E-01
        -0.47892E-01
         0.12499E-01
         0.27463E-01
         0.27887E-01
         0.49469E-01
         0.85721E-01
         0.10978E+00
         0.10948E+00
        -0.67309E-02
         0.14043E-02
        -0.26277E-02
        -0.75982E-02
         0.15410E-01
         0.13174E-01
         0.40367E-02
        -0.82798E-02
        -0.38987E-02
        -0.79601E-02
        -0.13902E-02
         0.60091E-02
         0.19521E-01
        -0.14650E-01
        -0.15379E-01
         0.13168E-01
         0.73887E-02
        -0.42688E-02
        -0.29202E-02
        -0.50847E-02
        -0.30523E-01
        -0.29086E-01
        -0.28720E-01
        -0.69496E-02
         0.40232E-02
         0.26971E-02
        -0.14429E-01
         0.16725E-02
        -0.50604E-02
        -0.66047E-02
         0.10146E-01
         0.64947E-02
        -0.63134E-02
        -0.56316E-02
         0.27768E-01
         0.15228E-01
         0.17481E-01
        -0.17312E-01
        -0.30586E-02
        -0.84975E-02
        -0.30676E-01
        -0.31553E-01
        -0.30737E-01
        -0.22189E-01
        -0.17054E-01
        -0.99682E-02
         0.10797E-01
         0.12794E-01
        -0.15956E-02
         0.19872E-02
         0.20733E-01
         0.18155E-01
         0.11518E+00
         0.11613E+00
         0.10435E+00
         0.86126E-01
         0.64104E-01
         0.29514E-01
        -0.74031E-02
        -0.23915E-01
        -0.31188E-01
        -0.57331E-01
        -0.10201E+00
        -0.12051E+00
        -0.10106E+00
        -0.96174E-01
        -0.10607E+00
        -0.10930E+00
        -0.99703E-01
        -0.94260E-01
        -0.47878E-01
         0.12503E-01
         0.27442E-01
         0.27876E-01
         0.49434E-01
         0.85669E-01
         0.10973E+00
         0.10943E+00
        -0.67414E-02
         0.14114E-02
        -0.26305E-02
        -0.76028E-02
         0.15396E-01
         0.13162E-01
         0.40620E-02
        -0.82571E-02
        -0.39019E-02
        -0.79517E-02
        -0.13574E-02
         0.60236E-02
         0.19533E-01
        -0.14614E-01
        -0.15371E-01
         0.13184E-01
         0.74053E-02
        -0.42564E-02
        -0.29186E-02
        -0.50763E-02
        -0.30523E-01
        -0.29085E-01
        -0.28722E-01
        -0.69506E-02
         0.40339E-02
         0.27029E-02
        -0.14433E-01
         0.16385E-02
        -0.50952E-02
        -0.66099E-02
         0.10161E-01
         0.64943E-02
        -0.62848E-02
        -0.56330E-02
         0.27783E-01
         0.15222E-01
         0.17477E-01
        -0.17339E-01
        -0.30862E-02
        -0.85244E-02
        -0.30697E-01
        -0.31575E-01
        -0.30745E-01
        -0.22189E-01
        -0.17049E-01
        -0.99644E-02
         0.10795E-01
         0.12798E-01
        -0.15811E-02
         0.19830E-02
         0.20723E-01
         0.18129E-01
         0.11514E+00
         0.11610E+00
         0.10434E+00
         0.86126E-01
         0.64084E-01
         0.29505E-01
        -0.74113E-02
        -0.23930E-01
        -0.31161E-01
        -0.57309E-01
        -0.10200E+00
        -0.12052E+00
        -0.10106E+00
        -0.96170E-01
        -0.10608E+00
        -0.10934E+00
        -0.99725E-01
        -0.94276E-01
        -0.47863E-01
         0.12507E-01
         0.27420E-01
         0.27866E-01
         0.49398E-01
         0.85618E-01
         0.10968E+00
         0.10938E+00
        -0.67519E-02
         0.14186E-02
        -0.26333E-02
        -0.76075E-02
         0.15381E-01
         0.13150E-01
         0.40874E-02
        -0.82345E-02
        -0.39051E-02
        -0.79432E-02
        -0.13245E-02
         0.60380E-02
         0.19545E-01
        -0.14577E-01
        -0.15362E-01
         0.13200E-01
         0.74220E-02
        -0.42441E-02
        -0.29170E-02
        -0.50682E-02
        -0.30522E-01
        -0.29084E-01
        -0.28724E-01
        -0.69515E-02
         0.40446E-02
         0.27086E-02
        -0.14436E-01
         0.16046E-02
        -0.51300E-02
        -0.66151E-02
         0.10177E-01
         0.64938E-02
        -0.62562E-02
        -0.56344E-02
         0.27798E-01
         0.15217E-01
         0.17473E-01
        -0.17366E-01
        -0.31138E-02
        -0.85516E-02
        -0.30718E-01
        -0.31597E-01
        -0.30752E-01
        -0.22189E-01
        -0.17044E-01
        -0.99604E-02
         0.10792E-01
         0.12802E-01
        -0.15667E-02
         0.19785E-02
         0.20712E-01
         0.18103E-01
         0.11510E+00
         0.11607E+00
         0.10433E+00
         0.86126E-01
         0.64064E-01
         0.29496E-01
        -0.74194E-02
        -0.23944E-01
        -0.31135E-01
        -0.57286E-01
        -0.10198E+00
        -0.12052E+00
        -0.10105E+00
        -0.96167E-01
        -0.10610E+00
        -0.10937E+00
        -0.99748E-01
        -0.94292E-01
        -0.47850E-01
         0.12511E-01
         0.27399E-01
         0.27855E-01
         0.49363E-01
         0.85566E-01
         0.10962E+00
         0.10933E+00
        -0.67624E-02
         0.14258E-02
        -0.26362E-02
        -0.76119E-02
         0.15367E-01
         0.13138E-01
         0.41126E-02
        -0.82118E-02
        -0.39083E-02
        -0.79349E-02
        -0.12916E-02
         0.60526E-02
         0.19558E-01
        -0.14540E-01
        -0.15354E-01
         0.13217E-01
         0.74386E-02
        -0.42319E-02
        -0.29158E-02
        -0.50597E-02
        -0.30522E-01
        -0.29083E-01
        -0.28727E-01
        -0.69525E-02
         0.40552E-02
         0.27142E-02
        -0.14440E-01
         0.15708E-02
        -0.51646E-02
        -0.66202E-02
         0.10193E-01
         0.64933E-02
        -0.62276E-02
        -0.56358E-02
         0.27813E-01
         0.15212E-01
         0.17468E-01
        -0.17393E-01
        -0.31415E-02
        -0.85783E-02
        -0.30739E-01
        -0.31619E-01
        -0.30759E-01
        -0.22189E-01
        -0.17039E-01
        -0.99568E-02
         0.10789E-01
         0.12806E-01
        -0.15522E-02
         0.19742E-02
         0.20701E-01
         0.18077E-01
         0.11506E+00
         0.11604E+00
         0.10432E+00
         0.86126E-01
         0.64044E-01
         0.29487E-01
        -0.74272E-02
        -0.23959E-01
        -0.31109E-01
        -0.57263E-01
        -0.10196E+00
        -0.12053E+00
        -0.10105E+00
        -0.96164E-01
        -0.10612E+00
        -0.10940E+00
        -0.99770E-01
        -0.94308E-01
        -0.47836E-01
         0.12515E-01
         0.27377E-01
         0.27844E-01
         0.49328E-01
         0.85515E-01
         0.10957E+00
         0.10928E+00
        -0.67729E-02
         0.14329E-02
        -0.26389E-02
        -0.76165E-02
         0.15353E-01
         0.13125E-01
         0.41379E-02
        -0.81891E-02
        -0.39115E-02
        -0.79265E-02
        -0.12588E-02
         0.60672E-02
         0.19570E-01
        -0.14504E-01
        -0.15345E-01
         0.13233E-01
         0.74553E-02
        -0.42195E-02
        -0.29143E-02
        -0.50515E-02
        -0.30521E-01
        -0.29082E-01
        -0.28730E-01
        -0.69535E-02
         0.40658E-02
         0.27200E-02
        -0.14443E-01
         0.15371E-02
        -0.51990E-02
        -0.66256E-02
         0.10209E-01
         0.64929E-02
        -0.61988E-02
        -0.56371E-02
         0.27828E-01
         0.15207E-01
         0.17464E-01
        -0.17420E-01
        -0.31692E-02
        -0.86056E-02
        -0.30760E-01
        -0.31641E-01
        -0.30767E-01
        -0.22189E-01
        -0.17034E-01
        -0.99532E-02
         0.10786E-01
         0.12810E-01
        -0.15376E-02
         0.19700E-02
         0.20690E-01
         0.18051E-01
         0.11502E+00
         0.11601E+00
         0.10431E+00
         0.86126E-01
         0.64025E-01
         0.29479E-01
        -0.74352E-02
        -0.23973E-01
        -0.31082E-01
        -0.57241E-01
        -0.10195E+00
        -0.12053E+00
        -0.10105E+00
        -0.96161E-01
        -0.10613E+00
        -0.10944E+00
        -0.99793E-01
        -0.94325E-01
        -0.47822E-01
         0.12519E-01
         0.27355E-01
         0.27833E-01
         0.49293E-01
         0.85463E-01
         0.10952E+00
         0.10923E+00
        -0.67835E-02
         0.14401E-02
        -0.26416E-02
        -0.76210E-02
         0.15338E-01
         0.13113E-01
         0.41632E-02
        -0.81664E-02
        -0.39146E-02
        -0.79179E-02
        -0.12261E-02
         0.60816E-02
         0.19582E-01
        -0.14467E-01
        -0.15336E-01
         0.13249E-01
         0.74718E-02
        -0.42071E-02
        -0.29128E-02
        -0.50431E-02
        -0.30521E-01
        -0.29081E-01
        -0.28732E-01
        -0.69545E-02
         0.40762E-02
         0.27257E-02
        -0.14446E-01
         0.15033E-02
        -0.52336E-02
        -0.66307E-02
         0.10224E-01
         0.64924E-02
        -0.61700E-02
        -0.56385E-02
         0.27843E-01
         0.15202E-01
         0.17460E-01
        -0.17446E-01
        -0.31971E-02
        -0.86326E-02
        -0.30782E-01
        -0.31663E-01
        -0.30774E-01
        -0.22189E-01
        -0.17029E-01
        -0.99489E-02
         0.10783E-01
         0.12814E-01
        -0.15230E-02
         0.19656E-02
         0.20679E-01
         0.18024E-01
         0.11498E+00
         0.11598E+00
         0.10430E+00
         0.86126E-01
         0.64005E-01
         0.29469E-01
        -0.74434E-02
        -0.23987E-01
        -0.31056E-01
        -0.57218E-01
        -0.10193E+00
        -0.12054E+00
        -0.10104E+00
        -0.96158E-01
        -0.10615E+00
        -0.10947E+00
        -0.99815E-01
        -0.94341E-01
        -0.47808E-01
         0.12522E-01
         0.27334E-01
         0.27823E-01
         0.49258E-01
         0.85412E-01
         0.10946E+00
         0.10918E+00
        -0.67941E-02
         0.14472E-02
        -0.26443E-02
        -0.76254E-02
         0.15324E-01
         0.13101E-01
         0.41882E-02
        -0.81437E-02
        -0.39177E-02
        -0.79094E-02
        -0.11934E-02
         0.60961E-02
         0.19594E-01
        -0.14431E-01
        -0.15327E-01
         0.13266E-01
         0.74884E-02
        -0.41948E-02
        -0.29116E-02
        -0.50350E-02
        -0.30520E-01
        -0.29080E-01
        -0.28735E-01
        -0.69555E-02
         0.40866E-02
         0.27313E-02
        -0.14449E-01
         0.14697E-02
        -0.52682E-02
        -0.66357E-02
         0.10240E-01
         0.64919E-02
        -0.61412E-02
        -0.56398E-02
         0.27859E-01
         0.15197E-01
         0.17456E-01
        -0.17473E-01
        -0.32249E-02
        -0.86599E-02
        -0.30803E-01
        -0.31685E-01
        -0.30782E-01
        -0.22189E-01
        -0.17024E-01
        -0.99453E-02
         0.10781E-01
         0.12818E-01
        -0.15085E-02
         0.19612E-02
         0.20669E-01
         0.17999E-01
         0.11494E+00
         0.11595E+00
         0.10429E+00
         0.86127E-01
         0.63985E-01
         0.29460E-01
        -0.74514E-02
        -0.24001E-01
        -0.31030E-01
        -0.57195E-01
        -0.10191E+00
        -0.12054E+00
        -0.10104E+00
        -0.96155E-01
        -0.10617E+00
        -0.10950E+00
        -0.99838E-01
        -0.94357E-01
        -0.47794E-01
         0.12526E-01
         0.27312E-01
         0.27812E-01
         0.49222E-01
         0.85360E-01
         0.10941E+00
         0.10914E+00
        -0.68047E-02
         0.14543E-02
        -0.26470E-02
        -0.76299E-02
         0.15310E-01
         0.13089E-01
         0.42135E-02
        -0.81210E-02
        -0.39208E-02
        -0.79009E-02
        -0.11608E-02
         0.61108E-02
         0.19607E-01
        -0.14395E-01
        -0.15318E-01
         0.13282E-01
         0.75050E-02
        -0.41825E-02
        -0.29102E-02
        -0.50265E-02
        -0.30520E-01
        -0.29079E-01
        -0.28737E-01
        -0.69565E-02
         0.40969E-02
         0.27370E-02
        -0.14453E-01
         0.14362E-02
        -0.53027E-02
        -0.66408E-02
         0.10256E-01
         0.64913E-02
        -0.61124E-02
        -0.56411E-02
         0.27874E-01
         0.15192E-01
         0.17452E-01
        -0.17499E-01
        -0.32527E-02
        -0.86870E-02
        -0.30824E-01
        -0.31707E-01
        -0.30789E-01
        -0.22189E-01
        -0.17019E-01
        -0.99417E-02
         0.10778E-01
         0.12822E-01
        -0.14937E-02
         0.19570E-02
         0.20658E-01
         0.17972E-01
         0.11490E+00
         0.11593E+00
         0.10428E+00
         0.86127E-01
         0.63966E-01
         0.29451E-01
        -0.74592E-02
        -0.24015E-01
        -0.31003E-01
        -0.57172E-01
        -0.10190E+00
        -0.12055E+00
        -0.10103E+00
        -0.96151E-01
        -0.10619E+00
        -0.10954E+00
        -0.99860E-01
        -0.94373E-01
        -0.47780E-01
         0.12530E-01
         0.27291E-01
         0.27802E-01
         0.49187E-01
         0.85308E-01
         0.10935E+00
         0.10909E+00
        -0.68152E-02
         0.14615E-02
        -0.26498E-02
        -0.76344E-02
         0.15295E-01
         0.13077E-01
         0.42385E-02
        -0.80982E-02
        -0.39240E-02
        -0.78924E-02
        -0.11281E-02
         0.61253E-02
         0.19619E-01
        -0.14358E-01
        -0.15309E-01
         0.13298E-01
         0.75216E-02
        -0.41704E-02
        -0.29087E-02
        -0.50183E-02
        -0.30519E-01
        -0.29079E-01
        -0.28740E-01
        -0.69576E-02
         0.41071E-02
         0.27427E-02
        -0.14456E-01
         0.14026E-02
        -0.53372E-02
        -0.66458E-02
         0.10271E-01
         0.64909E-02
        -0.60837E-02
        -0.56425E-02
         0.27889E-01
         0.15187E-01
         0.17448E-01
        -0.17525E-01
        -0.32807E-02
        -0.87140E-02
        -0.30845E-01
        -0.31729E-01
        -0.30796E-01
        -0.22188E-01
        -0.17014E-01
        -0.99376E-02
         0.10775E-01
         0.12826E-01
        -0.14791E-02
         0.19525E-02
         0.20647E-01
         0.17946E-01
         0.11486E+00
         0.11590E+00
         0.10427E+00
         0.86127E-01
         0.63946E-01
         0.29442E-01
        -0.74669E-02
        -0.24029E-01
        -0.30977E-01
        -0.57150E-01
        -0.10188E+00
        -0.12055E+00
        -0.10103E+00
        -0.96148E-01
        -0.10620E+00
        -0.10957E+00
        -0.99883E-01
        -0.94389E-01
        -0.47766E-01
         0.12533E-01
         0.27269E-01
         0.27791E-01
         0.49152E-01
         0.85256E-01
         0.10930E+00
         0.10904E+00
        -0.68258E-02
         0.14686E-02
        -0.26526E-02
        -0.76388E-02
         0.15281E-01
         0.13065E-01
         0.42637E-02
        -0.80755E-02
        -0.39269E-02
        -0.78836E-02
        -0.10954E-02
         0.61399E-02
         0.19631E-01
        -0.14322E-01
        -0.15300E-01
         0.13315E-01
         0.75382E-02
        -0.41582E-02
        -0.29074E-02
        -0.50099E-02
        -0.30519E-01
        -0.29077E-01
        -0.28742E-01
        -0.69588E-02
         0.41171E-02
         0.27483E-02
        -0.14459E-01
         0.13688E-02
        -0.53714E-02
        -0.66508E-02
         0.10287E-01
         0.64904E-02
        -0.60550E-02
        -0.56440E-02
         0.27905E-01
         0.15182E-01
         0.17443E-01
        -0.17552E-01
        -0.33090E-02
        -0.87414E-02
        -0.30866E-01
        -0.31750E-01
        -0.30803E-01
        -0.22189E-01
        -0.17009E-01
        -0.99340E-02
         0.10772E-01
         0.12831E-01
        -0.14645E-02
         0.19481E-02
         0.20636E-01
         0.17920E-01
         0.11482E+00
         0.11587E+00
         0.10426E+00
         0.86127E-01
         0.63926E-01
         0.29433E-01
        -0.74745E-02
        -0.24043E-01
        -0.30951E-01
        -0.57127E-01
        -0.10186E+00
        -0.12056E+00
        -0.10103E+00
        -0.96145E-01
        -0.10622E+00
        -0.10960E+00
        -0.99905E-01
        -0.94405E-01
        -0.47752E-01
         0.12537E-01
         0.27247E-01
         0.27780E-01
         0.49117E-01
         0.85205E-01
         0.10925E+00
         0.10899E+00
        -0.68364E-02
         0.14757E-02
        -0.26552E-02
        -0.76432E-02
         0.15267E-01
         0.13053E-01
         0.42887E-02
        -0.80528E-02
        -0.39296E-02
        -0.78737E-02
        -0.10628E-02
         0.61546E-02
         0.19643E-01
        -0.14285E-01
        -0.15291E-01
         0.13331E-01
         0.75546E-02
        -0.41459E-02
        -0.29064E-02
        -0.50019E-02
        -0.30518E-01
        -0.29076E-01
        -0.28745E-01
        -0.69597E-02
         0.41264E-02
         0.27542E-02
        -0.14460E-01
         0.13341E-02
        -0.54058E-02
        -0.66561E-02
         0.10303E-01
         0.64898E-02
        -0.60261E-02
        -0.56454E-02
         0.27919E-01
         0.15178E-01
         0.17440E-01
        -0.17577E-01
        -0.33380E-02
        -0.87682E-02
        -0.30885E-01
        -0.31770E-01
        -0.30809E-01
        -0.22189E-01
        -0.17004E-01
        -0.99300E-02
         0.10769E-01
         0.12835E-01
        -0.14499E-02
         0.19438E-02
         0.20626E-01
         0.17894E-01
         0.11478E+00
         0.11584E+00
         0.10425E+00
         0.86126E-01
         0.63906E-01
         0.29424E-01
        -0.74821E-02
        -0.24057E-01
        -0.30925E-01
        -0.57103E-01
        -0.10185E+00
        -0.12057E+00
        -0.10103E+00
        -0.96142E-01
        -0.10624E+00
        -0.10964E+00
        -0.99928E-01
        -0.94421E-01
        -0.47738E-01
         0.12541E-01
         0.27226E-01
         0.27769E-01
         0.49082E-01
         0.85153E-01
         0.10919E+00
         0.10894E+00
        -0.68470E-02
         0.14828E-02
        -0.26579E-02
        -0.76476E-02
         0.15252E-01
         0.13040E-01
         0.43138E-02
        -0.80300E-02
        -0.39321E-02
        -0.78630E-02
        -0.10303E-02
         0.61691E-02
         0.19656E-01
        -0.14248E-01
        -0.15282E-01
         0.13347E-01
         0.75709E-02
        -0.41337E-02
        -0.29051E-02
        -0.49936E-02
        -0.30518E-01
        -0.29075E-01
        -0.28747E-01
        -0.69608E-02
         0.41350E-02
         0.27598E-02
        -0.14461E-01
         0.12984E-02
        -0.54401E-02
        -0.66612E-02
         0.10319E-01
         0.64893E-02
        -0.59972E-02
        -0.56468E-02
         0.27935E-01
         0.15172E-01
         0.17436E-01
        -0.17602E-01
        -0.33679E-02
        -0.87952E-02
        -0.30902E-01
        -0.31788E-01
        -0.30815E-01
        -0.22188E-01
        -0.16999E-01
        -0.99264E-02
         0.10766E-01
         0.12839E-01
        -0.14352E-02
         0.19394E-02
         0.20615E-01
         0.17867E-01
         0.11474E+00
         0.11581E+00
         0.10424E+00
         0.86126E-01
         0.63886E-01
         0.29415E-01
        -0.74897E-02
        -0.24070E-01
        -0.30900E-01
        -0.57079E-01
        -0.10183E+00
        -0.12058E+00
        -0.10103E+00
        -0.96139E-01
        -0.10625E+00
        -0.10967E+00
        -0.99950E-01
        -0.94436E-01
        -0.47724E-01
         0.12544E-01
         0.27205E-01
         0.27759E-01
         0.49047E-01
         0.85101E-01
         0.10914E+00
         0.10889E+00
        -0.68575E-02
         0.14899E-02
        -0.26606E-02
        -0.76520E-02
         0.15238E-01
         0.13029E-01
         0.43386E-02
        -0.80074E-02
        -0.39343E-02
        -0.78520E-02
        -0.99804E-03
         0.61834E-02
         0.19668E-01
        -0.14211E-01
        -0.15272E-01
         0.13363E-01
         0.75873E-02
        -0.41216E-02
        -0.29037E-02
        -0.49855E-02
        -0.30517E-01
        -0.29073E-01
        -0.28750E-01
        -0.69619E-02
         0.41433E-02
         0.27654E-02
        -0.14461E-01
         0.12625E-02
        -0.54742E-02
        -0.66663E-02
         0.10334E-01
         0.64888E-02
        -0.59686E-02
        -0.56483E-02
         0.27951E-01
         0.15168E-01
         0.17431E-01
        -0.17627E-01
        -0.33980E-02
        -0.88214E-02
        -0.30919E-01
        -0.31805E-01
        -0.30820E-01
        -0.22189E-01
        -0.16994E-01
        -0.99227E-02
         0.10764E-01
         0.12843E-01
        -0.14207E-02
         0.19349E-02
         0.20604E-01
         0.17842E-01
         0.11470E+00
         0.11578E+00
         0.10423E+00
         0.86127E-01
         0.63867E-01
         0.29406E-01
        -0.74972E-02
        -0.24084E-01
        -0.30874E-01
        -0.57054E-01
        -0.10181E+00
        -0.12059E+00
        -0.10103E+00
        -0.96137E-01
        -0.10627E+00
        -0.10970E+00
        -0.99973E-01
        -0.94452E-01
        -0.47710E-01
         0.12548E-01
         0.27183E-01
         0.27748E-01
         0.49012E-01
         0.85050E-01
         0.10909E+00
         0.10885E+00
        -0.68966E-02
         0.15018E-02
        -0.26748E-02
        -0.76878E-02
         0.15286E-01
         0.13071E-01
         0.43789E-02
        -0.80213E-02
        -0.39526E-02
        -0.78764E-02
        -0.97411E-03
         0.62201E-02
         0.19759E-01
        -0.14239E-01
        -0.15330E-01
         0.13434E-01
         0.76344E-02
        -0.41273E-02
        -0.29137E-02
        -0.49972E-02
        -0.30638E-01
        -0.29190E-01
        -0.28864E-01
        -0.69913E-02
         0.41683E-02
         0.27818E-02
        -0.14525E-01
         0.12343E-02
        -0.55290E-02
        -0.66989E-02
         0.10392E-01
         0.65147E-02
        -0.59671E-02
        -0.56736E-02
         0.28080E-01
         0.15226E-01
         0.17498E-01
        -0.17727E-01
        -0.34401E-02
        -0.88831E-02
        -0.31067E-01
        -0.31957E-01
        -0.30953E-01
        -0.22275E-01
        -0.17057E-01
        -0.99580E-02
         0.10806E-01
         0.12902E-01
        -0.14136E-02
         0.19384E-02
         0.20679E-01
         0.17890E-01
         0.11516E+00
         0.11624E+00
         0.10467E+00
         0.86494E-01
         0.64124E-01
         0.29523E-01
        -0.75406E-02
        -0.24203E-01
        -0.30990E-01
        -0.57292E-01
        -0.10226E+00
        -0.12113E+00
        -0.10145E+00
        -0.96521E-01
        -0.10671E+00
        -0.11016E+00
        -0.10039E+00
        -0.94855E-01
        -0.47903E-01
         0.12609E-01
         0.27281E-01
         0.27852E-01
         0.49185E-01
         0.85359E-01
         0.10949E+00
         0.10925E+00
        -0.10305E-01
         0.22593E-02
        -0.39892E-02
        -0.11504E-01
         0.21983E-01
         0.18974E-01
         0.65708E-02
        -0.11909E-01
        -0.58871E-02
        -0.11674E-01
        -0.14127E-02
         0.87953E-02
         0.28350E-01
        -0.20834E-01
        -0.21779E-01
         0.20087E-01
         0.11388E-01
        -0.61636E-02
        -0.42969E-02
        -0.73869E-02
        -0.43915E-01
        -0.42381E-01
        -0.41486E-01
        -0.10392E-01
         0.62408E-02
         0.41715E-02
        -0.21441E-01
         0.18154E-02
        -0.83287E-02
        -0.10017E-01
         0.15547E-01
         0.97169E-02
        -0.89084E-02
        -0.84918E-02
         0.39656E-01
         0.22094E-01
         0.25403E-01
        -0.25776E-01
        -0.50899E-02
        -0.13154E-01
        -0.45321E-01
        -0.46958E-01
        -0.45442E-01
        -0.32245E-01
        -0.24611E-01
        -0.13961E-01
         0.15540E-01
         0.18801E-01
        -0.20561E-02
         0.28215E-02
         0.29397E-01
         0.25892E-01
         0.14425E+00
         0.14534E+00
         0.13092E+00
         0.10850E+00
         0.80359E-01
         0.37077E-01
        -0.95934E-02
        -0.31022E-01
        -0.39624E-01
        -0.72837E-01
        -0.13018E+00
        -0.15392E+00
        -0.13034E+00
        -0.12439E+00
        -0.13575E+00
        -0.13855E+00
        -0.12586E+00
        -0.11828E+00
        -0.59695E-01
         0.15745E-01
         0.34389E-01
         0.35264E-01
         0.62047E-01
         0.10806E+00
         0.13817E+00
         0.13738E+00
  
SCALARS                      strain_xy  double 1
LOOKUP_TABLE default
         0.95805E-04
         0.21541E-03
         0.18977E-02
        -0.70342E-04
        -0.51073E-19
         0.49912E-20
         0.75043E-19
         0.11431E-19
         0.19415E-01
        -0.86661E-02
         0.33404E-18
         0.26489E-18
        -0.68448E-03
         0.14170E-03
         0.29484E-19
        -0.88553E-20
        -0.22448E-03
        -0.34380E-02
         0.14678E-20
         0.22368E-19
         0.24892E-02
         0.15172E-01
         0.15883E-01
         0.22744E-18
         0.18113E-18
        -0.26450E-18
         0.15832E-02
         0.12472E-01
         0.30625E-18
         0.47129E-18
         0.59890E-03
        -0.10970E-02
        -0.99365E-04
        -0.16164E-19
         0.63767E-19
        -0.81560E-21
         0.51131E-02
         0.22106E-02
         0.17066E-18
         0.14138E-18
         0.97363E-02
         0.83013E-02
         0.29093E-18
         0.19607E-18
         0.98948E-02
         0.18551E-02
        -0.10598E-19
         0.78904E-19
        -0.22760E-02
         0.23319E-19
         0.62950E-03
        -0.52574E-21
        -0.13064E-03
         0.17626E-18
        -0.63516E-03
         0.27122E-19
        -0.90604E-02
         0.47078E-03
         0.63032E-21
        -0.30923E-20
        -0.77465E-04
         0.76300E-02
         0.17177E-19
         0.44059E-19
        -0.33960E-03
        -0.34875E-20
        -0.47581E-02
         0.27945E-19
         0.23681E-01
         0.85560E-02
         0.21586E-19
        -0.20671E-18
         0.18957E-01
        -0.33050E-18
        -0.64075E-02
         0.22136E-18
        -0.20020E-01
         0.32980E-19
        -0.35114E-01
         0.42886E-19
        -0.69947E-01
        -0.39333E-01
         0.10082E-18
        -0.25566E-19
        -0.51551E-02
        -0.30765E-20
         0.18723E-01
        -0.27748E-18
         0.26835E-01
        -0.30983E-18
         0.57665E-01
         0.26060E-01
        -0.19612E-18
         0.21770E-18
        -0.42552E-02
         0.19822E-18
        -0.10587E-01
         0.85148E-19
        -0.24493E-01
         0.22608E-18
        -0.59922E-01
        -0.34550E-01
         0.48477E-18
         0.24238E-18
         0.92653E-01
        -0.39707E-01
        -0.31496E-18
         0.38571E-18
         0.22381E+00
        -0.89513E-18
         0.29963E+00
        -0.97850E-18
         0.25611E+00
        -0.66410E-18
         0.20449E+00
        -0.70441E-19
         0.83586E-01
         0.19854E-18
        -0.10586E+00
         0.12293E-18
        -0.23695E+00
         0.11238E-18
        -0.31379E+00
         0.24111E-18
        -0.32139E+00
         0.29315E-18
        -0.28392E+00
         0.11550E-18
        -0.16410E+00
         0.70416E-19
         0.11809E-01
         0.11509E-18
         0.15048E+00
         0.77149E-19
         0.25026E+00
        -0.27512E-18
         0.34073E+00
        -0.72190E-18
         0.28465E+00
        -0.91614E-18
         0.17414E+00
        -0.56700E-18
         0.18642E-01
         0.10818E-18
        -0.12919E+00
         0.22927E-18
        -0.18990E+00
         0.36538E-18
        -0.22764E+00
         0.71952E-18
        -0.20478E+00
         0.93365E-18
        -0.19357E+00
         0.66332E-18
        -0.16322E+00
         0.52459E-18
        -0.59582E-05
         0.15318E-05
         0.15790E-05
        -0.10469E-05
         0.11936E-04
         0.10430E-04
         0.15384E-06
        -0.36185E-05
        -0.17347E-05
        -0.43151E-05
        -0.10981E-05
        -0.19996E-04
        -0.29665E-04
         0.11030E-05
         0.16511E-04
        -0.26251E-05
         0.19312E-05
         0.59349E-06
         0.11053E-05
        -0.91403E-06
         0.44797E-05
         0.39970E-05
        -0.11769E-04
         0.31064E-06
         0.27484E-05
         0.30216E-06
         0.47795E-07
         0.94147E-07
         0.11234E-05
        -0.39559E-05
        -0.22758E-05
         0.45699E-06
         0.77956E-06
        -0.59126E-07
        -0.26417E-05
        -0.96269E-05
        -0.20020E-04
         0.29442E-04
         0.15264E-04
         0.26249E-04
         0.48966E-04
         0.12405E-04
        -0.10823E-04
        -0.21603E-04
        -0.24623E-04
        -0.29222E-04
         0.38369E-05
         0.12236E-04
         0.37593E-05
         0.12064E-04
         0.35862E-04
         0.14811E-04
        -0.10392E-03
         0.14165E-03
        -0.33884E-03
        -0.40534E-03
        -0.38330E-03
        -0.22283E-03
         0.12724E-04
         0.13615E-03
         0.19859E-03
         0.32091E-03
         0.33137E-03
         0.19810E-03
         0.82910E-04
         0.35552E-04
        -0.58950E-04
        -0.23729E-03
        -0.39601E-03
        -0.43898E-03
        -0.24069E-03
         0.44877E-04
         0.16880E-03
         0.17773E-03
         0.27817E-03
         0.29754E-03
         0.23816E-03
         0.22413E-03
        -0.64932E-04
         0.84068E-05
        -0.14810E-04
        -0.10229E-04
         0.11489E-03
         0.44157E-04
         0.10202E-04
        -0.77854E-04
        -0.23459E-04
        -0.69614E-04
         0.74352E-05
        -0.11740E-03
        -0.22881E-03
         0.25215E-04
         0.30225E-03
        -0.48378E-04
         0.81617E-05
         0.46671E-05
         0.14156E-04
         0.48065E-05
         0.12714E-03
         0.86030E-04
        -0.49217E-04
         0.10048E-04
         0.23068E-04
        -0.38418E-05
         0.52279E-05
        -0.12904E-05
        -0.51955E-05
        -0.38347E-04
        -0.40056E-04
        -0.68277E-05
         0.16792E-04
         0.12584E-04
         0.29561E-04
        -0.49734E-04
        -0.10892E-03
         0.25474E-03
         0.37611E-04
         0.96100E-04
         0.25937E-03
        -0.65927E-04
        -0.13274E-03
        -0.11988E-03
        -0.11888E-03
        -0.14209E-03
         0.89357E-04
         0.69760E-04
        -0.11590E-04
         0.16474E-04
         0.17496E-03
         0.11564E-04
        -0.12112E-02
         0.17459E-02
        -0.36469E-02
        -0.38873E-02
        -0.37434E-02
        -0.20687E-02
         0.50313E-03
         0.14238E-02
         0.17976E-02
         0.32599E-02
         0.36361E-02
         0.14138E-02
         0.47249E-03
         0.38519E-03
        -0.19653E-03
        -0.17169E-02
        -0.31391E-02
        -0.41322E-02
        -0.27402E-02
         0.78973E-03
         0.15340E-02
         0.14694E-02
         0.26044E-02
         0.31751E-02
         0.21111E-02
         0.19927E-02
        -0.65095E-04
         0.84395E-05
        -0.14846E-04
        -0.10311E-04
         0.11479E-03
         0.44151E-04
         0.10279E-04
        -0.77788E-04
        -0.23527E-04
        -0.69818E-04
         0.72890E-05
        -0.11767E-03
        -0.22901E-03
         0.25154E-04
         0.30247E-03
        -0.48430E-04
         0.82540E-05
         0.46472E-05
         0.14159E-04
         0.47713E-05
         0.12744E-03
         0.86103E-04
        -0.49225E-04
         0.10043E-04
         0.23225E-04
        -0.38412E-05
         0.52911E-05
        -0.12733E-05
        -0.51975E-05
        -0.38453E-04
        -0.40122E-04
        -0.68119E-05
         0.16759E-04
         0.12610E-04
         0.29298E-04
        -0.49744E-04
        -0.10888E-03
         0.25554E-03
         0.38053E-04
         0.96515E-04
         0.25973E-03
        -0.65787E-04
        -0.13288E-03
        -0.11993E-03
        -0.11884E-03
        -0.14201E-03
         0.89348E-04
         0.69742E-04
        -0.11490E-04
         0.16396E-04
         0.17477E-03
         0.11372E-04
        -0.12096E-02
         0.17455E-02
        -0.36473E-02
        -0.38874E-02
        -0.37418E-02
        -0.20674E-02
         0.50348E-03
         0.14243E-02
         0.17957E-02
         0.32577E-02
         0.36348E-02
         0.14145E-02
         0.47241E-03
         0.38596E-03
        -0.19495E-03
        -0.17181E-02
        -0.31411E-02
        -0.41339E-02
        -0.27394E-02
         0.79004E-03
         0.15327E-02
         0.14687E-02
         0.26018E-02
         0.31709E-02
         0.21078E-02
         0.19892E-02
        -0.65259E-04
         0.84719E-05
        -0.14881E-04
        -0.10393E-04
         0.11469E-03
         0.44148E-04
         0.10358E-04
        -0.77721E-04
        -0.23594E-04
        -0.70017E-04
         0.71430E-05
        -0.11795E-03
        -0.22920E-03
         0.25089E-04
         0.30269E-03
        -0.48485E-04
         0.83478E-05
         0.46271E-05
         0.14162E-04
         0.47360E-05
         0.12775E-03
         0.86173E-04
        -0.49240E-04
         0.10038E-04
         0.23384E-04
        -0.38402E-05
         0.53585E-05
        -0.12565E-05
        -0.51961E-05
        -0.38555E-04
        -0.40188E-04
        -0.67933E-05
         0.16726E-04
         0.12636E-04
         0.29033E-04
        -0.49757E-04
        -0.10884E-03
         0.25634E-03
         0.38497E-04
         0.96933E-04
         0.26011E-03
        -0.65630E-04
        -0.13302E-03
        -0.11999E-03
        -0.11881E-03
        -0.14195E-03
         0.89341E-04
         0.69721E-04
        -0.11388E-04
         0.16315E-04
         0.17459E-03
         0.11182E-04
        -0.12081E-02
         0.17452E-02
        -0.36477E-02
        -0.38875E-02
        -0.37402E-02
        -0.20661E-02
         0.50385E-03
         0.14247E-02
         0.17938E-02
         0.32555E-02
         0.36335E-02
         0.14152E-02
         0.47234E-03
         0.38674E-03
        -0.19337E-03
        -0.17194E-02
        -0.31432E-02
        -0.41357E-02
        -0.27386E-02
         0.79035E-03
         0.15315E-02
         0.14681E-02
         0.25992E-02
         0.31667E-02
         0.21044E-02
         0.19857E-02
        -0.65423E-04
         0.85052E-05
        -0.14916E-04
        -0.10476E-04
         0.11459E-03
         0.44142E-04
         0.10436E-04
        -0.77652E-04
        -0.23658E-04
        -0.70203E-04
         0.69972E-05
        -0.11823E-03
        -0.22941E-03
         0.25028E-04
         0.30292E-03
        -0.48545E-04
         0.84441E-05
         0.46069E-05
         0.14166E-04
         0.46988E-05
         0.12807E-03
         0.86240E-04
        -0.49283E-04
         0.10028E-04
         0.23551E-04
        -0.38381E-05
         0.54279E-05
        -0.12427E-05
        -0.51848E-05
        -0.38649E-04
        -0.40256E-04
        -0.67696E-05
         0.16692E-04
         0.12662E-04
         0.28769E-04
        -0.49767E-04
        -0.10880E-03
         0.25715E-03
         0.38943E-04
         0.97359E-04
         0.26052E-03
        -0.65422E-04
        -0.13314E-03
        -0.12010E-03
        -0.11880E-03
        -0.14188E-03
         0.89343E-04
         0.69703E-04
        -0.11286E-04
         0.16236E-04
         0.17440E-03
         0.10992E-04
        -0.12065E-02
         0.17448E-02
        -0.36480E-02
        -0.38875E-02
        -0.37386E-02
        -0.20647E-02
         0.50422E-03
         0.14252E-02
         0.17919E-02
         0.32533E-02
         0.36323E-02
         0.14161E-02
         0.47232E-03
         0.38750E-03
        -0.19177E-03
        -0.17209E-02
        -0.31455E-02
        -0.41377E-02
        -0.27378E-02
         0.79067E-03
         0.15303E-02
         0.14674E-02
         0.25966E-02
         0.31625E-02
         0.21011E-02
         0.19822E-02
        -0.65586E-04
         0.85386E-05
        -0.14951E-04
        -0.10559E-04
         0.11449E-03
         0.44136E-04
         0.10514E-04
        -0.77579E-04
        -0.23719E-04
        -0.70374E-04
         0.68510E-05
        -0.11851E-03
        -0.22960E-03
         0.24967E-04
         0.30314E-03
        -0.48610E-04
         0.85428E-05
         0.45866E-05
         0.14169E-04
         0.46601E-05
         0.12839E-03
         0.86299E-04
        -0.49350E-04
         0.10015E-04
         0.23726E-04
        -0.38346E-05
         0.55048E-05
        -0.12313E-05
        -0.51632E-05
        -0.38734E-04
        -0.40325E-04
        -0.67393E-05
         0.16657E-04
         0.12688E-04
         0.28503E-04
        -0.49777E-04
        -0.10876E-03
         0.25796E-03
         0.39391E-04
         0.97795E-04
         0.26097E-03
        -0.65159E-04
        -0.13324E-03
        -0.12025E-03
        -0.11881E-03
        -0.14182E-03
         0.89352E-04
         0.69692E-04
        -0.11186E-04
         0.16157E-04
         0.17422E-03
         0.10802E-04
        -0.12050E-02
         0.17445E-02
        -0.36483E-02
        -0.38876E-02
        -0.37370E-02
        -0.20634E-02
         0.50457E-03
         0.14256E-02
         0.17900E-02
         0.32511E-02
         0.36311E-02
         0.14171E-02
         0.47234E-03
         0.38825E-03
        -0.19018E-03
        -0.17225E-02
        -0.31481E-02
        -0.41397E-02
        -0.27370E-02
         0.79098E-03
         0.15291E-02
         0.14668E-02
         0.25941E-02
         0.31583E-02
         0.20977E-02
         0.19787E-02
        -0.65742E-04
         0.85740E-05
        -0.14983E-04
        -0.10643E-04
         0.11439E-03
         0.44131E-04
         0.10591E-04
        -0.77497E-04
        -0.23779E-04
        -0.70535E-04
         0.67049E-05
        -0.11878E-03
        -0.22980E-03
         0.24909E-04
         0.30336E-03
        -0.48677E-04
         0.86434E-05
         0.45665E-05
         0.14172E-04
         0.46212E-05
         0.12872E-03
         0.86358E-04
        -0.49429E-04
         0.10000E-04
         0.23898E-04
        -0.38303E-05
         0.55873E-05
        -0.12208E-05
        -0.51370E-05
        -0.38819E-04
        -0.40391E-04
        -0.67052E-05
         0.16621E-04
         0.12715E-04
         0.28236E-04
        -0.49793E-04
        -0.10873E-03
         0.25877E-03
         0.39842E-04
         0.98238E-04
         0.26143E-03
        -0.64879E-04
        -0.13334E-03
        -0.12042E-03
        -0.11884E-03
        -0.14177E-03
         0.89363E-04
         0.69686E-04
        -0.11084E-04
         0.16083E-04
         0.17404E-03
         0.10612E-04
        -0.12034E-02
         0.17441E-02
        -0.36487E-02
        -0.38876E-02
        -0.37354E-02
        -0.20621E-02
         0.50491E-03
         0.14261E-02
         0.17881E-02
         0.32489E-02
         0.36299E-02
         0.14182E-02
         0.47239E-03
         0.38900E-03
        -0.18858E-03
        -0.17242E-02
        -0.31508E-02
        -0.41417E-02
        -0.27362E-02
         0.79125E-03
         0.15278E-02
         0.14662E-02
         0.25915E-02
         0.31541E-02
         0.20944E-02
         0.19752E-02
        -0.65885E-04
         0.86152E-05
        -0.15009E-04
        -0.10729E-04
         0.11430E-03
         0.44127E-04
         0.10667E-04
        -0.77399E-04
        -0.23842E-04
        -0.70690E-04
         0.65589E-05
        -0.11907E-03
        -0.23002E-03
         0.24866E-04
         0.30358E-03
        -0.48747E-04
         0.87457E-05
         0.45463E-05
         0.14177E-04
         0.45826E-05
         0.12905E-03
         0.86419E-04
        -0.49509E-04
         0.99865E-05
         0.24060E-04
        -0.38248E-05
         0.56846E-05
        -0.12101E-05
        -0.51091E-05
        -0.38906E-04
        -0.40453E-04
        -0.66673E-05
         0.16585E-04
         0.12741E-04
         0.27967E-04
        -0.49813E-04
        -0.10870E-03
         0.25958E-03
         0.40298E-04
         0.98686E-04
         0.26191E-03
        -0.64592E-04
        -0.13344E-03
        -0.12059E-03
        -0.11888E-03
        -0.14173E-03
         0.89379E-04
         0.69697E-04
        -0.10976E-04
         0.16022E-04
         0.17387E-03
         0.10421E-04
        -0.12019E-02
         0.17438E-02
        -0.36490E-02
        -0.38877E-02
        -0.37338E-02
        -0.20607E-02
         0.50526E-03
         0.14265E-02
         0.17863E-02
         0.32467E-02
         0.36288E-02
         0.14194E-02
         0.47244E-03
         0.38976E-03
        -0.18699E-03
        -0.17258E-02
        -0.31535E-02
        -0.41437E-02
        -0.27353E-02
         0.79146E-03
         0.15266E-02
         0.14656E-02
         0.25890E-02
         0.31499E-02
         0.20910E-02
         0.19717E-02
        -0.66023E-04
         0.86582E-05
        -0.15033E-04
        -0.10815E-04
         0.11421E-03
         0.44121E-04
         0.10742E-04
        -0.77292E-04
        -0.23906E-04
        -0.70842E-04
         0.64127E-05
        -0.11935E-03
        -0.23024E-03
         0.24826E-04
         0.30380E-03
        -0.48817E-04
         0.88489E-05
         0.45259E-05
         0.14180E-04
         0.45446E-05
         0.12938E-03
         0.86481E-04
        -0.49586E-04
         0.99729E-05
         0.24217E-04
        -0.38187E-05
         0.57858E-05
        -0.11990E-05
        -0.50806E-05
        -0.38995E-04
        -0.40511E-04
        -0.66272E-05
         0.16548E-04
         0.12768E-04
         0.27696E-04
        -0.49838E-04
        -0.10868E-03
         0.26041E-03
         0.40755E-04
         0.99136E-04
         0.26238E-03
        -0.64306E-04
        -0.13354E-03
        -0.12077E-03
        -0.11893E-03
        -0.14171E-03
         0.89397E-04
         0.69714E-04
        -0.10867E-04
         0.15967E-04
         0.17371E-03
         0.10231E-04
        -0.12004E-02
         0.17434E-02
        -0.36493E-02
        -0.38877E-02
        -0.37321E-02
        -0.20594E-02
         0.50560E-03
         0.14270E-02
         0.17844E-02
         0.32445E-02
         0.36276E-02
         0.14204E-02
         0.47249E-03
         0.39052E-03
        -0.18538E-03
        -0.17275E-02
        -0.31563E-02
        -0.41457E-02
        -0.27344E-02
         0.79166E-03
         0.15253E-02
         0.14650E-02
         0.25865E-02
         0.31458E-02
         0.20877E-02
         0.19682E-02
        -0.66160E-04
         0.87016E-05
        -0.15056E-04
        -0.10902E-04
         0.11412E-03
         0.44115E-04
         0.10817E-04
        -0.77185E-04
        -0.23970E-04
        -0.70995E-04
         0.62666E-05
        -0.11963E-03
        -0.23046E-03
         0.24789E-04
         0.30402E-03
        -0.48887E-04
         0.89529E-05
         0.45055E-05
         0.14183E-04
         0.45061E-05
         0.12971E-03
         0.86544E-04
        -0.49665E-04
         0.99597E-05
         0.24374E-04
        -0.38125E-05
         0.58895E-05
        -0.11873E-05
        -0.50513E-05
        -0.39085E-04
        -0.40570E-04
        -0.65875E-05
         0.16512E-04
         0.12794E-04
         0.27424E-04
        -0.49858E-04
        -0.10866E-03
         0.26123E-03
         0.41217E-04
         0.99584E-04
         0.26286E-03
        -0.64020E-04
        -0.13364E-03
        -0.12094E-03
        -0.11898E-03
        -0.14169E-03
         0.89413E-04
         0.69731E-04
        -0.10758E-04
         0.15913E-04
         0.17355E-03
         0.10041E-04
        -0.11988E-02
         0.17431E-02
        -0.36496E-02
        -0.38877E-02
        -0.37305E-02
        -0.20581E-02
         0.50594E-03
         0.14274E-02
         0.17825E-02
         0.32423E-02
         0.36264E-02
         0.14215E-02
         0.47255E-03
         0.39130E-03
        -0.18379E-03
        -0.17291E-02
        -0.31590E-02
        -0.41477E-02
        -0.27336E-02
         0.79187E-03
         0.15240E-02
         0.14644E-02
         0.25839E-02
         0.31416E-02
         0.20844E-02
         0.19647E-02
        -0.66297E-04
         0.87454E-05
        -0.15079E-04
        -0.10988E-04
         0.11402E-03
         0.44109E-04
         0.10892E-04
        -0.77077E-04
        -0.24034E-04
        -0.71145E-04
         0.61203E-05
        -0.11991E-03
        -0.23069E-03
         0.24749E-04
         0.30424E-03
        -0.48957E-04
         0.90577E-05
         0.44854E-05
         0.14186E-04
         0.44678E-05
         0.13004E-03
         0.86604E-04
        -0.49739E-04
         0.99465E-05
         0.24532E-04
        -0.38063E-05
         0.59905E-05
        -0.11751E-05
        -0.50212E-05
        -0.39174E-04
        -0.40628E-04
        -0.65476E-05
         0.16474E-04
         0.12820E-04
         0.27151E-04
        -0.49883E-04
        -0.10864E-03
         0.26205E-03
         0.41679E-04
         0.10004E-03
         0.26334E-03
        -0.63734E-04
        -0.13373E-03
        -0.12112E-03
        -0.11902E-03
        -0.14167E-03
         0.89431E-04
         0.69752E-04
        -0.10650E-04
         0.15857E-04
         0.17339E-03
         0.98513E-05
        -0.11973E-02
         0.17427E-02
        -0.36498E-02
        -0.38878E-02
        -0.37289E-02
        -0.20567E-02
         0.50627E-03
         0.14278E-02
         0.17806E-02
         0.32401E-02
         0.36252E-02
         0.14226E-02
         0.47260E-03
         0.39207E-03
        -0.18220E-03
        -0.17308E-02
        -0.31617E-02
        -0.41496E-02
        -0.27327E-02
         0.79206E-03
         0.15227E-02
         0.14638E-02
         0.25814E-02
         0.31375E-02
         0.20811E-02
         0.19612E-02
        -0.66433E-04
         0.87888E-05
        -0.15103E-04
        -0.11074E-04
         0.11393E-03
         0.44104E-04
         0.10967E-04
        -0.76967E-04
        -0.24098E-04
        -0.71296E-04
         0.59736E-05
        -0.12019E-03
        -0.23091E-03
         0.24711E-04
         0.30446E-03
        -0.49027E-04
         0.91630E-05
         0.44653E-05
         0.14191E-04
         0.44291E-05
         0.13036E-03
         0.86663E-04
        -0.49818E-04
         0.99336E-05
         0.24689E-04
        -0.38000E-05
         0.60934E-05
        -0.11622E-05
        -0.49903E-05
        -0.39262E-04
        -0.40686E-04
        -0.65078E-05
         0.16436E-04
         0.12846E-04
         0.26877E-04
        -0.49905E-04
        -0.10863E-03
         0.26288E-03
         0.42145E-04
         0.10049E-03
         0.26381E-03
        -0.63448E-04
        -0.13383E-03
        -0.12129E-03
        -0.11907E-03
        -0.14165E-03
         0.89449E-04
         0.69769E-04
        -0.10541E-04
         0.15802E-04
         0.17323E-03
         0.96621E-05
        -0.11957E-02
         0.17424E-02
        -0.36501E-02
        -0.38878E-02
        -0.37273E-02
        -0.20554E-02
         0.50659E-03
         0.14282E-02
         0.17788E-02
         0.32378E-02
         0.36240E-02
         0.14237E-02
         0.47266E-03
         0.39284E-03
        -0.18060E-03
        -0.17324E-02
        -0.31644E-02
        -0.41516E-02
        -0.27318E-02
         0.79224E-03
         0.15215E-02
         0.14632E-02
         0.25789E-02
         0.31333E-02
         0.20778E-02
         0.19577E-02
        -0.66570E-04
         0.88321E-05
        -0.15126E-04
        -0.11162E-04
         0.11384E-03
         0.44098E-04
         0.11042E-04
        -0.76857E-04
        -0.24163E-04
        -0.71445E-04
         0.58270E-05
        -0.12048E-03
        -0.23113E-03
         0.24673E-04
         0.30468E-03
        -0.49098E-04
         0.92687E-05
         0.44450E-05
         0.14195E-04
         0.43910E-05
         0.13069E-03
         0.86720E-04
        -0.49897E-04
         0.99209E-05
         0.24846E-04
        -0.37940E-05
         0.61941E-05
        -0.11488E-05
        -0.49582E-05
        -0.39352E-04
        -0.40744E-04
        -0.64680E-05
         0.16398E-04
         0.12873E-04
         0.26601E-04
        -0.49928E-04
        -0.10861E-03
         0.26371E-03
         0.42613E-04
         0.10094E-03
         0.26429E-03
        -0.63165E-04
        -0.13393E-03
        -0.12146E-03
        -0.11912E-03
        -0.14163E-03
         0.89466E-04
         0.69790E-04
        -0.10433E-04
         0.15749E-04
         0.17307E-03
         0.94735E-05
        -0.11941E-02
         0.17420E-02
        -0.36504E-02
        -0.38878E-02
        -0.37257E-02
        -0.20541E-02
         0.50691E-03
         0.14287E-02
         0.17769E-02
         0.32356E-02
         0.36228E-02
         0.14248E-02
         0.47271E-03
         0.39360E-03
        -0.17899E-03
        -0.17341E-02
        -0.31671E-02
        -0.41535E-02
        -0.27309E-02
         0.79243E-03
         0.15202E-02
         0.14626E-02
         0.25763E-02
         0.31292E-02
         0.20745E-02
         0.19543E-02
        -0.66707E-04
         0.88758E-05
        -0.15148E-04
        -0.11249E-04
         0.11375E-03
         0.44092E-04
         0.11117E-04
        -0.76746E-04
        -0.24226E-04
        -0.71592E-04
         0.56806E-05
        -0.12076E-03
        -0.23135E-03
         0.24631E-04
         0.30490E-03
        -0.49167E-04
         0.93749E-05
         0.44246E-05
         0.14198E-04
         0.43530E-05
         0.13102E-03
         0.86780E-04
        -0.49973E-04
         0.99082E-05
         0.25002E-04
        -0.37875E-05
         0.62976E-05
        -0.11347E-05
        -0.49257E-05
        -0.39440E-04
        -0.40802E-04
        -0.64277E-05
         0.16359E-04
         0.12900E-04
         0.26325E-04
        -0.49954E-04
        -0.10859E-03
         0.26453E-03
         0.43084E-04
         0.10139E-03
         0.26477E-03
        -0.62877E-04
        -0.13402E-03
        -0.12164E-03
        -0.11917E-03
        -0.14160E-03
         0.89485E-04
         0.69808E-04
        -0.10324E-04
         0.15694E-04
         0.17291E-03
         0.92858E-05
        -0.11926E-02
         0.17417E-02
        -0.36506E-02
        -0.38879E-02
        -0.37241E-02
        -0.20527E-02
         0.50725E-03
         0.14291E-02
         0.17750E-02
         0.32334E-02
         0.36216E-02
         0.14259E-02
         0.47276E-03
         0.39437E-03
        -0.17739E-03
        -0.17357E-02
        -0.31699E-02
        -0.41555E-02
        -0.27301E-02
         0.79263E-03
         0.15189E-02
         0.14620E-02
         0.25738E-02
         0.31250E-02
         0.20712E-02
         0.19508E-02
        -0.66845E-04
         0.89189E-05
        -0.15171E-04
        -0.11336E-04
         0.11366E-03
         0.44086E-04
         0.11192E-04
        -0.76634E-04
        -0.24291E-04
        -0.71738E-04
         0.55342E-05
        -0.12104E-03
        -0.23157E-03
         0.24593E-04
         0.30511E-03
        -0.49237E-04
         0.94818E-05
         0.44045E-05
         0.14203E-04
         0.43153E-05
         0.13135E-03
         0.86838E-04
        -0.50051E-04
         0.98956E-05
         0.25160E-04
        -0.37810E-05
         0.63984E-05
        -0.11202E-05
        -0.48925E-05
        -0.39528E-04
        -0.40860E-04
        -0.63879E-05
         0.16319E-04
         0.12926E-04
         0.26047E-04
        -0.49977E-04
        -0.10857E-03
         0.26536E-03
         0.43557E-04
         0.10185E-03
         0.26525E-03
        -0.62590E-04
        -0.13412E-03
        -0.12182E-03
        -0.11921E-03
        -0.14158E-03
         0.89503E-04
         0.69826E-04
        -0.10215E-04
         0.15640E-04
         0.17275E-03
         0.90999E-05
        -0.11910E-02
         0.17413E-02
        -0.36509E-02
        -0.38879E-02
        -0.37225E-02
        -0.20514E-02
         0.50757E-03
         0.14295E-02
         0.17731E-02
         0.32311E-02
         0.36205E-02
         0.14270E-02
         0.47281E-03
         0.39514E-03
        -0.17579E-03
        -0.17374E-02
        -0.31726E-02
        -0.41575E-02
        -0.27292E-02
         0.79280E-03
         0.15177E-02
         0.14614E-02
         0.25713E-02
         0.31209E-02
         0.20680E-02
         0.19473E-02
        -0.66982E-04
         0.89617E-05
        -0.15194E-04
        -0.11423E-04
         0.11356E-03
         0.44079E-04
         0.11268E-04
        -0.76521E-04
        -0.24355E-04
        -0.71885E-04
         0.53876E-05
        -0.12133E-03
        -0.23179E-03
         0.24551E-04
         0.30533E-03
        -0.49307E-04
         0.95894E-05
         0.43845E-05
         0.14207E-04
         0.42772E-05
         0.13168E-03
         0.86896E-04
        -0.50127E-04
         0.98832E-05
         0.25317E-04
        -0.37744E-05
         0.65010E-05
        -0.11050E-05
        -0.48587E-05
        -0.39617E-04
        -0.40917E-04
        -0.63476E-05
         0.16279E-04
         0.12953E-04
         0.25769E-04
        -0.50002E-04
        -0.10855E-03
         0.26619E-03
         0.44032E-04
         0.10231E-03
         0.26573E-03
        -0.62303E-04
        -0.13422E-03
        -0.12199E-03
        -0.11926E-03
        -0.14156E-03
         0.89518E-04
         0.69847E-04
        -0.10105E-04
         0.15586E-04
         0.17259E-03
         0.89131E-05
        -0.11895E-02
         0.17409E-02
        -0.36511E-02
        -0.38879E-02
        -0.37209E-02
        -0.20501E-02
         0.50788E-03
         0.14298E-02
         0.17713E-02
         0.32289E-02
         0.36193E-02
         0.14281E-02
         0.47287E-03
         0.39591E-03
        -0.17419E-03
        -0.17390E-02
        -0.31753E-02
        -0.41594E-02
        -0.27283E-02
         0.79298E-03
         0.15164E-02
         0.14608E-02
         0.25688E-02
         0.31167E-02
         0.20647E-02
         0.19438E-02
        -0.67119E-04
         0.90054E-05
        -0.15217E-04
        -0.11511E-04
         0.11347E-03
         0.44074E-04
         0.11343E-04
        -0.76407E-04
        -0.24420E-04
        -0.72030E-04
         0.52406E-05
        -0.12161E-03
        -0.23202E-03
         0.24511E-04
         0.30554E-03
        -0.49377E-04
         0.96979E-05
         0.43645E-05
         0.14211E-04
         0.42396E-05
         0.13201E-03
         0.86951E-04
        -0.50204E-04
         0.98711E-05
         0.25473E-04
        -0.37678E-05
         0.66010E-05
        -0.10892E-05
        -0.48242E-05
        -0.39704E-04
        -0.40975E-04
        -0.63078E-05
         0.16239E-04
         0.12979E-04
         0.25489E-04
        -0.50025E-04
        -0.10853E-03
         0.26702E-03
         0.44510E-04
         0.10276E-03
         0.26620E-03
        -0.62015E-04
        -0.13432E-03
        -0.12216E-03
        -0.11931E-03
        -0.14153E-03
         0.89537E-04
         0.69865E-04
        -0.99970E-05
         0.15531E-04
         0.17243E-03
         0.87268E-05
        -0.11879E-02
         0.17405E-02
        -0.36514E-02
        -0.38880E-02
        -0.37193E-02
        -0.20487E-02
         0.50818E-03
         0.14302E-02
         0.17694E-02
         0.32266E-02
         0.36181E-02
         0.14292E-02
         0.47291E-03
         0.39667E-03
        -0.17259E-03
        -0.17407E-02
        -0.31781E-02
        -0.41614E-02
        -0.27275E-02
         0.79316E-03
         0.15151E-02
         0.14602E-02
         0.25662E-02
         0.31126E-02
         0.20615E-02
         0.19404E-02
        -0.67256E-04
         0.90485E-05
        -0.15240E-04
        -0.11598E-04
         0.11338E-03
         0.44067E-04
         0.11418E-04
        -0.76293E-04
        -0.24484E-04
        -0.72171E-04
         0.50935E-05
        -0.12189E-03
        -0.23224E-03
         0.24468E-04
         0.30575E-03
        -0.49448E-04
         0.98073E-05
         0.43445E-05
         0.14215E-04
         0.42022E-05
         0.13234E-03
         0.87004E-04
        -0.50280E-04
         0.98590E-05
         0.25629E-04
        -0.37610E-05
         0.67035E-05
        -0.10725E-05
        -0.47885E-05
        -0.39791E-04
        -0.41033E-04
        -0.62678E-05
         0.16199E-04
         0.13007E-04
         0.25208E-04
        -0.50047E-04
        -0.10851E-03
         0.26784E-03
         0.44994E-04
         0.10321E-03
         0.26667E-03
        -0.61730E-04
        -0.13441E-03
        -0.12234E-03
        -0.11936E-03
        -0.14151E-03
         0.89556E-04
         0.69886E-04
        -0.98891E-05
         0.15476E-04
         0.17227E-03
         0.85427E-05
        -0.11864E-02
         0.17402E-02
        -0.36516E-02
        -0.38880E-02
        -0.37177E-02
        -0.20474E-02
         0.50847E-03
         0.14306E-02
         0.17676E-02
         0.32243E-02
         0.36170E-02
         0.14303E-02
         0.47295E-03
         0.39742E-03
        -0.17099E-03
        -0.17423E-02
        -0.31808E-02
        -0.41633E-02
        -0.27266E-02
         0.79334E-03
         0.15139E-02
         0.14596E-02
         0.25637E-02
         0.31084E-02
         0.20582E-02
         0.19369E-02
        -0.67393E-04
         0.90915E-05
        -0.15263E-04
        -0.11686E-04
         0.11329E-03
         0.44060E-04
         0.11493E-04
        -0.76177E-04
        -0.24546E-04
        -0.72302E-04
         0.49463E-05
        -0.12218E-03
        -0.23246E-03
         0.24428E-04
         0.30595E-03
        -0.49517E-04
         0.99178E-05
         0.43243E-05
         0.14221E-04
         0.41666E-05
         0.13266E-03
         0.87055E-04
        -0.50359E-04
         0.98464E-05
         0.25781E-04
        -0.37546E-05
         0.68045E-05
        -0.10547E-05
        -0.47523E-05
        -0.39877E-04
        -0.41090E-04
        -0.62271E-05
         0.16157E-04
         0.13033E-04
         0.24926E-04
        -0.50074E-04
        -0.10850E-03
         0.26867E-03
         0.45490E-04
         0.10366E-03
         0.26713E-03
        -0.61437E-04
        -0.13451E-03
        -0.12251E-03
        -0.11940E-03
        -0.14149E-03
         0.89572E-04
         0.69905E-04
        -0.97814E-05
         0.15422E-04
         0.17212E-03
         0.83586E-05
        -0.11848E-02
         0.17398E-02
        -0.36519E-02
        -0.38880E-02
        -0.37161E-02
        -0.20461E-02
         0.50877E-03
         0.14310E-02
         0.17657E-02
         0.32220E-02
         0.36158E-02
         0.14314E-02
         0.47296E-03
         0.39818E-03
        -0.16940E-03
        -0.17439E-02
        -0.31835E-02
        -0.41653E-02
        -0.27257E-02
         0.79352E-03
         0.15126E-02
         0.14590E-02
         0.25612E-02
         0.31043E-02
         0.20550E-02
         0.19334E-02
        -0.67530E-04
         0.91344E-05
        -0.15285E-04
        -0.11774E-04
         0.11320E-03
         0.44052E-04
         0.11568E-04
        -0.76059E-04
        -0.24608E-04
        -0.72424E-04
         0.47992E-05
        -0.12246E-03
        -0.23269E-03
         0.24386E-04
         0.30615E-03
        -0.49587E-04
         0.10030E-04
         0.43042E-05
         0.14225E-04
         0.41321E-05
         0.13299E-03
         0.87104E-04
        -0.50436E-04
         0.98345E-05
         0.25929E-04
        -0.37476E-05
         0.69094E-05
        -0.10354E-05
        -0.47155E-05
        -0.39957E-04
        -0.41147E-04
        -0.61871E-05
         0.16115E-04
         0.13060E-04
         0.24641E-04
        -0.50096E-04
        -0.10848E-03
         0.26950E-03
         0.45998E-04
         0.10410E-03
         0.26757E-03
        -0.61141E-04
        -0.13461E-03
        -0.12268E-03
        -0.11946E-03
        -0.14147E-03
         0.89591E-04
         0.69924E-04
        -0.96730E-05
         0.15368E-04
         0.17195E-03
         0.81737E-05
        -0.11832E-02
         0.17394E-02
        -0.36521E-02
        -0.38880E-02
        -0.37145E-02
        -0.20447E-02
         0.50906E-03
         0.14314E-02
         0.17639E-02
         0.32195E-02
         0.36148E-02
         0.14326E-02
         0.47295E-03
         0.39893E-03
        -0.16779E-03
        -0.17456E-02
        -0.31863E-02
        -0.41672E-02
        -0.27249E-02
         0.79369E-03
         0.15113E-02
         0.14584E-02
         0.25586E-02
         0.31002E-02
         0.20518E-02
         0.19300E-02
        -0.67668E-04
         0.91775E-05
        -0.15309E-04
        -0.11861E-04
         0.11311E-03
         0.44047E-04
         0.11644E-04
        -0.75942E-04
        -0.24668E-04
        -0.72543E-04
         0.46530E-05
        -0.12274E-03
        -0.23291E-03
         0.24342E-04
         0.30635E-03
        -0.49657E-04
         0.10143E-04
         0.42844E-05
         0.14229E-04
         0.40986E-05
         0.13332E-03
         0.87153E-04
        -0.50507E-04
         0.98234E-05
         0.26076E-04
        -0.37411E-05
         0.70114E-05
        -0.10152E-05
        -0.46784E-05
        -0.40037E-04
        -0.41206E-04
        -0.61478E-05
         0.16074E-04
         0.13088E-04
         0.24360E-04
        -0.50120E-04
        -0.10845E-03
         0.27032E-03
         0.46511E-04
         0.10453E-03
         0.26799E-03
        -0.60849E-04
        -0.13471E-03
        -0.12285E-03
        -0.11950E-03
        -0.14145E-03
         0.89610E-04
         0.69945E-04
        -0.95658E-05
         0.15313E-04
         0.17180E-03
         0.79908E-05
        -0.11817E-02
         0.17391E-02
        -0.36523E-02
        -0.38881E-02
        -0.37129E-02
        -0.20433E-02
         0.50934E-03
         0.14317E-02
         0.17620E-02
         0.32170E-02
         0.36137E-02
         0.14338E-02
         0.47290E-03
         0.39969E-03
        -0.16619E-03
        -0.17472E-02
        -0.31890E-02
        -0.41691E-02
        -0.27240E-02
         0.79389E-03
         0.15101E-02
         0.14578E-02
         0.25561E-02
         0.30961E-02
         0.20486E-02
         0.19265E-02
        -0.68492E-04
         0.93079E-05
        -0.15493E-04
        -0.12065E-04
         0.11420E-03
         0.44493E-04
         0.11836E-04
        -0.76639E-04
        -0.24974E-04
        -0.73427E-04
         0.45746E-05
        -0.12429E-03
        -0.23556E-03
         0.24567E-04
         0.31000E-03
        -0.50226E-04
         0.10355E-04
         0.43080E-05
         0.14375E-04
         0.41097E-05
         0.13498E-03
         0.88099E-04
        -0.51044E-04
         0.99182E-05
         0.26489E-04
        -0.37761E-05
         0.71825E-05
        -0.10052E-05
        -0.47009E-05
        -0.40542E-04
        -0.41683E-04
        -0.61820E-05
         0.16198E-04
         0.13248E-04
         0.24364E-04
        -0.50644E-04
        -0.10953E-03
         0.27410E-03
         0.47499E-04
         0.10608E-03
         0.27132E-03
        -0.61288E-04
        -0.13626E-03
        -0.12418E-03
        -0.12072E-03
        -0.14287E-03
         0.90537E-04
         0.70663E-04
        -0.95660E-05
         0.15416E-04
         0.17345E-03
         0.78919E-05
        -0.11951E-02
         0.17609E-02
        -0.36992E-02
        -0.39368E-02
        -0.37589E-02
        -0.20688E-02
         0.51662E-03
         0.14511E-02
         0.17840E-02
         0.32587E-02
         0.36612E-02
         0.14531E-02
         0.47837E-03
         0.40497E-03
        -0.16655E-03
        -0.17685E-02
        -0.32280E-02
        -0.42216E-02
        -0.27582E-02
         0.80451E-03
         0.15275E-02
         0.14746E-02
         0.25850E-02
         0.31300E-02
         0.20703E-02
         0.19464E-02
        -0.15553E-03
         0.21387E-04
        -0.35084E-04
        -0.27604E-04
         0.24125E-03
         0.95700E-04
         0.27118E-04
        -0.17263E-03
        -0.56418E-04
        -0.16480E-03
         0.99763E-05
        -0.25456E-03
        -0.49574E-03
         0.53871E-04
         0.64226E-03
        -0.11416E-03
         0.23586E-04
         0.97610E-05
         0.31863E-04
         0.91376E-05
         0.28351E-03
         0.18969E-03
        -0.10746E-03
         0.22304E-04
         0.60670E-04
        -0.86303E-05
         0.16154E-04
        -0.22668E-05
        -0.10806E-04
        -0.92640E-04
        -0.94820E-04
        -0.13985E-04
         0.36882E-04
         0.30225E-04
         0.49027E-04
        -0.10887E-03
        -0.23558E-03
         0.59362E-03
         0.10611E-03
         0.23790E-03
         0.59153E-03
        -0.13513E-03
        -0.30035E-03
        -0.26527E-03
        -0.25635E-03
        -0.28712E-03
         0.19114E-03
         0.15278E-03
        -0.20738E-04
         0.33321E-04
         0.35813E-03
         0.16611E-04
        -0.19431E-02
         0.28538E-02
        -0.60038E-02
        -0.64178E-02
        -0.61251E-02
        -0.33938E-02
         0.86866E-03
         0.24782E-02
         0.30343E-02
         0.54842E-02
         0.61701E-02
         0.24342E-02
         0.81525E-03
         0.69422E-03
        -0.27617E-03
        -0.28864E-02
        -0.52383E-02
        -0.67952E-02
        -0.44446E-02
         0.13008E-02
         0.25117E-02
         0.24434E-02
         0.42571E-02
         0.51883E-02
         0.34084E-02
         0.31805E-02
  
SCALARS                      strain_eq  double 1
LOOKUP_TABLE default
         0.15176E+02
         0.14982E+02
         0.15103E+02
         0.15326E+02
         0.33601E-08
         0.37257E-08
         0.36198E-08
         0.32571E-08
         0.14957E+02
         0.15033E+02
         0.36644E-08
         0.35044E-08
         0.14699E+02
         0.14689E+02
         0.40091E-08
         0.38179E-08
         0.15294E+02
         0.14703E+02
         0.29907E-08
         0.33637E-08
         0.14487E+02
         0.14311E+02
         0.14578E+02
         0.41291E-08
         0.39388E-08
         0.39177E-08
         0.14324E+02
         0.14073E+02
         0.39995E-08
         0.36325E-08
         0.15283E+02
         0.15027E+02
         0.15531E+02
         0.32545E-08
         0.30562E-08
         0.29275E-08
         0.15132E+02
         0.14807E+02
         0.35481E-08
         0.32347E-08
         0.15000E+02
         0.14745E+02
         0.33004E-08
         0.28472E-08
         0.15213E+02
         0.15312E+02
         0.35638E-08
         0.36958E-08
         0.14550E+02
         0.31940E-08
         0.15293E+02
         0.37139E-08
         0.14255E+02
         0.34919E-08
         0.14178E+02
         0.32232E-08
         0.14174E+02
         0.14454E+02
         0.32663E-08
         0.32118E-08
         0.15278E+02
         0.15175E+02
         0.32956E-08
         0.37305E-08
         0.15339E+02
         0.31632E-08
         0.15220E+02
         0.34643E-08
         0.14880E+02
         0.14868E+02
         0.37057E-08
         0.37033E-08
         0.14804E+02
         0.37476E-08
         0.13983E+02
         0.29957E-08
         0.13937E+02
         0.27883E-08
         0.13952E+02
         0.29046E-08
         0.14052E+02
         0.14193E+02
         0.28094E-08
         0.29181E-08
         0.14453E+02
         0.27482E-08
         0.15203E+02
         0.36899E-08
         0.15076E+02
         0.37575E-08
         0.14960E+02
         0.14932E+02
         0.37540E-08
         0.36825E-08
         0.15007E+02
         0.33046E-08
         0.15053E+02
         0.32356E-08
         0.15004E+02
         0.34998E-08
         0.14971E+02
         0.15027E+02
         0.35979E-08
         0.35881E-08
         0.14662E+02
         0.14752E+02
         0.34212E-08
         0.33023E-08
         0.14614E+02
         0.33225E-08
         0.14719E+02
         0.32438E-08
         0.14601E+02
         0.32399E-08
         0.14310E+02
         0.30375E-08
         0.14014E+02
         0.25702E-08
         0.13848E+02
         0.21718E-08
         0.13832E+02
         0.21064E-08
         0.13840E+02
         0.22442E-08
         0.14025E+02
         0.23150E-08
         0.14331E+02
         0.21687E-08
         0.14683E+02
         0.19793E-08
         0.14914E+02
         0.20485E-08
         0.15138E+02
         0.24282E-08
         0.15283E+02
         0.28347E-08
         0.15266E+02
         0.30212E-08
         0.14960E+02
         0.32260E-08
         0.14757E+02
         0.33902E-08
         0.14636E+02
         0.31631E-08
         0.14740E+02
         0.27849E-08
         0.14819E+02
         0.27794E-08
         0.14743E+02
         0.30585E-08
         0.14771E+02
         0.32455E-08
         0.14828E+02
         0.31404E-08
         0.14909E+02
         0.30704E-08
         0.36081E+00
         0.35321E+00
         0.35425E+00
         0.36383E+00
         0.34559E+00
         0.35521E+00
         0.34302E+00
         0.34952E+00
         0.36240E+00
         0.35458E+00
         0.33579E+00
         0.33383E+00
         0.33973E+00
         0.33991E+00
         0.33639E+00
         0.36340E+00
         0.36167E+00
         0.36642E+00
         0.35235E+00
         0.35506E+00
         0.35138E+00
         0.35399E+00
         0.34914E+00
         0.35022E+00
         0.35486E+00
         0.35450E+00
         0.34650E+00
         0.34723E+00
         0.34102E+00
         0.35034E+00
         0.36255E+00
         0.35308E+00
         0.36247E+00
         0.35636E+00
         0.33220E+00
         0.34032E+00
         0.34414E+00
         0.33981E+00
         0.33915E+00
         0.33152E+00
         0.32597E+00
         0.33953E+00
         0.35160E+00
         0.34993E+00
         0.34380E+00
         0.33255E+00
         0.34212E+00
         0.35192E+00
         0.35124E+00
         0.34369E+00
         0.33569E+00
         0.34647E+00
         0.31326E+00
         0.32475E+00
         0.32313E+00
         0.32589E+00
         0.32557E+00
         0.32002E+00
         0.31351E+00
         0.31088E+00
         0.31164E+00
         0.31119E+00
         0.30825E+00
         0.32472E+00
         0.32988E+00
         0.33184E+00
         0.33580E+00
         0.33882E+00
         0.33891E+00
         0.33437E+00
         0.31734E+00
         0.32172E+00
         0.32726E+00
         0.32695E+00
         0.32599E+00
         0.32025E+00
         0.32861E+00
         0.33170E+00
         0.23873E-01
         0.14344E-01
         0.13530E-01
         0.92781E-02
         0.24792E-01
         0.17141E-01
         0.75661E-02
         0.23479E-01
         0.14708E-01
         0.22124E-01
         0.10787E-01
         0.46481E-01
         0.35296E-01
         0.17653E-01
         0.48681E-01
         0.17346E-01
         0.87879E-02
         0.56067E-02
         0.11680E-01
         0.63235E-02
         0.36553E-01
         0.34293E-01
         0.33397E-01
         0.86911E-02
         0.14278E-01
         0.45399E-02
         0.16655E-01
         0.27052E-02
         0.61001E-02
         0.15486E-01
         0.14818E-01
         0.78821E-02
         0.95983E-02
         0.83033E-02
         0.32047E-01
         0.19178E-01
         0.24824E-01
         0.39701E-01
         0.30539E-01
         0.28425E-01
         0.40370E-01
         0.36596E-01
         0.36840E-01
         0.28520E-01
         0.25469E-01
         0.34841E-01
         0.22840E-01
         0.19422E-01
         0.16016E-01
         0.18913E-01
         0.30923E-01
         0.21231E-01
         0.13573E+00
         0.13897E+00
         0.14526E+00
         0.14421E+00
         0.15372E+00
         0.16504E+00
         0.15838E+00
         0.14084E+00
         0.13725E+00
         0.14688E+00
         0.14396E+00
         0.14200E+00
         0.11739E+00
         0.11160E+00
         0.12259E+00
         0.13131E+00
         0.13626E+00
         0.14880E+00
         0.14313E+00
         0.14701E+00
         0.13238E+00
         0.12570E+00
         0.13404E+00
         0.13104E+00
         0.13484E+00
         0.13371E+00
         0.23891E-01
         0.14347E-01
         0.13538E-01
         0.92913E-02
         0.24780E-01
         0.17131E-01
         0.75891E-02
         0.23502E-01
         0.14733E-01
         0.22189E-01
         0.10787E-01
         0.46479E-01
         0.35310E-01
         0.17612E-01
         0.48731E-01
         0.17360E-01
         0.88125E-02
         0.55926E-02
         0.11687E-01
         0.63095E-02
         0.36556E-01
         0.34291E-01
         0.33394E-01
         0.86909E-02
         0.14339E-01
         0.45389E-02
         0.16661E-01
         0.26766E-02
         0.61292E-02
         0.15514E-01
         0.14833E-01
         0.78795E-02
         0.95820E-02
         0.83109E-02
         0.32061E-01
         0.19172E-01
         0.24818E-01
         0.39763E-01
         0.30608E-01
         0.28464E-01
         0.40397E-01
         0.36615E-01
         0.36844E-01
         0.28519E-01
         0.25464E-01
         0.34839E-01
         0.22841E-01
         0.19420E-01
         0.15993E-01
         0.18887E-01
         0.30906E-01
         0.21198E-01
         0.13568E+00
         0.13894E+00
         0.14526E+00
         0.14421E+00
         0.15370E+00
         0.16499E+00
         0.15831E+00
         0.14080E+00
         0.13722E+00
         0.14684E+00
         0.14393E+00
         0.14200E+00
         0.11738E+00
         0.11159E+00
         0.12261E+00
         0.13134E+00
         0.13630E+00
         0.14883E+00
         0.14313E+00
         0.14700E+00
         0.13236E+00
         0.12569E+00
         0.13400E+00
         0.13095E+00
         0.13477E+00
         0.13364E+00
         0.23909E-01
         0.14351E-01
         0.13546E-01
         0.93047E-02
         0.24769E-01
         0.17122E-01
         0.76121E-02
         0.23524E-01
         0.14759E-01
         0.22254E-01
         0.10787E-01
         0.46478E-01
         0.35324E-01
         0.17571E-01
         0.48781E-01
         0.17374E-01
         0.88376E-02
         0.55784E-02
         0.11694E-01
         0.62959E-02
         0.36559E-01
         0.34289E-01
         0.33392E-01
         0.86905E-02
         0.14400E-01
         0.45375E-02
         0.16666E-01
         0.26490E-02
         0.61581E-02
         0.15540E-01
         0.14847E-01
         0.78770E-02
         0.95658E-02
         0.83184E-02
         0.32076E-01
         0.19167E-01
         0.24812E-01
         0.39825E-01
         0.30677E-01
         0.28504E-01
         0.40424E-01
         0.36635E-01
         0.36849E-01
         0.28520E-01
         0.25460E-01
         0.34838E-01
         0.22841E-01
         0.19419E-01
         0.15970E-01
         0.18861E-01
         0.30889E-01
         0.21166E-01
         0.13563E+00
         0.13891E+00
         0.14526E+00
         0.14421E+00
         0.15367E+00
         0.16493E+00
         0.15825E+00
         0.14077E+00
         0.13718E+00
         0.14679E+00
         0.14391E+00
         0.14201E+00
         0.11737E+00
         0.11159E+00
         0.12262E+00
         0.13137E+00
         0.13633E+00
         0.14886E+00
         0.14312E+00
         0.14699E+00
         0.13235E+00
         0.12568E+00
         0.13395E+00
         0.13087E+00
         0.13469E+00
         0.13357E+00
         0.23927E-01
         0.14354E-01
         0.13553E-01
         0.93181E-02
         0.24758E-01
         0.17112E-01
         0.76354E-02
         0.23547E-01
         0.14784E-01
         0.22317E-01
         0.10787E-01
         0.46477E-01
         0.35339E-01
         0.17529E-01
         0.48832E-01
         0.17390E-01
         0.88636E-02
         0.55640E-02
         0.11701E-01
         0.62815E-02
         0.36564E-01
         0.34287E-01
         0.33393E-01
         0.86896E-02
         0.14460E-01
         0.45355E-02
         0.16671E-01
         0.26247E-02
         0.61852E-02
         0.15564E-01
         0.14862E-01
         0.78750E-02
         0.95495E-02
         0.83260E-02
         0.32090E-01
         0.19162E-01
         0.24807E-01
         0.39887E-01
         0.30747E-01
         0.28546E-01
         0.40453E-01
         0.36655E-01
         0.36856E-01
         0.28523E-01
         0.25457E-01
         0.34837E-01
         0.22843E-01
         0.19418E-01
         0.15947E-01
         0.18835E-01
         0.30871E-01
         0.21133E-01
         0.13558E+00
         0.13887E+00
         0.14526E+00
         0.14421E+00
         0.15365E+00
         0.16488E+00
         0.15818E+00
         0.14073E+00
         0.13715E+00
         0.14675E+00
         0.14388E+00
         0.14201E+00
         0.11736E+00
         0.11159E+00
         0.12264E+00
         0.13141E+00
         0.13637E+00
         0.14890E+00
         0.14311E+00
         0.14698E+00
         0.13234E+00
         0.12567E+00
         0.13391E+00
         0.13078E+00
         0.13462E+00
         0.13350E+00
         0.23945E-01
         0.14357E-01
         0.13561E-01
         0.93314E-02
         0.24747E-01
         0.17102E-01
         0.76584E-02
         0.23569E-01
         0.14809E-01
         0.22379E-01
         0.10787E-01
         0.46475E-01
         0.35353E-01
         0.17488E-01
         0.48882E-01
         0.17407E-01
         0.88905E-02
         0.55496E-02
         0.11709E-01
         0.62669E-02
         0.36570E-01
         0.34286E-01
         0.33395E-01
         0.86883E-02
         0.14518E-01
         0.45324E-02
         0.16675E-01
         0.26034E-02
         0.62108E-02
         0.15585E-01
         0.14878E-01
         0.78733E-02
         0.95331E-02
         0.83335E-02
         0.32104E-01
         0.19157E-01
         0.24801E-01
         0.39949E-01
         0.30818E-01
         0.28589E-01
         0.40484E-01
         0.36676E-01
         0.36864E-01
         0.28529E-01
         0.25456E-01
         0.34839E-01
         0.22845E-01
         0.19418E-01
         0.15925E-01
         0.18808E-01
         0.30855E-01
         0.21100E-01
         0.13553E+00
         0.13884E+00
         0.14526E+00
         0.14422E+00
         0.15362E+00
         0.16482E+00
         0.15811E+00
         0.14069E+00
         0.13711E+00
         0.14671E+00
         0.14386E+00
         0.14202E+00
         0.11736E+00
         0.11158E+00
         0.12266E+00
         0.13145E+00
         0.13642E+00
         0.14893E+00
         0.14310E+00
         0.14697E+00
         0.13232E+00
         0.12566E+00
         0.13386E+00
         0.13070E+00
         0.13454E+00
         0.13343E+00
         0.23962E-01
         0.14360E-01
         0.13568E-01
         0.93448E-02
         0.24735E-01
         0.17092E-01
         0.76809E-02
         0.23590E-01
         0.14835E-01
         0.22439E-01
         0.10788E-01
         0.46474E-01
         0.35367E-01
         0.17447E-01
         0.48933E-01
         0.17424E-01
         0.89177E-02
         0.55352E-02
         0.11717E-01
         0.62526E-02
         0.36576E-01
         0.34286E-01
         0.33398E-01
         0.86869E-02
         0.14575E-01
         0.45289E-02
         0.16679E-01
         0.25839E-02
         0.62361E-02
         0.15606E-01
         0.14893E-01
         0.78710E-02
         0.95168E-02
         0.83411E-02
         0.32119E-01
         0.19152E-01
         0.24796E-01
         0.40012E-01
         0.30890E-01
         0.28634E-01
         0.40516E-01
         0.36698E-01
         0.36874E-01
         0.28536E-01
         0.25456E-01
         0.34842E-01
         0.22849E-01
         0.19418E-01
         0.15904E-01
         0.18783E-01
         0.30838E-01
         0.21068E-01
         0.13548E+00
         0.13881E+00
         0.14526E+00
         0.14422E+00
         0.15360E+00
         0.16476E+00
         0.15805E+00
         0.14065E+00
         0.13708E+00
         0.14666E+00
         0.14384E+00
         0.14203E+00
         0.11735E+00
         0.11158E+00
         0.12268E+00
         0.13150E+00
         0.13647E+00
         0.14897E+00
         0.14310E+00
         0.14696E+00
         0.13231E+00
         0.12566E+00
         0.13381E+00
         0.13061E+00
         0.13447E+00
         0.13335E+00
         0.23978E-01
         0.14360E-01
         0.13576E-01
         0.93583E-02
         0.24725E-01
         0.17083E-01
         0.77026E-02
         0.23607E-01
         0.14861E-01
         0.22497E-01
         0.10791E-01
         0.46474E-01
         0.35383E-01
         0.17406E-01
         0.48984E-01
         0.17441E-01
         0.89443E-02
         0.55207E-02
         0.11725E-01
         0.62385E-02
         0.36582E-01
         0.34286E-01
         0.33402E-01
         0.86859E-02
         0.14630E-01
         0.45248E-02
         0.16683E-01
         0.25649E-02
         0.62618E-02
         0.15627E-01
         0.14907E-01
         0.78671E-02
         0.95003E-02
         0.83483E-02
         0.32134E-01
         0.19149E-01
         0.24792E-01
         0.40075E-01
         0.30963E-01
         0.28679E-01
         0.40548E-01
         0.36720E-01
         0.36883E-01
         0.28543E-01
         0.25458E-01
         0.34847E-01
         0.22854E-01
         0.19420E-01
         0.15886E-01
         0.18758E-01
         0.30823E-01
         0.21036E-01
         0.13543E+00
         0.13878E+00
         0.14526E+00
         0.14422E+00
         0.15357E+00
         0.16471E+00
         0.15798E+00
         0.14061E+00
         0.13704E+00
         0.14662E+00
         0.14381E+00
         0.14204E+00
         0.11735E+00
         0.11158E+00
         0.12269E+00
         0.13154E+00
         0.13651E+00
         0.14900E+00
         0.14309E+00
         0.14696E+00
         0.13230E+00
         0.12565E+00
         0.13377E+00
         0.13053E+00
         0.13439E+00
         0.13328E+00
         0.23993E-01
         0.14360E-01
         0.13582E-01
         0.93718E-02
         0.24715E-01
         0.17073E-01
         0.77235E-02
         0.23623E-01
         0.14887E-01
         0.22553E-01
         0.10795E-01
         0.46474E-01
         0.35398E-01
         0.17365E-01
         0.49034E-01
         0.17459E-01
         0.89707E-02
         0.55061E-02
         0.11732E-01
         0.62250E-02
         0.36589E-01
         0.34286E-01
         0.33406E-01
         0.86847E-02
         0.14684E-01
         0.45205E-02
         0.16688E-01
         0.25465E-02
         0.62883E-02
         0.15648E-01
         0.14921E-01
         0.78624E-02
         0.94838E-02
         0.83555E-02
         0.32149E-01
         0.19146E-01
         0.24789E-01
         0.40139E-01
         0.31035E-01
         0.28725E-01
         0.40580E-01
         0.36742E-01
         0.36893E-01
         0.28551E-01
         0.25461E-01
         0.34852E-01
         0.22859E-01
         0.19423E-01
         0.15869E-01
         0.18735E-01
         0.30808E-01
         0.21005E-01
         0.13538E+00
         0.13874E+00
         0.14526E+00
         0.14422E+00
         0.15355E+00
         0.16465E+00
         0.15791E+00
         0.14058E+00
         0.13701E+00
         0.14657E+00
         0.14379E+00
         0.14205E+00
         0.11735E+00
         0.11158E+00
         0.12271E+00
         0.13158E+00
         0.13656E+00
         0.14904E+00
         0.14308E+00
         0.14695E+00
         0.13228E+00
         0.12564E+00
         0.13372E+00
         0.13044E+00
         0.13432E+00
         0.13321E+00
         0.24008E-01
         0.14360E-01
         0.13589E-01
         0.93853E-02
         0.24704E-01
         0.17063E-01
         0.77445E-02
         0.23640E-01
         0.14913E-01
         0.22609E-01
         0.10798E-01
         0.46475E-01
         0.35414E-01
         0.17325E-01
         0.49086E-01
         0.17476E-01
         0.89971E-02
         0.54916E-02
         0.11740E-01
         0.62112E-02
         0.36595E-01
         0.34287E-01
         0.33409E-01
         0.86839E-02
         0.14739E-01
         0.45162E-02
         0.16692E-01
         0.25287E-02
         0.63150E-02
         0.15669E-01
         0.14935E-01
         0.78578E-02
         0.94674E-02
         0.83627E-02
         0.32165E-01
         0.19142E-01
         0.24785E-01
         0.40203E-01
         0.31109E-01
         0.28770E-01
         0.40612E-01
         0.36765E-01
         0.36902E-01
         0.28560E-01
         0.25463E-01
         0.34858E-01
         0.22865E-01
         0.19426E-01
         0.15852E-01
         0.18711E-01
         0.30794E-01
         0.20974E-01
         0.13533E+00
         0.13871E+00
         0.14526E+00
         0.14422E+00
         0.15352E+00
         0.16460E+00
         0.15785E+00
         0.14054E+00
         0.13697E+00
         0.14653E+00
         0.14377E+00
         0.14206E+00
         0.11734E+00
         0.11157E+00
         0.12273E+00
         0.13163E+00
         0.13661E+00
         0.14907E+00
         0.14307E+00
         0.14694E+00
         0.13227E+00
         0.12564E+00
         0.13368E+00
         0.13036E+00
         0.13424E+00
         0.13314E+00
         0.24022E-01
         0.14360E-01
         0.13596E-01
         0.93989E-02
         0.24693E-01
         0.17054E-01
         0.77656E-02
         0.23656E-01
         0.14939E-01
         0.22666E-01
         0.10802E-01
         0.46475E-01
         0.35431E-01
         0.17285E-01
         0.49137E-01
         0.17493E-01
         0.90236E-02
         0.54772E-02
         0.11748E-01
         0.61976E-02
         0.36601E-01
         0.34286E-01
         0.33413E-01
         0.86831E-02
         0.14793E-01
         0.45120E-02
         0.16697E-01
         0.25116E-02
         0.63419E-02
         0.15689E-01
         0.14948E-01
         0.78531E-02
         0.94511E-02
         0.83700E-02
         0.32181E-01
         0.19140E-01
         0.24782E-01
         0.40266E-01
         0.31182E-01
         0.28815E-01
         0.40645E-01
         0.36787E-01
         0.36912E-01
         0.28568E-01
         0.25466E-01
         0.34863E-01
         0.22870E-01
         0.19430E-01
         0.15835E-01
         0.18687E-01
         0.30779E-01
         0.20942E-01
         0.13529E+00
         0.13868E+00
         0.14525E+00
         0.14422E+00
         0.15350E+00
         0.16454E+00
         0.15778E+00
         0.14050E+00
         0.13694E+00
         0.14648E+00
         0.14374E+00
         0.14207E+00
         0.11734E+00
         0.11157E+00
         0.12275E+00
         0.13167E+00
         0.13665E+00
         0.14911E+00
         0.14306E+00
         0.14693E+00
         0.13226E+00
         0.12563E+00
         0.13363E+00
         0.13027E+00
         0.13417E+00
         0.13307E+00
         0.24037E-01
         0.14360E-01
         0.13603E-01
         0.94124E-02
         0.24683E-01
         0.17044E-01
         0.77870E-02
         0.23672E-01
         0.14966E-01
         0.22722E-01
         0.10806E-01
         0.46475E-01
         0.35447E-01
         0.17245E-01
         0.49189E-01
         0.17510E-01
         0.90502E-02
         0.54627E-02
         0.11756E-01
         0.61837E-02
         0.36607E-01
         0.34287E-01
         0.33416E-01
         0.86823E-02
         0.14847E-01
         0.45078E-02
         0.16702E-01
         0.24949E-02
         0.63691E-02
         0.15710E-01
         0.14962E-01
         0.78484E-02
         0.94349E-02
         0.83772E-02
         0.32197E-01
         0.19136E-01
         0.24779E-01
         0.40330E-01
         0.31255E-01
         0.28860E-01
         0.40677E-01
         0.36809E-01
         0.36921E-01
         0.28575E-01
         0.25468E-01
         0.34869E-01
         0.22876E-01
         0.19433E-01
         0.15818E-01
         0.18663E-01
         0.30765E-01
         0.20911E-01
         0.13524E+00
         0.13864E+00
         0.14525E+00
         0.14422E+00
         0.15347E+00
         0.16448E+00
         0.15771E+00
         0.14046E+00
         0.13691E+00
         0.14644E+00
         0.14372E+00
         0.14208E+00
         0.11733E+00
         0.11157E+00
         0.12277E+00
         0.13171E+00
         0.13670E+00
         0.14914E+00
         0.14305E+00
         0.14692E+00
         0.13225E+00
         0.12563E+00
         0.13358E+00
         0.13019E+00
         0.13409E+00
         0.13300E+00
         0.24052E-01
         0.14360E-01
         0.13610E-01
         0.94261E-02
         0.24673E-01
         0.17034E-01
         0.78082E-02
         0.23688E-01
         0.14992E-01
         0.22778E-01
         0.10811E-01
         0.46475E-01
         0.35463E-01
         0.17204E-01
         0.49240E-01
         0.17528E-01
         0.90768E-02
         0.54482E-02
         0.11763E-01
         0.61701E-02
         0.36613E-01
         0.34286E-01
         0.33420E-01
         0.86816E-02
         0.14901E-01
         0.45038E-02
         0.16707E-01
         0.24788E-02
         0.63961E-02
         0.15731E-01
         0.14976E-01
         0.78438E-02
         0.94186E-02
         0.83846E-02
         0.32213E-01
         0.19133E-01
         0.24775E-01
         0.40394E-01
         0.31328E-01
         0.28905E-01
         0.40709E-01
         0.36831E-01
         0.36931E-01
         0.28583E-01
         0.25471E-01
         0.34875E-01
         0.22881E-01
         0.19436E-01
         0.15801E-01
         0.18640E-01
         0.30750E-01
         0.20879E-01
         0.13519E+00
         0.13861E+00
         0.14525E+00
         0.14422E+00
         0.15345E+00
         0.16443E+00
         0.15764E+00
         0.14043E+00
         0.13687E+00
         0.14639E+00
         0.14370E+00
         0.14209E+00
         0.11733E+00
         0.11157E+00
         0.12279E+00
         0.13176E+00
         0.13675E+00
         0.14918E+00
         0.14304E+00
         0.14691E+00
         0.13224E+00
         0.12562E+00
         0.13354E+00
         0.13010E+00
         0.13402E+00
         0.13293E+00
         0.24067E-01
         0.14359E-01
         0.13617E-01
         0.94398E-02
         0.24662E-01
         0.17025E-01
         0.78293E-02
         0.23704E-01
         0.15018E-01
         0.22834E-01
         0.10815E-01
         0.46476E-01
         0.35479E-01
         0.17164E-01
         0.49291E-01
         0.17545E-01
         0.91033E-02
         0.54336E-02
         0.11771E-01
         0.61564E-02
         0.36620E-01
         0.34286E-01
         0.33423E-01
         0.86809E-02
         0.14955E-01
         0.44996E-02
         0.16712E-01
         0.24632E-02
         0.64238E-02
         0.15751E-01
         0.14989E-01
         0.78391E-02
         0.94024E-02
         0.83918E-02
         0.32228E-01
         0.19131E-01
         0.24772E-01
         0.40458E-01
         0.31402E-01
         0.28950E-01
         0.40742E-01
         0.36853E-01
         0.36941E-01
         0.28592E-01
         0.25474E-01
         0.34880E-01
         0.22887E-01
         0.19439E-01
         0.15785E-01
         0.18616E-01
         0.30735E-01
         0.20848E-01
         0.13514E+00
         0.13858E+00
         0.14525E+00
         0.14422E+00
         0.15342E+00
         0.16437E+00
         0.15758E+00
         0.14039E+00
         0.13684E+00
         0.14634E+00
         0.14367E+00
         0.14210E+00
         0.11732E+00
         0.11157E+00
         0.12281E+00
         0.13180E+00
         0.13679E+00
         0.14921E+00
         0.14303E+00
         0.14690E+00
         0.13222E+00
         0.12561E+00
         0.13349E+00
         0.13002E+00
         0.13394E+00
         0.13286E+00
         0.24081E-01
         0.14359E-01
         0.13624E-01
         0.94535E-02
         0.24652E-01
         0.17015E-01
         0.78508E-02
         0.23720E-01
         0.15045E-01
         0.22890E-01
         0.10820E-01
         0.46476E-01
         0.35495E-01
         0.17124E-01
         0.49342E-01
         0.17562E-01
         0.91300E-02
         0.54191E-02
         0.11779E-01
         0.61429E-02
         0.36626E-01
         0.34286E-01
         0.33427E-01
         0.86802E-02
         0.15009E-01
         0.44955E-02
         0.16716E-01
         0.24483E-02
         0.64517E-02
         0.15772E-01
         0.15003E-01
         0.78344E-02
         0.93864E-02
         0.83991E-02
         0.32244E-01
         0.19128E-01
         0.24768E-01
         0.40522E-01
         0.31476E-01
         0.28995E-01
         0.40774E-01
         0.36876E-01
         0.36950E-01
         0.28600E-01
         0.25477E-01
         0.34885E-01
         0.22893E-01
         0.19442E-01
         0.15768E-01
         0.18593E-01
         0.30721E-01
         0.20817E-01
         0.13509E+00
         0.13855E+00
         0.14525E+00
         0.14422E+00
         0.15339E+00
         0.16432E+00
         0.15751E+00
         0.14035E+00
         0.13680E+00
         0.14630E+00
         0.14365E+00
         0.14211E+00
         0.11732E+00
         0.11156E+00
         0.12283E+00
         0.13185E+00
         0.13684E+00
         0.14925E+00
         0.14302E+00
         0.14689E+00
         0.13221E+00
         0.12561E+00
         0.13344E+00
         0.12993E+00
         0.13387E+00
         0.13279E+00
         0.24096E-01
         0.14359E-01
         0.13631E-01
         0.94672E-02
         0.24642E-01
         0.17005E-01
         0.78721E-02
         0.23736E-01
         0.15071E-01
         0.22946E-01
         0.10825E-01
         0.46476E-01
         0.35511E-01
         0.17084E-01
         0.49394E-01
         0.17579E-01
         0.91567E-02
         0.54047E-02
         0.11786E-01
         0.61291E-02
         0.36632E-01
         0.34286E-01
         0.33430E-01
         0.86796E-02
         0.15063E-01
         0.44915E-02
         0.16721E-01
         0.24337E-02
         0.64798E-02
         0.15792E-01
         0.15016E-01
         0.78297E-02
         0.93704E-02
         0.84063E-02
         0.32260E-01
         0.19125E-01
         0.24765E-01
         0.40586E-01
         0.31549E-01
         0.29040E-01
         0.40806E-01
         0.36898E-01
         0.36960E-01
         0.28608E-01
         0.25479E-01
         0.34891E-01
         0.22898E-01
         0.19446E-01
         0.15751E-01
         0.18569E-01
         0.30706E-01
         0.20785E-01
         0.13504E+00
         0.13851E+00
         0.14524E+00
         0.14422E+00
         0.15337E+00
         0.16426E+00
         0.15744E+00
         0.14031E+00
         0.13677E+00
         0.14625E+00
         0.14363E+00
         0.14212E+00
         0.11731E+00
         0.11156E+00
         0.12284E+00
         0.13189E+00
         0.13689E+00
         0.14928E+00
         0.14301E+00
         0.14688E+00
         0.13220E+00
         0.12560E+00
         0.13340E+00
         0.12985E+00
         0.13379E+00
         0.13272E+00
         0.24110E-01
         0.14359E-01
         0.13637E-01
         0.94809E-02
         0.24631E-01
         0.16996E-01
         0.78934E-02
         0.23752E-01
         0.15098E-01
         0.23002E-01
         0.10829E-01
         0.46477E-01
         0.35527E-01
         0.17044E-01
         0.49445E-01
         0.17597E-01
         0.91836E-02
         0.53904E-02
         0.11794E-01
         0.61156E-02
         0.36639E-01
         0.34286E-01
         0.33434E-01
         0.86790E-02
         0.15116E-01
         0.44874E-02
         0.16726E-01
         0.24198E-02
         0.65082E-02
         0.15813E-01
         0.15030E-01
         0.78252E-02
         0.93546E-02
         0.84137E-02
         0.32276E-01
         0.19122E-01
         0.24762E-01
         0.40650E-01
         0.31623E-01
         0.29084E-01
         0.40838E-01
         0.36920E-01
         0.36969E-01
         0.28615E-01
         0.25482E-01
         0.34897E-01
         0.22904E-01
         0.19449E-01
         0.15734E-01
         0.18545E-01
         0.30691E-01
         0.20754E-01
         0.13499E+00
         0.13848E+00
         0.14524E+00
         0.14422E+00
         0.15334E+00
         0.16420E+00
         0.15737E+00
         0.14027E+00
         0.13673E+00
         0.14620E+00
         0.14360E+00
         0.14213E+00
         0.11731E+00
         0.11156E+00
         0.12286E+00
         0.13193E+00
         0.13694E+00
         0.14931E+00
         0.14300E+00
         0.14687E+00
         0.13219E+00
         0.12560E+00
         0.13335E+00
         0.12976E+00
         0.13372E+00
         0.13265E+00
         0.24125E-01
         0.14359E-01
         0.13644E-01
         0.94947E-02
         0.24621E-01
         0.16986E-01
         0.79150E-02
         0.23768E-01
         0.15124E-01
         0.23058E-01
         0.10834E-01
         0.46477E-01
         0.35543E-01
         0.17004E-01
         0.49496E-01
         0.17614E-01
         0.92105E-02
         0.53760E-02
         0.11802E-01
         0.61020E-02
         0.36645E-01
         0.34286E-01
         0.33438E-01
         0.86785E-02
         0.15170E-01
         0.44833E-02
         0.16730E-01
         0.24060E-02
         0.65365E-02
         0.15833E-01
         0.15044E-01
         0.78207E-02
         0.93389E-02
         0.84212E-02
         0.32292E-01
         0.19119E-01
         0.24758E-01
         0.40715E-01
         0.31696E-01
         0.29128E-01
         0.40869E-01
         0.36942E-01
         0.36978E-01
         0.28624E-01
         0.25485E-01
         0.34903E-01
         0.22910E-01
         0.19452E-01
         0.15718E-01
         0.18521E-01
         0.30677E-01
         0.20723E-01
         0.13494E+00
         0.13845E+00
         0.14524E+00
         0.14422E+00
         0.15332E+00
         0.16415E+00
         0.15730E+00
         0.14023E+00
         0.13670E+00
         0.14616E+00
         0.14358E+00
         0.14214E+00
         0.11731E+00
         0.11156E+00
         0.12288E+00
         0.13198E+00
         0.13698E+00
         0.14935E+00
         0.14299E+00
         0.14686E+00
         0.13218E+00
         0.12559E+00
         0.13330E+00
         0.12968E+00
         0.13364E+00
         0.13258E+00
         0.24140E-01
         0.14359E-01
         0.13651E-01
         0.95086E-02
         0.24611E-01
         0.16976E-01
         0.79364E-02
         0.23784E-01
         0.15151E-01
         0.23113E-01
         0.10840E-01
         0.46477E-01
         0.35559E-01
         0.16963E-01
         0.49547E-01
         0.17631E-01
         0.92373E-02
         0.53615E-02
         0.11810E-01
         0.60889E-02
         0.36651E-01
         0.34285E-01
         0.33442E-01
         0.86777E-02
         0.15223E-01
         0.44796E-02
         0.16733E-01
         0.23923E-02
         0.65653E-02
         0.15852E-01
         0.15057E-01
         0.78159E-02
         0.93231E-02
         0.84286E-02
         0.32308E-01
         0.19117E-01
         0.24755E-01
         0.40779E-01
         0.31770E-01
         0.29171E-01
         0.40899E-01
         0.36961E-01
         0.36987E-01
         0.28632E-01
         0.25487E-01
         0.34908E-01
         0.22915E-01
         0.19456E-01
         0.15701E-01
         0.18498E-01
         0.30663E-01
         0.20691E-01
         0.13489E+00
         0.13842E+00
         0.14524E+00
         0.14422E+00
         0.15329E+00
         0.16409E+00
         0.15724E+00
         0.14020E+00
         0.13667E+00
         0.14611E+00
         0.14356E+00
         0.14215E+00
         0.11730E+00
         0.11156E+00
         0.12290E+00
         0.13202E+00
         0.13703E+00
         0.14938E+00
         0.14298E+00
         0.14686E+00
         0.13217E+00
         0.12559E+00
         0.13326E+00
         0.12959E+00
         0.13357E+00
         0.13251E+00
         0.24154E-01
         0.14359E-01
         0.13658E-01
         0.95224E-02
         0.24600E-01
         0.16967E-01
         0.79578E-02
         0.23799E-01
         0.15178E-01
         0.23168E-01
         0.10845E-01
         0.46478E-01
         0.35575E-01
         0.16923E-01
         0.49598E-01
         0.17648E-01
         0.92642E-02
         0.53470E-02
         0.11818E-01
         0.60758E-02
         0.36658E-01
         0.34285E-01
         0.33445E-01
         0.86772E-02
         0.15277E-01
         0.44756E-02
         0.16735E-01
         0.23783E-02
         0.65943E-02
         0.15870E-01
         0.15071E-01
         0.78113E-02
         0.93074E-02
         0.84359E-02
         0.32324E-01
         0.19114E-01
         0.24752E-01
         0.40844E-01
         0.31843E-01
         0.29212E-01
         0.40927E-01
         0.36979E-01
         0.36994E-01
         0.28640E-01
         0.25491E-01
         0.34914E-01
         0.22921E-01
         0.19459E-01
         0.15685E-01
         0.18474E-01
         0.30647E-01
         0.20660E-01
         0.13484E+00
         0.13838E+00
         0.14523E+00
         0.14422E+00
         0.15327E+00
         0.16403E+00
         0.15717E+00
         0.14016E+00
         0.13663E+00
         0.14606E+00
         0.14353E+00
         0.14217E+00
         0.11730E+00
         0.11155E+00
         0.12292E+00
         0.13206E+00
         0.13708E+00
         0.14942E+00
         0.14297E+00
         0.14685E+00
         0.13215E+00
         0.12558E+00
         0.13321E+00
         0.12951E+00
         0.13350E+00
         0.13244E+00
         0.24169E-01
         0.14359E-01
         0.13665E-01
         0.95364E-02
         0.24590E-01
         0.16957E-01
         0.79795E-02
         0.23815E-01
         0.15204E-01
         0.23223E-01
         0.10850E-01
         0.46478E-01
         0.35591E-01
         0.16882E-01
         0.49649E-01
         0.17665E-01
         0.92913E-02
         0.53327E-02
         0.11826E-01
         0.60630E-02
         0.36664E-01
         0.34284E-01
         0.33448E-01
         0.86768E-02
         0.15330E-01
         0.44719E-02
         0.16736E-01
         0.23645E-02
         0.66233E-02
         0.15888E-01
         0.15085E-01
         0.78069E-02
         0.92920E-02
         0.84435E-02
         0.32341E-01
         0.19111E-01
         0.24748E-01
         0.40909E-01
         0.31916E-01
         0.29252E-01
         0.40954E-01
         0.36996E-01
         0.37001E-01
         0.28648E-01
         0.25493E-01
         0.34920E-01
         0.22927E-01
         0.19462E-01
         0.15668E-01
         0.18450E-01
         0.30634E-01
         0.20629E-01
         0.13479E+00
         0.13835E+00
         0.14523E+00
         0.14423E+00
         0.15324E+00
         0.16398E+00
         0.15710E+00
         0.14012E+00
         0.13660E+00
         0.14600E+00
         0.14351E+00
         0.14219E+00
         0.11731E+00
         0.11155E+00
         0.12294E+00
         0.13211E+00
         0.13712E+00
         0.14945E+00
         0.14296E+00
         0.14684E+00
         0.13214E+00
         0.12557E+00
         0.13316E+00
         0.12942E+00
         0.13342E+00
         0.13237E+00
         0.24691E-01
         0.15112E-01
         0.14445E-01
         0.10420E-01
         0.25246E-01
         0.17703E-01
         0.93721E-02
         0.24455E-01
         0.15882E-01
         0.23909E-01
         0.12156E-01
         0.47169E-01
         0.36242E-01
         0.17814E-01
         0.50412E-01
         0.18244E-01
         0.10358E-01
         0.66006E-02
         0.12755E-01
         0.77539E-02
         0.37224E-01
         0.34860E-01
         0.33986E-01
         0.97652E-02
         0.16220E-01
         0.61543E-02
         0.17690E-01
         0.57702E-02
         0.85314E-02
         0.16779E-01
         0.15736E-01
         0.89716E-02
         0.10178E-01
         0.95053E-02
         0.33037E-01
         0.19879E-01
         0.25401E-01
         0.41660E-01
         0.32699E-01
         0.30019E-01
         0.41649E-01
         0.37648E-01
         0.37596E-01
         0.29196E-01
         0.26109E-01
         0.35584E-01
         0.23631E-01
         0.20157E-01
         0.16427E-01
         0.19168E-01
         0.31272E-01
         0.21298E-01
         0.13611E+00
         0.13967E+00
         0.14664E+00
         0.14558E+00
         0.15467E+00
         0.16550E+00
         0.15859E+00
         0.14154E+00
         0.13802E+00
         0.14750E+00
         0.14497E+00
         0.14359E+00
         0.11842E+00
         0.11258E+00
         0.12403E+00
         0.13328E+00
         0.13834E+00
         0.15082E+00
         0.14437E+00
         0.14827E+00
         0.13338E+00
         0.12674E+00
         0.13437E+00
         0.13057E+00
         0.13458E+00
         0.13352E+00
         0.59237E-01
         0.53396E-01
         0.52300E-01
         0.46269E-01
         0.64712E-01
         0.56444E-01
         0.54003E-01
         0.64082E-01
         0.51044E-01
         0.63553E-01
         0.59903E-01
         0.93025E-01
         0.78323E-01
         0.64389E-01
         0.98279E-01
         0.52083E-01
         0.49957E-01
         0.42749E-01
         0.52531E-01
         0.52758E-01
         0.75774E-01
         0.74654E-01
         0.71054E-01
         0.49375E-01
         0.58487E-01
         0.46486E-01
         0.64218E-01
         0.58217E-01
         0.59247E-01
         0.60494E-01
         0.50607E-01
         0.48857E-01
         0.46462E-01
         0.48000E-01
         0.74984E-01
         0.60958E-01
         0.65373E-01
         0.88709E-01
         0.79247E-01
         0.76329E-01
         0.87920E-01
         0.81818E-01
         0.79409E-01
         0.65687E-01
         0.64398E-01
         0.77078E-01
         0.63940E-01
         0.58797E-01
         0.55387E-01
         0.58784E-01
         0.71747E-01
         0.60375E-01
         0.19737E+00
         0.19999E+00
         0.20902E+00
         0.20690E+00
         0.21861E+00
         0.23398E+00
         0.22868E+00
         0.21001E+00
         0.20596E+00
         0.21713E+00
         0.21294E+00
         0.20814E+00
         0.17573E+00
         0.16708E+00
         0.17880E+00
         0.18837E+00
         0.19415E+00
         0.21087E+00
         0.20621E+00
         0.21108E+00
         0.19221E+00
         0.18389E+00
         0.19352E+00
         0.18933E+00
         0.19304E+00
         0.19114E+00
  
SCALARS                     nodal_mass  double 1
LOOKUP_TABLE default
         0.24608E-05
         0.19551E-05
         0.20945E-05
         0.35953E-05
         0.12304E-05
         0.97770E-06
         0.10472E-05
         0.17973E-05
         0.19315E-05
         0.24627E-05
         0.96570E-06
         0.12312E-05
         0.13823E-05
         0.16614E-05
         0.69133E-06
         0.83095E-06
         0.27274E-05
         0.20125E-05
         0.13635E-05
         0.10066E-05
         0.81737E-06
         0.15393E-05
         0.16929E-05
         0.40889E-06
         0.76975E-06
         0.84649E-06
         0.13859E-05
         0.17532E-05
         0.69345E-06
         0.87672E-06
         0.32470E-05
         0.25355E-05
         0.32225E-05
         0.16233E-05
         0.12675E-05
         0.16109E-05
         0.18980E-05
         0.21673E-05
         0.94902E-06
         0.10836E-05
         0.20482E-05
         0.22683E-05
         0.10242E-05
         0.11342E-05
         0.17426E-05
         0.10823E-05
         0.87140E-06
         0.54121E-06
         0.20598E-05
         0.10301E-05
         0.17103E-05
         0.85523E-06
         0.17977E-05
         0.89958E-06
         0.18362E-05
         0.91859E-06
         0.15911E-05
         0.19369E-05
         0.79575E-06
         0.96860E-06
         0.24553E-05
         0.17361E-05
         0.12277E-05
         0.86816E-06
         0.27409E-05
         0.13702E-05
         0.23792E-05
         0.11891E-05
         0.10821E-05
         0.16705E-05
         0.54106E-06
         0.83538E-06
         0.18955E-05
         0.94787E-06
         0.20026E-05
         0.10014E-05
         0.19316E-05
         0.96578E-06
         0.15181E-05
         0.75906E-06
         0.95443E-06
         0.15782E-05
         0.47723E-06
         0.78918E-06
         0.20886E-05
         0.10443E-05
         0.16867E-05
         0.84342E-06
         0.14838E-05
         0.74203E-06
         0.97224E-06
         0.16569E-05
         0.48620E-06
         0.82849E-06
         0.22482E-05
         0.11241E-05
         0.23568E-05
         0.11783E-05
         0.19018E-05
         0.95085E-06
         0.11709E-05
         0.20091E-05
         0.58544E-06
         0.10044E-05
         0.74681E-06
         0.94889E-06
         0.37348E-06
         0.47447E-06
         0.88885E-06
         0.44455E-06
         0.10466E-05
         0.52333E-06
         0.10205E-05
         0.51021E-06
         0.99108E-06
         0.49550E-06
         0.10560E-05
         0.52791E-06
         0.11142E-05
         0.55694E-06
         0.10497E-05
         0.52469E-06
         0.82085E-06
         0.41039E-06
         0.66950E-06
         0.33475E-06
         0.86397E-06
         0.43199E-06
         0.11504E-05
         0.57519E-06
         0.12637E-05
         0.63182E-06
         0.12132E-05
         0.60658E-06
         0.10948E-05
         0.54745E-06
         0.99429E-06
         0.49718E-06
         0.80759E-06
         0.40382E-06
         0.67982E-06
         0.33995E-06
         0.88797E-06
         0.44401E-06
         0.11753E-05
         0.58766E-06
         0.12140E-05
         0.60702E-06
         0.98236E-06
         0.49125E-06
         0.79766E-06
         0.39889E-06
         0.97540E-06
         0.48769E-06
         0.11548E-05
         0.57743E-06
         0.24609E-05
         0.19547E-05
         0.20946E-05
         0.35969E-05
         0.19318E-05
         0.24634E-05
         0.13815E-05
         0.16603E-05
         0.27283E-05
         0.20111E-05
         0.81658E-06
         0.15390E-05
         0.16927E-05
         0.13839E-05
         0.17528E-05
         0.32479E-05
         0.25367E-05
         0.32241E-05
         0.18980E-05
         0.21675E-05
         0.20481E-05
         0.22684E-05
         0.17424E-05
         0.10822E-05
         0.20589E-05
         0.17102E-05
         0.17950E-05
         0.18344E-05
         0.15904E-05
         0.19365E-05
         0.24555E-05
         0.17359E-05
         0.27423E-05
         0.23814E-05
         0.10820E-05
         0.16702E-05
         0.18953E-05
         0.20025E-05
         0.19317E-05
         0.15181E-05
         0.95442E-06
         0.15780E-05
         0.20884E-05
         0.16864E-05
         0.14835E-05
         0.97197E-06
         0.16567E-05
         0.22482E-05
         0.23571E-05
         0.19022E-05
         0.11709E-05
         0.20101E-05
         0.74658E-06
         0.94886E-06
         0.88841E-06
         0.10467E-05
         0.10207E-05
         0.99128E-06
         0.10565E-05
         0.11150E-05
         0.10503E-05
         0.82102E-06
         0.66954E-06
         0.86398E-06
         0.11506E-05
         0.12640E-05
         0.12133E-05
         0.10948E-05
         0.99421E-06
         0.80751E-06
         0.67970E-06
         0.88789E-06
         0.11752E-05
         0.12140E-05
         0.98215E-06
         0.79747E-06
         0.97551E-06
         0.11548E-05
         0.24611E-05
         0.19543E-05
         0.20949E-05
         0.35987E-05
         0.19321E-05
         0.24642E-05
         0.13808E-05
         0.16594E-05
         0.27293E-05
         0.20098E-05
         0.81582E-06
         0.15388E-05
         0.16927E-05
         0.13821E-05
         0.17525E-05
         0.32489E-05
         0.25379E-05
         0.32257E-05
         0.18982E-05
         0.21678E-05
         0.20480E-05
         0.22685E-05
         0.17423E-05
         0.10821E-05
         0.20580E-05
         0.17101E-05
         0.17924E-05
         0.18326E-05
         0.15898E-05
         0.19361E-05
         0.24558E-05
         0.17357E-05
         0.27438E-05
         0.23836E-05
         0.10821E-05
         0.16699E-05
         0.18951E-05
         0.20024E-05
         0.19318E-05
         0.15183E-05
         0.95445E-06
         0.15778E-05
         0.20884E-05
         0.16862E-05
         0.14831E-05
         0.97174E-06
         0.16566E-05
         0.22483E-05
         0.23575E-05
         0.19026E-05
         0.11709E-05
         0.20112E-05
         0.74636E-06
         0.94886E-06
         0.88800E-06
         0.10467E-05
         0.10210E-05
         0.99152E-06
         0.10570E-05
         0.11159E-05
         0.10509E-05
         0.82122E-06
         0.66961E-06
         0.86402E-06
         0.11507E-05
         0.12643E-05
         0.12135E-05
         0.10948E-05
         0.99417E-06
         0.80747E-06
         0.67961E-06
         0.88784E-06
         0.11752E-05
         0.12140E-05
         0.98197E-06
         0.79731E-06
         0.97565E-06
         0.11548E-05
         0.24612E-05
         0.19539E-05
         0.20950E-05
         0.36004E-05
         0.19324E-05
         0.24650E-05
         0.13801E-05
         0.16584E-05
         0.27303E-05
         0.20085E-05
         0.81504E-06
         0.15385E-05
         0.16925E-05
         0.13801E-05
         0.17521E-05
         0.32498E-05
         0.25390E-05
         0.32274E-05
         0.18982E-05
         0.21681E-05
         0.20479E-05
         0.22686E-05
         0.17421E-05
         0.10820E-05
         0.20571E-05
         0.17099E-05
         0.17897E-05
         0.18308E-05
         0.15891E-05
         0.19356E-05
         0.24561E-05
         0.17355E-05
         0.27453E-05
         0.23857E-05
         0.10820E-05
         0.16696E-05
         0.18948E-05
         0.20022E-05
         0.19320E-05
         0.15183E-05
         0.95445E-06
         0.15776E-05
         0.20883E-05
         0.16859E-05
         0.14828E-05
         0.97149E-06
         0.16564E-05
         0.22483E-05
         0.23578E-05
         0.19030E-05
         0.11710E-05
         0.20122E-05
         0.74613E-06
         0.94884E-06
         0.88756E-06
         0.10467E-05
         0.10212E-05
         0.99173E-06
         0.10574E-05
         0.11167E-05
         0.10515E-05
         0.82140E-06
         0.66966E-06
         0.86404E-06
         0.11509E-05
         0.12646E-05
         0.12136E-05
         0.10947E-05
         0.99410E-06
         0.80740E-06
         0.67950E-06
         0.88777E-06
         0.11752E-05
         0.12140E-05
         0.98177E-06
         0.79713E-06
         0.97576E-06
         0.11547E-05
         0.24613E-05
         0.19535E-05
         0.20952E-05
         0.36022E-05
         0.19327E-05
         0.24657E-05
         0.13794E-05
         0.16574E-05
         0.27313E-05
         0.20072E-05
         0.81426E-06
         0.15382E-05
         0.16924E-05
         0.13782E-05
         0.17517E-05
         0.32508E-05
         0.25402E-05
         0.32290E-05
         0.18983E-05
         0.21684E-05
         0.20479E-05
         0.22687E-05
         0.17420E-05
         0.10819E-05
         0.20563E-05
         0.17098E-05
         0.17870E-05
         0.18290E-05
         0.15884E-05
         0.19352E-05
         0.24563E-05
         0.17353E-05
         0.27467E-05
         0.23879E-05
         0.10820E-05
         0.16693E-05
         0.18946E-05
         0.20021E-05
         0.19321E-05
         0.15184E-05
         0.95445E-06
         0.15773E-05
         0.20882E-05
         0.16857E-05
         0.14824E-05
         0.97124E-06
         0.16563E-05
         0.22484E-05
         0.23582E-05
         0.19034E-05
         0.11710E-05
         0.20132E-05
         0.74590E-06
         0.94883E-06
         0.88713E-06
         0.10468E-05
         0.10215E-05
         0.99194E-06
         0.10579E-05
         0.11175E-05
         0.10521E-05
         0.82159E-06
         0.66972E-06
         0.86406E-06
         0.11510E-05
         0.12649E-05
         0.12138E-05
         0.10947E-05
         0.99404E-06
         0.80734E-06
         0.67940E-06
         0.88771E-06
         0.11752E-05
         0.12140E-05
         0.98157E-06
         0.79696E-06
         0.97588E-06
         0.11547E-05
         0.24615E-05
         0.19531E-05
         0.20954E-05
         0.36039E-05
         0.19331E-05
         0.24665E-05
         0.13787E-05
         0.16564E-05
         0.27322E-05
         0.20059E-05
         0.81349E-06
         0.15380E-05
         0.16923E-05
         0.13763E-05
         0.17514E-05
         0.32518E-05
         0.25414E-05
         0.32306E-05
         0.18984E-05
         0.21687E-05
         0.20478E-05
         0.22688E-05
         0.17418E-05
         0.10818E-05
         0.20554E-05
         0.17096E-05
         0.17843E-05
         0.18272E-05
         0.15878E-05
         0.19347E-05
         0.24566E-05
         0.17351E-05
         0.27482E-05
         0.23901E-05
         0.10820E-05
         0.16690E-05
         0.18943E-05
         0.20019E-05
         0.19322E-05
         0.15185E-05
         0.95446E-06
         0.15771E-05
         0.20881E-05
         0.16855E-05
         0.14821E-05
         0.97100E-06
         0.16562E-05
         0.22484E-05
         0.23586E-05
         0.19038E-05
         0.11710E-05
         0.20142E-05
         0.74568E-06
         0.94882E-06
         0.88671E-06
         0.10468E-05
         0.10217E-05
         0.99216E-06
         0.10583E-05
         0.11183E-05
         0.10528E-05
         0.82178E-06
         0.66977E-06
         0.86408E-06
         0.11512E-05
         0.12652E-05
         0.12139E-05
         0.10947E-05
         0.99398E-06
         0.80728E-06
         0.67930E-06
         0.88766E-06
         0.11752E-05
         0.12140E-05
         0.98138E-06
         0.79679E-06
         0.97601E-06
         0.11547E-05
         0.24616E-05
         0.19527E-05
         0.20956E-05
         0.36056E-05
         0.19334E-05
         0.24672E-05
         0.13779E-05
         0.16554E-05
         0.27332E-05
         0.20046E-05
         0.81271E-06
         0.15377E-05
         0.16922E-05
         0.13744E-05
         0.17510E-05
         0.32527E-05
         0.25425E-05
         0.32322E-05
         0.18984E-05
         0.21689E-05
         0.20477E-05
         0.22689E-05
         0.17416E-05
         0.10816E-05
         0.20545E-05
         0.17095E-05
         0.17817E-05
         0.18254E-05
         0.15871E-05
         0.19343E-05
         0.24568E-05
         0.17349E-05
         0.27496E-05
         0.23922E-05
         0.10820E-05
         0.16686E-05
         0.18941E-05
         0.20018E-05
         0.19324E-05
         0.15186E-05
         0.95446E-06
         0.15769E-05
         0.20880E-05
         0.16852E-05
         0.14817E-05
         0.97074E-06
         0.16560E-05
         0.22484E-05
         0.23589E-05
         0.19042E-05
         0.11710E-05
         0.20152E-05
         0.74544E-06
         0.94880E-06
         0.88627E-06
         0.10469E-05
         0.10219E-05
         0.99237E-06
         0.10588E-05
         0.11191E-05
         0.10534E-05
         0.82196E-06
         0.66982E-06
         0.86410E-06
         0.11513E-05
         0.12654E-05
         0.12140E-05
         0.10947E-05
         0.99391E-06
         0.80721E-06
         0.67919E-06
         0.88759E-06
         0.11751E-05
         0.12140E-05
         0.98118E-06
         0.79661E-06
         0.97612E-06
         0.11546E-05
         0.24618E-05
         0.19523E-05
         0.20957E-05
         0.36073E-05
         0.19337E-05
         0.24680E-05
         0.13772E-05
         0.16545E-05
         0.27341E-05
         0.20033E-05
         0.81194E-06
         0.15374E-05
         0.16921E-05
         0.13725E-05
         0.17506E-05
         0.32537E-05
         0.25437E-05
         0.32339E-05
         0.18985E-05
         0.21692E-05
         0.20476E-05
         0.22690E-05
         0.17414E-05
         0.10815E-05
         0.20536E-05
         0.17093E-05
         0.17790E-05
         0.18236E-05
         0.15864E-05
         0.19339E-05
         0.24571E-05
         0.17347E-05
         0.27511E-05
         0.23944E-05
         0.10820E-05
         0.16683E-05
         0.18938E-05
         0.20016E-05
         0.19325E-05
         0.15186E-05
         0.95446E-06
         0.15767E-05
         0.20878E-05
         0.16850E-05
         0.14814E-05
         0.97050E-06
         0.16559E-05
         0.22484E-05
         0.23593E-05
         0.19046E-05
         0.11711E-05
         0.20162E-05
         0.74522E-06
         0.94878E-06
         0.88584E-06
         0.10469E-05
         0.10222E-05
         0.99258E-06
         0.10593E-05
         0.11199E-05
         0.10540E-05
         0.82215E-06
         0.66988E-06
         0.86413E-06
         0.11515E-05
         0.12657E-05
         0.12142E-05
         0.10946E-05
         0.99385E-06
         0.80715E-06
         0.67909E-06
         0.88752E-06
         0.11751E-05
         0.12140E-05
         0.98098E-06
         0.79643E-06
         0.97624E-06
         0.11546E-05
         0.24619E-05
         0.19519E-05
         0.20959E-05
         0.36091E-05
         0.19340E-05
         0.24688E-05
         0.13765E-05
         0.16535E-05
         0.27351E-05
         0.20020E-05
         0.81117E-06
         0.15372E-05
         0.16920E-05
         0.13706E-05
         0.17503E-05
         0.32546E-05
         0.25448E-05
         0.32355E-05
         0.18986E-05
         0.21695E-05
         0.20475E-05
         0.22691E-05
         0.17413E-05
         0.10814E-05
         0.20527E-05
         0.17092E-05
         0.17763E-05
         0.18219E-05
         0.15858E-05
         0.19334E-05
         0.24573E-05
         0.17345E-05
         0.27525E-05
         0.23966E-05
         0.10820E-05
         0.16680E-05
         0.18936E-05
         0.20015E-05
         0.19326E-05
         0.15187E-05
         0.95447E-06
         0.15765E-05
         0.20878E-05
         0.16848E-05
         0.14810E-05
         0.97025E-06
         0.16557E-05
         0.22485E-05
         0.23597E-05
         0.19050E-05
         0.11711E-05
         0.20172E-05
         0.74499E-06
         0.94877E-06
         0.88541E-06
         0.10469E-05
         0.10224E-05
         0.99280E-06
         0.10597E-05
         0.11207E-05
         0.10546E-05
         0.82234E-06
         0.66994E-06
         0.86415E-06
         0.11517E-05
         0.12660E-05
         0.12143E-05
         0.10946E-05
         0.99379E-06
         0.80709E-06
         0.67898E-06
         0.88746E-06
         0.11751E-05
         0.12140E-05
         0.98079E-06
         0.79626E-06
         0.97636E-06
         0.11546E-05
         0.24621E-05
         0.19515E-05
         0.20961E-05
         0.36108E-05
         0.19343E-05
         0.24695E-05
         0.13758E-05
         0.16525E-05
         0.27361E-05
         0.20006E-05
         0.81039E-06
         0.15369E-05
         0.16919E-05
         0.13686E-05
         0.17499E-05
         0.32556E-05
         0.25460E-05
         0.32371E-05
         0.18986E-05
         0.21697E-05
         0.20474E-05
         0.22692E-05
         0.17411E-05
         0.10813E-05
         0.20519E-05
         0.17091E-05
         0.17736E-05
         0.18201E-05
         0.15851E-05
         0.19330E-05
         0.24575E-05
         0.17342E-05
         0.27540E-05
         0.23987E-05
         0.10820E-05
         0.16677E-05
         0.18933E-05
         0.20014E-05
         0.19328E-05
         0.15188E-05
         0.95448E-06
         0.15763E-05
         0.20876E-05
         0.16845E-05
         0.14807E-05
         0.97000E-06
         0.16556E-05
         0.22485E-05
         0.23600E-05
         0.19053E-05
         0.11711E-05
         0.20182E-05
         0.74476E-06
         0.94875E-06
         0.88498E-06
         0.10470E-05
         0.10227E-05
         0.99301E-06
         0.10602E-05
         0.11215E-05
         0.10553E-05
         0.82252E-06
         0.66999E-06
         0.86417E-06
         0.11518E-05
         0.12663E-05
         0.12145E-05
         0.10946E-05
         0.99373E-06
         0.80702E-06
         0.67888E-06
         0.88740E-06
         0.11751E-05
         0.12140E-05
         0.98058E-06
         0.79608E-06
         0.97648E-06
         0.11546E-05
         0.24622E-05
         0.19511E-05
         0.20963E-05
         0.36125E-05
         0.19346E-05
         0.24703E-05
         0.13751E-05
         0.16515E-05
         0.27370E-05
         0.19993E-05
         0.80962E-06
         0.15366E-05
         0.16917E-05
         0.13667E-05
         0.17495E-05
         0.32565E-05
         0.25471E-05
         0.32388E-05
         0.18987E-05
         0.21700E-05
         0.20473E-05
         0.22693E-05
         0.17409E-05
         0.10812E-05
         0.20510E-05
         0.17089E-05
         0.17710E-05
         0.18183E-05
         0.15844E-05
         0.19325E-05
         0.24578E-05
         0.17340E-05
         0.27554E-05
         0.24009E-05
         0.10820E-05
         0.16674E-05
         0.18931E-05
         0.20012E-05
         0.19329E-05
         0.15189E-05
         0.95448E-06
         0.15760E-05
         0.20875E-05
         0.16843E-05
         0.14803E-05
         0.96975E-06
         0.16555E-05
         0.22485E-05
         0.23604E-05
         0.19057E-05
         0.11712E-05
         0.20192E-05
         0.74453E-06
         0.94874E-06
         0.88455E-06
         0.10470E-05
         0.10229E-05
         0.99322E-06
         0.10606E-05
         0.11223E-05
         0.10559E-05
         0.82270E-06
         0.67004E-06
         0.86419E-06
         0.11520E-05
         0.12666E-05
         0.12146E-05
         0.10945E-05
         0.99366E-06
         0.80696E-06
         0.67877E-06
         0.88733E-06
         0.11751E-05
         0.12140E-05
         0.98038E-06
         0.79590E-06
         0.97660E-06
         0.11545E-05
         0.24623E-05
         0.19507E-05
         0.20964E-05
         0.36142E-05
         0.19349E-05
         0.24710E-05
         0.13743E-05
         0.16505E-05
         0.27380E-05
         0.19980E-05
         0.80885E-06
         0.15364E-05
         0.16916E-05
         0.13648E-05
         0.17492E-05
         0.32575E-05
         0.25483E-05
         0.32404E-05
         0.18988E-05
         0.21703E-05
         0.20473E-05
         0.22694E-05
         0.17407E-05
         0.10811E-05
         0.20501E-05
         0.17088E-05
         0.17683E-05
         0.18165E-05
         0.15837E-05
         0.19321E-05
         0.24580E-05
         0.17338E-05
         0.27569E-05
         0.24031E-05
         0.10820E-05
         0.16670E-05
         0.18928E-05
         0.20011E-05
         0.19330E-05
         0.15189E-05
         0.95448E-06
         0.15758E-05
         0.20874E-05
         0.16840E-05
         0.14800E-05
         0.96950E-06
         0.16553E-05
         0.22485E-05
         0.23608E-05
         0.19061E-05
         0.11712E-05
         0.20202E-05
         0.74430E-06
         0.94872E-06
         0.88412E-06
         0.10470E-05
         0.10231E-05
         0.99344E-06
         0.10611E-05
         0.11231E-05
         0.10565E-05
         0.82289E-06
         0.67009E-06
         0.86422E-06
         0.11521E-05
         0.12669E-05
         0.12147E-05
         0.10945E-05
         0.99360E-06
         0.80690E-06
         0.67867E-06
         0.88727E-06
         0.11750E-05
         0.12140E-05
         0.98019E-06
         0.79573E-06
         0.97672E-06
         0.11545E-05
         0.24625E-05
         0.19503E-05
         0.20966E-05
         0.36160E-05
         0.19352E-05
         0.24718E-05
         0.13736E-05
         0.16496E-05
         0.27389E-05
         0.19967E-05
         0.80807E-06
         0.15361E-05
         0.16915E-05
         0.13629E-05
         0.17488E-05
         0.32584E-05
         0.25495E-05
         0.32420E-05
         0.18988E-05
         0.21705E-05
         0.20472E-05
         0.22695E-05
         0.17406E-05
         0.10810E-05
         0.20492E-05
         0.17086E-05
         0.17656E-05
         0.18147E-05
         0.15831E-05
         0.19317E-05
         0.24583E-05
         0.17336E-05
         0.27583E-05
         0.24053E-05
         0.10820E-05
         0.16667E-05
         0.18926E-05
         0.20009E-05
         0.19331E-05
         0.15190E-05
         0.95449E-06
         0.15756E-05
         0.20873E-05
         0.16838E-05
         0.14796E-05
         0.96925E-06
         0.16552E-05
         0.22486E-05
         0.23611E-05
         0.19065E-05
         0.11712E-05
         0.20212E-05
         0.74407E-06
         0.94870E-06
         0.88368E-06
         0.10471E-05
         0.10234E-05
         0.99365E-06
         0.10616E-05
         0.11239E-05
         0.10571E-05
         0.82307E-06
         0.67014E-06
         0.86424E-06
         0.11523E-05
         0.12672E-05
         0.12149E-05
         0.10945E-05
         0.99354E-06
         0.80683E-06
         0.67856E-06
         0.88721E-06
         0.11750E-05
         0.12140E-05
         0.97999E-06
         0.79555E-06
         0.97684E-06
         0.11545E-05
         0.24626E-05
         0.19499E-05
         0.20968E-05
         0.36177E-05
         0.19355E-05
         0.24725E-05
         0.13729E-05
         0.16486E-05
         0.27399E-05
         0.19954E-05
         0.80730E-06
         0.15358E-05
         0.16914E-05
         0.13610E-05
         0.17484E-05
         0.32594E-05
         0.25506E-05
         0.32437E-05
         0.18989E-05
         0.21708E-05
         0.20471E-05
         0.22696E-05
         0.17404E-05
         0.10808E-05
         0.20483E-05
         0.17085E-05
         0.17629E-05
         0.18129E-05
         0.15824E-05
         0.19312E-05
         0.24585E-05
         0.17334E-05
         0.27598E-05
         0.24074E-05
         0.10820E-05
         0.16664E-05
         0.18923E-05
         0.20008E-05
         0.19333E-05
         0.15191E-05
         0.95449E-06
         0.15754E-05
         0.20872E-05
         0.16835E-05
         0.14793E-05
         0.96901E-06
         0.16550E-05
         0.22486E-05
         0.23615E-05
         0.19069E-05
         0.11713E-05
         0.20222E-05
         0.74384E-06
         0.94869E-06
         0.88325E-06
         0.10471E-05
         0.10236E-05
         0.99386E-06
         0.10620E-05
         0.11247E-05
         0.10577E-05
         0.82326E-06
         0.67020E-06
         0.86426E-06
         0.11524E-05
         0.12674E-05
         0.12150E-05
         0.10944E-05
         0.99348E-06
         0.80677E-06
         0.67846E-06
         0.88714E-06
         0.11750E-05
         0.12140E-05
         0.97979E-06
         0.79538E-06
         0.97696E-06
         0.11544E-05
         0.24628E-05
         0.19495E-05
         0.20970E-05
         0.36194E-05
         0.19358E-05
         0.24733E-05
         0.13722E-05
         0.16476E-05
         0.27409E-05
         0.19941E-05
         0.80652E-06
         0.15355E-05
         0.16913E-05
         0.13591E-05
         0.17481E-05
         0.32604E-05
         0.25518E-05
         0.32453E-05
         0.18990E-05
         0.21711E-05
         0.20470E-05
         0.22697E-05
         0.17402E-05
         0.10807E-05
         0.20474E-05
         0.17084E-05
         0.17603E-05
         0.18111E-05
         0.15817E-05
         0.19308E-05
         0.24588E-05
         0.17332E-05
         0.27613E-05
         0.24096E-05
         0.10819E-05
         0.16661E-05
         0.18921E-05
         0.20006E-05
         0.19334E-05
         0.15192E-05
         0.95450E-06
         0.15752E-05
         0.20871E-05
         0.16833E-05
         0.14789E-05
         0.96876E-06
         0.16549E-05
         0.22486E-05
         0.23619E-05
         0.19073E-05
         0.11713E-05
         0.20232E-05
         0.74362E-06
         0.94868E-06
         0.88282E-06
         0.10472E-05
         0.10238E-05
         0.99408E-06
         0.10625E-05
         0.11255E-05
         0.10584E-05
         0.82345E-06
         0.67025E-06
         0.86428E-06
         0.11526E-05
         0.12677E-05
         0.12152E-05
         0.10944E-05
         0.99342E-06
         0.80671E-06
         0.67836E-06
         0.88709E-06
         0.11750E-05
         0.12140E-05
         0.97959E-06
         0.79521E-06
         0.97708E-06
         0.11544E-05
         0.24629E-05
         0.19491E-05
         0.20972E-05
         0.36212E-05
         0.19361E-05
         0.24741E-05
         0.13715E-05
         0.16466E-05
         0.27418E-05
         0.19928E-05
         0.80575E-06
         0.15353E-05
         0.16912E-05
         0.13572E-05
         0.17477E-05
         0.32613E-05
         0.25529E-05
         0.32469E-05
         0.18990E-05
         0.21714E-05
         0.20469E-05
         0.22698E-05
         0.17400E-05
         0.10806E-05
         0.20466E-05
         0.17082E-05
         0.17576E-05
         0.18093E-05
         0.15810E-05
         0.19303E-05
         0.24590E-05
         0.17330E-05
         0.27627E-05
         0.24118E-05
         0.10819E-05
         0.16658E-05
         0.18919E-05
         0.20005E-05
         0.19335E-05
         0.15192E-05
         0.95450E-06
         0.15750E-05
         0.20870E-05
         0.16831E-05
         0.14786E-05
         0.96851E-06
         0.16548E-05
         0.22487E-05
         0.23622E-05
         0.19077E-05
         0.11713E-05
         0.20242E-05
         0.74339E-06
         0.94866E-06
         0.88239E-06
         0.10472E-05
         0.10241E-05
         0.99429E-06
         0.10630E-05
         0.11263E-05
         0.10590E-05
         0.82363E-06
         0.67030E-06
         0.86430E-06
         0.11527E-05
         0.12680E-05
         0.12153E-05
         0.10944E-05
         0.99335E-06
         0.80665E-06
         0.67825E-06
         0.88702E-06
         0.11749E-05
         0.12140E-05
         0.97939E-06
         0.79503E-06
         0.97720E-06
         0.11544E-05
         0.24631E-05
         0.19487E-05
         0.20973E-05
         0.36229E-05
         0.19364E-05
         0.24748E-05
         0.13707E-05
         0.16456E-05
         0.27428E-05
         0.19915E-05
         0.80498E-06
         0.15350E-05
         0.16911E-05
         0.13553E-05
         0.17473E-05
         0.32623E-05
         0.25541E-05
         0.32486E-05
         0.18991E-05
         0.21716E-05
         0.20468E-05
         0.22699E-05
         0.17399E-05
         0.10805E-05
         0.20457E-05
         0.17081E-05
         0.17549E-05
         0.18075E-05
         0.15804E-05
         0.19299E-05
         0.24592E-05
         0.17328E-05
         0.27642E-05
         0.24140E-05
         0.10819E-05
         0.16654E-05
         0.18916E-05
         0.20003E-05
         0.19337E-05
         0.15193E-05
         0.95450E-06
         0.15748E-05
         0.20869E-05
         0.16828E-05
         0.14782E-05
         0.96826E-06
         0.16546E-05
         0.22487E-05
         0.23626E-05
         0.19081E-05
         0.11714E-05
         0.20253E-05
         0.74316E-06
         0.94864E-06
         0.88196E-06
         0.10472E-05
         0.10243E-05
         0.99450E-06
         0.10634E-05
         0.11271E-05
         0.10596E-05
         0.82381E-06
         0.67036E-06
         0.86432E-06
         0.11529E-05
         0.12683E-05
         0.12154E-05
         0.10943E-05
         0.99329E-06
         0.80658E-06
         0.67815E-06
         0.88696E-06
         0.11749E-05
         0.12140E-05
         0.97919E-06
         0.79485E-06
         0.97732E-06
         0.11544E-05
         0.24632E-05
         0.19483E-05
         0.20975E-05
         0.36246E-05
         0.19368E-05
         0.24756E-05
         0.13700E-05
         0.16447E-05
         0.27437E-05
         0.19902E-05
         0.80421E-06
         0.15347E-05
         0.16910E-05
         0.13534E-05
         0.17470E-05
         0.32632E-05
         0.25552E-05
         0.32502E-05
         0.18992E-05
         0.21719E-05
         0.20467E-05
         0.22700E-05
         0.17397E-05
         0.10804E-05
         0.20448E-05
         0.17079E-05
         0.17523E-05
         0.18057E-05
         0.15797E-05
         0.19295E-05
         0.24595E-05
         0.17326E-05
         0.27656E-05
         0.24161E-05
         0.10819E-05
         0.16651E-05
         0.18914E-05
         0.20002E-05
         0.19338E-05
         0.15194E-05
         0.95451E-06
         0.15745E-05
         0.20868E-05
         0.16826E-05
         0.14779E-05
         0.96801E-06
         0.16545E-05
         0.22487E-05
         0.23630E-05
         0.19085E-05
         0.11714E-05
         0.20263E-05
         0.74293E-06
         0.94863E-06
         0.88153E-06
         0.10473E-05
         0.10245E-05
         0.99472E-06
         0.10639E-05
         0.11279E-05
         0.10602E-05
         0.82400E-06
         0.67041E-06
         0.86435E-06
         0.11530E-05
         0.12686E-05
         0.12156E-05
         0.10943E-05
         0.99323E-06
         0.80652E-06
         0.67804E-06
         0.88690E-06
         0.11749E-05
         0.12140E-05
         0.97900E-06
         0.79468E-06
         0.97744E-06
         0.11543E-05
         0.24633E-05
         0.19479E-05
         0.20977E-05
         0.36264E-05
         0.19371E-05
         0.24763E-05
         0.13693E-05
         0.16437E-05
         0.27447E-05
         0.19888E-05
         0.80343E-06
         0.15345E-05
         0.16908E-05
         0.13515E-05
         0.17466E-05
         0.32642E-05
         0.25564E-05
         0.32518E-05
         0.18992E-05
         0.21722E-05
         0.20466E-05
         0.22701E-05
         0.17395E-05
         0.10803E-05
         0.20439E-05
         0.17078E-05
         0.17496E-05
         0.18039E-05
         0.15790E-05
         0.19290E-05
         0.24597E-05
         0.17323E-05
         0.27671E-05
         0.24183E-05
         0.10819E-05
         0.16648E-05
         0.18911E-05
         0.20001E-05
         0.19339E-05
         0.15195E-05
         0.95452E-06
         0.15743E-05
         0.20867E-05
         0.16823E-05
         0.14775E-05
         0.96776E-06
         0.16543E-05
         0.22487E-05
         0.23633E-05
         0.19089E-05
         0.11714E-05
         0.20273E-05
         0.74270E-06
         0.94861E-06
         0.88109E-06
         0.10473E-05
         0.10248E-05
         0.99493E-06
         0.10643E-05
         0.11287E-05
         0.10609E-05
         0.82418E-06
         0.67046E-06
         0.86437E-06
         0.11532E-05
         0.12689E-05
         0.12157E-05
         0.10943E-05
         0.99316E-06
         0.80646E-06
         0.67794E-06
         0.88683E-06
         0.11749E-05
         0.12140E-05
         0.97879E-06
         0.79450E-06
         0.97755E-06
         0.11543E-05
         0.24635E-05
         0.19475E-05
         0.20979E-05
         0.36281E-05
         0.19374E-05
         0.24771E-05
         0.13686E-05
         0.16427E-05
         0.27456E-05
         0.19875E-05
         0.80266E-06
         0.15342E-05
         0.16907E-05
         0.13496E-05
         0.17463E-05
         0.32651E-05
         0.25575E-05
         0.32534E-05
         0.18993E-05
         0.21724E-05
         0.20466E-05
         0.22702E-05
         0.17393E-05
         0.10802E-05
         0.20430E-05
         0.17076E-05
         0.17469E-05
         0.18021E-05
         0.15784E-05
         0.19286E-05
         0.24600E-05
         0.17321E-05
         0.27685E-05
         0.24205E-05
         0.10819E-05
         0.16645E-05
         0.18909E-05
         0.19999E-05
         0.19341E-05
         0.15195E-05
         0.95452E-06
         0.15741E-05
         0.20866E-05
         0.16821E-05
         0.14772E-05
         0.96751E-06
         0.16542E-05
         0.22488E-05
         0.23637E-05
         0.19092E-05
         0.11715E-05
         0.20283E-05
         0.74247E-06
         0.94860E-06
         0.88066E-06
         0.10473E-05
         0.10250E-05
         0.99514E-06
         0.10648E-05
         0.11295E-05
         0.10615E-05
         0.82437E-06
         0.67052E-06
         0.86439E-06
         0.11533E-05
         0.12691E-05
         0.12159E-05
         0.10942E-05
         0.99310E-06
         0.80639E-06
         0.67783E-06
         0.88676E-06
         0.11748E-05
         0.12140E-05
         0.97859E-06
         0.79433E-06
         0.97767E-06
         0.11543E-05
         0.24636E-05
         0.19471E-05
         0.20980E-05
         0.36298E-05
         0.19377E-05
         0.24779E-05
         0.13679E-05
         0.16417E-05
         0.27466E-05
         0.19862E-05
         0.80189E-06
         0.15339E-05
         0.16906E-05
         0.13477E-05
         0.17459E-05
         0.32661E-05
         0.25587E-05
         0.32551E-05
         0.18994E-05
         0.21727E-05
         0.20465E-05
         0.22703E-05
         0.17392E-05
         0.10800E-05
         0.20421E-05
         0.17075E-05
         0.17443E-05
         0.18003E-05
         0.15777E-05
         0.19281E-05
         0.24602E-05
         0.17319E-05
         0.27700E-05
         0.24227E-05
         0.10819E-05
         0.16642E-05
         0.18906E-05
         0.19998E-05
         0.19342E-05
         0.15196E-05
         0.95453E-06
         0.15739E-05
         0.20865E-05
         0.16819E-05
         0.14768E-05
         0.96727E-06
         0.16541E-05
         0.22488E-05
         0.23640E-05
         0.19096E-05
         0.11715E-05
         0.20293E-05
         0.74225E-06
         0.94859E-06
         0.88023E-06
         0.10474E-05
         0.10253E-05
         0.99535E-06
         0.10653E-05
         0.11303E-05
         0.10621E-05
         0.82456E-06
         0.67057E-06
         0.86441E-06
         0.11535E-05
         0.12694E-05
         0.12160E-05
         0.10942E-05
         0.99304E-06
         0.80633E-06
         0.67773E-06
         0.88671E-06
         0.11748E-05
         0.12140E-05
         0.97840E-06
         0.79415E-06
         0.97780E-06
         0.11542E-05
         0.24637E-05
         0.19466E-05
         0.20982E-05
         0.36315E-05
         0.19380E-05
         0.24786E-05
         0.13671E-05
         0.16407E-05
         0.27475E-05
         0.19849E-05
         0.80110E-06
         0.15336E-05
         0.16905E-05
         0.13457E-05
         0.17455E-05
         0.32669E-05
         0.25598E-05
         0.32567E-05
         0.18994E-05
         0.21729E-05
         0.20464E-05
         0.22703E-05
         0.17390E-05
         0.10799E-05
         0.20412E-05
         0.17073E-05
         0.17416E-05
         0.17985E-05
         0.15770E-05
         0.19277E-05
         0.24604E-05
         0.17317E-05
         0.27714E-05
         0.24248E-05
         0.10819E-05
         0.16638E-05
         0.18903E-05
         0.19996E-05
         0.19343E-05
         0.15196E-05
         0.95451E-06
         0.15737E-05
         0.20864E-05
         0.16816E-05
         0.14765E-05
         0.96700E-06
         0.16539E-05
         0.22488E-05
         0.23644E-05
         0.19100E-05
         0.11715E-05
         0.20303E-05
         0.74200E-06
         0.94855E-06
         0.87978E-06
         0.10474E-05
         0.10255E-05
         0.99555E-06
         0.10657E-05
         0.11311E-05
         0.10627E-05
         0.82472E-06
         0.67061E-06
         0.86442E-06
         0.11536E-05
         0.12697E-05
         0.12161E-05
         0.10941E-05
         0.99295E-06
         0.80625E-06
         0.67761E-06
         0.88662E-06
         0.11748E-05
         0.12140E-05
         0.97818E-06
         0.79396E-06
         0.97790E-06
         0.11542E-05
         0.24639E-05
         0.19463E-05
         0.20984E-05
         0.36333E-05
         0.19383E-05
         0.24794E-05
         0.13664E-05
         0.16398E-05
         0.27485E-05
         0.19836E-05
         0.80034E-06
         0.15334E-05
         0.16904E-05
         0.13439E-05
         0.17452E-05
         0.32679E-05
         0.25610E-05
         0.32583E-05
         0.18995E-05
         0.21732E-05
         0.20463E-05
         0.22704E-05
         0.17388E-05
         0.10798E-05
         0.20404E-05
         0.17072E-05
         0.17389E-05
         0.17967E-05
         0.15763E-05
         0.19272E-05
         0.24607E-05
         0.17315E-05
         0.27729E-05
         0.24270E-05
         0.10819E-05
         0.16635E-05
         0.18901E-05
         0.19995E-05
         0.19345E-05
         0.15197E-05
         0.95453E-06
         0.15735E-05
         0.20863E-05
         0.16814E-05
         0.14761E-05
         0.96677E-06
         0.16538E-05
         0.22488E-05
         0.23647E-05
         0.19104E-05
         0.11716E-05
         0.20313E-05
         0.74179E-06
         0.94855E-06
         0.87936E-06
         0.10475E-05
         0.10257E-05
         0.99577E-06
         0.10662E-05
         0.11319E-05
         0.10633E-05
         0.82492E-06
         0.67068E-06
         0.86446E-06
         0.11538E-05
         0.12700E-05
         0.12163E-05
         0.10941E-05
         0.99291E-06
         0.80620E-06
         0.67752E-06
         0.88657E-06
         0.11748E-05
         0.12140E-05
         0.97800E-06
         0.79380E-06
         0.97803E-06
         0.11542E-05
         0.12320E-05
         0.97306E-06
         0.10493E-05
         0.18171E-05
         0.96926E-06
         0.12399E-05
         0.68306E-06
         0.81967E-06
         0.13745E-05
         0.99152E-06
         0.39999E-06
         0.76665E-06
         0.84519E-06
         0.67148E-06
         0.87252E-06
         0.16343E-05
         0.12808E-05
         0.16296E-05
         0.94981E-06
         0.10867E-05
         0.10232E-05
         0.11353E-05
         0.86940E-06
         0.53990E-06
         0.10200E-05
         0.85360E-06
         0.86884E-06
         0.89793E-06
         0.78802E-06
         0.96354E-06
         0.12305E-05
         0.86572E-06
         0.13869E-05
         0.12141E-05
         0.54095E-06
         0.83170E-06
         0.94503E-06
         0.99975E-06
         0.96729E-06
         0.75992E-06
         0.47728E-06
         0.78670E-06
         0.10432E-05
         0.84065E-06
         0.73800E-06
         0.48334E-06
         0.82688E-06
         0.11245E-05
         0.11825E-05
         0.95534E-06
         0.58581E-06
         0.10159E-05
         0.37085E-06
         0.47429E-06
         0.43959E-06
         0.52375E-06
         0.51294E-06
         0.49796E-06
         0.53322E-06
         0.56619E-06
         0.53185E-06
         0.41252E-06
         0.33536E-06
         0.43225E-06
         0.57696E-06
         0.63509E-06
         0.60820E-06
         0.54708E-06
         0.49646E-06
         0.40310E-06
         0.33875E-06
         0.44329E-06
         0.58740E-06
         0.60700E-06
         0.48897E-06
         0.39687E-06
         0.48906E-06
         0.57710E-06
  
SCALARS                 Poissons_ratio  double 1
LOOKUP_TABLE default
         0.30000E+00
         0.30000E+00
         0.30000E+00
         0.30000E+00
         0.30000E+00
         0.30000E+00
         0.30000E+00
         0.30000E+00
         0.30000E+00
         0.30000E+00
         0.30000E+00
         0.30000E+00
         0.30000E+00
         0.30000E+00
         0.30000E+00
         0.30000E+00
         0.30000E+00
         0.30000E+00
         0.30000E+00
         0.30000E+00
         0.30000E+00
         0.30000E+00
         0.30000E+00
         0.30000E+00
         0.30000E+00
         0.30000E+00
         0.30000E+00
         0.30000E+00
         0.30000E+00
         0.30000E+00
         0.30000E+00
         0.30000E+00
         0.30000E+00
         0.30000E+00
         0.30000E+00
         0.30000E+00
         0.30000E+00
         0.30000E+00
         0.30000E+00
         0.30000E+00
         0.30000E+00
         0.30000E+00
         0.30000E+00
         0.30000E+00
         0.30000E+00
         0.30000E+00
         0.30000E+00
         0.30000E+00
         0.30000E+00
         0.30000E+00
         0.30000E+00
         0.30000E+00
         0.30000E+00
         0.30000E+00
         0.30000E+00
         0.30000E+00
         0.30000E+00
         0.30000E+00
         0.30000E+00
         0.30000E+00
         0.30000E+00
         0.30000E+00
         0.30000E+00
         0.30000E+00
         0.30000E+00
         0.30000E+00
         0.30000E+00
         0.30000E+00
         0.30000E+00
         0.30000E+00
         0.30000E+00
         0.30000E+00
         0.30000E+00
         0.30000E+00
         0.30000E+00
         0.30000E+00
         0.30000E+00
         0.30000E+00
         0.30000E+00
         0.30000E+00
         0.30000E+00
         0.30000E+00
         0.30000E+00
         0.30000E+00
         0.30000E+00
         0.30000E+00
         0.30000E+00
         0.30000E+00
         0.30000E+00
         0.30000E+00
         0.30000E+00
         0.30000E+00
         0.30000E+00
         0.30000E+00
         0.30000E+00
         0.30000E+00
         0.30000E+00
         0.30000E+00
         0.30000E+00
         0.30000E+00
         0.30000E+00
         0.30000E+00
         0.30000E+00
         0.30000E+00
         0.30000E+00
         0.30000E+00
         0.30000E+00
         0.30000E+00
         0.30000E+00
         0.30000E+00
         0.30000E+00
         0.30000E+00
         0.30000E+00
         0.30000E+00
         0.30000E+00
         0.30000E+00
         0.30000E+00
         0.30000E+00
         0.30000E+00
         0.30000E+00
         0.30000E+00
         0.30000E+00
         0.30000E+00
         0.30000E+00
         0.30000E+00
         0.30000E+00
         0.30000E+00
         0.30000E+00
         0.30000E+00
         0.30000E+00
         0.30000E+00
         0.30000E+00
         0.30000E+00
         0.30000E+00
         0.30000E+00
         0.30000E+00
         0.30000E+00
         0.30000E+00
         0.30000E+00
         0.30000E+00
         0.30000E+00
         0.30000E+00
         0.30000E+00
         0.30000E+00
         0.30000E+00
         0.30000E+00
         0.30000E+00
         0.30000E+00
         0.30000E+00
         0.30000E+00
         0.30000E+00
         0.30000E+00
         0.30000E+00
         0.30000E+00
         0.30000E+00
         0.30000E+00
         0.30000E+00
         0.30000E+00
         0.30000E+00
         0.30000E+00
         0.30000E+00
         0.30000E+00
         0.30000E+00
         0.30000E+00
         0.30000E+00
         0.30000E+00
         0.30000E+00
         0.30000E+00
         0.30000E+00
         0.30000E+00
         0.30000E+00
         0.30000E+00
         0.30000E+00
         0.30000E+00
         0.30000E+00
         0.30000E+00
         0.30000E+00
         0.30000E+00
         0.30000E+00
         0.30000E+00
         0.30000E+00
         0.30000E+00
         0.30000E+00
         0.30000E+00
         0.30000E+00
         0.30000E+00
         0.30000E+00
         0.30000E+00
         0.30000E+00
         0.30000E+00
         0.30000E+00
         0.30000E+00
         0.30000E+00
         0.30000E+00
         0.30000E+00
         0.30000E+00
         0.30000E+00
         0.30000E+00
         0.30000E+00
         0.30000E+00
         0.30000E+00
         0.30000E+00
         0.30000E+00
         0.30000E+00
         0.30000E+00
         0.30000E+00
         0.30000E+00
         0.30000E+00
         0.30000E+00
         0.30000E+00
         0.30000E+00
         0.30000E+00
         0.30000E+00
         0.30000E+00
         0.30000E+00
         0.30000E+00
         0.30000E+00
         0.30000E+00
         0.30000E+00
         0.30000E+00
         0.30000E+00
         0.30000E+00
         0.30000E+00
         0.30000E+00
         0.30000E+00
         0.30000E+00
         0.30000E+00
         0.30000E+00
         0.30000E+00
         0.30000E+00
         0.30000E+00
         0.30000E+00
         0.30000E+00
         0.30000E+00
         0.30000E+00
         0.30000E+00
         0.30000E+00
         0.30000E+00
         0.30000E+00
         0.30000E+00
         0.30000E+00
         0.30000E+00
         0.30000E+00
         0.30000E+00
         0.30000E+00
         0.30000E+00
         0.30000E+00
         0.30000E+00
         0.30000E+00
         0.30000E+00
         0.30000E+00
         0.30000E+00
         0.30000E+00
         0.30000E+00
         0.30000E+00
         0.30000E+00
         0.30000E+00
         0.30000E+00
         0.30000E+00
         0.30000E+00
         0.30000E+00
         0.30000E+00
         0.30000E+00
         0.30000E+00
         0.30000E+00
         0.30000E+00
         0.30000E+00
         0.30000E+00
         0.30000E+00
         0.30000E+00
         0.30000E+00
         0.30000E+00
         0.30000E+00
         0.30000E+00
         0.30000E+00
         0.30000E+00
         0.30000E+00
         0.30000E+00
         0.30000E+00
         0.30000E+00
         0.30000E+00
         0.30000E+00
         0.30000E+00
         0.30000E+00
         0.30000E+00
         0.30000E+00
         0.30000E+00
         0.30000E+00
         0.30000E+00
         0.30000E+00
         0.30000E+00
         0.30000E+00
         0.30000E+00
         0.30000E+00
         0.30000E+00
         0.30000E+00
         0.30000E+00
         0.30000E+00
         0.30000E+00
         0.30000E+00
         0.30000E+00
         0.30000E+00
         0.30000E+00
         0.30000E+00
         0.30000E+00
         0.30000E+00
         0.30000E+00
         0.30000E+00
         0.30000E+00
         0.30000E+00
         0.30000E+00
         0.30000E+00
         0.30000E+00
         0.30000E+00
         0.30000E+00
         0.30000E+00
         0.30000E+00
         0.30000E+00
         0.30000E+00
         0.30000E+00
         0.30000E+00
         0.30000E+00
         0.30000E+00
         0.30000E+00
         0.30000E+00
         0.30000E+00
         0.30000E+00
         0.30000E+00
         0.30000E+00
         0.30000E+00
         0.30000E+00
         0.30000E+00
         0.30000E+00
         0.30000E+00
         0.30000E+00
         0.30000E+00
         0.30000E+00
         0.30000E+00
         0.30000E+00
         0.30000E+00
         0.30000E+00
         0.30000E+00
         0.30000E+00
         0.30000E+00
         0.30000E+00
         0.30000E+00
         0.30000E+00
         0.30000E+00
         0.30000E+00
         0.30000E+00
         0.30000E+00
         0.30000E+00
         0.30000E+00
         0.30000E+00
         0.30000E+00
         0.30000E+00
         0.30000E+00
         0.30000E+00
         0.30000E+00
         0.30000E+00
         0.30000E+00
         0.30000E+00
         0.30000E+00
         0.30000E+00
         0.30000E+00
         0.30000E+00
         0.30000E+00
         0.30000E+00
         0.30000E+00
         0.30000E+00
         0.30000E+00
         0.30000E+00
         0.30000E+00
         0.30000E+00
         0.30000E+00
         0.30000E+00
         0.30000E+00
         0.30000E+00
         0.30000E+00
         0.30000E+00
         0.30000E+00
         0.30000E+00
         0.30000E+00
         0.30000E+00
         0.30000E+00
         0.30000E+00
         0.30000E+00
         0.30000E+00
         0.30000E+00
         0.30000E+00
         0.30000E+00
         0.30000E+00
         0.30000E+00
         0.30000E+00
         0.30000E+00
         0.30000E+00
         0.30000E+00
         0.30000E+00
         0.30000E+00
         0.30000E+00
         0.30000E+00
         0.30000E+00
         0.30000E+00
         0.30000E+00
         0.30000E+00
         0.30000E+00
         0.30000E+00
         0.30000E+00
         0.30000E+00
         0.30000E+00
         0.30000E+00
         0.30000E+00
         0.30000E+00
         0.30000E+00
         0.30000E+00
         0.30000E+00
         0.30000E+00
         0.30000E+00
         0.30000E+00
         0.30000E+00
         0.30000E+00
         0.30000E+00
         0.30000E+00
         0.30000E+00
         0.30000E+00
         0.30000E+00
         0.30000E+00
         0.30000E+00
         0.30000E+00
         0.30000E+00
         0.30000E+00
         0.30000E+00
         0.30000E+00
         0.30000E+00
         0.30000E+00
         0.30000E+00
         0.30000E+00
         0.30000E+00
         0.30000E+00
         0.30000E+00
         0.30000E+00
         0.30000E+00
         0.30000E+00
         0.30000E+00
         0.30000E+00
         0.30000E+00
         0.30000E+00
         0.30000E+00
         0.30000E+00
         0.30000E+00
         0.30000E+00
         0.30000E+00
         0.30000E+00
         0.30000E+00
         0.30000E+00
         0.30000E+00
         0.30000E+00
         0.30000E+00
         0.30000E+00
         0.30000E+00
         0.30000E+00
         0.30000E+00
         0.30000E+00
         0.30000E+00
         0.30000E+00
         0.30000E+00
         0.30000E+00
         0.30000E+00
         0.30000E+00
         0.30000E+00
         0.30000E+00
         0.30000E+00
         0.30000E+00
         0.30000E+00
         0.30000E+00
         0.30000E+00
         0.30000E+00
         0.30000E+00
         0.30000E+00
         0.30000E+00
         0.30000E+00
         0.30000E+00
         0.30000E+00
         0.30000E+00
         0.30000E+00
         0.30000E+00
         0.30000E+00
         0.30000E+00
         0.30000E+00
         0.30000E+00
         0.30000E+00
         0.30000E+00
         0.30000E+00
         0.30000E+00
         0.30000E+00
         0.30000E+00
         0.30000E+00
         0.30000E+00
         0.30000E+00
         0.30000E+00
         0.30000E+00
         0.30000E+00
         0.30000E+00
         0.30000E+00
         0.30000E+00
         0.30000E+00
         0.30000E+00
         0.30000E+00
         0.30000E+00
         0.30000E+00
         0.30000E+00
         0.30000E+00
         0.30000E+00
         0.30000E+00
         0.30000E+00
         0.30000E+00
         0.30000E+00
         0.30000E+00
         0.30000E+00
         0.30000E+00
         0.30000E+00
         0.30000E+00
         0.30000E+00
         0.30000E+00
         0.30000E+00
         0.30000E+00
         0.30000E+00
         0.30000E+00
         0.30000E+00
         0.30000E+00
         0.30000E+00
         0.30000E+00
         0.30000E+00
         0.30000E+00
         0.30000E+00
         0.30000E+00
         0.30000E+00
         0.30000E+00
         0.30000E+00
         0.30000E+00
         0.30000E+00
         0.30000E+00
         0.30000E+00
         0.30000E+00
         0.30000E+00
         0.30000E+00
         0.30000E+00
         0.30000E+00
         0.30000E+00
         0.30000E+00
         0.30000E+00
         0.30000E+00
         0.30000E+00
         0.30000E+00
         0.30000E+00
         0.30000E+00
         0.30000E+00
         0.30000E+00
         0.30000E+00
         0.30000E+00
         0.30000E+00
         0.30000E+00
         0.30000E+00
         0.30000E+00
         0.30000E+00
         0.30000E+00
         0.30000E+00
         0.30000E+00
         0.30000E+00
         0.30000E+00
         0.30000E+00
         0.30000E+00
         0.30000E+00
         0.30000E+00
         0.30000E+00
         0.30000E+00
         0.30000E+00
         0.30000E+00
         0.30000E+00
         0.30000E+00
         0.30000E+00
         0.30000E+00
         0.30000E+00
         0.30000E+00
         0.30000E+00
         0.30000E+00
         0.30000E+00
         0.30000E+00
         0.30000E+00
         0.30000E+00
         0.30000E+00
         0.30000E+00
         0.30000E+00
         0.30000E+00
         0.30000E+00
         0.30000E+00
         0.30000E+00
         0.30000E+00
         0.30000E+00
         0.30000E+00
         0.30000E+00
         0.30000E+00
         0.30000E+00
         0.30000E+00
         0.30000E+00
         0.30000E+00
         0.30000E+00
         0.30000E+00
         0.30000E+00
         0.30000E+00
         0.30000E+00
         0.30000E+00
         0.30000E+00
         0.30000E+00
         0.30000E+00
         0.30000E+00
         0.30000E+00
         0.30000E+00
         0.30000E+00
         0.30000E+00
         0.30000E+00
         0.30000E+00
         0.30000E+00
         0.30000E+00
         0.30000E+00
         0.30000E+00
         0.30000E+00
         0.30000E+00
         0.30000E+00
         0.30000E+00
         0.30000E+00
         0.30000E+00
         0.30000E+00
         0.30000E+00
         0.30000E+00
         0.30000E+00
         0.30000E+00
         0.30000E+00
         0.30000E+00
         0.30000E+00
         0.30000E+00
         0.30000E+00
         0.30000E+00
         0.30000E+00
         0.30000E+00
         0.30000E+00
         0.30000E+00
         0.30000E+00
         0.30000E+00
         0.30000E+00
         0.30000E+00
         0.30000E+00
         0.30000E+00
         0.30000E+00
         0.30000E+00
         0.30000E+00
         0.30000E+00
         0.30000E+00
         0.30000E+00
         0.30000E+00
         0.30000E+00
         0.30000E+00
         0.30000E+00
         0.30000E+00
         0.30000E+00
         0.30000E+00
         0.30000E+00
         0.30000E+00
         0.30000E+00
         0.30000E+00
         0.30000E+00
         0.30000E+00
         0.30000E+00
         0.30000E+00
         0.30000E+00
         0.30000E+00
         0.30000E+00
         0.30000E+00
         0.30000E+00
         0.30000E+00
         0.30000E+00
         0.30000E+00
         0.30000E+00
         0.30000E+00
         0.30000E+00
         0.30000E+00
         0.30000E+00
         0.30000E+00
         0.30000E+00
         0.30000E+00
         0.30000E+00
         0.30000E+00
         0.30000E+00
         0.30000E+00
         0.30000E+00
         0.30000E+00
         0.30000E+00
         0.30000E+00
         0.30000E+00
         0.30000E+00
         0.30000E+00
         0.30000E+00
         0.30000E+00
         0.30000E+00
         0.30000E+00
         0.30000E+00
         0.30000E+00
         0.30000E+00
         0.30000E+00
         0.30000E+00
         0.30000E+00
         0.30000E+00
         0.30000E+00
         0.30000E+00
         0.30000E+00
         0.30000E+00
         0.30000E+00
         0.30000E+00
         0.30000E+00
         0.30000E+00
         0.30000E+00
         0.30000E+00
         0.30000E+00
         0.30000E+00
         0.30000E+00
         0.30000E+00
         0.30000E+00
         0.30000E+00
         0.30000E+00
         0.30000E+00
         0.30000E+00
         0.30000E+00
         0.30000E+00
         0.30000E+00
         0.30000E+00
         0.30000E+00
         0.30000E+00
         0.30000E+00
         0.30000E+00
         0.30000E+00
         0.30000E+00
         0.30000E+00
         0.30000E+00
         0.30000E+00
         0.30000E+00
         0.30000E+00
         0.30000E+00
         0.30000E+00
         0.30000E+00
         0.30000E+00
         0.30000E+00
         0.30000E+00
         0.30000E+00
         0.30000E+00
         0.30000E+00
         0.30000E+00
         0.30000E+00
         0.30000E+00
         0.30000E+00
         0.30000E+00
         0.30000E+00
         0.30000E+00
         0.30000E+00
         0.30000E+00
         0.30000E+00
         0.30000E+00
         0.30000E+00
         0.30000E+00
         0.30000E+00
         0.30000E+00
         0.30000E+00
         0.30000E+00
         0.30000E+00
         0.30000E+00
         0.30000E+00
         0.30000E+00
         0.30000E+00
         0.30000E+00
         0.30000E+00
         0.30000E+00
         0.30000E+00
         0.30000E+00
         0.30000E+00
         0.30000E+00
         0.30000E+00
         0.30000E+00
         0.30000E+00
         0.30000E+00
         0.30000E+00
         0.30000E+00
         0.30000E+00
         0.30000E+00
         0.30000E+00
         0.30000E+00
         0.30000E+00
         0.30000E+00
         0.30000E+00
         0.30000E+00
         0.30000E+00
         0.30000E+00
         0.30000E+00
         0.30000E+00
         0.30000E+00
         0.30000E+00
         0.30000E+00
         0.30000E+00
         0.30000E+00
         0.30000E+00
         0.30000E+00
         0.30000E+00
         0.30000E+00
         0.30000E+00
         0.30000E+00
         0.30000E+00
         0.30000E+00
         0.30000E+00
         0.30000E+00
         0.30000E+00
         0.30000E+00
         0.30000E+00
         0.30000E+00
         0.30000E+00
         0.30000E+00
         0.30000E+00
         0.30000E+00
         0.30000E+00
         0.30000E+00
         0.30000E+00
         0.30000E+00
         0.30000E+00
         0.30000E+00
         0.30000E+00
         0.30000E+00
         0.30000E+00
         0.30000E+00
         0.30000E+00
         0.30000E+00
         0.30000E+00
         0.30000E+00
         0.30000E+00
         0.30000E+00
         0.30000E+00
         0.30000E+00
         0.30000E+00
         0.30000E+00
         0.30000E+00
         0.30000E+00
         0.30000E+00
         0.30000E+00
         0.30000E+00
         0.30000E+00
         0.30000E+00
         0.30000E+00
         0.30000E+00
         0.30000E+00
         0.30000E+00
         0.30000E+00
         0.30000E+00
         0.30000E+00
         0.30000E+00
         0.30000E+00
         0.30000E+00
         0.30000E+00
         0.30000E+00
         0.30000E+00
         0.30000E+00
         0.30000E+00
         0.30000E+00
         0.30000E+00
         0.30000E+00
         0.30000E+00
         0.30000E+00
         0.30000E+00
         0.30000E+00
         0.30000E+00
         0.30000E+00
         0.30000E+00
         0.30000E+00
         0.30000E+00
         0.30000E+00
         0.30000E+00
         0.30000E+00
         0.30000E+00
         0.30000E+00
         0.30000E+00
         0.30000E+00
         0.30000E+00
         0.30000E+00
         0.30000E+00
         0.30000E+00
         0.30000E+00
         0.30000E+00
         0.30000E+00
         0.30000E+00
         0.30000E+00
         0.30000E+00
         0.30000E+00
         0.30000E+00
         0.30000E+00
         0.30000E+00
         0.30000E+00
         0.30000E+00
         0.30000E+00
         0.30000E+00
         0.30000E+00
         0.30000E+00
         0.30000E+00
         0.30000E+00
         0.30000E+00
         0.30000E+00
         0.30000E+00
         0.30000E+00
         0.30000E+00
         0.30000E+00
         0.30000E+00
         0.30000E+00
         0.30000E+00
         0.30000E+00
         0.30000E+00
         0.30000E+00
         0.30000E+00
         0.30000E+00
         0.30000E+00
         0.30000E+00
         0.30000E+00
         0.30000E+00
         0.30000E+00
         0.30000E+00
         0.30000E+00
         0.30000E+00
         0.30000E+00
         0.30000E+00
         0.30000E+00
         0.30000E+00
         0.30000E+00
         0.30000E+00
         0.30000E+00
         0.30000E+00
         0.30000E+00
         0.30000E+00
         0.30000E+00
         0.30000E+00
         0.30000E+00
         0.30000E+00
         0.30000E+00
         0.30000E+00
         0.30000E+00
         0.30000E+00
         0.30000E+00
         0.30000E+00
         0.30000E+00
         0.30000E+00
         0.30000E+00
         0.30000E+00
         0.30000E+00
         0.30000E+00
         0.30000E+00
         0.30000E+00
         0.30000E+00
         0.30000E+00
         0.30000E+00
         0.30000E+00
         0.30000E+00
         0.30000E+00
         0.30000E+00
         0.30000E+00
         0.30000E+00
         0.30000E+00
         0.30000E+00
         0.30000E+00
         0.30000E+00
         0.30000E+00
         0.30000E+00
         0.30000E+00
         0.30000E+00
         0.30000E+00
         0.30000E+00
         0.30000E+00
         0.30000E+00
         0.30000E+00
         0.30000E+00
         0.30000E+00
         0.30000E+00
         0.30000E+00
         0.30000E+00
         0.30000E+00
         0.30000E+00
         0.30000E+00
         0.30000E+00
         0.30000E+00
         0.30000E+00
         0.30000E+00
         0.30000E+00
         0.30000E+00
         0.30000E+00
         0.30000E+00
         0.30000E+00
         0.30000E+00
         0.30000E+00
         0.30000E+00
         0.30000E+00
         0.30000E+00
         0.30000E+00
         0.30000E+00
         0.30000E+00
         0.30000E+00
         0.30000E+00
         0.30000E+00
         0.30000E+00
         0.30000E+00
         0.30000E+00
         0.30000E+00
         0.30000E+00
         0.30000E+00
         0.30000E+00
         0.30000E+00
         0.30000E+00
         0.30000E+00
         0.30000E+00
         0.30000E+00
         0.30000E+00
         0.30000E+00
         0.30000E+00
         0.30000E+00
         0.30000E+00
         0.30000E+00
         0.30000E+00
         0.30000E+00
         0.30000E+00
         0.30000E+00
         0.30000E+00
         0.30000E+00
         0.30000E+00
         0.30000E+00
         0.30000E+00
         0.30000E+00
         0.30000E+00
         0.30000E+00
         0.30000E+00
         0.30000E+00
         0.30000E+00
         0.30000E+00
         0.30000E+00
         0.30000E+00
         0.30000E+00
         0.30000E+00
         0.30000E+00
         0.30000E+00
         0.30000E+00
         0.30000E+00
         0.30000E+00
         0.30000E+00
         0.30000E+00
         0.30000E+00
         0.30000E+00
         0.30000E+00
         0.30000E+00
         0.30000E+00
         0.30000E+00
         0.30000E+00
         0.30000E+00
         0.30000E+00
         0.30000E+00
         0.30000E+00
         0.30000E+00
         0.30000E+00
         0.30000E+00
         0.30000E+00
         0.30000E+00
         0.30000E+00
         0.30000E+00
         0.30000E+00
         0.30000E+00
         0.30000E+00
         0.30000E+00
         0.30000E+00
         0.30000E+00
         0.30000E+00
         0.30000E+00
         0.30000E+00
         0.30000E+00
         0.30000E+00
         0.30000E+00
         0.30000E+00
         0.30000E+00
         0.30000E+00
         0.30000E+00
         0.30000E+00
         0.30000E+00
         0.30000E+00
         0.30000E+00
         0.30000E+00
         0.30000E+00
         0.30000E+00
         0.30000E+00
         0.30000E+00
         0.30000E+00
         0.30000E+00
         0.30000E+00
         0.30000E+00
         0.30000E+00
         0.30000E+00
         0.30000E+00
         0.30000E+00
         0.30000E+00
         0.30000E+00
         0.30000E+00
         0.30000E+00
         0.30000E+00
         0.30000E+00
         0.30000E+00
         0.30000E+00
         0.30000E+00
         0.30000E+00
         0.30000E+00
         0.30000E+00
         0.30000E+00
         0.30000E+00
         0.30000E+00
         0.30000E+00
         0.30000E+00
         0.30000E+00
         0.30000E+00
         0.30000E+00
         0.30000E+00
         0.30000E+00
         0.30000E+00
         0.30000E+00
         0.30000E+00
         0.30000E+00
         0.30000E+00
         0.30000E+00
         0.30000E+00
         0.30000E+00
         0.30000E+00
         0.30000E+00
         0.30000E+00
         0.30000E+00
         0.30000E+00
         0.30000E+00
         0.30000E+00
         0.30000E+00
         0.30000E+00
         0.30000E+00
         0.30000E+00
         0.30000E+00
         0.30000E+00
         0.30000E+00
         0.30000E+00
         0.30000E+00
         0.30000E+00
         0.30000E+00
         0.30000E+00
         0.30000E+00
         0.30000E+00
         0.30000E+00
         0.30000E+00
         0.30000E+00
         0.30000E+00
         0.30000E+00
         0.30000E+00
         0.30000E+00
         0.30000E+00
         0.30000E+00
         0.30000E+00
         0.30000E+00
         0.30000E+00
         0.30000E+00
         0.30000E+00
         0.30000E+00
         0.30000E+00
         0.30000E+00
         0.30000E+00
         0.30000E+00
         0.30000E+00
         0.30000E+00
         0.30000E+00
         0.30000E+00
         0.30000E+00
         0.30000E+00
         0.30000E+00
         0.30000E+00
         0.30000E+00
         0.30000E+00
         0.30000E+00
         0.30000E+00
         0.30000E+00
         0.30000E+00
         0.30000E+00
         0.30000E+00
         0.30000E+00
         0.30000E+00
         0.30000E+00
         0.30000E+00
         0.30000E+00
         0.30000E+00
         0.30000E+00
         0.30000E+00
         0.30000E+00
         0.30000E+00
         0.30000E+00
         0.30000E+00
         0.30000E+00
         0.30000E+00
         0.30000E+00
         0.30000E+00
         0.30000E+00
         0.30000E+00
         0.30000E+00
         0.30000E+00
         0.30000E+00
         0.30000E+00
         0.30000E+00
         0.30000E+00
         0.30000E+00
         0.30000E+00
         0.30000E+00
         0.30000E+00
         0.30000E+00
         0.30000E+00
         0.30000E+00
         0.30000E+00
         0.30000E+00
         0.30000E+00
         0.30000E+00
         0.30000E+00
         0.30000E+00
         0.30000E+00
         0.30000E+00
         0.30000E+00
         0.30000E+00
         0.30000E+00
         0.30000E+00
         0.30000E+00
         0.30000E+00
         0.30000E+00
         0.30000E+00
         0.30000E+00
         0.30000E+00
         0.30000E+00
         0.30000E+00
         0.30000E+00
         0.30000E+00
         0.30000E+00
         0.30000E+00
         0.30000E+00
         0.30000E+00
         0.30000E+00
         0.30000E+00
         0.30000E+00
         0.30000E+00
         0.30000E+00
         0.30000E+00
         0.30000E+00
         0.30000E+00
         0.30000E+00
         0.30000E+00
         0.30000E+00
         0.30000E+00
         0.30000E+00
         0.30000E+00
         0.30000E+00
         0.30000E+00
         0.30000E+00
         0.30000E+00
         0.30000E+00
         0.30000E+00
         0.30000E+00
         0.30000E+00
         0.30000E+00
         0.30000E+00
         0.30000E+00
         0.30000E+00
         0.30000E+00
         0.30000E+00
         0.30000E+00
         0.30000E+00
         0.30000E+00
         0.30000E+00
         0.30000E+00
         0.30000E+00
         0.30000E+00
         0.30000E+00
         0.30000E+00
         0.30000E+00
         0.30000E+00
         0.30000E+00
         0.30000E+00
         0.30000E+00
         0.30000E+00
         0.30000E+00
         0.30000E+00
         0.30000E+00
         0.30000E+00
         0.30000E+00
         0.30000E+00
         0.30000E+00
         0.30000E+00
         0.30000E+00
         0.30000E+00
         0.30000E+00
         0.30000E+00
         0.30000E+00
         0.30000E+00
         0.30000E+00
         0.30000E+00
         0.30000E+00
         0.30000E+00
         0.30000E+00
         0.30000E+00
         0.30000E+00
         0.30000E+00
         0.30000E+00
         0.30000E+00
         0.30000E+00
         0.30000E+00
         0.30000E+00
         0.30000E+00
         0.30000E+00
         0.30000E+00
         0.30000E+00
         0.30000E+00
         0.30000E+00
         0.30000E+00
         0.30000E+00
         0.30000E+00
         0.30000E+00
         0.30000E+00
         0.30000E+00
         0.30000E+00
         0.30000E+00
         0.30000E+00
         0.30000E+00
         0.30000E+00
         0.30000E+00
         0.30000E+00
         0.30000E+00
         0.30000E+00
         0.30000E+00
         0.30000E+00
         0.30000E+00
         0.30000E+00
         0.30000E+00
         0.30000E+00
         0.30000E+00
         0.30000E+00
         0.30000E+00
         0.30000E+00
         0.30000E+00
         0.30000E+00
         0.30000E+00
         0.30000E+00
         0.30000E+00
         0.30000E+00
         0.30000E+00
         0.30000E+00
         0.30000E+00
         0.30000E+00
         0.30000E+00
         0.30000E+00
         0.30000E+00
         0.30000E+00
         0.30000E+00
         0.30000E+00
         0.30000E+00
         0.30000E+00
         0.30000E+00
         0.30000E+00
         0.30000E+00
         0.30000E+00
         0.30000E+00
         0.30000E+00
         0.30000E+00
         0.30000E+00
         0.30000E+00
         0.30000E+00
         0.30000E+00
         0.30000E+00
         0.30000E+00
         0.30000E+00
         0.30000E+00
         0.30000E+00
         0.30000E+00
         0.30000E+00
         0.30000E+00
         0.30000E+00
         0.30000E+00
         0.30000E+00
         0.30000E+00
         0.30000E+00
         0.30000E+00
         0.30000E+00
         0.30000E+00
         0.30000E+00
         0.30000E+00
         0.30000E+00
         0.30000E+00
         0.30000E+00
         0.30000E+00
         0.30000E+00
         0.30000E+00
         0.30000E+00
         0.30000E+00
         0.30000E+00
         0.30000E+00
         0.30000E+00
         0.30000E+00
         0.30000E+00
         0.30000E+00
         0.30000E+00
         0.30000E+00
         0.30000E+00
         0.30000E+00
         0.30000E+00
         0.30000E+00
         0.30000E+00
         0.30000E+00
         0.30000E+00
         0.30000E+00
         0.30000E+00
         0.30000E+00
         0.30000E+00
         0.30000E+00
         0.30000E+00
         0.30000E+00
         0.30000E+00
         0.30000E+00
         0.30000E+00
         0.30000E+00
         0.30000E+00
         0.30000E+00
         0.30000E+00
         0.30000E+00
         0.30000E+00
         0.30000E+00
         0.30000E+00
         0.30000E+00
         0.30000E+00
         0.30000E+00
         0.30000E+00
         0.30000E+00
         0.30000E+00
         0.30000E+00
         0.30000E+00
         0.30000E+00
         0.30000E+00
         0.30000E+00
         0.30000E+00
         0.30000E+00
         0.30000E+00
         0.30000E+00
         0.30000E+00
         0.30000E+00
         0.30000E+00
         0.30000E+00
         0.30000E+00
         0.30000E+00
         0.30000E+00
         0.30000E+00
         0.30000E+00
         0.30000E+00
         0.30000E+00
         0.30000E+00
         0.30000E+00
         0.30000E+00
         0.30000E+00
         0.30000E+00
         0.30000E+00
         0.30000E+00
         0.30000E+00
         0.30000E+00
         0.30000E+00
         0.30000E+00
         0.30000E+00
         0.30000E+00
         0.30000E+00
         0.30000E+00
         0.30000E+00
         0.30000E+00
         0.30000E+00
         0.30000E+00
         0.30000E+00
         0.30000E+00
         0.30000E+00
         0.30000E+00
         0.30000E+00
         0.30000E+00
         0.30000E+00
         0.30000E+00
         0.30000E+00
         0.30000E+00
         0.30000E+00
         0.30000E+00
         0.30000E+00
         0.30000E+00
         0.30000E+00
         0.30000E+00
         0.30000E+00
         0.30000E+00
         0.30000E+00
         0.30000E+00
         0.30000E+00
         0.30000E+00
         0.30000E+00
         0.30000E+00
         0.30000E+00
         0.30000E+00
         0.30000E+00
         0.30000E+00
         0.30000E+00
         0.30000E+00
         0.30000E+00
         0.30000E+00
         0.30000E+00
         0.30000E+00
         0.30000E+00
         0.30000E+00
         0.30000E+00
         0.30000E+00
         0.30000E+00
         0.30000E+00
         0.30000E+00
         0.30000E+00
         0.30000E+00
         0.30000E+00
         0.30000E+00
         0.30000E+00
         0.30000E+00
         0.30000E+00
         0.30000E+00
         0.30000E+00
         0.30000E+00
         0.30000E+00
         0.30000E+00
         0.30000E+00
         0.30000E+00
         0.30000E+00
         0.30000E+00
         0.30000E+00
         0.30000E+00
         0.30000E+00
         0.30000E+00
         0.30000E+00
         0.30000E+00
         0.30000E+00
         0.30000E+00
         0.30000E+00
         0.30000E+00
         0.30000E+00
         0.30000E+00
         0.30000E+00
         0.30000E+00
         0.30000E+00
         0.30000E+00
         0.30000E+00
         0.30000E+00
         0.30000E+00
         0.30000E+00
         0.30000E+00
         0.30000E+00
         0.30000E+00
         0.30000E+00
         0.30000E+00
         0.30000E+00
         0.30000E+00
         0.30000E+00
         0.30000E+00
         0.30000E+00
         0.30000E+00
         0.30000E+00
         0.30000E+00
         0.30000E+00
         0.30000E+00
         0.30000E+00
         0.30000E+00
         0.30000E+00
         0.30000E+00
         0.30000E+00
         0.30000E+00
         0.30000E+00
         0.30000E+00
         0.30000E+00
         0.30000E+00
         0.30000E+00
         0.30000E+00
         0.30000E+00
         0.30000E+00
         0.30000E+00
         0.30000E+00
         0.30000E+00
         0.30000E+00
         0.30000E+00
         0.30000E+00
         0.30000E+00
         0.30000E+00
         0.30000E+00
         0.30000E+00
         0.30000E+00
         0.30000E+00
         0.30000E+00
         0.30000E+00
         0.30000E+00
         0.30000E+00
         0.30000E+00
         0.30000E+00
         0.30000E+00
         0.30000E+00
         0.30000E+00
         0.30000E+00
         0.30000E+00
         0.30000E+00
         0.30000E+00
         0.30000E+00
         0.30000E+00
         0.30000E+00
         0.30000E+00
         0.30000E+00
         0.30000E+00
         0.30000E+00
         0.30000E+00
         0.30000E+00
         0.30000E+00
         0.30000E+00
         0.30000E+00
         0.30000E+00
         0.30000E+00
         0.30000E+00
         0.30000E+00
         0.30000E+00
         0.30000E+00
         0.30000E+00
         0.30000E+00
         0.30000E+00
         0.30000E+00
         0.30000E+00
         0.30000E+00
         0.30000E+00
         0.30000E+00
         0.30000E+00
         0.30000E+00
         0.30000E+00
         0.30000E+00
         0.30000E+00
         0.30000E+00
         0.30000E+00
         0.30000E+00
         0.30000E+00
         0.30000E+00
         0.30000E+00
         0.30000E+00
         0.30000E+00
         0.30000E+00
         0.30000E+00
         0.30000E+00
         0.30000E+00
         0.30000E+00
         0.30000E+00
         0.30000E+00
         0.30000E+00
         0.30000E+00
         0.30000E+00
         0.30000E+00
         0.30000E+00
         0.30000E+00
         0.30000E+00
         0.30000E+00
         0.30000E+00
         0.30000E+00
         0.30000E+00
         0.30000E+00
         0.30000E+00
         0.30000E+00
         0.30000E+00
         0.30000E+00
         0.30000E+00
         0.30000E+00
         0.30000E+00
         0.30000E+00
         0.30000E+00
         0.30000E+00
         0.30000E+00
         0.30000E+00
         0.30000E+00
         0.30000E+00
         0.30000E+00
         0.30000E+00
         0.30000E+00
         0.30000E+00
         0.30000E+00
         0.30000E+00
         0.30000E+00
         0.30000E+00
         0.30000E+00
         0.30000E+00
         0.30000E+00
         0.30000E+00
         0.30000E+00
         0.30000E+00
         0.30000E+00
         0.30000E+00
         0.30000E+00
         0.30000E+00
         0.30000E+00
         0.30000E+00
         0.30000E+00
         0.30000E+00
         0.30000E+00
         0.30000E+00
         0.30000E+00
         0.30000E+00
         0.30000E+00
         0.30000E+00
         0.30000E+00
         0.30000E+00
         0.30000E+00
         0.30000E+00
         0.30000E+00
         0.30000E+00
         0.30000E+00
         0.30000E+00
         0.30000E+00
         0.30000E+00
         0.30000E+00
         0.30000E+00
         0.30000E+00
         0.30000E+00
         0.30000E+00
         0.30000E+00
         0.30000E+00
         0.30000E+00
         0.30000E+00
         0.30000E+00
         0.30000E+00
         0.30000E+00
         0.30000E+00
         0.30000E+00
         0.30000E+00
         0.30000E+00
         0.30000E+00
         0.30000E+00
         0.30000E+00
         0.30000E+00
         0.30000E+00
         0.30000E+00
         0.30000E+00
         0.30000E+00
         0.30000E+00
         0.30000E+00
         0.30000E+00
         0.30000E+00
         0.30000E+00
         0.30000E+00
         0.30000E+00
         0.30000E+00
         0.30000E+00
         0.30000E+00
         0.30000E+00
         0.30000E+00
         0.30000E+00
         0.30000E+00
         0.30000E+00
         0.30000E+00
         0.30000E+00
         0.30000E+00
         0.30000E+00
         0.30000E+00
         0.30000E+00
         0.30000E+00
         0.30000E+00
         0.30000E+00
         0.30000E+00
         0.30000E+00
         0.30000E+00
         0.30000E+00
         0.30000E+00
         0.30000E+00
         0.30000E+00
         0.30000E+00
         0.30000E+00
         0.30000E+00
         0.30000E+00
         0.30000E+00
         0.30000E+00
         0.30000E+00
         0.30000E+00
         0.30000E+00
         0.30000E+00
         0.30000E+00
         0.30000E+00
         0.30000E+00
         0.30000E+00
         0.30000E+00
         0.30000E+00
         0.30000E+00
         0.30000E+00
         0.30000E+00
         0.30000E+00
         0.30000E+00
         0.30000E+00
         0.30000E+00
         0.30000E+00
         0.30000E+00
         0.30000E+00
         0.30000E+00
         0.30000E+00
         0.30000E+00
         0.30000E+00
         0.30000E+00
         0.30000E+00
         0.30000E+00
         0.30000E+00
         0.30000E+00
         0.30000E+00
         0.30000E+00
         0.30000E+00
         0.30000E+00
         0.30000E+00
         0.30000E+00
         0.30000E+00
         0.30000E+00
         0.30000E+00
         0.30000E+00
         0.30000E+00
         0.30000E+00
         0.30000E+00
         0.30000E+00
         0.30000E+00
         0.30000E+00
         0.30000E+00
         0.30000E+00
         0.30000E+00
         0.30000E+00
         0.30000E+00
         0.30000E+00
         0.30000E+00
         0.30000E+00
         0.30000E+00
         0.30000E+00
         0.30000E+00
         0.30000E+00
         0.30000E+00
         0.30000E+00
         0.30000E+00
         0.30000E+00
         0.30000E+00
         0.30000E+00
         0.30000E+00
         0.30000E+00
         0.30000E+00
         0.30000E+00
         0.30000E+00
         0.30000E+00
         0.30000E+00
         0.30000E+00
         0.30000E+00
         0.30000E+00
         0.30000E+00
         0.30000E+00
         0.30000E+00
         0.30000E+00
         0.30000E+00
         0.30000E+00
         0.30000E+00
         0.30000E+00
         0.30000E+00
         0.30000E+00
         0.30000E+00
         0.30000E+00
         0.30000E+00
         0.30000E+00
         0.30000E+00
         0.30000E+00
         0.30000E+00
         0.30000E+00
         0.30000E+00
         0.30000E+00
         0.30000E+00
         0.30000E+00
         0.30000E+00
         0.30000E+00
         0.30000E+00
         0.30000E+00
         0.30000E+00
         0.30000E+00
         0.30000E+00
         0.30000E+00
         0.30000E+00
         0.30000E+00
         0.30000E+00
         0.30000E+00
         0.30000E+00
         0.30000E+00
         0.30000E+00
         0.30000E+00
         0.30000E+00
         0.30000E+00
         0.30000E+00
         0.30000E+00
         0.30000E+00
         0.30000E+00
         0.30000E+00
         0.30000E+00
         0.30000E+00
         0.30000E+00
         0.30000E+00
         0.30000E+00
         0.30000E+00
         0.30000E+00
         0.30000E+00
         0.30000E+00
         0.30000E+00
         0.30000E+00
         0.30000E+00
         0.30000E+00
         0.30000E+00
         0.30000E+00
         0.30000E+00
         0.30000E+00
         0.30000E+00
         0.30000E+00
         0.30000E+00
         0.30000E+00
         0.30000E+00
         0.30000E+00
         0.30000E+00
         0.30000E+00
         0.30000E+00
         0.30000E+00
         0.30000E+00
         0.30000E+00
         0.30000E+00
         0.30000E+00
         0.30000E+00
         0.30000E+00
         0.30000E+00
         0.30000E+00
         0.30000E+00
         0.30000E+00
         0.30000E+00
         0.30000E+00
         0.30000E+00
         0.30000E+00
         0.30000E+00
         0.30000E+00
         0.30000E+00
         0.30000E+00
         0.30000E+00
         0.30000E+00
         0.30000E+00
         0.30000E+00
  
SCALARS                 Youngs_modulus  double 1
LOOKUP_TABLE default
         0.78200E+11
         0.78200E+11
         0.78200E+11
         0.78200E+11
         0.78200E+11
         0.78200E+11
         0.78200E+11
         0.78200E+11
         0.78200E+11
         0.78200E+11
         0.78200E+11
         0.78200E+11
         0.78200E+11
         0.78200E+11
         0.78200E+11
         0.78200E+11
         0.78200E+11
         0.78200E+11
         0.78200E+11
         0.78200E+11
         0.78200E+11
         0.78200E+11
         0.78200E+11
         0.78200E+11
         0.78200E+11
         0.78200E+11
         0.78200E+11
         0.78200E+11
         0.78200E+11
         0.78200E+11
         0.78200E+11
         0.78200E+11
         0.78200E+11
         0.78200E+11
         0.78200E+11
         0.78200E+11
         0.78200E+11
         0.78200E+11
         0.78200E+11
         0.78200E+11
         0.78200E+11
         0.78200E+11
         0.78200E+11
         0.78200E+11
         0.78200E+11
         0.78200E+11
         0.78200E+11
         0.78200E+11
         0.78200E+11
         0.78200E+11
         0.78200E+11
         0.78200E+11
         0.78200E+11
         0.78200E+11
         0.78200E+11
         0.78200E+11
         0.78200E+11
         0.78200E+11
         0.78200E+11
         0.78200E+11
         0.78200E+11
         0.78200E+11
         0.78200E+11
         0.78200E+11
         0.78200E+11
         0.78200E+11
         0.78200E+11
         0.78200E+11
         0.78200E+11
         0.78200E+11
         0.78200E+11
         0.78200E+11
         0.78200E+11
         0.78200E+11
         0.78200E+11
         0.78200E+11
         0.78200E+11
         0.78200E+11
         0.78200E+11
         0.78200E+11
         0.78200E+11
         0.78200E+11
         0.78200E+11
         0.78200E+11
         0.78200E+11
         0.78200E+11
         0.78200E+11
         0.78200E+11
         0.78200E+11
         0.78200E+11
         0.78200E+11
         0.78200E+11
         0.78200E+11
         0.78200E+11
         0.78200E+11
         0.78200E+11
         0.78200E+11
         0.78200E+11
         0.78200E+11
         0.78200E+11
         0.78200E+11
         0.78200E+11
         0.78200E+11
         0.78200E+11
         0.78200E+11
         0.78200E+11
         0.78200E+11
         0.78200E+11
         0.78200E+11
         0.78200E+11
         0.78200E+11
         0.78200E+11
         0.78200E+11
         0.78200E+11
         0.78200E+11
         0.78200E+11
         0.78200E+11
         0.78200E+11
         0.78200E+11
         0.78200E+11
         0.78200E+11
         0.78200E+11
         0.78200E+11
         0.78200E+11
         0.78200E+11
         0.78200E+11
         0.78200E+11
         0.78200E+11
         0.78200E+11
         0.78200E+11
         0.78200E+11
         0.78200E+11
         0.78200E+11
         0.78200E+11
         0.78200E+11
         0.78200E+11
         0.78200E+11
         0.78200E+11
         0.78200E+11
         0.78200E+11
         0.78200E+11
         0.78200E+11
         0.78200E+11
         0.78200E+11
         0.78200E+11
         0.78200E+11
         0.78200E+11
         0.78200E+11
         0.78200E+11
         0.78200E+11
         0.78200E+11
         0.78200E+11
         0.78200E+11
         0.78200E+11
         0.78200E+11
         0.78200E+11
         0.78200E+11
         0.78200E+11
         0.78200E+11
         0.78200E+11
         0.78200E+11
         0.78200E+11
         0.78200E+11
         0.78200E+11
         0.78200E+11
         0.78200E+11
         0.78200E+11
         0.78200E+11
         0.78200E+11
         0.78200E+11
         0.78200E+11
         0.78200E+11
         0.78200E+11
         0.78200E+11
         0.78200E+11
         0.78200E+11
         0.78200E+11
         0.78200E+11
         0.78200E+11
         0.78200E+11
         0.78200E+11
         0.78200E+11
         0.78200E+11
         0.78200E+11
         0.78200E+11
         0.78200E+11
         0.78200E+11
         0.78200E+11
         0.78200E+11
         0.78200E+11
         0.78200E+11
         0.78200E+11
         0.78200E+11
         0.78200E+11
         0.78200E+11
         0.78200E+11
         0.78200E+11
         0.78200E+11
         0.78200E+11
         0.78200E+11
         0.78200E+11
         0.78200E+11
         0.78200E+11
         0.78200E+11
         0.78200E+11
         0.78200E+11
         0.78200E+11
         0.78200E+11
         0.78200E+11
         0.78200E+11
         0.78200E+11
         0.78200E+11
         0.78200E+11
         0.78200E+11
         0.78200E+11
         0.78200E+11
         0.78200E+11
         0.78200E+11
         0.78200E+11
         0.78200E+11
         0.78200E+11
         0.78200E+11
         0.78200E+11
         0.78200E+11
         0.78200E+11
         0.78200E+11
         0.78200E+11
         0.78200E+11
         0.78200E+11
         0.78200E+11
         0.78200E+11
         0.78200E+11
         0.78200E+11
         0.78200E+11
         0.78200E+11
         0.78200E+11
         0.78200E+11
         0.78200E+11
         0.78200E+11
         0.78200E+11
         0.78200E+11
         0.78200E+11
         0.78200E+11
         0.78200E+11
         0.78200E+11
         0.78200E+11
         0.78200E+11
         0.78200E+11
         0.78200E+11
         0.78200E+11
         0.78200E+11
         0.78200E+11
         0.78200E+11
         0.78200E+11
         0.78200E+11
         0.78200E+11
         0.78200E+11
         0.78200E+11
         0.78200E+11
         0.78200E+11
         0.78200E+11
         0.78200E+11
         0.78200E+11
         0.78200E+11
         0.78200E+11
         0.78200E+11
         0.78200E+11
         0.78200E+11
         0.78200E+11
         0.78200E+11
         0.78200E+11
         0.78200E+11
         0.78200E+11
         0.78200E+11
         0.78200E+11
         0.78200E+11
         0.78200E+11
         0.78200E+11
         0.78200E+11
         0.78200E+11
         0.78200E+11
         0.78200E+11
         0.78200E+11
         0.78200E+11
         0.78200E+11
         0.78200E+11
         0.78200E+11
         0.78200E+11
         0.78200E+11
         0.78200E+11
         0.78200E+11
         0.78200E+11
         0.78200E+11
         0.78200E+11
         0.78200E+11
         0.78200E+11
         0.78200E+11
         0.78200E+11
         0.78200E+11
         0.78200E+11
         0.78200E+11
         0.78200E+11
         0.78200E+11
         0.78200E+11
         0.78200E+11
         0.78200E+11
         0.78200E+11
         0.78200E+11
         0.78200E+11
         0.78200E+11
         0.78200E+11
         0.78200E+11
         0.78200E+11
         0.78200E+11
         0.78200E+11
         0.78200E+11
         0.78200E+11
         0.78200E+11
         0.78200E+11
         0.78200E+11
         0.78200E+11
         0.78200E+11
         0.78200E+11
         0.78200E+11
         0.78200E+11
         0.78200E+11
         0.78200E+11
         0.78200E+11
         0.78200E+11
         0.78200E+11
         0.78200E+11
         0.78200E+11
         0.78200E+11
         0.78200E+11
         0.78200E+11
         0.78200E+11
         0.78200E+11
         0.78200E+11
         0.78200E+11
         0.78200E+11
         0.78200E+11
         0.78200E+11
         0.78200E+11
         0.78200E+11
         0.78200E+11
         0.78200E+11
         0.78200E+11
         0.78200E+11
         0.78200E+11
         0.78200E+11
         0.78200E+11
         0.78200E+11
         0.78200E+11
         0.78200E+11
         0.78200E+11
         0.78200E+11
         0.78200E+11
         0.78200E+11
         0.78200E+11
         0.78200E+11
         0.78200E+11
         0.78200E+11
         0.78200E+11
         0.78200E+11
         0.78200E+11
         0.78200E+11
         0.78200E+11
         0.78200E+11
         0.78200E+11
         0.78200E+11
         0.78200E+11
         0.78200E+11
         0.78200E+11
         0.78200E+11
         0.78200E+11
         0.78200E+11
         0.78200E+11
         0.78200E+11
         0.78200E+11
         0.78200E+11
         0.78200E+11
         0.78200E+11
         0.78200E+11
         0.78200E+11
         0.78200E+11
         0.78200E+11
         0.78200E+11
         0.78200E+11
         0.78200E+11
         0.78200E+11
         0.78200E+11
         0.78200E+11
         0.78200E+11
         0.78200E+11
         0.78200E+11
         0.78200E+11
         0.78200E+11
         0.78200E+11
         0.78200E+11
         0.78200E+11
         0.78200E+11
         0.78200E+11
         0.78200E+11
         0.78200E+11
         0.78200E+11
         0.78200E+11
         0.78200E+11
         0.78200E+11
         0.78200E+11
         0.78200E+11
         0.78200E+11
         0.78200E+11
         0.78200E+11
         0.78200E+11
         0.78200E+11
         0.78200E+11
         0.78200E+11
         0.78200E+11
         0.78200E+11
         0.78200E+11
         0.78200E+11
         0.78200E+11
         0.78200E+11
         0.78200E+11
         0.78200E+11
         0.78200E+11
         0.78200E+11
         0.78200E+11
         0.78200E+11
         0.78200E+11
         0.78200E+11
         0.78200E+11
         0.78200E+11
         0.78200E+11
         0.78200E+11
         0.78200E+11
         0.78200E+11
         0.78200E+11
         0.78200E+11
         0.78200E+11
         0.78200E+11
         0.78200E+11
         0.78200E+11
         0.78200E+11
         0.78200E+11
         0.78200E+11
         0.78200E+11
         0.78200E+11
         0.78200E+11
         0.78200E+11
         0.78200E+11
         0.78200E+11
         0.78200E+11
         0.78200E+11
         0.78200E+11
         0.78200E+11
         0.78200E+11
         0.78200E+11
         0.78200E+11
         0.78200E+11
         0.78200E+11
         0.78200E+11
         0.78200E+11
         0.78200E+11
         0.78200E+11
         0.78200E+11
         0.78200E+11
         0.78200E+11
         0.78200E+11
         0.78200E+11
         0.78200E+11
         0.78200E+11
         0.78200E+11
         0.78200E+11
         0.78200E+11
         0.78200E+11
         0.78200E+11
         0.78200E+11
         0.78200E+11
         0.78200E+11
         0.78200E+11
         0.78200E+11
         0.78200E+11
         0.78200E+11
         0.78200E+11
         0.78200E+11
         0.78200E+11
         0.78200E+11
         0.78200E+11
         0.78200E+11
         0.78200E+11
         0.78200E+11
         0.78200E+11
         0.78200E+11
         0.78200E+11
         0.78200E+11
         0.78200E+11
         0.78200E+11
         0.78200E+11
         0.78200E+11
         0.78200E+11
         0.78200E+11
         0.78200E+11
         0.78200E+11
         0.78200E+11
         0.78200E+11
         0.78200E+11
         0.78200E+11
         0.78200E+11
         0.78200E+11
         0.78200E+11
         0.78200E+11
         0.78200E+11
         0.78200E+11
         0.78200E+11
         0.78200E+11
         0.78200E+11
         0.78200E+11
         0.78200E+11
         0.78200E+11
         0.78200E+11
         0.78200E+11
         0.78200E+11
         0.78200E+11
         0.78200E+11
         0.78200E+11
         0.78200E+11
         0.78200E+11
         0.78200E+11
         0.78200E+11
         0.78200E+11
         0.78200E+11
         0.78200E+11
         0.78200E+11
         0.78200E+11
         0.78200E+11
         0.78200E+11
         0.78200E+11
         0.78200E+11
         0.78200E+11
         0.78200E+11
         0.78200E+11
         0.78200E+11
         0.78200E+11
         0.78200E+11
         0.78200E+11
         0.78200E+11
         0.78200E+11
         0.78200E+11
         0.78200E+11
         0.78200E+11
         0.78200E+11
         0.78200E+11
         0.78200E+11
         0.78200E+11
         0.78200E+11
         0.78200E+11
         0.78200E+11
         0.78200E+11
         0.78200E+11
         0.78200E+11
         0.78200E+11
         0.78200E+11
         0.78200E+11
         0.78200E+11
         0.78200E+11
         0.78200E+11
         0.78200E+11
         0.78200E+11
         0.78200E+11
         0.78200E+11
         0.78200E+11
         0.78200E+11
         0.78200E+11
         0.78200E+11
         0.78200E+11
         0.78200E+11
         0.78200E+11
         0.78200E+11
         0.78200E+11
         0.78200E+11
         0.78200E+11
         0.78200E+11
         0.78200E+11
         0.78200E+11
         0.78200E+11
         0.78200E+11
         0.78200E+11
         0.78200E+11
         0.78200E+11
         0.78200E+11
         0.78200E+11
         0.78200E+11
         0.78200E+11
         0.78200E+11
         0.78200E+11
         0.78200E+11
         0.78200E+11
         0.78200E+11
         0.78200E+11
         0.78200E+11
         0.78200E+11
         0.78200E+11
         0.78200E+11
         0.78200E+11
         0.78200E+11
         0.78200E+11
         0.78200E+11
         0.78200E+11
         0.78200E+11
         0.78200E+11
         0.78200E+11
         0.78200E+11
         0.78200E+11
         0.78200E+11
         0.78200E+11
         0.78200E+11
         0.78200E+11
         0.78200E+11
         0.78200E+11
         0.78200E+11
         0.78200E+11
         0.78200E+11
         0.78200E+11
         0.78200E+11
         0.78200E+11
         0.78200E+11
         0.78200E+11
         0.78200E+11
         0.78200E+11
         0.78200E+11
         0.78200E+11
         0.78200E+11
         0.78200E+11
         0.78200E+11
         0.78200E+11
         0.78200E+11
         0.78200E+11
         0.78200E+11
         0.78200E+11
         0.78200E+11
         0.78200E+11
         0.78200E+11
         0.78200E+11
         0.78200E+11
         0.78200E+11
         0.78200E+11
         0.78200E+11
         0.78200E+11
         0.78200E+11
         0.78200E+11
         0.78200E+11
         0.78200E+11
         0.78200E+11
         0.78200E+11
         0.78200E+11
         0.78200E+11
         0.78200E+11
         0.78200E+11
         0.78200E+11
         0.78200E+11
         0.78200E+11
         0.78200E+11
         0.78200E+11
         0.78200E+11
         0.78200E+11
         0.78200E+11
         0.78200E+11
         0.78200E+11
         0.78200E+11
         0.78200E+11
         0.78200E+11
         0.78200E+11
         0.78200E+11
         0.78200E+11
         0.78200E+11
         0.78200E+11
         0.78200E+11
         0.78200E+11
         0.78200E+11
         0.78200E+11
         0.78200E+11
         0.78200E+11
         0.78200E+11
         0.78200E+11
         0.78200E+11
         0.78200E+11
         0.78200E+11
         0.78200E+11
         0.78200E+11
         0.78200E+11
         0.78200E+11
         0.78200E+11
         0.78200E+11
         0.78200E+11
         0.78200E+11
         0.78200E+11
         0.78200E+11
         0.78200E+11
         0.78200E+11
         0.78200E+11
         0.78200E+11
         0.78200E+11
         0.78200E+11
         0.78200E+11
         0.78200E+11
         0.78200E+11
         0.78200E+11
         0.78200E+11
         0.78200E+11
         0.78200E+11
         0.78200E+11
         0.78200E+11
         0.78200E+11
         0.78200E+11
         0.78200E+11
         0.78200E+11
         0.78200E+11
         0.78200E+11
         0.78200E+11
         0.78200E+11
         0.78200E+11
         0.78200E+11
         0.78200E+11
         0.78200E+11
         0.78200E+11
         0.78200E+11
         0.78200E+11
         0.78200E+11
         0.78200E+11
         0.78200E+11
         0.78200E+11
         0.78200E+11
         0.78200E+11
         0.78200E+11
         0.78200E+11
         0.78200E+11
         0.78200E+11
         0.78200E+11
         0.78200E+11
         0.78200E+11
         0.78200E+11
         0.78200E+11
         0.78200E+11
         0.78200E+11
         0.78200E+11
         0.78200E+11
         0.78200E+11
         0.78200E+11
         0.78200E+11
         0.78200E+11
         0.78200E+11
         0.78200E+11
         0.78200E+11
         0.78200E+11
         0.78200E+11
         0.78200E+11
         0.78200E+11
         0.78200E+11
         0.78200E+11
         0.78200E+11
         0.78200E+11
         0.78200E+11
         0.78200E+11
         0.78200E+11
         0.78200E+11
         0.78200E+11
         0.78200E+11
         0.78200E+11
         0.78200E+11
         0.78200E+11
         0.78200E+11
         0.78200E+11
         0.78200E+11
         0.78200E+11
         0.78200E+11
         0.78200E+11
         0.78200E+11
         0.78200E+11
         0.78200E+11
         0.78200E+11
         0.78200E+11
         0.78200E+11
         0.78200E+11
         0.78200E+11
         0.78200E+11
         0.78200E+11
         0.78200E+11
         0.78200E+11
         0.78200E+11
         0.78200E+11
         0.78200E+11
         0.78200E+11
         0.78200E+11
         0.78200E+11
         0.78200E+11
         0.78200E+11
         0.78200E+11
         0.78200E+11
         0.78200E+11
         0.78200E+11
         0.78200E+11
         0.78200E+11
         0.78200E+11
         0.78200E+11
         0.78200E+11
         0.78200E+11
         0.78200E+11
         0.78200E+11
         0.78200E+11
         0.78200E+11
         0.78200E+11
         0.78200E+11
         0.78200E+11
         0.78200E+11
         0.78200E+11
         0.78200E+11
         0.78200E+11
         0.78200E+11
         0.78200E+11
         0.78200E+11
         0.78200E+11
         0.78200E+11
         0.78200E+11
         0.78200E+11
         0.78200E+11
         0.78200E+11
         0.78200E+11
         0.78200E+11
         0.78200E+11
         0.78200E+11
         0.78200E+11
         0.78200E+11
         0.78200E+11
         0.78200E+11
         0.78200E+11
         0.78200E+11
         0.78200E+11
         0.78200E+11
         0.78200E+11
         0.78200E+11
         0.78200E+11
         0.78200E+11
         0.78200E+11
         0.78200E+11
         0.78200E+11
         0.78200E+11
         0.78200E+11
         0.78200E+11
         0.78200E+11
         0.78200E+11
         0.78200E+11
         0.78200E+11
         0.78200E+11
         0.78200E+11
         0.78200E+11
         0.78200E+11
         0.78200E+11
         0.78200E+11
         0.78200E+11
         0.78200E+11
         0.78200E+11
         0.78200E+11
         0.78200E+11
         0.78200E+11
         0.78200E+11
         0.78200E+11
         0.78200E+11
         0.78200E+11
         0.78200E+11
         0.78200E+11
         0.78200E+11
         0.78200E+11
         0.78200E+11
         0.78200E+11
         0.78200E+11
         0.78200E+11
         0.78200E+11
         0.78200E+11
         0.78200E+11
         0.78200E+11
         0.78200E+11
         0.78200E+11
         0.78200E+11
         0.78200E+11
         0.78200E+11
         0.78200E+11
         0.78200E+11
         0.78200E+11
         0.78200E+11
         0.78200E+11
         0.78200E+11
         0.78200E+11
         0.78200E+11
         0.78200E+11
         0.78200E+11
         0.78200E+11
         0.78200E+11
         0.78200E+11
         0.78200E+11
         0.78200E+11
         0.78200E+11
         0.78200E+11
         0.78200E+11
         0.78200E+11
         0.78200E+11
         0.78200E+11
         0.78200E+11
         0.78200E+11
         0.78200E+11
         0.78200E+11
         0.78200E+11
         0.78200E+11
         0.78200E+11
         0.78200E+11
         0.78200E+11
         0.78200E+11
         0.78200E+11
         0.78200E+11
         0.78200E+11
         0.78200E+11
         0.78200E+11
         0.78200E+11
         0.78200E+11
         0.78200E+11
         0.78200E+11
         0.78200E+11
         0.78200E+11
         0.78200E+11
         0.78200E+11
         0.78200E+11
         0.78200E+11
         0.78200E+11
         0.78200E+11
         0.78200E+11
         0.78200E+11
         0.78200E+11
         0.78200E+11
         0.78200E+11
         0.78200E+11
         0.78200E+11
         0.78200E+11
         0.78200E+11
         0.78200E+11
         0.78200E+11
         0.78200E+11
         0.78200E+11
         0.78200E+11
         0.78200E+11
         0.78200E+11
         0.78200E+11
         0.78200E+11
         0.78200E+11
         0.78200E+11
         0.78200E+11
         0.78200E+11
         0.78200E+11
         0.78200E+11
         0.78200E+11
         0.78200E+11
         0.78200E+11
         0.78200E+11
         0.78200E+11
         0.78200E+11
         0.78200E+11
         0.78200E+11
         0.78200E+11
         0.78200E+11
         0.78200E+11
         0.78200E+11
         0.78200E+11
         0.78200E+11
         0.78200E+11
         0.78200E+11
         0.78200E+11
         0.78200E+11
         0.78200E+11
         0.78200E+11
         0.78200E+11
         0.78200E+11
         0.78200E+11
         0.78200E+11
         0.78200E+11
         0.78200E+11
         0.78200E+11
         0.78200E+11
         0.78200E+11
         0.78200E+11
         0.78200E+11
         0.78200E+11
         0.78200E+11
         0.78200E+11
         0.78200E+11
         0.78200E+11
         0.78200E+11
         0.78200E+11
         0.78200E+11
         0.78200E+11
         0.78200E+11
         0.78200E+11
         0.78200E+11
         0.78200E+11
         0.78200E+11
         0.78200E+11
         0.78200E+11
         0.78200E+11
         0.78200E+11
         0.78200E+11
         0.78200E+11
         0.78200E+11
         0.78200E+11
         0.78200E+11
         0.78200E+11
         0.78200E+11
         0.78200E+11
         0.78200E+11
         0.78200E+11
         0.78200E+11
         0.78200E+11
         0.78200E+11
         0.78200E+11
         0.78200E+11
         0.78200E+11
         0.78200E+11
         0.78200E+11
         0.78200E+11
         0.78200E+11
         0.78200E+11
         0.78200E+11
         0.78200E+11
         0.78200E+11
         0.78200E+11
         0.78200E+11
         0.78200E+11
         0.78200E+11
         0.78200E+11
         0.78200E+11
         0.78200E+11
         0.78200E+11
         0.78200E+11
         0.78200E+11
         0.78200E+11
         0.78200E+11
         0.78200E+11
         0.78200E+11
         0.78200E+11
         0.78200E+11
         0.78200E+11
         0.78200E+11
         0.78200E+11
         0.78200E+11
         0.78200E+11
         0.78200E+11
         0.78200E+11
         0.78200E+11
         0.78200E+11
         0.78200E+11
         0.78200E+11
         0.78200E+11
         0.78200E+11
         0.78200E+11
         0.78200E+11
         0.78200E+11
         0.78200E+11
         0.78200E+11
         0.78200E+11
         0.78200E+11
         0.78200E+11
         0.78200E+11
         0.78200E+11
         0.78200E+11
         0.78200E+11
         0.78200E+11
         0.78200E+11
         0.78200E+11
         0.78200E+11
         0.78200E+11
         0.78200E+11
         0.78200E+11
         0.78200E+11
         0.78200E+11
         0.78200E+11
         0.78200E+11
         0.78200E+11
         0.78200E+11
         0.78200E+11
         0.78200E+11
         0.78200E+11
         0.78200E+11
         0.78200E+11
         0.78200E+11
         0.78200E+11
         0.78200E+11
         0.78200E+11
         0.78200E+11
         0.78200E+11
         0.78200E+11
         0.78200E+11
         0.78200E+11
         0.78200E+11
         0.78200E+11
         0.78200E+11
         0.78200E+11
         0.78200E+11
         0.78200E+11
         0.78200E+11
         0.78200E+11
         0.78200E+11
         0.78200E+11
         0.78200E+11
         0.78200E+11
         0.78200E+11
         0.78200E+11
         0.78200E+11
         0.78200E+11
         0.78200E+11
         0.78200E+11
         0.78200E+11
         0.78200E+11
         0.78200E+11
         0.78200E+11
         0.78200E+11
         0.78200E+11
         0.78200E+11
         0.78200E+11
         0.78200E+11
         0.78200E+11
         0.78200E+11
         0.78200E+11
         0.78200E+11
         0.78200E+11
         0.78200E+11
         0.78200E+11
         0.78200E+11
         0.78200E+11
         0.78200E+11
         0.78200E+11
         0.78200E+11
         0.78200E+11
         0.78200E+11
         0.78200E+11
         0.78200E+11
         0.78200E+11
         0.78200E+11
         0.78200E+11
         0.78200E+11
         0.78200E+11
         0.78200E+11
         0.78200E+11
         0.78200E+11
         0.78200E+11
         0.78200E+11
         0.78200E+11
         0.78200E+11
         0.78200E+11
         0.78200E+11
         0.78200E+11
         0.78200E+11
         0.78200E+11
         0.78200E+11
         0.78200E+11
         0.78200E+11
         0.78200E+11
         0.78200E+11
         0.78200E+11
         0.78200E+11
         0.78200E+11
         0.78200E+11
         0.78200E+11
         0.78200E+11
         0.78200E+11
         0.78200E+11
         0.78200E+11
         0.78200E+11
         0.78200E+11
         0.78200E+11
         0.78200E+11
         0.78200E+11
         0.78200E+11
         0.78200E+11
         0.78200E+11
         0.78200E+11
         0.78200E+11
         0.78200E+11
         0.78200E+11
         0.78200E+11
         0.78200E+11
         0.78200E+11
         0.78200E+11
         0.78200E+11
         0.78200E+11
         0.78200E+11
         0.78200E+11
         0.78200E+11
         0.78200E+11
         0.78200E+11
         0.78200E+11
         0.78200E+11
         0.78200E+11
         0.78200E+11
         0.78200E+11
         0.78200E+11
         0.78200E+11
         0.78200E+11
         0.78200E+11
         0.78200E+11
         0.78200E+11
         0.78200E+11
         0.78200E+11
         0.78200E+11
         0.78200E+11
         0.78200E+11
         0.78200E+11
         0.78200E+11
         0.78200E+11
         0.78200E+11
         0.78200E+11
         0.78200E+11
         0.78200E+11
         0.78200E+11
         0.78200E+11
         0.78200E+11
         0.78200E+11
         0.78200E+11
         0.78200E+11
         0.78200E+11
         0.78200E+11
         0.78200E+11
         0.78200E+11
         0.78200E+11
         0.78200E+11
         0.78200E+11
         0.78200E+11
         0.78200E+11
         0.78200E+11
         0.78200E+11
         0.78200E+11
         0.78200E+11
         0.78200E+11
         0.78200E+11
         0.78200E+11
         0.78200E+11
         0.78200E+11
         0.78200E+11
         0.78200E+11
         0.78200E+11
         0.78200E+11
         0.78200E+11
         0.78200E+11
         0.78200E+11
         0.78200E+11
         0.78200E+11
         0.78200E+11
         0.78200E+11
         0.78200E+11
         0.78200E+11
         0.78200E+11
         0.78200E+11
         0.78200E+11
         0.78200E+11
         0.78200E+11
         0.78200E+11
         0.78200E+11
         0.78200E+11
         0.78200E+11
         0.78200E+11
         0.78200E+11
         0.78200E+11
         0.78200E+11
         0.78200E+11
         0.78200E+11
         0.78200E+11
         0.78200E+11
         0.78200E+11
         0.78200E+11
         0.78200E+11
         0.78200E+11
         0.78200E+11
         0.78200E+11
         0.78200E+11
         0.78200E+11
         0.78200E+11
         0.78200E+11
         0.78200E+11
         0.78200E+11
         0.78200E+11
         0.78200E+11
         0.78200E+11
         0.78200E+11
         0.78200E+11
         0.78200E+11
         0.78200E+11
         0.78200E+11
         0.78200E+11
         0.78200E+11
         0.78200E+11
         0.78200E+11
         0.78200E+11
         0.78200E+11
         0.78200E+11
         0.78200E+11
         0.78200E+11
         0.78200E+11
         0.78200E+11
         0.78200E+11
         0.78200E+11
         0.78200E+11
         0.78200E+11
         0.78200E+11
         0.78200E+11
         0.78200E+11
         0.78200E+11
         0.78200E+11
         0.78200E+11
         0.78200E+11
         0.78200E+11
         0.78200E+11
         0.78200E+11
         0.78200E+11
         0.78200E+11
         0.78200E+11
         0.78200E+11
         0.78200E+11
         0.78200E+11
         0.78200E+11
         0.78200E+11
         0.78200E+11
         0.78200E+11
         0.78200E+11
         0.78200E+11
         0.78200E+11
         0.78200E+11
         0.78200E+11
         0.78200E+11
         0.78200E+11
         0.78200E+11
         0.78200E+11
         0.78200E+11
         0.78200E+11
         0.78200E+11
         0.78200E+11
         0.78200E+11
         0.78200E+11
         0.78200E+11
         0.78200E+11
         0.78200E+11
         0.78200E+11
         0.78200E+11
         0.78200E+11
         0.78200E+11
         0.78200E+11
         0.78200E+11
         0.78200E+11
         0.78200E+11
         0.78200E+11
         0.78200E+11
         0.78200E+11
         0.78200E+11
         0.78200E+11
         0.78200E+11
         0.78200E+11
         0.78200E+11
         0.78200E+11
         0.78200E+11
         0.78200E+11
         0.78200E+11
         0.78200E+11
         0.78200E+11
         0.78200E+11
         0.78200E+11
         0.78200E+11
         0.78200E+11
         0.78200E+11
         0.78200E+11
         0.78200E+11
         0.78200E+11
         0.78200E+11
         0.78200E+11
         0.78200E+11
         0.78200E+11
         0.78200E+11
         0.78200E+11
         0.78200E+11
         0.78200E+11
         0.78200E+11
         0.78200E+11
         0.78200E+11
         0.78200E+11
         0.78200E+11
         0.78200E+11
         0.78200E+11
         0.78200E+11
         0.78200E+11
         0.78200E+11
         0.78200E+11
         0.78200E+11
         0.78200E+11
         0.78200E+11
         0.78200E+11
         0.78200E+11
         0.78200E+11
         0.78200E+11
         0.78200E+11
         0.78200E+11
         0.78200E+11
         0.78200E+11
         0.78200E+11
         0.78200E+11
         0.78200E+11
         0.78200E+11
         0.78200E+11
         0.78200E+11
         0.78200E+11
         0.78200E+11
         0.78200E+11
         0.78200E+11
         0.78200E+11
         0.78200E+11
         0.78200E+11
         0.78200E+11
         0.78200E+11
         0.78200E+11
         0.78200E+11
         0.78200E+11
         0.78200E+11
         0.78200E+11
         0.78200E+11
         0.78200E+11
         0.78200E+11
         0.78200E+11
         0.78200E+11
         0.78200E+11
         0.78200E+11
         0.78200E+11
         0.78200E+11
         0.78200E+11
         0.78200E+11
         0.78200E+11
         0.78200E+11
         0.78200E+11
         0.78200E+11
         0.78200E+11
         0.78200E+11
         0.78200E+11
         0.78200E+11
         0.78200E+11
         0.78200E+11
         0.78200E+11
         0.78200E+11
         0.78200E+11
         0.78200E+11
         0.78200E+11
         0.78200E+11
         0.78200E+11
         0.78200E+11
         0.78200E+11
         0.78200E+11
         0.78200E+11
         0.78200E+11
         0.78200E+11
         0.78200E+11
         0.78200E+11
         0.78200E+11
         0.78200E+11
         0.78200E+11
         0.78200E+11
         0.78200E+11
         0.78200E+11
         0.78200E+11
         0.78200E+11
         0.78200E+11
         0.78200E+11
         0.78200E+11
         0.78200E+11
         0.78200E+11
         0.78200E+11
         0.78200E+11
         0.78200E+11
         0.78200E+11
         0.78200E+11
         0.78200E+11
         0.78200E+11
         0.78200E+11
         0.78200E+11
         0.78200E+11
         0.78200E+11
         0.78200E+11
         0.78200E+11
         0.78200E+11
         0.78200E+11
         0.78200E+11
         0.78200E+11
         0.78200E+11
         0.78200E+11
         0.78200E+11
         0.78200E+11
         0.78200E+11
         0.78200E+11
         0.78200E+11
         0.78200E+11
         0.78200E+11
         0.78200E+11
         0.78200E+11
         0.78200E+11
         0.78200E+11
         0.78200E+11
         0.78200E+11
         0.78200E+11
         0.78200E+11
         0.78200E+11
         0.78200E+11
         0.78200E+11
         0.78200E+11
         0.78200E+11
         0.78200E+11
         0.78200E+11
         0.78200E+11
         0.78200E+11
         0.78200E+11
         0.78200E+11
         0.78200E+11
         0.78200E+11
         0.78200E+11
         0.78200E+11
         0.78200E+11
         0.78200E+11
         0.78200E+11
         0.78200E+11
         0.78200E+11
         0.78200E+11
         0.78200E+11
         0.78200E+11
         0.78200E+11
         0.78200E+11
         0.78200E+11
         0.78200E+11
         0.78200E+11
         0.78200E+11
         0.78200E+11
         0.78200E+11
         0.78200E+11
         0.78200E+11
         0.78200E+11
         0.78200E+11
         0.78200E+11
         0.78200E+11
         0.78200E+11
         0.78200E+11
         0.78200E+11
         0.78200E+11
         0.78200E+11
         0.78200E+11
         0.78200E+11
         0.78200E+11
         0.78200E+11
         0.78200E+11
         0.78200E+11
         0.78200E+11
         0.78200E+11
         0.78200E+11
         0.78200E+11
         0.78200E+11
         0.78200E+11
         0.78200E+11
         0.78200E+11
         0.78200E+11
         0.78200E+11
         0.78200E+11
         0.78200E+11
         0.78200E+11
         0.78200E+11
         0.78200E+11
         0.78200E+11
         0.78200E+11
         0.78200E+11
         0.78200E+11
         0.78200E+11
         0.78200E+11
         0.78200E+11
         0.78200E+11
         0.78200E+11
         0.78200E+11
         0.78200E+11
         0.78200E+11
         0.78200E+11
         0.78200E+11
         0.78200E+11
         0.78200E+11
         0.78200E+11
         0.78200E+11
         0.78200E+11
         0.78200E+11
         0.78200E+11
         0.78200E+11
         0.78200E+11
         0.78200E+11
         0.78200E+11
         0.78200E+11
         0.78200E+11
         0.78200E+11
         0.78200E+11
         0.78200E+11
         0.78200E+11
         0.78200E+11
         0.78200E+11
         0.78200E+11
         0.78200E+11
         0.78200E+11
         0.78200E+11
         0.78200E+11
         0.78200E+11
         0.78200E+11
         0.78200E+11
         0.78200E+11
         0.78200E+11
         0.78200E+11
         0.78200E+11
         0.78200E+11
         0.78200E+11
         0.78200E+11
         0.78200E+11
         0.78200E+11
         0.78200E+11
         0.78200E+11
         0.78200E+11
         0.78200E+11
         0.78200E+11
         0.78200E+11
         0.78200E+11
         0.78200E+11
         0.78200E+11
         0.78200E+11
         0.78200E+11
         0.78200E+11
         0.78200E+11
         0.78200E+11
         0.78200E+11
         0.78200E+11
         0.78200E+11
         0.78200E+11
         0.78200E+11
         0.78200E+11
         0.78200E+11
         0.78200E+11
         0.78200E+11
         0.78200E+11
         0.78200E+11
         0.78200E+11
         0.78200E+11
         0.78200E+11
         0.78200E+11
         0.78200E+11
         0.78200E+11
         0.78200E+11
         0.78200E+11
         0.78200E+11
         0.78200E+11
         0.78200E+11
         0.78200E+11
         0.78200E+11
         0.78200E+11
         0.78200E+11
         0.78200E+11
         0.78200E+11
         0.78200E+11
         0.78200E+11
         0.78200E+11
         0.78200E+11
         0.78200E+11
         0.78200E+11
         0.78200E+11
         0.78200E+11
         0.78200E+11
         0.78200E+11
         0.78200E+11
         0.78200E+11
         0.78200E+11
         0.78200E+11
         0.78200E+11
         0.78200E+11
         0.78200E+11
         0.78200E+11
         0.78200E+11
         0.78200E+11
         0.78200E+11
         0.78200E+11
         0.78200E+11
         0.78200E+11
         0.78200E+11
         0.78200E+11
         0.78200E+11
         0.78200E+11
         0.78200E+11
         0.78200E+11
         0.78200E+11
         0.78200E+11
         0.78200E+11
         0.78200E+11
         0.78200E+11
         0.78200E+11
         0.78200E+11
         0.78200E+11
         0.78200E+11
         0.78200E+11
         0.78200E+11
         0.78200E+11
         0.78200E+11
         0.78200E+11
         0.78200E+11
         0.78200E+11
         0.78200E+11
         0.78200E+11
         0.78200E+11
         0.78200E+11
         0.78200E+11
         0.78200E+11
         0.78200E+11
         0.78200E+11
         0.78200E+11
         0.78200E+11
         0.78200E+11
         0.78200E+11
         0.78200E+11
         0.78200E+11
         0.78200E+11
         0.78200E+11
         0.78200E+11
         0.78200E+11
         0.78200E+11
         0.78200E+11
         0.78200E+11
         0.78200E+11
         0.78200E+11
         0.78200E+11
         0.78200E+11
         0.78200E+11
         0.78200E+11
         0.78200E+11
         0.78200E+11
         0.78200E+11
         0.78200E+11
         0.78200E+11
         0.78200E+11
         0.78200E+11
         0.78200E+11
         0.78200E+11
         0.78200E+11
         0.78200E+11
         0.78200E+11
         0.78200E+11
         0.78200E+11
         0.78200E+11
         0.78200E+11
         0.78200E+11
         0.78200E+11
         0.78200E+11
         0.78200E+11
         0.78200E+11
         0.78200E+11
         0.78200E+11
         0.78200E+11
         0.78200E+11
         0.78200E+11
         0.78200E+11
         0.78200E+11
         0.78200E+11
         0.78200E+11
         0.78200E+11
         0.78200E+11
         0.78200E+11
         0.78200E+11
         0.78200E+11
         0.78200E+11
         0.78200E+11
         0.78200E+11
         0.78200E+11
         0.78200E+11
         0.78200E+11
         0.78200E+11
         0.78200E+11
         0.78200E+11
         0.78200E+11
         0.78200E+11
         0.78200E+11
         0.78200E+11
         0.78200E+11
         0.78200E+11
         0.78200E+11
         0.78200E+11
         0.78200E+11
         0.78200E+11
         0.78200E+11
         0.78200E+11
         0.78200E+11
         0.78200E+11
         0.78200E+11
         0.78200E+11
         0.78200E+11
         0.78200E+11
         0.78200E+11
         0.78200E+11
         0.78200E+11
         0.78200E+11
         0.78200E+11
         0.78200E+11
         0.78200E+11
         0.78200E+11
         0.78200E+11
         0.78200E+11
         0.78200E+11
         0.78200E+11
         0.78200E+11
         0.78200E+11
         0.78200E+11
         0.78200E+11
         0.78200E+11
         0.78200E+11
         0.78200E+11
         0.78200E+11
         0.78200E+11
         0.78200E+11
         0.78200E+11
         0.78200E+11
         0.78200E+11
         0.78200E+11
         0.78200E+11
         0.78200E+11
         0.78200E+11
         0.78200E+11
         0.78200E+11
         0.78200E+11
         0.78200E+11
         0.78200E+11
         0.78200E+11
         0.78200E+11
         0.78200E+11
         0.78200E+11
         0.78200E+11
         0.78200E+11
         0.78200E+11
         0.78200E+11
         0.78200E+11
         0.78200E+11
         0.78200E+11
         0.78200E+11
         0.78200E+11
         0.78200E+11
         0.78200E+11
         0.78200E+11
         0.78200E+11
         0.78200E+11
         0.78200E+11
         0.78200E+11
         0.78200E+11
         0.78200E+11
         0.78200E+11
         0.78200E+11
         0.78200E+11
         0.78200E+11
         0.78200E+11
         0.78200E+11
         0.78200E+11
         0.78200E+11
         0.78200E+11
         0.78200E+11
         0.78200E+11
         0.78200E+11
         0.78200E+11
         0.78200E+11
         0.78200E+11
         0.78200E+11
         0.78200E+11
         0.78200E+11
         0.78200E+11
         0.78200E+11
         0.78200E+11
         0.78200E+11
         0.78200E+11
         0.78200E+11
         0.78200E+11
         0.78200E+11
         0.78200E+11
         0.78200E+11
         0.78200E+11
         0.78200E+11
         0.78200E+11
         0.78200E+11
         0.78200E+11
         0.78200E+11
         0.78200E+11
         0.78200E+11
         0.78200E+11
         0.78200E+11
         0.78200E+11
         0.78200E+11
         0.78200E+11
         0.78200E+11
         0.78200E+11
         0.78200E+11
         0.78200E+11
         0.78200E+11
         0.78200E+11
         0.78200E+11
         0.78200E+11
         0.78200E+11
         0.78200E+11
         0.78200E+11
         0.78200E+11
         0.78200E+11
         0.78200E+11
         0.78200E+11
         0.78200E+11
         0.78200E+11
         0.78200E+11
         0.78200E+11
         0.78200E+11
         0.78200E+11
         0.78200E+11
         0.78200E+11
         0.78200E+11
         0.78200E+11
         0.78200E+11
         0.78200E+11
         0.78200E+11
         0.78200E+11
         0.78200E+11
         0.78200E+11
         0.78200E+11
         0.78200E+11
         0.78200E+11
         0.78200E+11
         0.78200E+11
         0.78200E+11
         0.78200E+11
         0.78200E+11
         0.78200E+11
         0.78200E+11
         0.78200E+11
         0.78200E+11
         0.78200E+11
         0.78200E+11
         0.78200E+11
         0.78200E+11
         0.78200E+11
         0.78200E+11
         0.78200E+11
         0.78200E+11
         0.78200E+11
         0.78200E+11
         0.78200E+11
  
SCALARS                        density  double 1
LOOKUP_TABLE default
         0.27000E+04
         0.27000E+04
         0.27000E+04
         0.27000E+04
         0.27000E+04
         0.27000E+04
         0.27000E+04
         0.27000E+04
         0.27000E+04
         0.27000E+04
         0.27000E+04
         0.27000E+04
         0.27000E+04
         0.27000E+04
         0.27000E+04
         0.27000E+04
         0.27000E+04
         0.27000E+04
         0.27000E+04
         0.27000E+04
         0.27000E+04
         0.27000E+04
         0.27000E+04
         0.27000E+04
         0.27000E+04
         0.27000E+04
         0.27000E+04
         0.27000E+04
         0.27000E+04
         0.27000E+04
         0.27000E+04
         0.27000E+04
         0.27000E+04
         0.27000E+04
         0.27000E+04
         0.27000E+04
         0.27000E+04
         0.27000E+04
         0.27000E+04
         0.27000E+04
         0.27000E+04
         0.27000E+04
         0.27000E+04
         0.27000E+04
         0.27000E+04
         0.27000E+04
         0.27000E+04
         0.27000E+04
         0.27000E+04
         0.27000E+04
         0.27000E+04
         0.27000E+04
         0.27000E+04
         0.27000E+04
         0.27000E+04
         0.27000E+04
         0.27000E+04
         0.27000E+04
         0.27000E+04
         0.27000E+04
         0.27000E+04
         0.27000E+04
         0.27000E+04
         0.27000E+04
         0.27000E+04
         0.27000E+04
         0.27000E+04
         0.27000E+04
         0.27000E+04
         0.27000E+04
         0.27000E+04
         0.27000E+04
         0.27000E+04
         0.27000E+04
         0.27000E+04
         0.27000E+04
         0.27000E+04
         0.27000E+04
         0.27000E+04
         0.27000E+04
         0.27000E+04
         0.27000E+04
         0.27000E+04
         0.27000E+04
         0.27000E+04
         0.27000E+04
         0.27000E+04
         0.27000E+04
         0.27000E+04
         0.27000E+04
         0.27000E+04
         0.27000E+04
         0.27000E+04
         0.27000E+04
         0.27000E+04
         0.27000E+04
         0.27000E+04
         0.27000E+04
         0.27000E+04
         0.27000E+04
         0.27000E+04
         0.27000E+04
         0.27000E+04
         0.27000E+04
         0.27000E+04
         0.27000E+04
         0.27000E+04
         0.27000E+04
         0.27000E+04
         0.27000E+04
         0.27000E+04
         0.27000E+04
         0.27000E+04
         0.27000E+04
         0.27000E+04
         0.27000E+04
         0.27000E+04
         0.27000E+04
         0.27000E+04
         0.27000E+04
         0.27000E+04
         0.27000E+04
         0.27000E+04
         0.27000E+04
         0.27000E+04
         0.27000E+04
         0.27000E+04
         0.27000E+04
         0.27000E+04
         0.27000E+04
         0.27000E+04
         0.27000E+04
         0.27000E+04
         0.27000E+04
         0.27000E+04
         0.27000E+04
         0.27000E+04
         0.27000E+04
         0.27000E+04
         0.27000E+04
         0.27000E+04
         0.27000E+04
         0.27000E+04
         0.27000E+04
         0.27000E+04
         0.27000E+04
         0.27000E+04
         0.27000E+04
         0.27000E+04
         0.27000E+04
         0.27000E+04
         0.27000E+04
         0.27000E+04
         0.27000E+04
         0.27000E+04
         0.27000E+04
         0.27000E+04
         0.27000E+04
         0.27000E+04
         0.27000E+04
         0.27000E+04
         0.27000E+04
         0.27000E+04
         0.27000E+04
         0.27000E+04
         0.27000E+04
         0.27000E+04
         0.27000E+04
         0.27000E+04
         0.27000E+04
         0.27000E+04
         0.27000E+04
         0.27000E+04
         0.27000E+04
         0.27000E+04
         0.27000E+04
         0.27000E+04
         0.27000E+04
         0.27000E+04
         0.27000E+04
         0.27000E+04
         0.27000E+04
         0.27000E+04
         0.27000E+04
         0.27000E+04
         0.27000E+04
         0.27000E+04
         0.27000E+04
         0.27000E+04
         0.27000E+04
         0.27000E+04
         0.27000E+04
         0.27000E+04
         0.27000E+04
         0.27000E+04
         0.27000E+04
         0.27000E+04
         0.27000E+04
         0.27000E+04
         0.27000E+04
         0.27000E+04
         0.27000E+04
         0.27000E+04
         0.27000E+04
         0.27000E+04
         0.27000E+04
         0.27000E+04
         0.27000E+04
         0.27000E+04
         0.27000E+04
         0.27000E+04
         0.27000E+04
         0.27000E+04
         0.27000E+04
         0.27000E+04
         0.27000E+04
         0.27000E+04
         0.27000E+04
         0.27000E+04
         0.27000E+04
         0.27000E+04
         0.27000E+04
         0.27000E+04
         0.27000E+04
         0.27000E+04
         0.27000E+04
         0.27000E+04
         0.27000E+04
         0.27000E+04
         0.27000E+04
         0.27000E+04
         0.27000E+04
         0.27000E+04
         0.27000E+04
         0.27000E+04
         0.27000E+04
         0.27000E+04
         0.27000E+04
         0.27000E+04
         0.27000E+04
         0.27000E+04
         0.27000E+04
         0.27000E+04
         0.27000E+04
         0.27000E+04
         0.27000E+04
         0.27000E+04
         0.27000E+04
         0.27000E+04
         0.27000E+04
         0.27000E+04
         0.27000E+04
         0.27000E+04
         0.27000E+04
         0.27000E+04
         0.27000E+04
         0.27000E+04
         0.27000E+04
         0.27000E+04
         0.27000E+04
         0.27000E+04
         0.27000E+04
         0.27000E+04
         0.27000E+04
         0.27000E+04
         0.27000E+04
         0.27000E+04
         0.27000E+04
         0.27000E+04
         0.27000E+04
         0.27000E+04
         0.27000E+04
         0.27000E+04
         0.27000E+04
         0.27000E+04
         0.27000E+04
         0.27000E+04
         0.27000E+04
         0.27000E+04
         0.27000E+04
         0.27000E+04
         0.27000E+04
         0.27000E+04
         0.27000E+04
         0.27000E+04
         0.27000E+04
         0.27000E+04
         0.27000E+04
         0.27000E+04
         0.27000E+04
         0.27000E+04
         0.27000E+04
         0.27000E+04
         0.27000E+04
         0.27000E+04
         0.27000E+04
         0.27000E+04
         0.27000E+04
         0.27000E+04
         0.27000E+04
         0.27000E+04
         0.27000E+04
         0.27000E+04
         0.27000E+04
         0.27000E+04
         0.27000E+04
         0.27000E+04
         0.27000E+04
         0.27000E+04
         0.27000E+04
         0.27000E+04
         0.27000E+04
         0.27000E+04
         0.27000E+04
         0.27000E+04
         0.27000E+04
         0.27000E+04
         0.27000E+04
         0.27000E+04
         0.27000E+04
         0.27000E+04
         0.27000E+04
         0.27000E+04
         0.27000E+04
         0.27000E+04
         0.27000E+04
         0.27000E+04
         0.27000E+04
         0.27000E+04
         0.27000E+04
         0.27000E+04
         0.27000E+04
         0.27000E+04
         0.27000E+04
         0.27000E+04
         0.27000E+04
         0.27000E+04
         0.27000E+04
         0.27000E+04
         0.27000E+04
         0.27000E+04
         0.27000E+04
         0.27000E+04
         0.27000E+04
         0.27000E+04
         0.27000E+04
         0.27000E+04
         0.27000E+04
         0.27000E+04
         0.27000E+04
         0.27000E+04
         0.27000E+04
         0.27000E+04
         0.27000E+04
         0.27000E+04
         0.27000E+04
         0.27000E+04
         0.27000E+04
         0.27000E+04
         0.27000E+04
         0.27000E+04
         0.27000E+04
         0.27000E+04
         0.27000E+04
         0.27000E+04
         0.27000E+04
         0.27000E+04
         0.27000E+04
         0.27000E+04
         0.27000E+04
         0.27000E+04
         0.27000E+04
         0.27000E+04
         0.27000E+04
         0.27000E+04
         0.27000E+04
         0.27000E+04
         0.27000E+04
         0.27000E+04
         0.27000E+04
         0.27000E+04
         0.27000E+04
         0.27000E+04
         0.27000E+04
         0.27000E+04
         0.27000E+04
         0.27000E+04
         0.27000E+04
         0.27000E+04
         0.27000E+04
         0.27000E+04
         0.27000E+04
         0.27000E+04
         0.27000E+04
         0.27000E+04
         0.27000E+04
         0.27000E+04
         0.27000E+04
         0.27000E+04
         0.27000E+04
         0.27000E+04
         0.27000E+04
         0.27000E+04
         0.27000E+04
         0.27000E+04
         0.27000E+04
         0.27000E+04
         0.27000E+04
         0.27000E+04
         0.27000E+04
         0.27000E+04
         0.27000E+04
         0.27000E+04
         0.27000E+04
         0.27000E+04
         0.27000E+04
         0.27000E+04
         0.27000E+04
         0.27000E+04
         0.27000E+04
         0.27000E+04
         0.27000E+04
         0.27000E+04
         0.27000E+04
         0.27000E+04
         0.27000E+04
         0.27000E+04
         0.27000E+04
         0.27000E+04
         0.27000E+04
         0.27000E+04
         0.27000E+04
         0.27000E+04
         0.27000E+04
         0.27000E+04
         0.27000E+04
         0.27000E+04
         0.27000E+04
         0.27000E+04
         0.27000E+04
         0.27000E+04
         0.27000E+04
         0.27000E+04
         0.27000E+04
         0.27000E+04
         0.27000E+04
         0.27000E+04
         0.27000E+04
         0.27000E+04
         0.27000E+04
         0.27000E+04
         0.27000E+04
         0.27000E+04
         0.27000E+04
         0.27000E+04
         0.27000E+04
         0.27000E+04
         0.27000E+04
         0.27000E+04
         0.27000E+04
         0.27000E+04
         0.27000E+04
         0.27000E+04
         0.27000E+04
         0.27000E+04
         0.27000E+04
         0.27000E+04
         0.27000E+04
         0.27000E+04
         0.27000E+04
         0.27000E+04
         0.27000E+04
         0.27000E+04
         0.27000E+04
         0.27000E+04
         0.27000E+04
         0.27000E+04
         0.27000E+04
         0.27000E+04
         0.27000E+04
         0.27000E+04
         0.27000E+04
         0.27000E+04
         0.27000E+04
         0.27000E+04
         0.27000E+04
         0.27000E+04
         0.27000E+04
         0.27000E+04
         0.27000E+04
         0.27000E+04
         0.27000E+04
         0.27000E+04
         0.27000E+04
         0.27000E+04
         0.27000E+04
         0.27000E+04
         0.27000E+04
         0.27000E+04
         0.27000E+04
         0.27000E+04
         0.27000E+04
         0.27000E+04
         0.27000E+04
         0.27000E+04
         0.27000E+04
         0.27000E+04
         0.27000E+04
         0.27000E+04
         0.27000E+04
         0.27000E+04
         0.27000E+04
         0.27000E+04
         0.27000E+04
         0.27000E+04
         0.27000E+04
         0.27000E+04
         0.27000E+04
         0.27000E+04
         0.27000E+04
         0.27000E+04
         0.27000E+04
         0.27000E+04
         0.27000E+04
         0.27000E+04
         0.27000E+04
         0.27000E+04
         0.27000E+04
         0.27000E+04
         0.27000E+04
         0.27000E+04
         0.27000E+04
         0.27000E+04
         0.27000E+04
         0.27000E+04
         0.27000E+04
         0.27000E+04
         0.27000E+04
         0.27000E+04
         0.27000E+04
         0.27000E+04
         0.27000E+04
         0.27000E+04
         0.27000E+04
         0.27000E+04
         0.27000E+04
         0.27000E+04
         0.27000E+04
         0.27000E+04
         0.27000E+04
         0.27000E+04
         0.27000E+04
         0.27000E+04
         0.27000E+04
         0.27000E+04
         0.27000E+04
         0.27000E+04
         0.27000E+04
         0.27000E+04
         0.27000E+04
         0.27000E+04
         0.27000E+04
         0.27000E+04
         0.27000E+04
         0.27000E+04
         0.27000E+04
         0.27000E+04
         0.27000E+04
         0.27000E+04
         0.27000E+04
         0.27000E+04
         0.27000E+04
         0.27000E+04
         0.27000E+04
         0.27000E+04
         0.27000E+04
         0.27000E+04
         0.27000E+04
         0.27000E+04
         0.27000E+04
         0.27000E+04
         0.27000E+04
         0.27000E+04
         0.27000E+04
         0.27000E+04
         0.27000E+04
         0.27000E+04
         0.27000E+04
         0.27000E+04
         0.27000E+04
         0.27000E+04
         0.27000E+04
         0.27000E+04
         0.27000E+04
         0.27000E+04
         0.27000E+04
         0.27000E+04
         0.27000E+04
         0.27000E+04
         0.27000E+04
         0.27000E+04
         0.27000E+04
         0.27000E+04
         0.27000E+04
         0.27000E+04
         0.27000E+04
         0.27000E+04
         0.27000E+04
         0.27000E+04
         0.27000E+04
         0.27000E+04
         0.27000E+04
         0.27000E+04
         0.27000E+04
         0.27000E+04
         0.27000E+04
         0.27000E+04
         0.27000E+04
         0.27000E+04
         0.27000E+04
         0.27000E+04
         0.27000E+04
         0.27000E+04
         0.27000E+04
         0.27000E+04
         0.27000E+04
         0.27000E+04
         0.27000E+04
         0.27000E+04
         0.27000E+04
         0.27000E+04
         0.27000E+04
         0.27000E+04
         0.27000E+04
         0.27000E+04
         0.27000E+04
         0.27000E+04
         0.27000E+04
         0.27000E+04
         0.27000E+04
         0.27000E+04
         0.27000E+04
         0.27000E+04
         0.27000E+04
         0.27000E+04
         0.27000E+04
         0.27000E+04
         0.27000E+04
         0.27000E+04
         0.27000E+04
         0.27000E+04
         0.27000E+04
         0.27000E+04
         0.27000E+04
         0.27000E+04
         0.27000E+04
         0.27000E+04
         0.27000E+04
         0.27000E+04
         0.27000E+04
         0.27000E+04
         0.27000E+04
         0.27000E+04
         0.27000E+04
         0.27000E+04
         0.27000E+04
         0.27000E+04
         0.27000E+04
         0.27000E+04
         0.27000E+04
         0.27000E+04
         0.27000E+04
         0.27000E+04
         0.27000E+04
         0.27000E+04
         0.27000E+04
         0.27000E+04
         0.27000E+04
         0.27000E+04
         0.27000E+04
         0.27000E+04
         0.27000E+04
         0.27000E+04
         0.27000E+04
         0.27000E+04
         0.27000E+04
         0.27000E+04
         0.27000E+04
         0.27000E+04
         0.27000E+04
         0.27000E+04
         0.27000E+04
         0.27000E+04
         0.27000E+04
         0.27000E+04
         0.27000E+04
         0.27000E+04
         0.27000E+04
         0.27000E+04
         0.27000E+04
         0.27000E+04
         0.27000E+04
         0.27000E+04
         0.27000E+04
         0.27000E+04
         0.27000E+04
         0.27000E+04
         0.27000E+04
         0.27000E+04
         0.27000E+04
         0.27000E+04
         0.27000E+04
         0.27000E+04
         0.27000E+04
         0.27000E+04
         0.27000E+04
         0.27000E+04
         0.27000E+04
         0.27000E+04
         0.27000E+04
         0.27000E+04
         0.27000E+04
         0.27000E+04
         0.27000E+04
         0.27000E+04
         0.27000E+04
         0.27000E+04
         0.27000E+04
         0.27000E+04
         0.27000E+04
         0.27000E+04
         0.27000E+04
         0.27000E+04
         0.27000E+04
         0.27000E+04
         0.27000E+04
         0.27000E+04
         0.27000E+04
         0.27000E+04
         0.27000E+04
         0.27000E+04
         0.27000E+04
         0.27000E+04
         0.27000E+04
         0.27000E+04
         0.27000E+04
         0.27000E+04
         0.27000E+04
         0.27000E+04
         0.27000E+04
         0.27000E+04
         0.27000E+04
         0.27000E+04
         0.27000E+04
         0.27000E+04
         0.27000E+04
         0.27000E+04
         0.27000E+04
         0.27000E+04
         0.27000E+04
         0.27000E+04
         0.27000E+04
         0.27000E+04
         0.27000E+04
         0.27000E+04
         0.27000E+04
         0.27000E+04
         0.27000E+04
         0.27000E+04
         0.27000E+04
         0.27000E+04
         0.27000E+04
         0.27000E+04
         0.27000E+04
         0.27000E+04
         0.27000E+04
         0.27000E+04
         0.27000E+04
         0.27000E+04
         0.27000E+04
         0.27000E+04
         0.27000E+04
         0.27000E+04
         0.27000E+04
         0.27000E+04
         0.27000E+04
         0.27000E+04
         0.27000E+04
         0.27000E+04
         0.27000E+04
         0.27000E+04
         0.27000E+04
         0.27000E+04
         0.27000E+04
         0.27000E+04
         0.27000E+04
         0.27000E+04
         0.27000E+04
         0.27000E+04
         0.27000E+04
         0.27000E+04
         0.27000E+04
         0.27000E+04
         0.27000E+04
         0.27000E+04
         0.27000E+04
         0.27000E+04
         0.27000E+04
         0.27000E+04
         0.27000E+04
         0.27000E+04
         0.27000E+04
         0.27000E+04
         0.27000E+04
         0.27000E+04
         0.27000E+04
         0.27000E+04
         0.27000E+04
         0.27000E+04
         0.27000E+04
         0.27000E+04
         0.27000E+04
         0.27000E+04
         0.27000E+04
         0.27000E+04
         0.27000E+04
         0.27000E+04
         0.27000E+04
         0.27000E+04
         0.27000E+04
         0.27000E+04
         0.27000E+04
         0.27000E+04
         0.27000E+04
         0.27000E+04
         0.27000E+04
         0.27000E+04
         0.27000E+04
         0.27000E+04
         0.27000E+04
         0.27000E+04
         0.27000E+04
         0.27000E+04
         0.27000E+04
         0.27000E+04
         0.27000E+04
         0.27000E+04
         0.27000E+04
         0.27000E+04
         0.27000E+04
         0.27000E+04
         0.27000E+04
         0.27000E+04
         0.27000E+04
         0.27000E+04
         0.27000E+04
         0.27000E+04
         0.27000E+04
         0.27000E+04
         0.27000E+04
         0.27000E+04
         0.27000E+04
         0.27000E+04
         0.27000E+04
         0.27000E+04
         0.27000E+04
         0.27000E+04
         0.27000E+04
         0.27000E+04
         0.27000E+04
         0.27000E+04
         0.27000E+04
         0.27000E+04
         0.27000E+04
         0.27000E+04
         0.27000E+04
         0.27000E+04
         0.27000E+04
         0.27000E+04
         0.27000E+04
         0.27000E+04
         0.27000E+04
         0.27000E+04
         0.27000E+04
         0.27000E+04
         0.27000E+04
         0.27000E+04
         0.27000E+04
         0.27000E+04
         0.27000E+04
         0.27000E+04
         0.27000E+04
         0.27000E+04
         0.27000E+04
         0.27000E+04
         0.27000E+04
         0.27000E+04
         0.27000E+04
         0.27000E+04
         0.27000E+04
         0.27000E+04
         0.27000E+04
         0.27000E+04
         0.27000E+04
         0.27000E+04
         0.27000E+04
         0.27000E+04
         0.27000E+04
         0.27000E+04
         0.27000E+04
         0.27000E+04
         0.27000E+04
         0.27000E+04
         0.27000E+04
         0.27000E+04
         0.27000E+04
         0.27000E+04
         0.27000E+04
         0.27000E+04
         0.27000E+04
         0.27000E+04
         0.27000E+04
         0.27000E+04
         0.27000E+04
         0.27000E+04
         0.27000E+04
         0.27000E+04
         0.27000E+04
         0.27000E+04
         0.27000E+04
         0.27000E+04
         0.27000E+04
         0.27000E+04
         0.27000E+04
         0.27000E+04
         0.27000E+04
         0.27000E+04
         0.27000E+04
         0.27000E+04
         0.27000E+04
         0.27000E+04
         0.27000E+04
         0.27000E+04
         0.27000E+04
         0.27000E+04
         0.27000E+04
         0.27000E+04
         0.27000E+04
         0.27000E+04
         0.27000E+04
         0.27000E+04
         0.27000E+04
         0.27000E+04
         0.27000E+04
         0.27000E+04
         0.27000E+04
         0.27000E+04
         0.27000E+04
         0.27000E+04
         0.27000E+04
         0.27000E+04
         0.27000E+04
         0.27000E+04
         0.27000E+04
         0.27000E+04
         0.27000E+04
         0.27000E+04
         0.27000E+04
         0.27000E+04
         0.27000E+04
         0.27000E+04
         0.27000E+04
         0.27000E+04
         0.27000E+04
         0.27000E+04
         0.27000E+04
         0.27000E+04
         0.27000E+04
         0.27000E+04
         0.27000E+04
         0.27000E+04
         0.27000E+04
         0.27000E+04
         0.27000E+04
         0.27000E+04
         0.27000E+04
         0.27000E+04
         0.27000E+04
         0.27000E+04
         0.27000E+04
         0.27000E+04
         0.27000E+04
         0.27000E+04
         0.27000E+04
         0.27000E+04
         0.27000E+04
         0.27000E+04
         0.27000E+04
         0.27000E+04
         0.27000E+04
         0.27000E+04
         0.27000E+04
         0.27000E+04
         0.27000E+04
         0.27000E+04
         0.27000E+04
         0.27000E+04
         0.27000E+04
         0.27000E+04
         0.27000E+04
         0.27000E+04
         0.27000E+04
         0.27000E+04
         0.27000E+04
         0.27000E+04
         0.27000E+04
         0.27000E+04
         0.27000E+04
         0.27000E+04
         0.27000E+04
         0.27000E+04
         0.27000E+04
         0.27000E+04
         0.27000E+04
         0.27000E+04
         0.27000E+04
         0.27000E+04
         0.27000E+04
         0.27000E+04
         0.27000E+04
         0.27000E+04
         0.27000E+04
         0.27000E+04
         0.27000E+04
         0.27000E+04
         0.27000E+04
         0.27000E+04
         0.27000E+04
         0.27000E+04
         0.27000E+04
         0.27000E+04
         0.27000E+04
         0.27000E+04
         0.27000E+04
         0.27000E+04
         0.27000E+04
         0.27000E+04
         0.27000E+04
         0.27000E+04
         0.27000E+04
         0.27000E+04
         0.27000E+04
         0.27000E+04
         0.27000E+04
         0.27000E+04
         0.27000E+04
         0.27000E+04
         0.27000E+04
         0.27000E+04
         0.27000E+04
         0.27000E+04
         0.27000E+04
         0.27000E+04
         0.27000E+04
         0.27000E+04
         0.27000E+04
         0.27000E+04
         0.27000E+04
         0.27000E+04
         0.27000E+04
         0.27000E+04
         0.27000E+04
         0.27000E+04
         0.27000E+04
         0.27000E+04
         0.27000E+04
         0.27000E+04
         0.27000E+04
         0.27000E+04
         0.27000E+04
         0.27000E+04
         0.27000E+04
         0.27000E+04
         0.27000E+04
         0.27000E+04
         0.27000E+04
         0.27000E+04
         0.27000E+04
         0.27000E+04
         0.27000E+04
         0.27000E+04
         0.27000E+04
         0.27000E+04
         0.27000E+04
         0.27000E+04
         0.27000E+04
         0.27000E+04
         0.27000E+04
         0.27000E+04
         0.27000E+04
         0.27000E+04
         0.27000E+04
         0.27000E+04
         0.27000E+04
         0.27000E+04
         0.27000E+04
         0.27000E+04
         0.27000E+04
         0.27000E+04
         0.27000E+04
         0.27000E+04
         0.27000E+04
         0.27000E+04
         0.27000E+04
         0.27000E+04
         0.27000E+04
         0.27000E+04
         0.27000E+04
         0.27000E+04
         0.27000E+04
         0.27000E+04
         0.27000E+04
         0.27000E+04
         0.27000E+04
         0.27000E+04
         0.27000E+04
         0.27000E+04
         0.27000E+04
         0.27000E+04
         0.27000E+04
         0.27000E+04
         0.27000E+04
         0.27000E+04
         0.27000E+04
         0.27000E+04
         0.27000E+04
         0.27000E+04
         0.27000E+04
         0.27000E+04
         0.27000E+04
         0.27000E+04
         0.27000E+04
         0.27000E+04
         0.27000E+04
         0.27000E+04
         0.27000E+04
         0.27000E+04
         0.27000E+04
         0.27000E+04
         0.27000E+04
         0.27000E+04
         0.27000E+04
         0.27000E+04
         0.27000E+04
         0.27000E+04
         0.27000E+04
         0.27000E+04
         0.27000E+04
         0.27000E+04
         0.27000E+04
         0.27000E+04
         0.27000E+04
         0.27000E+04
         0.27000E+04
         0.27000E+04
         0.27000E+04
         0.27000E+04
         0.27000E+04
         0.27000E+04
         0.27000E+04
         0.27000E+04
         0.27000E+04
         0.27000E+04
         0.27000E+04
         0.27000E+04
         0.27000E+04
         0.27000E+04
         0.27000E+04
         0.27000E+04
         0.27000E+04
         0.27000E+04
         0.27000E+04
         0.27000E+04
         0.27000E+04
         0.27000E+04
         0.27000E+04
         0.27000E+04
         0.27000E+04
         0.27000E+04
         0.27000E+04
         0.27000E+04
         0.27000E+04
         0.27000E+04
         0.27000E+04
         0.27000E+04
         0.27000E+04
         0.27000E+04
         0.27000E+04
         0.27000E+04
         0.27000E+04
         0.27000E+04
         0.27000E+04
         0.27000E+04
         0.27000E+04
         0.27000E+04
         0.27000E+04
         0.27000E+04
         0.27000E+04
         0.27000E+04
         0.27000E+04
         0.27000E+04
         0.27000E+04
         0.27000E+04
         0.27000E+04
         0.27000E+04
         0.27000E+04
         0.27000E+04
         0.27000E+04
         0.27000E+04
         0.27000E+04
         0.27000E+04
         0.27000E+04
         0.27000E+04
         0.27000E+04
         0.27000E+04
         0.27000E+04
         0.27000E+04
         0.27000E+04
         0.27000E+04
         0.27000E+04
         0.27000E+04
         0.27000E+04
         0.27000E+04
         0.27000E+04
         0.27000E+04
         0.27000E+04
         0.27000E+04
         0.27000E+04
         0.27000E+04
         0.27000E+04
         0.27000E+04
         0.27000E+04
         0.27000E+04
         0.27000E+04
         0.27000E+04
         0.27000E+04
         0.27000E+04
         0.27000E+04
         0.27000E+04
         0.27000E+04
         0.27000E+04
         0.27000E+04
         0.27000E+04
         0.27000E+04
         0.27000E+04
         0.27000E+04
         0.27000E+04
         0.27000E+04
         0.27000E+04
         0.27000E+04
         0.27000E+04
         0.27000E+04
         0.27000E+04
         0.27000E+04
         0.27000E+04
         0.27000E+04
         0.27000E+04
         0.27000E+04
         0.27000E+04
         0.27000E+04
         0.27000E+04
         0.27000E+04
         0.27000E+04
         0.27000E+04
         0.27000E+04
         0.27000E+04
         0.27000E+04
         0.27000E+04
         0.27000E+04
         0.27000E+04
         0.27000E+04
         0.27000E+04
         0.27000E+04
         0.27000E+04
         0.27000E+04
         0.27000E+04
         0.27000E+04
         0.27000E+04
         0.27000E+04
         0.27000E+04
         0.27000E+04
         0.27000E+04
         0.27000E+04
         0.27000E+04
         0.27000E+04
         0.27000E+04
         0.27000E+04
         0.27000E+04
         0.27000E+04
         0.27000E+04
         0.27000E+04
         0.27000E+04
         0.27000E+04
         0.27000E+04
         0.27000E+04
         0.27000E+04
         0.27000E+04
         0.27000E+04
         0.27000E+04
         0.27000E+04
         0.27000E+04
         0.27000E+04
         0.27000E+04
         0.27000E+04
         0.27000E+04
         0.27000E+04
         0.27000E+04
         0.27000E+04
         0.27000E+04
         0.27000E+04
         0.27000E+04
         0.27000E+04
         0.27000E+04
         0.27000E+04
         0.27000E+04
         0.27000E+04
         0.27000E+04
         0.27000E+04
         0.27000E+04
         0.27000E+04
         0.27000E+04
         0.27000E+04
         0.27000E+04
         0.27000E+04
         0.27000E+04
         0.27000E+04
         0.27000E+04
         0.27000E+04
         0.27000E+04
         0.27000E+04
         0.27000E+04
         0.27000E+04
         0.27000E+04
         0.27000E+04
         0.27000E+04
         0.27000E+04
         0.27000E+04
         0.27000E+04
         0.27000E+04
         0.27000E+04
         0.27000E+04
         0.27000E+04
         0.27000E+04
         0.27000E+04
         0.27000E+04
         0.27000E+04
         0.27000E+04
         0.27000E+04
         0.27000E+04
         0.27000E+04
         0.27000E+04
         0.27000E+04
         0.27000E+04
         0.27000E+04
         0.27000E+04
         0.27000E+04
         0.27000E+04
         0.27000E+04
         0.27000E+04
         0.27000E+04
         0.27000E+04
         0.27000E+04
         0.27000E+04
         0.27000E+04
         0.27000E+04
         0.27000E+04
         0.27000E+04
         0.27000E+04
         0.27000E+04
         0.27000E+04
         0.27000E+04
         0.27000E+04
         0.27000E+04
         0.27000E+04
         0.27000E+04
         0.27000E+04
         0.27000E+04
         0.27000E+04
         0.27000E+04
         0.27000E+04
         0.27000E+04
         0.27000E+04
         0.27000E+04
         0.27000E+04
         0.27000E+04
         0.27000E+04
         0.27000E+04
         0.27000E+04
         0.27000E+04
         0.27000E+04
         0.27000E+04
         0.27000E+04
         0.27000E+04
         0.27000E+04
         0.27000E+04
         0.27000E+04
         0.27000E+04
         0.27000E+04
         0.27000E+04
         0.27000E+04
         0.27000E+04
         0.27000E+04
         0.27000E+04
         0.27000E+04
         0.27000E+04
         0.27000E+04
         0.27000E+04
         0.27000E+04
         0.27000E+04
         0.27000E+04
         0.27000E+04
         0.27000E+04
         0.27000E+04
         0.27000E+04
         0.27000E+04
         0.27000E+04
         0.27000E+04
         0.27000E+04
         0.27000E+04
         0.27000E+04
         0.27000E+04
         0.27000E+04
         0.27000E+04
         0.27000E+04
         0.27000E+04
         0.27000E+04
         0.27000E+04
         0.27000E+04
         0.27000E+04
         0.27000E+04
         0.27000E+04
         0.27000E+04
         0.27000E+04
         0.27000E+04
         0.27000E+04
         0.27000E+04
         0.27000E+04
         0.27000E+04
         0.27000E+04
         0.27000E+04
         0.27000E+04
         0.27000E+04
         0.27000E+04
         0.27000E+04
         0.27000E+04
         0.27000E+04
         0.27000E+04
         0.27000E+04
         0.27000E+04
         0.27000E+04
         0.27000E+04
         0.27000E+04
         0.27000E+04
         0.27000E+04
         0.27000E+04
         0.27000E+04
         0.27000E+04
         0.27000E+04
         0.27000E+04
         0.27000E+04
         0.27000E+04
         0.27000E+04
         0.27000E+04
         0.27000E+04
         0.27000E+04
         0.27000E+04
         0.27000E+04
         0.27000E+04
         0.27000E+04
         0.27000E+04
         0.27000E+04
         0.27000E+04
         0.27000E+04
         0.27000E+04
         0.27000E+04
         0.27000E+04
         0.27000E+04
         0.27000E+04
         0.27000E+04
         0.27000E+04
         0.27000E+04
         0.27000E+04
         0.27000E+04
         0.27000E+04
         0.27000E+04
         0.27000E+04
         0.27000E+04
         0.27000E+04
         0.27000E+04
         0.27000E+04
         0.27000E+04
         0.27000E+04
         0.27000E+04
         0.27000E+04
         0.27000E+04
         0.27000E+04
         0.27000E+04
         0.27000E+04
         0.27000E+04
         0.27000E+04
         0.27000E+04
         0.27000E+04
         0.27000E+04
         0.27000E+04
         0.27000E+04
         0.27000E+04
         0.27000E+04
         0.27000E+04
         0.27000E+04
         0.27000E+04
         0.27000E+04
         0.27000E+04
         0.27000E+04
         0.27000E+04
         0.27000E+04
         0.27000E+04
         0.27000E+04
         0.27000E+04
         0.27000E+04
         0.27000E+04
         0.27000E+04
         0.27000E+04
         0.27000E+04
         0.27000E+04
         0.27000E+04
         0.27000E+04
         0.27000E+04
         0.27000E+04
         0.27000E+04
         0.27000E+04
         0.27000E+04
         0.27000E+04
         0.27000E+04
         0.27000E+04
         0.27000E+04
         0.27000E+04
         0.27000E+04
         0.27000E+04
         0.27000E+04
         0.27000E+04
         0.27000E+04
         0.27000E+04
         0.27000E+04
         0.27000E+04
         0.27000E+04
         0.27000E+04
         0.27000E+04
         0.27000E+04
         0.27000E+04
         0.27000E+04
         0.27000E+04
         0.27000E+04
         0.27000E+04
         0.27000E+04
         0.27000E+04
         0.27000E+04
         0.27000E+04
         0.27000E+04
         0.27000E+04
         0.27000E+04
         0.27000E+04
         0.27000E+04
         0.27000E+04
         0.27000E+04
         0.27000E+04
         0.27000E+04
         0.27000E+04
         0.27000E+04
         0.27000E+04
         0.27000E+04
         0.27000E+04
         0.27000E+04
         0.27000E+04
         0.27000E+04
         0.27000E+04
         0.27000E+04
         0.27000E+04
         0.27000E+04
         0.27000E+04
         0.27000E+04
         0.27000E+04
         0.27000E+04
         0.27000E+04
         0.27000E+04
         0.27000E+04
         0.27000E+04
         0.27000E+04
         0.27000E+04
         0.27000E+04
         0.27000E+04
         0.27000E+04
         0.27000E+04
         0.27000E+04
         0.27000E+04
         0.27000E+04
         0.27000E+04
         0.27000E+04
         0.27000E+04
         0.27000E+04
         0.27000E+04
         0.27000E+04
         0.27000E+04
         0.27000E+04
         0.27000E+04
         0.27000E+04
         0.27000E+04
         0.27000E+04
         0.27000E+04
         0.27000E+04
         0.27000E+04
         0.27000E+04
         0.27000E+04
         0.27000E+04
         0.27000E+04
         0.27000E+04
         0.27000E+04
         0.27000E+04
         0.27000E+04
         0.27000E+04
         0.27000E+04
         0.27000E+04
         0.27000E+04
         0.27000E+04
         0.27000E+04
         0.27000E+04
         0.27000E+04
         0.27000E+04
         0.27000E+04
         0.27000E+04
         0.27000E+04
         0.27000E+04
         0.27000E+04
         0.27000E+04
         0.27000E+04
         0.27000E+04
         0.27000E+04
         0.27000E+04
         0.27000E+04
         0.27000E+04
         0.27000E+04
         0.27000E+04
         0.27000E+04
         0.27000E+04
         0.27000E+04
         0.27000E+04
         0.27000E+04
         0.27000E+04
         0.27000E+04
         0.27000E+04
         0.27000E+04
         0.27000E+04
         0.27000E+04
         0.27000E+04
         0.27000E+04
         0.27000E+04
         0.27000E+04
         0.27000E+04
         0.27000E+04
         0.27000E+04
         0.27000E+04
         0.27000E+04
         0.27000E+04
         0.27000E+04
         0.27000E+04
         0.27000E+04
         0.27000E+04
         0.27000E+04
         0.27000E+04
         0.27000E+04
         0.27000E+04
         0.27000E+04
         0.27000E+04
         0.27000E+04
         0.27000E+04
         0.27000E+04
         0.27000E+04
         0.27000E+04
         0.27000E+04
         0.27000E+04
         0.27000E+04
         0.27000E+04
         0.27000E+04
         0.27000E+04
         0.27000E+04
         0.27000E+04
         0.27000E+04
         0.27000E+04
         0.27000E+04
         0.27000E+04
         0.27000E+04
         0.27000E+04
         0.27000E+04
         0.27000E+04
         0.27000E+04
         0.27000E+04
         0.27000E+04
         0.27000E+04
         0.27000E+04
         0.27000E+04
         0.27000E+04
         0.27000E+04
         0.27000E+04
         0.27000E+04
         0.27000E+04
         0.27000E+04
         0.27000E+04
         0.27000E+04
         0.27000E+04
         0.27000E+04
         0.27000E+04
         0.27000E+04
         0.27000E+04
         0.27000E+04
         0.27000E+04
         0.27000E+04
         0.27000E+04
         0.27000E+04
         0.27000E+04
         0.27000E+04
         0.27000E+04
         0.27000E+04
         0.27000E+04
         0.27000E+04
         0.27000E+04
         0.27000E+04
         0.27000E+04
         0.27000E+04
         0.27000E+04
         0.27000E+04
         0.27000E+04
         0.27000E+04
         0.27000E+04
         0.27000E+04
         0.27000E+04
         0.27000E+04
         0.27000E+04
         0.27000E+04
         0.27000E+04
         0.27000E+04
         0.27000E+04
         0.27000E+04
         0.27000E+04
         0.27000E+04
         0.27000E+04
         0.27000E+04
         0.27000E+04
         0.27000E+04
         0.27000E+04
         0.27000E+04
         0.27000E+04
         0.27000E+04
         0.27000E+04
         0.27000E+04
         0.27000E+04
         0.27000E+04
         0.27000E+04
         0.27000E+04
         0.27000E+04
         0.27000E+04
         0.27000E+04
         0.27000E+04
         0.27000E+04
         0.27000E+04
         0.27000E+04
         0.27000E+04
         0.27000E+04
         0.27000E+04
         0.27000E+04
         0.27000E+04
         0.27000E+04
         0.27000E+04
         0.27000E+04
         0.27000E+04
         0.27000E+04
         0.27000E+04
         0.27000E+04
         0.27000E+04
         0.27000E+04
         0.27000E+04
         0.27000E+04
         0.27000E+04
         0.27000E+04
         0.27000E+04
         0.27000E+04
         0.27000E+04
         0.27000E+04
         0.27000E+04
         0.27000E+04
         0.27000E+04
         0.27000E+04
         0.27000E+04
         0.27000E+04
         0.27000E+04
         0.27000E+04
         0.27000E+04
         0.27000E+04
         0.27000E+04
         0.27000E+04
         0.27000E+04
         0.27000E+04
         0.27000E+04
         0.27000E+04
         0.27000E+04
         0.27000E+04
         0.27000E+04
         0.27000E+04
         0.27000E+04
         0.27000E+04
         0.27000E+04
         0.27000E+04
         0.27000E+04
         0.27000E+04
         0.27000E+04
         0.27000E+04
         0.27000E+04
         0.27000E+04
         0.27000E+04
         0.27000E+04
         0.27000E+04
         0.27000E+04
         0.27000E+04
         0.27000E+04
         0.27000E+04
         0.27000E+04
         0.27000E+04
         0.27000E+04
         0.27000E+04
         0.27000E+04
         0.27000E+04
         0.27000E+04
         0.27000E+04
         0.27000E+04
         0.27000E+04
         0.27000E+04
         0.27000E+04
         0.27000E+04
         0.27000E+04
         0.27000E+04
         0.27000E+04
         0.27000E+04
         0.27000E+04
         0.27000E+04
         0.27000E+04
         0.27000E+04
         0.27000E+04
         0.27000E+04
         0.27000E+04
         0.27000E+04
         0.27000E+04
         0.27000E+04
         0.27000E+04
         0.27000E+04
         0.27000E+04
         0.27000E+04
         0.27000E+04
         0.27000E+04
         0.27000E+04
         0.27000E+04
         0.27000E+04
         0.27000E+04
         0.27000E+04
         0.27000E+04
         0.27000E+04
         0.27000E+04
         0.27000E+04
         0.27000E+04
         0.27000E+04
         0.27000E+04
         0.27000E+04
         0.27000E+04
         0.27000E+04
         0.27000E+04
         0.27000E+04
         0.27000E+04
         0.27000E+04
         0.27000E+04
         0.27000E+04
         0.27000E+04
         0.27000E+04
         0.27000E+04
         0.27000E+04
         0.27000E+04
         0.27000E+04
         0.27000E+04
         0.27000E+04
         0.27000E+04
         0.27000E+04
         0.27000E+04
         0.27000E+04
         0.27000E+04
         0.27000E+04
         0.27000E+04
         0.27000E+04
         0.27000E+04
         0.27000E+04
         0.27000E+04
         0.27000E+04
         0.27000E+04
         0.27000E+04
         0.27000E+04
         0.27000E+04
         0.27000E+04
         0.27000E+04
         0.27000E+04
         0.27000E+04
         0.27000E+04
         0.27000E+04
         0.27000E+04
         0.27000E+04
         0.27000E+04
         0.27000E+04
         0.27000E+04
         0.27000E+04
         0.27000E+04
         0.27000E+04
         0.27000E+04
         0.27000E+04
         0.27000E+04
         0.27000E+04
         0.27000E+04
         0.27000E+04
         0.27000E+04
         0.27000E+04
         0.27000E+04
         0.27000E+04
         0.27000E+04
         0.27000E+04
         0.27000E+04
         0.27000E+04
         0.27000E+04
         0.27000E+04
         0.27000E+04
         0.27000E+04
         0.27000E+04
         0.27000E+04
         0.27000E+04
         0.27000E+04
         0.27000E+04
         0.27000E+04
         0.27000E+04
