# vtk DataFile Version 2.0
               (MEGA VTK FILE)
ASCII
DATASET UNSTRUCTURED_GRID
POINTS       1950    double
  0.10378E-02  0.67292E-03 -0.21162E-01
  0.17452E-02  0.12308E-02 -0.21145E-01
  0.23177E-02  0.59151E-03 -0.21143E-01
  0.16698E-02 -0.33775E-03 -0.21174E-01
  0.10379E-02  0.67237E-03 -0.11750E-01
  0.17453E-02  0.12301E-02 -0.11750E-01
  0.23178E-02  0.59098E-03 -0.11750E-01
  0.16700E-02 -0.33851E-03 -0.11750E-01
  0.30377E-02  0.14882E-03 -0.21112E-01
  0.27791E-02 -0.67643E-03 -0.21149E-01
  0.30377E-02  0.14846E-03 -0.11750E-01
  0.27788E-02 -0.67692E-03 -0.11750E-01
  0.12850E-02  0.18412E-02 -0.21127E-01
  0.65139E-03  0.14576E-02 -0.21151E-01
  0.12851E-02  0.18410E-02 -0.11750E-01
  0.65164E-03  0.14566E-02 -0.11750E-01
  0.12757E-03  0.29933E-03 -0.21163E-01
 -0.12822E-03  0.11672E-02 -0.21168E-01
  0.12783E-03  0.29819E-03 -0.11750E-01
 -0.12804E-03  0.11655E-02 -0.11750E-01
  0.94500E-03  0.22748E-02 -0.21115E-01
  0.11327E-02  0.28286E-02 -0.21101E-01
  0.17490E-02  0.24238E-02 -0.21108E-01
  0.94533E-03  0.22746E-02 -0.11750E-01
  0.11330E-02  0.28291E-02 -0.11750E-01
  0.17494E-02  0.24236E-02 -0.11750E-01
  0.40588E-03  0.21685E-02 -0.21144E-01
  0.39779E-03  0.29366E-02 -0.21135E-01
  0.40594E-03  0.21684E-02 -0.11750E-01
  0.39781E-03  0.29369E-02 -0.11750E-01
 -0.76303E-03 -0.10033E-02 -0.21177E-01
 -0.86604E-03  0.78969E-04 -0.21185E-01
  0.46119E-03 -0.70318E-03 -0.21171E-01
 -0.76268E-03 -0.10032E-02 -0.11750E-01
 -0.86593E-03  0.78160E-04 -0.11750E-01
  0.46164E-03 -0.70391E-03 -0.11750E-01
 -0.18300E-02 -0.71196E-03 -0.21144E-01
 -0.18440E-02  0.82749E-04 -0.21177E-01
 -0.18297E-02 -0.71210E-03 -0.11750E-01
 -0.18441E-02  0.82626E-04 -0.11750E-01
 -0.27238E-02 -0.77865E-03 -0.21134E-01
 -0.28028E-02  0.40713E-04 -0.21162E-01
 -0.27238E-02 -0.77882E-03 -0.11750E-01
 -0.28031E-02  0.40439E-04 -0.11750E-01
 -0.25365E-02 -0.15195E-02 -0.21108E-01
 -0.19287E-02 -0.13230E-02 -0.21121E-01
 -0.25363E-02 -0.15195E-02 -0.11750E-01
 -0.19283E-02 -0.13231E-02 -0.11750E-01
 -0.99363E-03  0.98847E-03 -0.21187E-01
 -0.99377E-03  0.98712E-03 -0.11750E-01
 -0.14380E-02 -0.17325E-02 -0.21139E-01
 -0.14377E-02 -0.17325E-02 -0.11750E-01
 -0.31574E-03  0.20220E-02 -0.21174E-01
 -0.31594E-03  0.20217E-02 -0.11750E-01
 -0.11068E-02  0.18615E-02 -0.21185E-01
 -0.11071E-02  0.18616E-02 -0.11750E-01
 -0.18845E-02  0.17175E-02 -0.21157E-01
 -0.18713E-02  0.90940E-03 -0.21179E-01
 -0.18846E-02  0.17175E-02 -0.11750E-01
 -0.18714E-02  0.90916E-03 -0.11750E-01
 -0.15871E-03 -0.19800E-02 -0.21169E-01
 -0.94089E-03 -0.23489E-02 -0.21139E-01
 -0.15844E-03 -0.19800E-02 -0.11750E-01
 -0.94029E-03 -0.23489E-02 -0.11750E-01
  0.78856E-03 -0.17074E-02 -0.21167E-01
  0.78922E-03 -0.17074E-02 -0.11750E-01
  0.17211E-02 -0.14894E-02 -0.21155E-01
  0.17211E-02 -0.14892E-02 -0.11750E-01
  0.32050E-02  0.76036E-03 -0.21066E-01
  0.28046E-02  0.12477E-02 -0.21102E-01
  0.32047E-02  0.75936E-03 -0.11750E-01
  0.28047E-02  0.12473E-02 -0.11750E-01
  0.23059E-02  0.18665E-02 -0.21115E-01
  0.23060E-02  0.18664E-02 -0.11750E-01
 -0.40614E-03  0.29038E-02 -0.21154E-01
 -0.40627E-03  0.29049E-02 -0.11750E-01
 -0.12092E-02  0.27207E-02 -0.21150E-01
 -0.12092E-02  0.27212E-02 -0.11750E-01
 -0.19448E-02  0.24642E-02 -0.21116E-01
 -0.19448E-02  0.24645E-02 -0.11750E-01
 -0.25029E-02  0.22359E-02 -0.21078E-01
 -0.26371E-02  0.16503E-02 -0.21126E-01
 -0.25029E-02  0.22359E-02 -0.11750E-01
 -0.26372E-02  0.16503E-02 -0.11750E-01
 -0.27671E-02  0.87493E-03 -0.21165E-01
 -0.27674E-02  0.87466E-03 -0.11750E-01
 -0.21123E-02 -0.21373E-02 -0.21111E-01
 -0.21122E-02 -0.21373E-02 -0.11750E-01
 -0.16087E-02 -0.26931E-02 -0.21097E-01
 -0.16087E-02 -0.26931E-02 -0.11750E-01
 -0.11939E-02 -0.31291E-02 -0.21062E-01
 -0.58641E-03 -0.30382E-02 -0.21110E-01
 -0.11937E-02 -0.31291E-02 -0.11750E-01
 -0.58606E-03 -0.30382E-02 -0.11750E-01
  0.20912E-03 -0.28748E-02 -0.21142E-01
  0.20952E-03 -0.28748E-02 -0.11750E-01
  0.10586E-02 -0.26423E-02 -0.21137E-01
  0.10589E-02 -0.26420E-02 -0.11750E-01
  0.18413E-02 -0.23707E-02 -0.21111E-01
  0.18413E-02 -0.23705E-02 -0.11750E-01
  0.24544E-02 -0.21445E-02 -0.21074E-01
  0.26022E-02 -0.15105E-02 -0.21118E-01
  0.24543E-02 -0.21439E-02 -0.11750E-01
  0.26021E-02 -0.15106E-02 -0.11750E-01
  0.37964E-02  0.93572E-03 -0.20967E-01
  0.39100E-02  0.00000E+00 -0.20984E-01
  0.37964E-02  0.93572E-03 -0.11750E-01
  0.39100E-02  0.00000E+00 -0.11750E-01
  0.34621E-02  0.18171E-02 -0.20982E-01
  0.34621E-02  0.18171E-02 -0.11750E-01
  0.29267E-02  0.25928E-02 -0.20969E-01
  0.29267E-02  0.25928E-02 -0.11750E-01
  0.22211E-02  0.32179E-02 -0.20970E-01
  0.22211E-02  0.32179E-02 -0.11750E-01
  0.13865E-02  0.36559E-02 -0.20969E-01
  0.13865E-02  0.36559E-02 -0.11750E-01
  0.47130E-03  0.38815E-02 -0.20979E-01
  0.47130E-03  0.38815E-02 -0.11750E-01
 -0.47130E-03  0.38815E-02 -0.20983E-01
 -0.47130E-03  0.38815E-02 -0.11750E-01
 -0.13865E-02  0.36559E-02 -0.20980E-01
 -0.13865E-02  0.36559E-02 -0.11750E-01
 -0.22211E-02  0.32179E-02 -0.20978E-01
 -0.22211E-02  0.32179E-02 -0.11750E-01
 -0.29267E-02  0.25928E-02 -0.20963E-01
 -0.29267E-02  0.25928E-02 -0.11750E-01
 -0.34621E-02  0.18171E-02 -0.20983E-01
 -0.34621E-02  0.18171E-02 -0.11750E-01
 -0.37964E-02  0.93572E-03 -0.20989E-01
 -0.37964E-02  0.93572E-03 -0.11750E-01
 -0.39100E-02  0.22152E-17 -0.20988E-01
 -0.39100E-02 -0.47884E-18 -0.11750E-01
 -0.37964E-02 -0.93572E-03 -0.20980E-01
 -0.37964E-02 -0.93572E-03 -0.11750E-01
 -0.34621E-02 -0.18171E-02 -0.20972E-01
 -0.34621E-02 -0.18171E-02 -0.11750E-01
 -0.29267E-02 -0.25928E-02 -0.20968E-01
 -0.29267E-02 -0.25928E-02 -0.11750E-01
 -0.22211E-02 -0.32179E-02 -0.20980E-01
 -0.22211E-02 -0.32179E-02 -0.11750E-01
 -0.13865E-02 -0.36559E-02 -0.20969E-01
 -0.13865E-02 -0.36559E-02 -0.11750E-01
 -0.47130E-03 -0.38815E-02 -0.20986E-01
 -0.47130E-03 -0.38815E-02 -0.11750E-01
  0.47130E-03 -0.38815E-02 -0.20980E-01
  0.47130E-03 -0.38815E-02 -0.11750E-01
  0.13865E-02 -0.36559E-02 -0.20975E-01
  0.13865E-02 -0.36559E-02 -0.11750E-01
  0.22211E-02 -0.32179E-02 -0.20984E-01
  0.22211E-02 -0.32179E-02 -0.11750E-01
  0.29267E-02 -0.25928E-02 -0.20971E-01
  0.29267E-02 -0.25928E-02 -0.11750E-01
  0.34621E-02 -0.18171E-02 -0.20984E-01
  0.34621E-02 -0.18171E-02 -0.11750E-01
  0.37964E-02 -0.93572E-03 -0.20985E-01
  0.37964E-02 -0.93572E-03 -0.11750E-01
  0.10376E-02  0.67348E-03 -0.24438E-01
  0.17450E-02  0.12314E-02 -0.24435E-01
  0.23175E-02  0.59203E-03 -0.24435E-01
  0.16696E-02 -0.33700E-03 -0.24439E-01
  0.30377E-02  0.14918E-03 -0.24430E-01
  0.27795E-02 -0.67594E-03 -0.24435E-01
  0.12849E-02  0.18414E-02 -0.24432E-01
  0.65115E-03  0.14586E-02 -0.24436E-01
  0.12731E-03  0.30048E-03 -0.24439E-01
 -0.12841E-03  0.11690E-02 -0.24439E-01
  0.94467E-03  0.22749E-02 -0.24431E-01
  0.11323E-02  0.28282E-02 -0.24429E-01
  0.17487E-02  0.24239E-02 -0.24429E-01
  0.40583E-03  0.21685E-02 -0.24435E-01
  0.39777E-03  0.29364E-02 -0.24433E-01
 -0.76338E-03 -0.10035E-02 -0.24439E-01
 -0.86615E-03  0.79778E-04 -0.24441E-01
  0.46074E-03 -0.70245E-03 -0.24439E-01
 -0.18303E-02 -0.71182E-03 -0.24435E-01
 -0.18439E-02  0.82873E-04 -0.24440E-01
 -0.27238E-02 -0.77848E-03 -0.24433E-01
 -0.28025E-02  0.40986E-04 -0.24438E-01
 -0.25366E-02 -0.15194E-02 -0.24429E-01
 -0.19292E-02 -0.13228E-02 -0.24432E-01
 -0.99349E-03  0.98983E-03 -0.24441E-01
 -0.14384E-02 -0.17324E-02 -0.24434E-01
 -0.31554E-03  0.20223E-02 -0.24440E-01
 -0.11064E-02  0.18614E-02 -0.24441E-01
 -0.18845E-02  0.17175E-02 -0.24436E-01
 -0.18712E-02  0.90964E-03 -0.24440E-01
 -0.15899E-03 -0.19800E-02 -0.24439E-01
 -0.94149E-03 -0.23489E-02 -0.24434E-01
  0.78790E-03 -0.17074E-02 -0.24438E-01
  0.17210E-02 -0.14896E-02 -0.24436E-01
  0.32053E-02  0.76137E-03 -0.24424E-01
  0.28046E-02  0.12481E-02 -0.24428E-01
  0.23058E-02  0.18665E-02 -0.24430E-01
 -0.40600E-03  0.29027E-02 -0.24437E-01
 -0.12092E-02  0.27202E-02 -0.24436E-01
 -0.19447E-02  0.24640E-02 -0.24430E-01
 -0.25028E-02  0.22359E-02 -0.24425E-01
 -0.26370E-02  0.16503E-02 -0.24432E-01
 -0.27668E-02  0.87519E-03 -0.24438E-01
 -0.21125E-02 -0.21373E-02 -0.24429E-01
 -0.16088E-02 -0.26932E-02 -0.24427E-01
 -0.11940E-02 -0.31291E-02 -0.24423E-01
 -0.58676E-03 -0.30382E-02 -0.24429E-01
  0.20871E-03 -0.28748E-02 -0.24434E-01
  0.10583E-02 -0.26426E-02 -0.24434E-01
  0.18413E-02 -0.23709E-02 -0.24429E-01
  0.24545E-02 -0.21450E-02 -0.24425E-01
  0.26022E-02 -0.15104E-02 -0.24431E-01
  0.37964E-02  0.93572E-03 -0.24413E-01
  0.39100E-02  0.00000E+00 -0.24416E-01
  0.34621E-02  0.18171E-02 -0.24415E-01
  0.29267E-02  0.25928E-02 -0.24414E-01
  0.22211E-02  0.32179E-02 -0.24414E-01
  0.13865E-02  0.36559E-02 -0.24414E-01
  0.47130E-03  0.38815E-02 -0.24416E-01
 -0.47130E-03  0.38815E-02 -0.24416E-01
 -0.13865E-02  0.36559E-02 -0.24415E-01
 -0.22211E-02  0.32179E-02 -0.24414E-01
 -0.29267E-02  0.25928E-02 -0.24412E-01
 -0.34621E-02  0.18171E-02 -0.24415E-01
 -0.37964E-02  0.93572E-03 -0.24417E-01
 -0.39100E-02 -0.47884E-18 -0.24417E-01
 -0.37964E-02 -0.93572E-03 -0.24416E-01
 -0.34621E-02 -0.18171E-02 -0.24414E-01
 -0.29267E-02 -0.25928E-02 -0.24414E-01
 -0.22211E-02 -0.32179E-02 -0.24415E-01
 -0.13865E-02 -0.36559E-02 -0.24413E-01
 -0.47130E-03 -0.38815E-02 -0.24416E-01
  0.47130E-03 -0.38815E-02 -0.24416E-01
  0.13865E-02 -0.36559E-02 -0.24415E-01
  0.22211E-02 -0.32179E-02 -0.24416E-01
  0.29267E-02 -0.25928E-02 -0.24413E-01
  0.34621E-02 -0.18171E-02 -0.24416E-01
  0.37964E-02 -0.93572E-03 -0.24417E-01
  0.10375E-02  0.67403E-03 -0.23807E-01
  0.17448E-02  0.12321E-02 -0.23807E-01
  0.23174E-02  0.59255E-03 -0.23807E-01
  0.16694E-02 -0.33624E-03 -0.23807E-01
  0.30377E-02  0.14955E-03 -0.23807E-01
  0.27798E-02 -0.67544E-03 -0.23807E-01
  0.12848E-02  0.18415E-02 -0.23807E-01
  0.65090E-03  0.14596E-02 -0.23807E-01
  0.12705E-03  0.30163E-03 -0.23807E-01
 -0.12859E-03  0.11707E-02 -0.23807E-01
  0.94434E-03  0.22750E-02 -0.23807E-01
  0.11320E-02  0.28277E-02 -0.23807E-01
  0.17483E-02  0.24241E-02 -0.23807E-01
  0.40577E-03  0.21685E-02 -0.23807E-01
  0.39776E-03  0.29361E-02 -0.23807E-01
 -0.76374E-03 -0.10036E-02 -0.23807E-01
 -0.86626E-03  0.80588E-04 -0.23807E-01
  0.46029E-03 -0.70173E-03 -0.23807E-01
 -0.18306E-02 -0.71168E-03 -0.23807E-01
 -0.18438E-02  0.82996E-04 -0.23807E-01
 -0.27238E-02 -0.77831E-03 -0.23807E-01
 -0.28022E-02  0.41259E-04 -0.23807E-01
 -0.25368E-02 -0.15194E-02 -0.23807E-01
 -0.19296E-02 -0.13227E-02 -0.23807E-01
 -0.99334E-03  0.99119E-03 -0.23807E-01
 -0.14387E-02 -0.17324E-02 -0.23807E-01
 -0.31534E-03  0.20226E-02 -0.23807E-01
 -0.11061E-02  0.18613E-02 -0.23807E-01
 -0.18844E-02  0.17175E-02 -0.23807E-01
 -0.18710E-02  0.90988E-03 -0.23807E-01
 -0.15926E-03 -0.19801E-02 -0.23807E-01
 -0.94209E-03 -0.23490E-02 -0.23807E-01
  0.78724E-03 -0.17074E-02 -0.23807E-01
  0.17210E-02 -0.14899E-02 -0.23807E-01
  0.32056E-02  0.76237E-03 -0.23807E-01
  0.28046E-02  0.12485E-02 -0.23807E-01
  0.23057E-02  0.18666E-02 -0.23807E-01
 -0.40586E-03  0.29017E-02 -0.23807E-01
 -0.12092E-02  0.27198E-02 -0.23807E-01
 -0.19447E-02  0.24638E-02 -0.23807E-01
 -0.25028E-02  0.22359E-02 -0.23807E-01
 -0.26369E-02  0.16503E-02 -0.23807E-01
 -0.27665E-02  0.87545E-03 -0.23807E-01
 -0.21126E-02 -0.21374E-02 -0.23807E-01
 -0.16088E-02 -0.26932E-02 -0.23807E-01
 -0.11941E-02 -0.31291E-02 -0.23807E-01
 -0.58711E-03 -0.30382E-02 -0.23807E-01
  0.20830E-03 -0.28748E-02 -0.23807E-01
  0.10580E-02 -0.26428E-02 -0.23807E-01
  0.18414E-02 -0.23711E-02 -0.23807E-01
  0.24546E-02 -0.21456E-02 -0.23807E-01
  0.26023E-02 -0.15103E-02 -0.23807E-01
  0.37964E-02  0.93572E-03 -0.23807E-01
  0.39100E-02  0.00000E+00 -0.23807E-01
  0.34621E-02  0.18171E-02 -0.23807E-01
  0.29267E-02  0.25928E-02 -0.23807E-01
  0.22211E-02  0.32179E-02 -0.23807E-01
  0.13865E-02  0.36559E-02 -0.23807E-01
  0.47130E-03  0.38815E-02 -0.23807E-01
 -0.47130E-03  0.38815E-02 -0.23807E-01
 -0.13865E-02  0.36559E-02 -0.23807E-01
 -0.22211E-02  0.32179E-02 -0.23807E-01
 -0.29267E-02  0.25928E-02 -0.23807E-01
 -0.34621E-02  0.18171E-02 -0.23807E-01
 -0.37964E-02  0.93572E-03 -0.23807E-01
 -0.39100E-02  0.39516E-17 -0.23807E-01
 -0.37964E-02 -0.93572E-03 -0.23807E-01
 -0.34621E-02 -0.18171E-02 -0.23807E-01
 -0.29267E-02 -0.25928E-02 -0.23807E-01
 -0.22211E-02 -0.32179E-02 -0.23807E-01
 -0.13865E-02 -0.36559E-02 -0.23807E-01
 -0.47130E-03 -0.38815E-02 -0.23807E-01
  0.47130E-03 -0.38815E-02 -0.23807E-01
  0.13865E-02 -0.36559E-02 -0.23807E-01
  0.22211E-02 -0.32179E-02 -0.23807E-01
  0.29267E-02 -0.25928E-02 -0.23807E-01
  0.34621E-02 -0.18171E-02 -0.23807E-01
  0.37964E-02 -0.93572E-03 -0.23807E-01
  0.10374E-02  0.67459E-03 -0.22828E-01
  0.17446E-02  0.12328E-02 -0.22828E-01
  0.23173E-02  0.59308E-03 -0.22828E-01
  0.16692E-02 -0.33549E-03 -0.22828E-01
  0.30376E-02  0.14991E-03 -0.22828E-01
  0.27801E-02 -0.67495E-03 -0.22828E-01
  0.12847E-02  0.18417E-02 -0.22828E-01
  0.65065E-03  0.14606E-02 -0.22828E-01
  0.12678E-03  0.30278E-03 -0.22828E-01
 -0.12878E-03  0.11725E-02 -0.22828E-01
  0.94401E-03  0.22752E-02 -0.22828E-01
  0.11316E-02  0.28273E-02 -0.22828E-01
  0.17479E-02  0.24242E-02 -0.22828E-01
  0.40572E-03  0.21686E-02 -0.22828E-01
  0.39774E-03  0.29359E-02 -0.22828E-01
 -0.76409E-03 -0.10038E-02 -0.22828E-01
 -0.86637E-03  0.81397E-04 -0.22828E-01
  0.45985E-03 -0.70100E-03 -0.22828E-01
 -0.18309E-02 -0.71154E-03 -0.22828E-01
 -0.18437E-02  0.83120E-04 -0.22828E-01
 -0.27237E-02 -0.77814E-03 -0.22828E-01
 -0.28020E-02  0.41533E-04 -0.22828E-01
 -0.25369E-02 -0.15193E-02 -0.22828E-01
 -0.19300E-02 -0.13227E-02 -0.22828E-01
 -0.99320E-03  0.99254E-03 -0.22828E-01
 -0.14391E-02 -0.17324E-02 -0.22828E-01
 -0.31514E-03  0.20228E-02 -0.22828E-01
 -0.11057E-02  0.18611E-02 -0.22828E-01
 -0.18844E-02  0.17175E-02 -0.22828E-01
 -0.18709E-02  0.91012E-03 -0.22828E-01
 -0.15954E-03 -0.19801E-02 -0.22828E-01
 -0.94269E-03 -0.23490E-02 -0.22828E-01
  0.78658E-03 -0.17074E-02 -0.22828E-01
  0.17209E-02 -0.14901E-02 -0.22828E-01
  0.32060E-02  0.76338E-03 -0.22828E-01
  0.28046E-02  0.12490E-02 -0.22828E-01
  0.23056E-02  0.18666E-02 -0.22828E-01
 -0.40572E-03  0.29006E-02 -0.22828E-01
 -0.12092E-02  0.27193E-02 -0.22828E-01
 -0.19446E-02  0.24636E-02 -0.22828E-01
 -0.25028E-02  0.22359E-02 -0.22828E-01
 -0.26368E-02  0.16503E-02 -0.22828E-01
 -0.27662E-02  0.87571E-03 -0.22828E-01
 -0.21128E-02 -0.21374E-02 -0.22828E-01
 -0.16088E-02 -0.26932E-02 -0.22828E-01
 -0.11942E-02 -0.31291E-02 -0.22828E-01
 -0.58746E-03 -0.30382E-02 -0.22828E-01
  0.20790E-03 -0.28748E-02 -0.22828E-01
  0.10577E-02 -0.26431E-02 -0.22828E-01
  0.18414E-02 -0.23713E-02 -0.22828E-01
  0.24548E-02 -0.21461E-02 -0.22828E-01
  0.26024E-02 -0.15102E-02 -0.22828E-01
  0.37964E-02  0.93572E-03 -0.22828E-01
  0.39100E-02  0.00000E+00 -0.22828E-01
  0.34621E-02  0.18171E-02 -0.22828E-01
  0.29267E-02  0.25928E-02 -0.22828E-01
  0.22211E-02  0.32179E-02 -0.22828E-01
  0.13865E-02  0.36559E-02 -0.22828E-01
  0.47130E-03  0.38815E-02 -0.22828E-01
 -0.47130E-03  0.38815E-02 -0.22828E-01
 -0.13865E-02  0.36559E-02 -0.22828E-01
 -0.22211E-02  0.32179E-02 -0.22828E-01
 -0.29267E-02  0.25928E-02 -0.22828E-01
 -0.34621E-02  0.18171E-02 -0.22828E-01
 -0.37964E-02  0.93572E-03 -0.22828E-01
 -0.39100E-02 -0.47884E-18 -0.22828E-01
 -0.37964E-02 -0.93572E-03 -0.22828E-01
 -0.34621E-02 -0.18171E-02 -0.22828E-01
 -0.29267E-02 -0.25928E-02 -0.22828E-01
 -0.22211E-02 -0.32179E-02 -0.22828E-01
 -0.13865E-02 -0.36559E-02 -0.22828E-01
 -0.47130E-03 -0.38815E-02 -0.22828E-01
  0.47130E-03 -0.38815E-02 -0.22828E-01
  0.13865E-02 -0.36559E-02 -0.22828E-01
  0.22211E-02 -0.32179E-02 -0.22828E-01
  0.29267E-02 -0.25928E-02 -0.22828E-01
  0.34621E-02 -0.18171E-02 -0.22828E-01
  0.37964E-02 -0.93572E-03 -0.22828E-01
  0.10373E-02  0.67514E-03 -0.21849E-01
  0.17445E-02  0.12334E-02 -0.21849E-01
  0.23172E-02  0.59360E-03 -0.21849E-01
  0.16689E-02 -0.33474E-03 -0.21849E-01
  0.30376E-02  0.15027E-03 -0.21849E-01
  0.27805E-02 -0.67446E-03 -0.21849E-01
  0.12846E-02  0.18419E-02 -0.21849E-01
  0.65041E-03  0.14616E-02 -0.21849E-01
  0.12652E-03  0.30393E-03 -0.21849E-01
 -0.12896E-03  0.11742E-02 -0.21849E-01
  0.94367E-03  0.22753E-02 -0.21849E-01
  0.11313E-02  0.28269E-02 -0.21849E-01
  0.17475E-02  0.24244E-02 -0.21849E-01
  0.40566E-03  0.21686E-02 -0.21849E-01
  0.39772E-03  0.29356E-02 -0.21849E-01
 -0.76444E-03 -0.10039E-02 -0.21849E-01
 -0.86648E-03  0.82206E-04 -0.21849E-01
  0.45940E-03 -0.70028E-03 -0.21849E-01
 -0.18312E-02 -0.71140E-03 -0.21849E-01
 -0.18436E-02  0.83243E-04 -0.21849E-01
 -0.27237E-02 -0.77797E-03 -0.21849E-01
 -0.28017E-02  0.41806E-04 -0.21849E-01
 -0.25371E-02 -0.15193E-02 -0.21849E-01
 -0.19305E-02 -0.13226E-02 -0.21849E-01
 -0.99305E-03  0.99390E-03 -0.21849E-01
 -0.14394E-02 -0.17323E-02 -0.21849E-01
 -0.31494E-03  0.20231E-02 -0.21849E-01
 -0.11054E-02  0.18610E-02 -0.21849E-01
 -0.18843E-02  0.17175E-02 -0.21849E-01
 -0.18708E-02  0.91036E-03 -0.21849E-01
 -0.15981E-03 -0.19801E-02 -0.21849E-01
 -0.94328E-03 -0.23490E-02 -0.21849E-01
  0.78592E-03 -0.17074E-02 -0.21849E-01
  0.17209E-02 -0.14904E-02 -0.21849E-01
  0.32063E-02  0.76439E-03 -0.21849E-01
  0.28045E-02  0.12494E-02 -0.21849E-01
  0.23055E-02  0.18666E-02 -0.21849E-01
 -0.40558E-03  0.28995E-02 -0.21849E-01
 -0.12092E-02  0.27188E-02 -0.21849E-01
 -0.19446E-02  0.24633E-02 -0.21849E-01
 -0.25027E-02  0.22359E-02 -0.21849E-01
 -0.26367E-02  0.16503E-02 -0.21849E-01
 -0.27658E-02  0.87597E-03 -0.21849E-01
 -0.21129E-02 -0.21374E-02 -0.21849E-01
 -0.16089E-02 -0.26932E-02 -0.21849E-01
 -0.11943E-02 -0.31291E-02 -0.21849E-01
 -0.58781E-03 -0.30382E-02 -0.21849E-01
  0.20749E-03 -0.28748E-02 -0.21849E-01
  0.10574E-02 -0.26434E-02 -0.21849E-01
  0.18415E-02 -0.23715E-02 -0.21849E-01
  0.24549E-02 -0.21467E-02 -0.21849E-01
  0.26025E-02 -0.15101E-02 -0.21849E-01
  0.37964E-02  0.93572E-03 -0.21849E-01
  0.39100E-02  0.00000E+00 -0.21849E-01
  0.34621E-02  0.18171E-02 -0.21849E-01
  0.29267E-02  0.25928E-02 -0.21849E-01
  0.22211E-02  0.32179E-02 -0.21849E-01
  0.13865E-02  0.36559E-02 -0.21849E-01
  0.47130E-03  0.38815E-02 -0.21849E-01
 -0.47130E-03  0.38815E-02 -0.21849E-01
 -0.13865E-02  0.36559E-02 -0.21849E-01
 -0.22211E-02  0.32179E-02 -0.21849E-01
 -0.29267E-02  0.25928E-02 -0.21849E-01
 -0.34621E-02  0.18171E-02 -0.21849E-01
 -0.37964E-02  0.93572E-03 -0.21849E-01
 -0.39100E-02 -0.47884E-18 -0.21849E-01
 -0.37964E-02 -0.93572E-03 -0.21849E-01
 -0.34621E-02 -0.18171E-02 -0.21849E-01
 -0.29267E-02 -0.25928E-02 -0.21849E-01
 -0.22211E-02 -0.32179E-02 -0.21849E-01
 -0.13865E-02 -0.36559E-02 -0.21849E-01
 -0.47130E-03 -0.38815E-02 -0.21849E-01
  0.47130E-03 -0.38815E-02 -0.21849E-01
  0.13865E-02 -0.36559E-02 -0.21849E-01
  0.22211E-02 -0.32179E-02 -0.21849E-01
  0.29267E-02 -0.25928E-02 -0.21849E-01
  0.34621E-02 -0.18171E-02 -0.21849E-01
  0.37964E-02 -0.93572E-03 -0.21849E-01
  0.10372E-02  0.67570E-03 -0.20870E-01
  0.17443E-02  0.12341E-02 -0.20870E-01
  0.23171E-02  0.59412E-03 -0.20870E-01
  0.16687E-02 -0.33398E-03 -0.20870E-01
  0.30376E-02  0.15064E-03 -0.20870E-01
  0.27808E-02 -0.67396E-03 -0.20870E-01
  0.12845E-02  0.18421E-02 -0.20870E-01
  0.65016E-03  0.14626E-02 -0.20870E-01
  0.12626E-03  0.30507E-03 -0.20870E-01
 -0.12915E-03  0.11760E-02 -0.20870E-01
  0.94334E-03  0.22754E-02 -0.20870E-01
  0.11310E-02  0.28264E-02 -0.20870E-01
  0.17471E-02  0.24245E-02 -0.20870E-01
  0.40561E-03  0.21686E-02 -0.20870E-01
  0.39770E-03  0.29353E-02 -0.20870E-01
 -0.76480E-03 -0.10040E-02 -0.20870E-01
 -0.86659E-03  0.83015E-04 -0.20870E-01
  0.45895E-03 -0.69955E-03 -0.20870E-01
 -0.18315E-02 -0.71126E-03 -0.20870E-01
 -0.18435E-02  0.83367E-04 -0.20870E-01
 -0.27237E-02 -0.77780E-03 -0.20870E-01
 -0.28014E-02  0.42080E-04 -0.20870E-01
 -0.25372E-02 -0.15192E-02 -0.20870E-01
 -0.19309E-02 -0.13224E-02 -0.20870E-01
 -0.99291E-03  0.99526E-03 -0.20870E-01
 -0.14398E-02 -0.17323E-02 -0.20870E-01
 -0.31474E-03  0.20234E-02 -0.20870E-01
 -0.11051E-02  0.18609E-02 -0.20870E-01
 -0.18843E-02  0.17175E-02 -0.20870E-01
 -0.18706E-02  0.91060E-03 -0.20870E-01
 -0.16009E-03 -0.19801E-02 -0.20870E-01
 -0.94388E-03 -0.23490E-02 -0.20870E-01
  0.78526E-03 -0.17074E-02 -0.20870E-01
  0.17208E-02 -0.14906E-02 -0.20870E-01
  0.32066E-02  0.76539E-03 -0.20870E-01
  0.28045E-02  0.12498E-02 -0.20870E-01
  0.23053E-02  0.18667E-02 -0.20870E-01
 -0.40545E-03  0.28984E-02 -0.20870E-01
 -0.12092E-02  0.27184E-02 -0.20870E-01
 -0.19446E-02  0.24631E-02 -0.20870E-01
 -0.25027E-02  0.22359E-02 -0.20870E-01
 -0.26366E-02  0.16503E-02 -0.20870E-01
 -0.27655E-02  0.87623E-03 -0.20870E-01
 -0.21130E-02 -0.21374E-02 -0.20870E-01
 -0.16089E-02 -0.26932E-02 -0.20870E-01
 -0.11944E-02 -0.31291E-02 -0.20870E-01
 -0.58816E-03 -0.30382E-02 -0.20870E-01
  0.20709E-03 -0.28748E-02 -0.20870E-01
  0.10571E-02 -0.26436E-02 -0.20870E-01
  0.18415E-02 -0.23717E-02 -0.20870E-01
  0.24550E-02 -0.21472E-02 -0.20870E-01
  0.26025E-02 -0.15100E-02 -0.20870E-01
  0.37964E-02  0.93572E-03 -0.20870E-01
  0.39100E-02  0.00000E+00 -0.20870E-01
  0.34621E-02  0.18171E-02 -0.20870E-01
  0.29267E-02  0.25928E-02 -0.20870E-01
  0.22211E-02  0.32179E-02 -0.20870E-01
  0.13865E-02  0.36559E-02 -0.20870E-01
  0.47130E-03  0.38815E-02 -0.20870E-01
 -0.47130E-03  0.38815E-02 -0.20870E-01
 -0.13865E-02  0.36559E-02 -0.20870E-01
 -0.22211E-02  0.32179E-02 -0.20870E-01
 -0.29267E-02  0.25928E-02 -0.20870E-01
 -0.34621E-02  0.18171E-02 -0.20870E-01
 -0.37964E-02  0.93572E-03 -0.20870E-01
 -0.39100E-02 -0.47884E-18 -0.20870E-01
 -0.37964E-02 -0.93572E-03 -0.20870E-01
 -0.34621E-02 -0.18171E-02 -0.20870E-01
 -0.29267E-02 -0.25928E-02 -0.20870E-01
 -0.22211E-02 -0.32179E-02 -0.20870E-01
 -0.13865E-02 -0.36559E-02 -0.20870E-01
 -0.47130E-03 -0.38815E-02 -0.20870E-01
  0.47130E-03 -0.38815E-02 -0.20870E-01
  0.13865E-02 -0.36559E-02 -0.20870E-01
  0.22211E-02 -0.32179E-02 -0.20870E-01
  0.29267E-02 -0.25928E-02 -0.20870E-01
  0.34621E-02 -0.18171E-02 -0.20870E-01
  0.37964E-02 -0.93572E-03 -0.20870E-01
  0.10371E-02  0.67625E-03 -0.19891E-01
  0.17441E-02  0.12348E-02 -0.19891E-01
  0.23169E-02  0.59465E-03 -0.19891E-01
  0.16685E-02 -0.33323E-03 -0.19891E-01
  0.30376E-02  0.15100E-03 -0.19891E-01
  0.27812E-02 -0.67347E-03 -0.19891E-01
  0.12844E-02  0.18423E-02 -0.19891E-01
  0.64992E-03  0.14636E-02 -0.19891E-01
  0.12600E-03  0.30622E-03 -0.19891E-01
 -0.12933E-03  0.11777E-02 -0.19891E-01
  0.94301E-03  0.22755E-02 -0.19891E-01
  0.11306E-02  0.28260E-02 -0.19891E-01
  0.17467E-02  0.24247E-02 -0.19891E-01
  0.40556E-03  0.21687E-02 -0.19891E-01
  0.39769E-03  0.29351E-02 -0.19891E-01
 -0.76515E-03 -0.10042E-02 -0.19891E-01
 -0.86670E-03  0.83825E-04 -0.19891E-01
  0.45850E-03 -0.69882E-03 -0.19891E-01
 -0.18318E-02 -0.71112E-03 -0.19891E-01
 -0.18434E-02  0.83490E-04 -0.19891E-01
 -0.27236E-02 -0.77763E-03 -0.19891E-01
 -0.28011E-02  0.42353E-04 -0.19891E-01
 -0.25374E-02 -0.15192E-02 -0.19891E-01
 -0.19313E-02 -0.13223E-02 -0.19891E-01
 -0.99277E-03  0.99661E-03 -0.19891E-01
 -0.14401E-02 -0.17322E-02 -0.19891E-01
 -0.31454E-03  0.20237E-02 -0.19891E-01
 -0.11047E-02  0.18607E-02 -0.19891E-01
 -0.18842E-02  0.17175E-02 -0.19891E-01
 -0.18705E-02  0.91084E-03 -0.19891E-01
 -0.16036E-03 -0.19801E-02 -0.19891E-01
 -0.94448E-03 -0.23491E-02 -0.19891E-01
  0.78460E-03 -0.17074E-02 -0.19891E-01
  0.17208E-02 -0.14909E-02 -0.19891E-01
  0.32070E-02  0.76640E-03 -0.19891E-01
  0.28045E-02  0.12503E-02 -0.19891E-01
  0.23052E-02  0.18667E-02 -0.19891E-01
 -0.40531E-03  0.28974E-02 -0.19891E-01
 -0.12092E-02  0.27179E-02 -0.19891E-01
 -0.19445E-02  0.24629E-02 -0.19891E-01
 -0.25027E-02  0.22359E-02 -0.19891E-01
 -0.26366E-02  0.16503E-02 -0.19891E-01
 -0.27652E-02  0.87650E-03 -0.19891E-01
 -0.21132E-02 -0.21374E-02 -0.19891E-01
 -0.16090E-02 -0.26933E-02 -0.19891E-01
 -0.11946E-02 -0.31291E-02 -0.19891E-01
 -0.58851E-03 -0.30382E-02 -0.19891E-01
  0.20668E-03 -0.28749E-02 -0.19891E-01
  0.10567E-02 -0.26439E-02 -0.19891E-01
  0.18416E-02 -0.23719E-02 -0.19891E-01
  0.24551E-02 -0.21478E-02 -0.19891E-01
  0.26026E-02 -0.15099E-02 -0.19891E-01
  0.37964E-02  0.93572E-03 -0.19891E-01
  0.39100E-02  0.00000E+00 -0.19891E-01
  0.34621E-02  0.18171E-02 -0.19891E-01
  0.29267E-02  0.25928E-02 -0.19891E-01
  0.22211E-02  0.32179E-02 -0.19891E-01
  0.13865E-02  0.36559E-02 -0.19891E-01
  0.47130E-03  0.38815E-02 -0.19891E-01
 -0.47130E-03  0.38815E-02 -0.19891E-01
 -0.13865E-02  0.36559E-02 -0.19891E-01
 -0.22211E-02  0.32179E-02 -0.19891E-01
 -0.29267E-02  0.25928E-02 -0.19891E-01
 -0.34621E-02  0.18171E-02 -0.19891E-01
 -0.37964E-02  0.93572E-03 -0.19891E-01
 -0.39100E-02 -0.47884E-18 -0.19891E-01
 -0.37964E-02 -0.93572E-03 -0.19891E-01
 -0.34621E-02 -0.18171E-02 -0.19891E-01
 -0.29267E-02 -0.25928E-02 -0.19891E-01
 -0.22211E-02 -0.32179E-02 -0.19891E-01
 -0.13865E-02 -0.36559E-02 -0.19891E-01
 -0.47130E-03 -0.38815E-02 -0.19891E-01
  0.47130E-03 -0.38815E-02 -0.19891E-01
  0.13865E-02 -0.36559E-02 -0.19891E-01
  0.22211E-02 -0.32179E-02 -0.19891E-01
  0.29267E-02 -0.25928E-02 -0.19891E-01
  0.34621E-02 -0.18171E-02 -0.19891E-01
  0.37964E-02 -0.93572E-03 -0.19891E-01
  0.10370E-02  0.67680E-03 -0.18911E-01
  0.17439E-02  0.12354E-02 -0.18911E-01
  0.23168E-02  0.59517E-03 -0.18911E-01
  0.16683E-02 -0.33247E-03 -0.18911E-01
  0.30375E-02  0.15136E-03 -0.18911E-01
  0.27815E-02 -0.67298E-03 -0.18911E-01
  0.12843E-02  0.18425E-02 -0.18911E-01
  0.64967E-03  0.14646E-02 -0.18911E-01
  0.12573E-03  0.30737E-03 -0.18911E-01
 -0.12952E-03  0.11795E-02 -0.18911E-01
  0.94268E-03  0.22757E-02 -0.18911E-01
  0.11303E-02  0.28255E-02 -0.18911E-01
  0.17463E-02  0.24248E-02 -0.18911E-01
  0.40550E-03  0.21687E-02 -0.18911E-01
  0.39767E-03  0.29348E-02 -0.18911E-01
 -0.76551E-03 -0.10043E-02 -0.18911E-01
 -0.86680E-03  0.84634E-04 -0.18911E-01
  0.45806E-03 -0.69810E-03 -0.18911E-01
 -0.18321E-02 -0.71098E-03 -0.18911E-01
 -0.18433E-02  0.83614E-04 -0.18911E-01
 -0.27236E-02 -0.77746E-03 -0.18911E-01
 -0.28009E-02  0.42626E-04 -0.18911E-01
 -0.25375E-02 -0.15191E-02 -0.18911E-01
 -0.19317E-02 -0.13223E-02 -0.18911E-01
 -0.99262E-03  0.99797E-03 -0.18911E-01
 -0.14405E-02 -0.17322E-02 -0.18911E-01
 -0.31434E-03  0.20240E-02 -0.18911E-01
 -0.11044E-02  0.18606E-02 -0.18911E-01
 -0.18842E-02  0.17175E-02 -0.18911E-01
 -0.18704E-02  0.91108E-03 -0.18911E-01
 -0.16064E-03 -0.19802E-02 -0.18911E-01
 -0.94508E-03 -0.23491E-02 -0.18911E-01
  0.78394E-03 -0.17074E-02 -0.18911E-01
  0.17208E-02 -0.14911E-02 -0.18911E-01
  0.32073E-02  0.76740E-03 -0.18911E-01
  0.28045E-02  0.12507E-02 -0.18911E-01
  0.23051E-02  0.18668E-02 -0.18911E-01
 -0.40517E-03  0.28963E-02 -0.18911E-01
 -0.12092E-02  0.27174E-02 -0.18911E-01
 -0.19445E-02  0.24627E-02 -0.18911E-01
 -0.25026E-02  0.22358E-02 -0.18911E-01
 -0.26365E-02  0.16503E-02 -0.18911E-01
 -0.27649E-02  0.87676E-03 -0.18911E-01
 -0.21133E-02 -0.21374E-02 -0.18911E-01
 -0.16090E-02 -0.26933E-02 -0.18911E-01
 -0.11947E-02 -0.31291E-02 -0.18911E-01
 -0.58886E-03 -0.30382E-02 -0.18911E-01
  0.20627E-03 -0.28749E-02 -0.18911E-01
  0.10564E-02 -0.26442E-02 -0.18911E-01
  0.18416E-02 -0.23721E-02 -0.18911E-01
  0.24553E-02 -0.21483E-02 -0.18911E-01
  0.26027E-02 -0.15097E-02 -0.18911E-01
  0.37964E-02  0.93572E-03 -0.18911E-01
  0.39100E-02  0.00000E+00 -0.18911E-01
  0.34621E-02  0.18171E-02 -0.18911E-01
  0.29267E-02  0.25928E-02 -0.18911E-01
  0.22211E-02  0.32179E-02 -0.18911E-01
  0.13865E-02  0.36559E-02 -0.18911E-01
  0.47130E-03  0.38815E-02 -0.18911E-01
 -0.47130E-03  0.38815E-02 -0.18911E-01
 -0.13865E-02  0.36559E-02 -0.18911E-01
 -0.22211E-02  0.32179E-02 -0.18911E-01
 -0.29267E-02  0.25928E-02 -0.18911E-01
 -0.34621E-02  0.18171E-02 -0.18911E-01
 -0.37964E-02  0.93572E-03 -0.18911E-01
 -0.39100E-02 -0.47884E-18 -0.18911E-01
 -0.37964E-02 -0.93572E-03 -0.18911E-01
 -0.34621E-02 -0.18171E-02 -0.18911E-01
 -0.29267E-02 -0.25928E-02 -0.18911E-01
 -0.22211E-02 -0.32179E-02 -0.18911E-01
 -0.13865E-02 -0.36559E-02 -0.18911E-01
 -0.47130E-03 -0.38815E-02 -0.18911E-01
  0.47130E-03 -0.38815E-02 -0.18911E-01
  0.13865E-02 -0.36559E-02 -0.18911E-01
  0.22211E-02 -0.32179E-02 -0.18911E-01
  0.29267E-02 -0.25928E-02 -0.18911E-01
  0.34621E-02 -0.18171E-02 -0.18911E-01
  0.37964E-02 -0.93572E-03 -0.18911E-01
  0.10368E-02  0.67736E-03 -0.17932E-01
  0.17438E-02  0.12361E-02 -0.17932E-01
  0.23167E-02  0.59570E-03 -0.17932E-01
  0.16681E-02 -0.33172E-03 -0.17932E-01
  0.30375E-02  0.15173E-03 -0.17932E-01
  0.27819E-02 -0.67248E-03 -0.17932E-01
  0.12842E-02  0.18427E-02 -0.17932E-01
  0.64943E-03  0.14656E-02 -0.17932E-01
  0.12547E-03  0.30852E-03 -0.17932E-01
 -0.12970E-03  0.11812E-02 -0.17932E-01
  0.94235E-03  0.22758E-02 -0.17932E-01
  0.11300E-02  0.28251E-02 -0.17932E-01
  0.17459E-02  0.24249E-02 -0.17932E-01
  0.40545E-03  0.21688E-02 -0.17932E-01
  0.39766E-03  0.29345E-02 -0.17932E-01
 -0.76586E-03 -0.10044E-02 -0.17932E-01
 -0.86691E-03  0.85443E-04 -0.17932E-01
  0.45761E-03 -0.69737E-03 -0.17932E-01
 -0.18324E-02 -0.71084E-03 -0.17932E-01
 -0.18432E-02  0.83737E-04 -0.17932E-01
 -0.27236E-02 -0.77729E-03 -0.17932E-01
 -0.28006E-02  0.42899E-04 -0.17932E-01
 -0.25377E-02 -0.15191E-02 -0.17932E-01
 -0.19322E-02 -0.13222E-02 -0.17932E-01
 -0.99248E-03  0.99932E-03 -0.17932E-01
 -0.14408E-02 -0.17322E-02 -0.17932E-01
 -0.31414E-03  0.20243E-02 -0.17932E-01
 -0.11040E-02  0.18605E-02 -0.17932E-01
 -0.18841E-02  0.17175E-02 -0.17932E-01
 -0.18703E-02  0.91132E-03 -0.17932E-01
 -0.16091E-03 -0.19802E-02 -0.17932E-01
 -0.94568E-03 -0.23491E-02 -0.17932E-01
  0.78328E-03 -0.17074E-02 -0.17932E-01
  0.17207E-02 -0.14914E-02 -0.17932E-01
  0.32076E-02  0.76841E-03 -0.17932E-01
  0.28044E-02  0.12511E-02 -0.17932E-01
  0.23050E-02  0.18668E-02 -0.17932E-01
 -0.40503E-03  0.28952E-02 -0.17932E-01
 -0.12092E-02  0.27170E-02 -0.17932E-01
 -0.19445E-02  0.24624E-02 -0.17932E-01
 -0.25026E-02  0.22358E-02 -0.17932E-01
 -0.26364E-02  0.16503E-02 -0.17932E-01
 -0.27646E-02  0.87702E-03 -0.17932E-01
 -0.21134E-02 -0.21374E-02 -0.17932E-01
 -0.16091E-02 -0.26933E-02 -0.17932E-01
 -0.11948E-02 -0.31291E-02 -0.17932E-01
 -0.58921E-03 -0.30382E-02 -0.17932E-01
  0.20587E-03 -0.28749E-02 -0.17932E-01
  0.10561E-02 -0.26444E-02 -0.17932E-01
  0.18416E-02 -0.23723E-02 -0.17932E-01
  0.24554E-02 -0.21489E-02 -0.17932E-01
  0.26027E-02 -0.15096E-02 -0.17932E-01
  0.37964E-02  0.93572E-03 -0.17932E-01
  0.39100E-02  0.00000E+00 -0.17932E-01
  0.34621E-02  0.18171E-02 -0.17932E-01
  0.29267E-02  0.25928E-02 -0.17932E-01
  0.22211E-02  0.32179E-02 -0.17932E-01
  0.13865E-02  0.36559E-02 -0.17932E-01
  0.47130E-03  0.38815E-02 -0.17932E-01
 -0.47130E-03  0.38815E-02 -0.17932E-01
 -0.13865E-02  0.36559E-02 -0.17932E-01
 -0.22211E-02  0.32179E-02 -0.17932E-01
 -0.29267E-02  0.25928E-02 -0.17932E-01
 -0.34621E-02  0.18171E-02 -0.17932E-01
 -0.37964E-02  0.93572E-03 -0.17932E-01
 -0.39100E-02 -0.47884E-18 -0.17932E-01
 -0.37964E-02 -0.93572E-03 -0.17932E-01
 -0.34621E-02 -0.18171E-02 -0.17932E-01
 -0.29267E-02 -0.25928E-02 -0.17932E-01
 -0.22211E-02 -0.32179E-02 -0.17932E-01
 -0.13865E-02 -0.36559E-02 -0.17932E-01
 -0.47130E-03 -0.38815E-02 -0.17932E-01
  0.47130E-03 -0.38815E-02 -0.17932E-01
  0.13865E-02 -0.36559E-02 -0.17932E-01
  0.22211E-02 -0.32179E-02 -0.17932E-01
  0.29267E-02 -0.25928E-02 -0.17932E-01
  0.34621E-02 -0.18171E-02 -0.17932E-01
  0.37964E-02 -0.93572E-03 -0.17932E-01
  0.10367E-02  0.67791E-03 -0.16953E-01
  0.17436E-02  0.12368E-02 -0.16953E-01
  0.23166E-02  0.59622E-03 -0.16953E-01
  0.16679E-02 -0.33096E-03 -0.16953E-01
  0.30375E-02  0.15209E-03 -0.16953E-01
  0.27822E-02 -0.67199E-03 -0.16953E-01
  0.12841E-02  0.18429E-02 -0.16953E-01
  0.64918E-03  0.14666E-02 -0.16953E-01
  0.12521E-03  0.30967E-03 -0.16953E-01
 -0.12989E-03  0.11830E-02 -0.16953E-01
  0.94202E-03  0.22759E-02 -0.16953E-01
  0.11296E-02  0.28247E-02 -0.16953E-01
  0.17455E-02  0.24251E-02 -0.16953E-01
  0.40539E-03  0.21688E-02 -0.16953E-01
  0.39764E-03  0.29343E-02 -0.16953E-01
 -0.76621E-03 -0.10046E-02 -0.16953E-01
 -0.86702E-03  0.86253E-04 -0.16953E-01
  0.45716E-03 -0.69665E-03 -0.16953E-01
 -0.18326E-02 -0.71070E-03 -0.16953E-01
 -0.18431E-02  0.83861E-04 -0.16953E-01
 -0.27235E-02 -0.77712E-03 -0.16953E-01
 -0.28003E-02  0.43173E-04 -0.16953E-01
 -0.25379E-02 -0.15190E-02 -0.16953E-01
 -0.19326E-02 -0.13220E-02 -0.16953E-01
 -0.99233E-03  0.10007E-02 -0.16953E-01
 -0.14412E-02 -0.17321E-02 -0.16953E-01
 -0.31394E-03  0.20245E-02 -0.16953E-01
 -0.11037E-02  0.18603E-02 -0.16953E-01
 -0.18841E-02  0.17175E-02 -0.16953E-01
 -0.18701E-02  0.91156E-03 -0.16953E-01
 -0.16119E-03 -0.19802E-02 -0.16953E-01
 -0.94628E-03 -0.23491E-02 -0.16953E-01
  0.78262E-03 -0.17074E-02 -0.16953E-01
  0.17207E-02 -0.14916E-02 -0.16953E-01
  0.32079E-02  0.76941E-03 -0.16953E-01
  0.28044E-02  0.12515E-02 -0.16953E-01
  0.23049E-02  0.18668E-02 -0.16953E-01
 -0.40490E-03  0.28942E-02 -0.16953E-01
 -0.12093E-02  0.27165E-02 -0.16953E-01
 -0.19444E-02  0.24622E-02 -0.16953E-01
 -0.25026E-02  0.22358E-02 -0.16953E-01
 -0.26363E-02  0.16503E-02 -0.16953E-01
 -0.27643E-02  0.87728E-03 -0.16953E-01
 -0.21136E-02 -0.21374E-02 -0.16953E-01
 -0.16091E-02 -0.26933E-02 -0.16953E-01
 -0.11949E-02 -0.31291E-02 -0.16953E-01
 -0.58956E-03 -0.30382E-02 -0.16953E-01
  0.20546E-03 -0.28749E-02 -0.16953E-01
  0.10558E-02 -0.26447E-02 -0.16953E-01
  0.18417E-02 -0.23725E-02 -0.16953E-01
  0.24555E-02 -0.21494E-02 -0.16953E-01
  0.26028E-02 -0.15095E-02 -0.16953E-01
  0.37964E-02  0.93572E-03 -0.16953E-01
  0.39100E-02  0.00000E+00 -0.16953E-01
  0.34621E-02  0.18171E-02 -0.16953E-01
  0.29267E-02  0.25928E-02 -0.16953E-01
  0.22211E-02  0.32179E-02 -0.16953E-01
  0.13865E-02  0.36559E-02 -0.16953E-01
  0.47130E-03  0.38815E-02 -0.16953E-01
 -0.47130E-03  0.38815E-02 -0.16953E-01
 -0.13865E-02  0.36559E-02 -0.16953E-01
 -0.22211E-02  0.32179E-02 -0.16953E-01
 -0.29267E-02  0.25928E-02 -0.16953E-01
 -0.34621E-02  0.18171E-02 -0.16953E-01
 -0.37964E-02  0.93572E-03 -0.16953E-01
 -0.39100E-02 -0.47884E-18 -0.16953E-01
 -0.37964E-02 -0.93572E-03 -0.16953E-01
 -0.34621E-02 -0.18171E-02 -0.16953E-01
 -0.29267E-02 -0.25928E-02 -0.16953E-01
 -0.22211E-02 -0.32179E-02 -0.16953E-01
 -0.13865E-02 -0.36559E-02 -0.16953E-01
 -0.47130E-03 -0.38815E-02 -0.16953E-01
  0.47130E-03 -0.38815E-02 -0.16953E-01
  0.13865E-02 -0.36559E-02 -0.16953E-01
  0.22211E-02 -0.32179E-02 -0.16953E-01
  0.29267E-02 -0.25928E-02 -0.16953E-01
  0.34621E-02 -0.18171E-02 -0.16953E-01
  0.37964E-02 -0.93572E-03 -0.16953E-01
  0.10366E-02  0.67847E-03 -0.15974E-01
  0.17434E-02  0.12374E-02 -0.15974E-01
  0.23164E-02  0.59674E-03 -0.15974E-01
  0.16677E-02 -0.33021E-03 -0.15974E-01
  0.30375E-02  0.15245E-03 -0.15974E-01
  0.27825E-02 -0.67150E-03 -0.15974E-01
  0.12840E-02  0.18430E-02 -0.15974E-01
  0.64894E-03  0.14676E-02 -0.15974E-01
  0.12495E-03  0.31081E-03 -0.15974E-01
 -0.13007E-03  0.11847E-02 -0.15974E-01
  0.94169E-03  0.22761E-02 -0.15974E-01
  0.11293E-02  0.28242E-02 -0.15974E-01
  0.17451E-02  0.24252E-02 -0.15974E-01
  0.40534E-03  0.21688E-02 -0.15974E-01
  0.39762E-03  0.29340E-02 -0.15974E-01
 -0.76657E-03 -0.10047E-02 -0.15974E-01
 -0.86713E-03  0.87062E-04 -0.15974E-01
  0.45671E-03 -0.69592E-03 -0.15974E-01
 -0.18329E-02 -0.71056E-03 -0.15974E-01
 -0.18430E-02  0.83985E-04 -0.15974E-01
 -0.27235E-02 -0.77695E-03 -0.15974E-01
 -0.28001E-02  0.43446E-04 -0.15974E-01
 -0.25380E-02 -0.15190E-02 -0.15974E-01
 -0.19330E-02 -0.13219E-02 -0.15974E-01
 -0.99219E-03  0.10020E-02 -0.15974E-01
 -0.14415E-02 -0.17321E-02 -0.15974E-01
 -0.31374E-03  0.20248E-02 -0.15974E-01
 -0.11033E-02  0.18602E-02 -0.15974E-01
 -0.18840E-02  0.17175E-02 -0.15974E-01
 -0.18700E-02  0.91180E-03 -0.15974E-01
 -0.16146E-03 -0.19803E-02 -0.15974E-01
 -0.94687E-03 -0.23491E-02 -0.15974E-01
  0.78195E-03 -0.17073E-02 -0.15974E-01
  0.17207E-02 -0.14919E-02 -0.15974E-01
  0.32083E-02  0.77042E-03 -0.15974E-01
  0.28044E-02  0.12520E-02 -0.15974E-01
  0.23048E-02  0.18669E-02 -0.15974E-01
 -0.40476E-03  0.28931E-02 -0.15974E-01
 -0.12093E-02  0.27160E-02 -0.15974E-01
 -0.19444E-02  0.24620E-02 -0.15974E-01
 -0.25026E-02  0.22358E-02 -0.15974E-01
 -0.26362E-02  0.16503E-02 -0.15974E-01
 -0.27640E-02  0.87754E-03 -0.15974E-01
 -0.21137E-02 -0.21374E-02 -0.15974E-01
 -0.16091E-02 -0.26933E-02 -0.15974E-01
 -0.11950E-02 -0.31291E-02 -0.15974E-01
 -0.58991E-03 -0.30382E-02 -0.15974E-01
  0.20505E-03 -0.28749E-02 -0.15974E-01
  0.10555E-02 -0.26450E-02 -0.15974E-01
  0.18417E-02 -0.23727E-02 -0.15974E-01
  0.24556E-02 -0.21500E-02 -0.15974E-01
  0.26029E-02 -0.15094E-02 -0.15974E-01
  0.37964E-02  0.93572E-03 -0.15974E-01
  0.39100E-02  0.00000E+00 -0.15974E-01
  0.34621E-02  0.18171E-02 -0.15974E-01
  0.29267E-02  0.25928E-02 -0.15974E-01
  0.22211E-02  0.32179E-02 -0.15974E-01
  0.13865E-02  0.36559E-02 -0.15974E-01
  0.47130E-03  0.38815E-02 -0.15974E-01
 -0.47130E-03  0.38815E-02 -0.15974E-01
 -0.13865E-02  0.36559E-02 -0.15974E-01
 -0.22211E-02  0.32179E-02 -0.15974E-01
 -0.29267E-02  0.25928E-02 -0.15974E-01
 -0.34621E-02  0.18171E-02 -0.15974E-01
 -0.37964E-02  0.93572E-03 -0.15974E-01
 -0.39100E-02  0.39516E-17 -0.15974E-01
 -0.37964E-02 -0.93572E-03 -0.15974E-01
 -0.34621E-02 -0.18171E-02 -0.15974E-01
 -0.29267E-02 -0.25928E-02 -0.15974E-01
 -0.22211E-02 -0.32179E-02 -0.15974E-01
 -0.13865E-02 -0.36559E-02 -0.15974E-01
 -0.47130E-03 -0.38815E-02 -0.15974E-01
  0.47130E-03 -0.38815E-02 -0.15974E-01
  0.13865E-02 -0.36559E-02 -0.15974E-01
  0.22211E-02 -0.32179E-02 -0.15974E-01
  0.29267E-02 -0.25928E-02 -0.15974E-01
  0.34621E-02 -0.18171E-02 -0.15974E-01
  0.37964E-02 -0.93572E-03 -0.15974E-01
  0.10365E-02  0.67902E-03 -0.14995E-01
  0.17432E-02  0.12381E-02 -0.14995E-01
  0.23163E-02  0.59727E-03 -0.14995E-01
  0.16675E-02 -0.32945E-03 -0.14995E-01
  0.30374E-02  0.15282E-03 -0.14995E-01
  0.27829E-02 -0.67100E-03 -0.14995E-01
  0.12839E-02  0.18432E-02 -0.14995E-01
  0.64869E-03  0.14686E-02 -0.14995E-01
  0.12468E-03  0.31196E-03 -0.14995E-01
 -0.13026E-03  0.11865E-02 -0.14995E-01
  0.94135E-03  0.22762E-02 -0.14995E-01
  0.11289E-02  0.28238E-02 -0.14995E-01
  0.17447E-02  0.24254E-02 -0.14995E-01
  0.40528E-03  0.21688E-02 -0.14995E-01
  0.39760E-03  0.29337E-02 -0.14995E-01
 -0.76692E-03 -0.10049E-02 -0.14995E-01
 -0.86724E-03  0.87871E-04 -0.14995E-01
  0.45626E-03 -0.69519E-03 -0.14995E-01
 -0.18332E-02 -0.71042E-03 -0.14995E-01
 -0.18430E-02  0.84108E-04 -0.14995E-01
 -0.27235E-02 -0.77678E-03 -0.14995E-01
 -0.27998E-02  0.43720E-04 -0.14995E-01
 -0.25382E-02 -0.15189E-02 -0.14995E-01
 -0.19334E-02 -0.13219E-02 -0.14995E-01
 -0.99205E-03  0.10034E-02 -0.14995E-01
 -0.14419E-02 -0.17320E-02 -0.14995E-01
 -0.31354E-03  0.20251E-02 -0.14995E-01
 -0.11030E-02  0.18601E-02 -0.14995E-01
 -0.18840E-02  0.17175E-02 -0.14995E-01
 -0.18699E-02  0.91204E-03 -0.14995E-01
 -0.16174E-03 -0.19803E-02 -0.14995E-01
 -0.94747E-03 -0.23492E-02 -0.14995E-01
  0.78129E-03 -0.17073E-02 -0.14995E-01
  0.17206E-02 -0.14921E-02 -0.14995E-01
  0.32086E-02  0.77142E-03 -0.14995E-01
  0.28044E-02  0.12524E-02 -0.14995E-01
  0.23047E-02  0.18669E-02 -0.14995E-01
 -0.40462E-03  0.28920E-02 -0.14995E-01
 -0.12093E-02  0.27155E-02 -0.14995E-01
 -0.19444E-02  0.24618E-02 -0.14995E-01
 -0.25025E-02  0.22358E-02 -0.14995E-01
 -0.26361E-02  0.16503E-02 -0.14995E-01
 -0.27637E-02  0.87781E-03 -0.14995E-01
 -0.21139E-02 -0.21374E-02 -0.14995E-01
 -0.16092E-02 -0.26934E-02 -0.14995E-01
 -0.11951E-02 -0.31291E-02 -0.14995E-01
 -0.59025E-03 -0.30382E-02 -0.14995E-01
  0.20465E-03 -0.28749E-02 -0.14995E-01
  0.10552E-02 -0.26452E-02 -0.14995E-01
  0.18418E-02 -0.23729E-02 -0.14995E-01
  0.24558E-02 -0.21505E-02 -0.14995E-01
  0.26030E-02 -0.15093E-02 -0.14995E-01
  0.37964E-02  0.93572E-03 -0.14995E-01
  0.39100E-02  0.00000E+00 -0.14995E-01
  0.34621E-02  0.18171E-02 -0.14995E-01
  0.29267E-02  0.25928E-02 -0.14995E-01
  0.22211E-02  0.32179E-02 -0.14995E-01
  0.13865E-02  0.36559E-02 -0.14995E-01
  0.47130E-03  0.38815E-02 -0.14995E-01
 -0.47130E-03  0.38815E-02 -0.14995E-01
 -0.13865E-02  0.36559E-02 -0.14995E-01
 -0.22211E-02  0.32179E-02 -0.14995E-01
 -0.29267E-02  0.25928E-02 -0.14995E-01
 -0.34621E-02  0.18171E-02 -0.14995E-01
 -0.37964E-02  0.93572E-03 -0.14995E-01
 -0.39100E-02 -0.47884E-18 -0.14995E-01
 -0.37964E-02 -0.93572E-03 -0.14995E-01
 -0.34621E-02 -0.18171E-02 -0.14995E-01
 -0.29267E-02 -0.25928E-02 -0.14995E-01
 -0.22211E-02 -0.32179E-02 -0.14995E-01
 -0.13865E-02 -0.36559E-02 -0.14995E-01
 -0.47130E-03 -0.38815E-02 -0.14995E-01
  0.47130E-03 -0.38815E-02 -0.14995E-01
  0.13865E-02 -0.36559E-02 -0.14995E-01
  0.22211E-02 -0.32179E-02 -0.14995E-01
  0.29267E-02 -0.25928E-02 -0.14995E-01
  0.34621E-02 -0.18171E-02 -0.14995E-01
  0.37964E-02 -0.93572E-03 -0.14995E-01
  0.10364E-02  0.67958E-03 -0.14016E-01
  0.17430E-02  0.12387E-02 -0.14016E-01
  0.23162E-02  0.59779E-03 -0.14016E-01
  0.16672E-02 -0.32870E-03 -0.14016E-01
  0.30374E-02  0.15318E-03 -0.14016E-01
  0.27832E-02 -0.67051E-03 -0.14016E-01
  0.12838E-02  0.18434E-02 -0.14016E-01
  0.64845E-03  0.14696E-02 -0.14016E-01
  0.12442E-03  0.31311E-03 -0.14016E-01
 -0.13044E-03  0.11882E-02 -0.14016E-01
  0.94102E-03  0.22763E-02 -0.14016E-01
  0.11286E-02  0.28233E-02 -0.14016E-01
  0.17443E-02  0.24255E-02 -0.14016E-01
  0.40523E-03  0.21689E-02 -0.14016E-01
  0.39759E-03  0.29335E-02 -0.14016E-01
 -0.76727E-03 -0.10050E-02 -0.14016E-01
 -0.86735E-03  0.88681E-04 -0.14016E-01
  0.45582E-03 -0.69447E-03 -0.14016E-01
 -0.18335E-02 -0.71028E-03 -0.14016E-01
 -0.18429E-02  0.84232E-04 -0.14016E-01
 -0.27235E-02 -0.77661E-03 -0.14016E-01
 -0.27995E-02  0.43993E-04 -0.14016E-01
 -0.25383E-02 -0.15189E-02 -0.14016E-01
 -0.19339E-02 -0.13218E-02 -0.14016E-01
 -0.99190E-03  0.10048E-02 -0.14016E-01
 -0.14422E-02 -0.17320E-02 -0.14016E-01
 -0.31334E-03  0.20254E-02 -0.14016E-01
 -0.11026E-02  0.18599E-02 -0.14016E-01
 -0.18839E-02  0.17175E-02 -0.14016E-01
 -0.18697E-02  0.91228E-03 -0.14016E-01
 -0.16201E-03 -0.19803E-02 -0.14016E-01
 -0.94807E-03 -0.23492E-02 -0.14016E-01
  0.78063E-03 -0.17073E-02 -0.14016E-01
  0.17206E-02 -0.14923E-02 -0.14016E-01
  0.32089E-02  0.77243E-03 -0.14016E-01
  0.28043E-02  0.12528E-02 -0.14016E-01
  0.23046E-02  0.18670E-02 -0.14016E-01
 -0.40448E-03  0.28910E-02 -0.14016E-01
 -0.12093E-02  0.27151E-02 -0.14016E-01
 -0.19443E-02  0.24615E-02 -0.14016E-01
 -0.25025E-02  0.22358E-02 -0.14016E-01
 -0.26360E-02  0.16503E-02 -0.14016E-01
 -0.27633E-02  0.87807E-03 -0.14016E-01
 -0.21140E-02 -0.21374E-02 -0.14016E-01
 -0.16092E-02 -0.26934E-02 -0.14016E-01
 -0.11953E-02 -0.31291E-02 -0.14016E-01
 -0.59060E-03 -0.30382E-02 -0.14016E-01
  0.20424E-03 -0.28749E-02 -0.14016E-01
  0.10549E-02 -0.26455E-02 -0.14016E-01
  0.18418E-02 -0.23732E-02 -0.14016E-01
  0.24559E-02 -0.21511E-02 -0.14016E-01
  0.26030E-02 -0.15092E-02 -0.14016E-01
  0.37964E-02  0.93572E-03 -0.14016E-01
  0.39100E-02  0.00000E+00 -0.14016E-01
  0.34621E-02  0.18171E-02 -0.14016E-01
  0.29267E-02  0.25928E-02 -0.14016E-01
  0.22211E-02  0.32179E-02 -0.14016E-01
  0.13865E-02  0.36559E-02 -0.14016E-01
  0.47130E-03  0.38815E-02 -0.14016E-01
 -0.47130E-03  0.38815E-02 -0.14016E-01
 -0.13865E-02  0.36559E-02 -0.14016E-01
 -0.22211E-02  0.32179E-02 -0.14016E-01
 -0.29267E-02  0.25928E-02 -0.14016E-01
 -0.34621E-02  0.18171E-02 -0.14016E-01
 -0.37964E-02  0.93572E-03 -0.14016E-01
 -0.39100E-02  0.22152E-17 -0.14016E-01
 -0.37964E-02 -0.93572E-03 -0.14016E-01
 -0.34621E-02 -0.18171E-02 -0.14016E-01
 -0.29267E-02 -0.25928E-02 -0.14016E-01
 -0.22211E-02 -0.32179E-02 -0.14016E-01
 -0.13865E-02 -0.36559E-02 -0.14016E-01
 -0.47130E-03 -0.38815E-02 -0.14016E-01
  0.47130E-03 -0.38815E-02 -0.14016E-01
  0.13865E-02 -0.36559E-02 -0.14016E-01
  0.22211E-02 -0.32179E-02 -0.14016E-01
  0.29267E-02 -0.25928E-02 -0.14016E-01
  0.34621E-02 -0.18171E-02 -0.14016E-01
  0.37964E-02 -0.93572E-03 -0.14016E-01
  0.10363E-02  0.68013E-03 -0.13036E-01
  0.17429E-02  0.12394E-02 -0.13036E-01
  0.23161E-02  0.59831E-03 -0.13036E-01
  0.16670E-02 -0.32794E-03 -0.13036E-01
  0.30374E-02  0.15354E-03 -0.13036E-01
  0.27836E-02 -0.67002E-03 -0.13036E-01
  0.12837E-02  0.18436E-02 -0.13036E-01
  0.64820E-03  0.14706E-02 -0.13036E-01
  0.12416E-03  0.31426E-03 -0.13036E-01
 -0.13063E-03  0.11900E-02 -0.13036E-01
  0.94069E-03  0.22765E-02 -0.13036E-01
  0.11282E-02  0.28229E-02 -0.13036E-01
  0.17439E-02  0.24257E-02 -0.13036E-01
  0.40518E-03  0.21689E-02 -0.13036E-01
  0.39757E-03  0.29332E-02 -0.13036E-01
 -0.76763E-03 -0.10051E-02 -0.13036E-01
 -0.86746E-03  0.89490E-04 -0.13036E-01
  0.45537E-03 -0.69374E-03 -0.13036E-01
 -0.18338E-02 -0.71013E-03 -0.13036E-01
 -0.18428E-02  0.84355E-04 -0.13036E-01
 -0.27234E-02 -0.77644E-03 -0.13036E-01
 -0.27992E-02  0.44266E-04 -0.13036E-01
 -0.25385E-02 -0.15188E-02 -0.13036E-01
 -0.19343E-02 -0.13216E-02 -0.13036E-01
 -0.99176E-03  0.10061E-02 -0.13036E-01
 -0.14425E-02 -0.17320E-02 -0.13036E-01
 -0.31314E-03  0.20257E-02 -0.13036E-01
 -0.11023E-02  0.18598E-02 -0.13036E-01
 -0.18839E-02  0.17175E-02 -0.13036E-01
 -0.18696E-02  0.91252E-03 -0.13036E-01
 -0.16229E-03 -0.19803E-02 -0.13036E-01
 -0.94867E-03 -0.23492E-02 -0.13036E-01
  0.77997E-03 -0.17073E-02 -0.13036E-01
  0.17205E-02 -0.14926E-02 -0.13036E-01
  0.32092E-02  0.77343E-03 -0.13036E-01
  0.28043E-02  0.12533E-02 -0.13036E-01
  0.23044E-02  0.18670E-02 -0.13036E-01
 -0.40434E-03  0.28899E-02 -0.13036E-01
 -0.12093E-02  0.27146E-02 -0.13036E-01
 -0.19443E-02  0.24613E-02 -0.13036E-01
 -0.25025E-02  0.22358E-02 -0.13036E-01
 -0.26359E-02  0.16503E-02 -0.13036E-01
 -0.27630E-02  0.87833E-03 -0.13036E-01
 -0.21141E-02 -0.21374E-02 -0.13036E-01
 -0.16093E-02 -0.26934E-02 -0.13036E-01
 -0.11954E-02 -0.31291E-02 -0.13036E-01
 -0.59095E-03 -0.30382E-02 -0.13036E-01
  0.20384E-03 -0.28750E-02 -0.13036E-01
  0.10546E-02 -0.26458E-02 -0.13036E-01
  0.18419E-02 -0.23734E-02 -0.13036E-01
  0.24560E-02 -0.21516E-02 -0.13036E-01
  0.26031E-02 -0.15091E-02 -0.13036E-01
  0.37964E-02  0.93572E-03 -0.13036E-01
  0.39100E-02  0.00000E+00 -0.13036E-01
  0.34621E-02  0.18171E-02 -0.13036E-01
  0.29267E-02  0.25928E-02 -0.13036E-01
  0.22211E-02  0.32179E-02 -0.13036E-01
  0.13865E-02  0.36559E-02 -0.13036E-01
  0.47130E-03  0.38815E-02 -0.13036E-01
 -0.47130E-03  0.38815E-02 -0.13036E-01
 -0.13865E-02  0.36559E-02 -0.13036E-01
 -0.22211E-02  0.32179E-02 -0.13036E-01
 -0.29267E-02  0.25928E-02 -0.13036E-01
 -0.34621E-02  0.18171E-02 -0.13036E-01
 -0.37964E-02  0.93572E-03 -0.13036E-01
 -0.39100E-02 -0.47884E-18 -0.13036E-01
 -0.37964E-02 -0.93572E-03 -0.13036E-01
 -0.34621E-02 -0.18171E-02 -0.13036E-01
 -0.29267E-02 -0.25928E-02 -0.13036E-01
 -0.22211E-02 -0.32179E-02 -0.13036E-01
 -0.13865E-02 -0.36559E-02 -0.13036E-01
 -0.47130E-03 -0.38815E-02 -0.13036E-01
  0.47130E-03 -0.38815E-02 -0.13036E-01
  0.13865E-02 -0.36559E-02 -0.13036E-01
  0.22211E-02 -0.32179E-02 -0.13036E-01
  0.29267E-02 -0.25928E-02 -0.13036E-01
  0.34621E-02 -0.18171E-02 -0.13036E-01
  0.37964E-02 -0.93572E-03 -0.13036E-01
  0.10362E-02  0.68068E-03 -0.12057E-01
  0.17427E-02  0.12401E-02 -0.12057E-01
  0.23160E-02  0.59884E-03 -0.12057E-01
  0.16668E-02 -0.32719E-03 -0.12057E-01
  0.30373E-02  0.15391E-03 -0.12057E-01
  0.27839E-02 -0.66953E-03 -0.12057E-01
  0.12836E-02  0.18438E-02 -0.12057E-01
  0.64796E-03  0.14716E-02 -0.12057E-01
  0.12390E-03  0.31541E-03 -0.12057E-01
 -0.13082E-03  0.11917E-02 -0.12057E-01
  0.94036E-03  0.22766E-02 -0.12057E-01
  0.11279E-02  0.28225E-02 -0.12057E-01
  0.17435E-02  0.24258E-02 -0.12057E-01
  0.40512E-03  0.21690E-02 -0.12057E-01
  0.39755E-03  0.29330E-02 -0.12057E-01
 -0.76798E-03 -0.10053E-02 -0.12057E-01
 -0.86756E-03  0.90299E-04 -0.12057E-01
  0.45492E-03 -0.69302E-03 -0.12057E-01
 -0.18341E-02 -0.70999E-03 -0.12057E-01
 -0.18427E-02  0.84479E-04 -0.12057E-01
 -0.27234E-02 -0.77627E-03 -0.12057E-01
 -0.27990E-02  0.44540E-04 -0.12057E-01
 -0.25386E-02 -0.15188E-02 -0.12057E-01
 -0.19347E-02 -0.13215E-02 -0.12057E-01
 -0.99161E-03  0.10075E-02 -0.12057E-01
 -0.14429E-02 -0.17319E-02 -0.12057E-01
 -0.31294E-03  0.20260E-02 -0.12057E-01
 -0.11019E-02  0.18597E-02 -0.12057E-01
 -0.18838E-02  0.17175E-02 -0.12057E-01
 -0.18695E-02  0.91276E-03 -0.12057E-01
 -0.16256E-03 -0.19804E-02 -0.12057E-01
 -0.94927E-03 -0.23493E-02 -0.12057E-01
  0.77931E-03 -0.17073E-02 -0.12057E-01
  0.17205E-02 -0.14928E-02 -0.12057E-01
  0.32096E-02  0.77444E-03 -0.12057E-01
  0.28043E-02  0.12537E-02 -0.12057E-01
  0.23043E-02  0.18670E-02 -0.12057E-01
 -0.40420E-03  0.28888E-02 -0.12057E-01
 -0.12093E-02  0.27141E-02 -0.12057E-01
 -0.19443E-02  0.24611E-02 -0.12057E-01
 -0.25024E-02  0.22358E-02 -0.12057E-01
 -0.26358E-02  0.16503E-02 -0.12057E-01
 -0.27627E-02  0.87859E-03 -0.12057E-01
 -0.21143E-02 -0.21374E-02 -0.12057E-01
 -0.16093E-02 -0.26934E-02 -0.12057E-01
 -0.11955E-02 -0.31291E-02 -0.12057E-01
 -0.59130E-03 -0.30382E-02 -0.12057E-01
  0.20343E-03 -0.28750E-02 -0.12057E-01
  0.10543E-02 -0.26460E-02 -0.12057E-01
  0.18419E-02 -0.23736E-02 -0.12057E-01
  0.24561E-02 -0.21521E-02 -0.12057E-01
  0.26032E-02 -0.15090E-02 -0.12057E-01
  0.37964E-02  0.93572E-03 -0.12057E-01
  0.39100E-02  0.00000E+00 -0.12057E-01
  0.34621E-02  0.18171E-02 -0.12057E-01
  0.29267E-02  0.25928E-02 -0.12057E-01
  0.22211E-02  0.32179E-02 -0.12057E-01
  0.13865E-02  0.36559E-02 -0.12057E-01
  0.47130E-03  0.38815E-02 -0.12057E-01
 -0.47130E-03  0.38815E-02 -0.12057E-01
 -0.13865E-02  0.36559E-02 -0.12057E-01
 -0.22211E-02  0.32179E-02 -0.12057E-01
 -0.29267E-02  0.25928E-02 -0.12057E-01
 -0.34621E-02  0.18171E-02 -0.12057E-01
 -0.37964E-02  0.93572E-03 -0.12057E-01
 -0.39100E-02  0.22152E-17 -0.12057E-01
 -0.37964E-02 -0.93572E-03 -0.12057E-01
 -0.34621E-02 -0.18171E-02 -0.12057E-01
 -0.29267E-02 -0.25928E-02 -0.12057E-01
 -0.22211E-02 -0.32179E-02 -0.12057E-01
 -0.13865E-02 -0.36559E-02 -0.12057E-01
 -0.47130E-03 -0.38815E-02 -0.12057E-01
  0.47130E-03 -0.38815E-02 -0.12057E-01
  0.13865E-02 -0.36559E-02 -0.12057E-01
  0.22211E-02 -0.32179E-02 -0.12057E-01
  0.29267E-02 -0.25928E-02 -0.12057E-01
  0.34621E-02 -0.18171E-02 -0.12057E-01
  0.37964E-02 -0.93572E-03 -0.12057E-01
  0.10360E-02  0.68124E-03 -0.11078E-01
  0.17425E-02  0.12407E-02 -0.11078E-01
  0.23158E-02  0.59936E-03 -0.11078E-01
  0.16666E-02 -0.32643E-03 -0.11078E-01
  0.30373E-02  0.15427E-03 -0.11078E-01
  0.27842E-02 -0.66903E-03 -0.11078E-01
  0.12835E-02  0.18440E-02 -0.11078E-01
  0.64771E-03  0.14727E-02 -0.11078E-01
  0.12363E-03  0.31656E-03 -0.11078E-01
 -0.13100E-03  0.11935E-02 -0.11078E-01
  0.94003E-03  0.22767E-02 -0.11078E-01
  0.11276E-02  0.28220E-02 -0.11078E-01
  0.17432E-02  0.24260E-02 -0.11078E-01
  0.40507E-03  0.21690E-02 -0.11078E-01
  0.39754E-03  0.29327E-02 -0.11078E-01
 -0.76834E-03 -0.10054E-02 -0.11078E-01
 -0.86767E-03  0.91108E-04 -0.11078E-01
  0.45447E-03 -0.69229E-03 -0.11078E-01
 -0.18344E-02 -0.70985E-03 -0.11078E-01
 -0.18426E-02  0.84602E-04 -0.11078E-01
 -0.27234E-02 -0.77610E-03 -0.11078E-01
 -0.27987E-02  0.44813E-04 -0.11078E-01
 -0.25388E-02 -0.15187E-02 -0.11078E-01
 -0.19352E-02 -0.13215E-02 -0.11078E-01
 -0.99147E-03  0.10088E-02 -0.11078E-01
 -0.14433E-02 -0.17319E-02 -0.11078E-01
 -0.31274E-03  0.20262E-02 -0.11078E-01
 -0.11016E-02  0.18595E-02 -0.11078E-01
 -0.18838E-02  0.17175E-02 -0.11078E-01
 -0.18694E-02  0.91300E-03 -0.11078E-01
 -0.16284E-03 -0.19804E-02 -0.11078E-01
 -0.94986E-03 -0.23493E-02 -0.11078E-01
  0.77865E-03 -0.17073E-02 -0.11078E-01
  0.17205E-02 -0.14931E-02 -0.11078E-01
  0.32099E-02  0.77544E-03 -0.11078E-01
  0.28042E-02  0.12541E-02 -0.11078E-01
  0.23042E-02  0.18671E-02 -0.11078E-01
 -0.40407E-03  0.28877E-02 -0.11078E-01
 -0.12093E-02  0.27137E-02 -0.11078E-01
 -0.19442E-02  0.24609E-02 -0.11078E-01
 -0.25024E-02  0.22358E-02 -0.11078E-01
 -0.26358E-02  0.16503E-02 -0.11078E-01
 -0.27624E-02  0.87885E-03 -0.11078E-01
 -0.21144E-02 -0.21374E-02 -0.11078E-01
 -0.16094E-02 -0.26934E-02 -0.11078E-01
 -0.11956E-02 -0.31291E-02 -0.11078E-01
 -0.59165E-03 -0.30382E-02 -0.11078E-01
  0.20302E-03 -0.28750E-02 -0.11078E-01
  0.10540E-02 -0.26463E-02 -0.11078E-01
  0.18419E-02 -0.23738E-02 -0.11078E-01
  0.24563E-02 -0.21527E-02 -0.11078E-01
  0.26033E-02 -0.15088E-02 -0.11078E-01
  0.37964E-02  0.93572E-03 -0.11078E-01
  0.39100E-02  0.00000E+00 -0.11078E-01
  0.34621E-02  0.18171E-02 -0.11078E-01
  0.29267E-02  0.25928E-02 -0.11078E-01
  0.22211E-02  0.32179E-02 -0.11078E-01
  0.13865E-02  0.36559E-02 -0.11078E-01
  0.47130E-03  0.38815E-02 -0.11078E-01
 -0.47130E-03  0.38815E-02 -0.11078E-01
 -0.13865E-02  0.36559E-02 -0.11078E-01
 -0.22211E-02  0.32179E-02 -0.11078E-01
 -0.29267E-02  0.25928E-02 -0.11078E-01
 -0.34621E-02  0.18171E-02 -0.11078E-01
 -0.37964E-02  0.93572E-03 -0.11078E-01
 -0.39100E-02 -0.47884E-18 -0.11078E-01
 -0.37964E-02 -0.93572E-03 -0.11078E-01
 -0.34621E-02 -0.18171E-02 -0.11078E-01
 -0.29267E-02 -0.25928E-02 -0.11078E-01
 -0.22211E-02 -0.32179E-02 -0.11078E-01
 -0.13865E-02 -0.36559E-02 -0.11078E-01
 -0.47130E-03 -0.38815E-02 -0.11078E-01
  0.47130E-03 -0.38815E-02 -0.11078E-01
  0.13865E-02 -0.36559E-02 -0.11078E-01
  0.22211E-02 -0.32179E-02 -0.11078E-01
  0.29267E-02 -0.25928E-02 -0.11078E-01
  0.34621E-02 -0.18171E-02 -0.11078E-01
  0.37964E-02 -0.93572E-03 -0.11078E-01
  0.10359E-02  0.68179E-03 -0.10099E-01
  0.17423E-02  0.12414E-02 -0.10099E-01
  0.23157E-02  0.59988E-03 -0.10099E-01
  0.16664E-02 -0.32568E-03 -0.10099E-01
  0.30373E-02  0.15463E-03 -0.10099E-01
  0.27846E-02 -0.66854E-03 -0.10099E-01
  0.12834E-02  0.18442E-02 -0.10099E-01
  0.64747E-03  0.14736E-02 -0.10099E-01
  0.12337E-03  0.31770E-03 -0.10099E-01
 -0.13118E-03  0.11952E-02 -0.10099E-01
  0.93970E-03  0.22768E-02 -0.10099E-01
  0.11272E-02  0.28216E-02 -0.10099E-01
  0.17428E-02  0.24261E-02 -0.10099E-01
  0.40501E-03  0.21690E-02 -0.10099E-01
  0.39752E-03  0.29324E-02 -0.10099E-01
 -0.76869E-03 -0.10056E-02 -0.10099E-01
 -0.86778E-03  0.91918E-04 -0.10099E-01
  0.45402E-03 -0.69156E-03 -0.10099E-01
 -0.18347E-02 -0.70971E-03 -0.10099E-01
 -0.18425E-02  0.84726E-04 -0.10099E-01
 -0.27234E-02 -0.77593E-03 -0.10099E-01
 -0.27984E-02  0.45086E-04 -0.10099E-01
 -0.25389E-02 -0.15187E-02 -0.10099E-01
 -0.19356E-02 -0.13213E-02 -0.10099E-01
 -0.99133E-03  0.10102E-02 -0.10099E-01
 -0.14436E-02 -0.17318E-02 -0.10099E-01
 -0.31254E-03  0.20265E-02 -0.10099E-01
 -0.11013E-02  0.18594E-02 -0.10099E-01
 -0.18837E-02  0.17175E-02 -0.10099E-01
 -0.18692E-02  0.91324E-03 -0.10099E-01
 -0.16311E-03 -0.19804E-02 -0.10099E-01
 -0.95046E-03 -0.23493E-02 -0.10099E-01
  0.77799E-03 -0.17073E-02 -0.10099E-01
  0.17204E-02 -0.14933E-02 -0.10099E-01
  0.32102E-02  0.77645E-03 -0.10099E-01
  0.28042E-02  0.12545E-02 -0.10099E-01
  0.23041E-02  0.18671E-02 -0.10099E-01
 -0.40393E-03  0.28867E-02 -0.10099E-01
 -0.12093E-02  0.27132E-02 -0.10099E-01
 -0.19442E-02  0.24606E-02 -0.10099E-01
 -0.25024E-02  0.22358E-02 -0.10099E-01
 -0.26357E-02  0.16503E-02 -0.10099E-01
 -0.27621E-02  0.87912E-03 -0.10099E-01
 -0.21146E-02 -0.21374E-02 -0.10099E-01
 -0.16094E-02 -0.26935E-02 -0.10099E-01
 -0.11957E-02 -0.31291E-02 -0.10099E-01
 -0.59200E-03 -0.30381E-02 -0.10099E-01
  0.20262E-03 -0.28750E-02 -0.10099E-01
  0.10536E-02 -0.26466E-02 -0.10099E-01
  0.18420E-02 -0.23740E-02 -0.10099E-01
  0.24564E-02 -0.21533E-02 -0.10099E-01
  0.26033E-02 -0.15087E-02 -0.10099E-01
  0.37964E-02  0.93572E-03 -0.10099E-01
  0.39100E-02  0.00000E+00 -0.10099E-01
  0.34621E-02  0.18171E-02 -0.10099E-01
  0.29267E-02  0.25928E-02 -0.10099E-01
  0.22211E-02  0.32179E-02 -0.10099E-01
  0.13865E-02  0.36559E-02 -0.10099E-01
  0.47130E-03  0.38815E-02 -0.10099E-01
 -0.47130E-03  0.38815E-02 -0.10099E-01
 -0.13865E-02  0.36559E-02 -0.10099E-01
 -0.22211E-02  0.32179E-02 -0.10099E-01
 -0.29267E-02  0.25928E-02 -0.10099E-01
 -0.34621E-02  0.18171E-02 -0.10099E-01
 -0.37964E-02  0.93572E-03 -0.10099E-01
 -0.39100E-02 -0.47884E-18 -0.10099E-01
 -0.37964E-02 -0.93572E-03 -0.10099E-01
 -0.34621E-02 -0.18171E-02 -0.10099E-01
 -0.29267E-02 -0.25928E-02 -0.10099E-01
 -0.22211E-02 -0.32179E-02 -0.10099E-01
 -0.13865E-02 -0.36559E-02 -0.10099E-01
 -0.47130E-03 -0.38815E-02 -0.10099E-01
  0.47130E-03 -0.38815E-02 -0.10099E-01
  0.13865E-02 -0.36559E-02 -0.10099E-01
  0.22211E-02 -0.32179E-02 -0.10099E-01
  0.29267E-02 -0.25928E-02 -0.10099E-01
  0.34621E-02 -0.18171E-02 -0.10099E-01
  0.37964E-02 -0.93572E-03 -0.10099E-01
  0.10358E-02  0.68235E-03 -0.91197E-02
  0.17422E-02  0.12421E-02 -0.91197E-02
  0.23156E-02  0.60041E-03 -0.91197E-02
  0.16662E-02 -0.32493E-03 -0.91197E-02
  0.30373E-02  0.15500E-03 -0.91197E-02
  0.27849E-02 -0.66805E-03 -0.91197E-02
  0.12833E-02  0.18444E-02 -0.91197E-02
  0.64722E-03  0.14747E-02 -0.91197E-02
  0.12311E-03  0.31885E-03 -0.91197E-02
 -0.13137E-03  0.11970E-02 -0.91197E-02
  0.93937E-03  0.22770E-02 -0.91197E-02
  0.11269E-02  0.28211E-02 -0.91197E-02
  0.17424E-02  0.24262E-02 -0.91197E-02
  0.40496E-03  0.21691E-02 -0.91197E-02
  0.39750E-03  0.29322E-02 -0.91197E-02
 -0.76904E-03 -0.10057E-02 -0.91197E-02
 -0.86789E-03  0.92727E-04 -0.91197E-02
  0.45358E-03 -0.69084E-03 -0.91197E-02
 -0.18350E-02 -0.70957E-03 -0.91197E-02
 -0.18424E-02  0.84849E-04 -0.91197E-02
 -0.27233E-02 -0.77576E-03 -0.91197E-02
 -0.27981E-02  0.45359E-04 -0.91197E-02
 -0.25391E-02 -0.15186E-02 -0.91197E-02
 -0.19360E-02 -0.13212E-02 -0.91197E-02
 -0.99118E-03  0.10115E-02 -0.91197E-02
 -0.14440E-02 -0.17318E-02 -0.91197E-02
 -0.31234E-03  0.20268E-02 -0.91197E-02
 -0.11009E-02  0.18593E-02 -0.91197E-02
 -0.18836E-02  0.17175E-02 -0.91197E-02
 -0.18691E-02  0.91347E-03 -0.91197E-02
 -0.16339E-03 -0.19804E-02 -0.91197E-02
 -0.95106E-03 -0.23493E-02 -0.91197E-02
  0.77733E-03 -0.17073E-02 -0.91197E-02
  0.17204E-02 -0.14936E-02 -0.91197E-02
  0.32105E-02  0.77745E-03 -0.91197E-02
  0.28042E-02  0.12550E-02 -0.91197E-02
  0.23040E-02  0.18671E-02 -0.91197E-02
 -0.40379E-03  0.28856E-02 -0.91197E-02
 -0.12093E-02  0.27127E-02 -0.91197E-02
 -0.19441E-02  0.24604E-02 -0.91197E-02
 -0.25023E-02  0.22358E-02 -0.91197E-02
 -0.26356E-02  0.16503E-02 -0.91197E-02
 -0.27618E-02  0.87938E-03 -0.91197E-02
 -0.21147E-02 -0.21374E-02 -0.91197E-02
 -0.16094E-02 -0.26935E-02 -0.91197E-02
 -0.11958E-02 -0.31291E-02 -0.91197E-02
 -0.59235E-03 -0.30381E-02 -0.91197E-02
  0.20221E-03 -0.28750E-02 -0.91197E-02
  0.10533E-02 -0.26468E-02 -0.91197E-02
  0.18420E-02 -0.23742E-02 -0.91197E-02
  0.24565E-02 -0.21538E-02 -0.91197E-02
  0.26034E-02 -0.15086E-02 -0.91197E-02
  0.37964E-02  0.93572E-03 -0.91197E-02
  0.39100E-02  0.00000E+00 -0.91197E-02
  0.34621E-02  0.18171E-02 -0.91197E-02
  0.29267E-02  0.25928E-02 -0.91197E-02
  0.22211E-02  0.32179E-02 -0.91197E-02
  0.13865E-02  0.36559E-02 -0.91197E-02
  0.47130E-03  0.38815E-02 -0.91197E-02
 -0.47130E-03  0.38815E-02 -0.91197E-02
 -0.13865E-02  0.36559E-02 -0.91197E-02
 -0.22211E-02  0.32179E-02 -0.91197E-02
 -0.29267E-02  0.25928E-02 -0.91197E-02
 -0.34621E-02  0.18171E-02 -0.91197E-02
 -0.37964E-02  0.93572E-03 -0.91197E-02
 -0.39100E-02 -0.47884E-18 -0.91197E-02
 -0.37964E-02 -0.93572E-03 -0.91197E-02
 -0.34621E-02 -0.18171E-02 -0.91197E-02
 -0.29267E-02 -0.25928E-02 -0.91197E-02
 -0.22211E-02 -0.32179E-02 -0.91197E-02
 -0.13865E-02 -0.36559E-02 -0.91197E-02
 -0.47130E-03 -0.38815E-02 -0.91197E-02
  0.47130E-03 -0.38815E-02 -0.91197E-02
  0.13865E-02 -0.36559E-02 -0.91197E-02
  0.22211E-02 -0.32179E-02 -0.91197E-02
  0.29267E-02 -0.25928E-02 -0.91197E-02
  0.34621E-02 -0.18171E-02 -0.91197E-02
  0.37964E-02 -0.93572E-03 -0.91197E-02
  0.10357E-02  0.68290E-03 -0.81405E-02
  0.17420E-02  0.12427E-02 -0.81405E-02
  0.23155E-02  0.60093E-03 -0.81405E-02
  0.16660E-02 -0.32417E-03 -0.81405E-02
  0.30372E-02  0.15536E-03 -0.81405E-02
  0.27853E-02 -0.66755E-03 -0.81405E-02
  0.12832E-02  0.18445E-02 -0.81405E-02
  0.64698E-03  0.14757E-02 -0.81405E-02
  0.12285E-03  0.32000E-03 -0.81405E-02
 -0.13155E-03  0.11987E-02 -0.81405E-02
  0.93903E-03  0.22771E-02 -0.81405E-02
  0.11266E-02  0.28207E-02 -0.81405E-02
  0.17420E-02  0.24264E-02 -0.81405E-02
  0.40490E-03  0.21691E-02 -0.81405E-02
  0.39749E-03  0.29319E-02 -0.81405E-02
 -0.76940E-03 -0.10058E-02 -0.81405E-02
 -0.86800E-03  0.93536E-04 -0.81405E-02
  0.45313E-03 -0.69011E-03 -0.81405E-02
 -0.18353E-02 -0.70943E-03 -0.81405E-02
 -0.18423E-02  0.84973E-04 -0.81405E-02
 -0.27233E-02 -0.77559E-03 -0.81405E-02
 -0.27979E-02  0.45633E-04 -0.81405E-02
 -0.25393E-02 -0.15186E-02 -0.81405E-02
 -0.19365E-02 -0.13212E-02 -0.81405E-02
 -0.99104E-03  0.10129E-02 -0.81405E-02
 -0.14443E-02 -0.17318E-02 -0.81405E-02
 -0.31214E-03  0.20271E-02 -0.81405E-02
 -0.11006E-02  0.18592E-02 -0.81405E-02
 -0.18836E-02  0.17175E-02 -0.81405E-02
 -0.18690E-02  0.91371E-03 -0.81405E-02
 -0.16366E-03 -0.19805E-02 -0.81405E-02
 -0.95166E-03 -0.23493E-02 -0.81405E-02
  0.77667E-03 -0.17073E-02 -0.81405E-02
  0.17203E-02 -0.14938E-02 -0.81405E-02
  0.32109E-02  0.77846E-03 -0.81405E-02
  0.28042E-02  0.12554E-02 -0.81405E-02
  0.23039E-02  0.18672E-02 -0.81405E-02
 -0.40365E-03  0.28845E-02 -0.81405E-02
 -0.12093E-02  0.27122E-02 -0.81405E-02
 -0.19441E-02  0.24602E-02 -0.81405E-02
 -0.25023E-02  0.22358E-02 -0.81405E-02
 -0.26355E-02  0.16502E-02 -0.81405E-02
 -0.27615E-02  0.87964E-03 -0.81405E-02
 -0.21148E-02 -0.21374E-02 -0.81405E-02
 -0.16095E-02 -0.26935E-02 -0.81405E-02
 -0.11960E-02 -0.31291E-02 -0.81405E-02
 -0.59270E-03 -0.30381E-02 -0.81405E-02
  0.20180E-03 -0.28750E-02 -0.81405E-02
  0.10530E-02 -0.26471E-02 -0.81405E-02
  0.18421E-02 -0.23744E-02 -0.81405E-02
  0.24566E-02 -0.21543E-02 -0.81405E-02
  0.26035E-02 -0.15085E-02 -0.81405E-02
  0.37964E-02  0.93572E-03 -0.81405E-02
  0.39100E-02  0.00000E+00 -0.81405E-02
  0.34621E-02  0.18171E-02 -0.81405E-02
  0.29267E-02  0.25928E-02 -0.81405E-02
  0.22211E-02  0.32179E-02 -0.81405E-02
  0.13865E-02  0.36559E-02 -0.81405E-02
  0.47130E-03  0.38815E-02 -0.81405E-02
 -0.47130E-03  0.38815E-02 -0.81405E-02
 -0.13865E-02  0.36559E-02 -0.81405E-02
 -0.22211E-02  0.32179E-02 -0.81405E-02
 -0.29267E-02  0.25928E-02 -0.81405E-02
 -0.34621E-02  0.18171E-02 -0.81405E-02
 -0.37964E-02  0.93572E-03 -0.81405E-02
 -0.39100E-02 -0.47884E-18 -0.81405E-02
 -0.37964E-02 -0.93572E-03 -0.81405E-02
 -0.34621E-02 -0.18171E-02 -0.81405E-02
 -0.29267E-02 -0.25928E-02 -0.81405E-02
 -0.22211E-02 -0.32179E-02 -0.81405E-02
 -0.13865E-02 -0.36559E-02 -0.81405E-02
 -0.47130E-03 -0.38815E-02 -0.81405E-02
  0.47130E-03 -0.38815E-02 -0.81405E-02
  0.13865E-02 -0.36559E-02 -0.81405E-02
  0.22211E-02 -0.32179E-02 -0.81405E-02
  0.29267E-02 -0.25928E-02 -0.81405E-02
  0.34621E-02 -0.18171E-02 -0.81405E-02
  0.37964E-02 -0.93572E-03 -0.81405E-02
  0.10356E-02  0.68346E-03 -0.71614E-02
  0.17418E-02  0.12434E-02 -0.71614E-02
  0.23153E-02  0.60145E-03 -0.71614E-02
  0.16657E-02 -0.32342E-03 -0.71614E-02
  0.30372E-02  0.15572E-03 -0.71614E-02
  0.27856E-02 -0.66706E-03 -0.71614E-02
  0.12830E-02  0.18447E-02 -0.71614E-02
  0.64673E-03  0.14767E-02 -0.71614E-02
  0.12259E-03  0.32115E-03 -0.71614E-02
 -0.13174E-03  0.12005E-02 -0.71614E-02
  0.93870E-03  0.22772E-02 -0.71614E-02
  0.11262E-02  0.28203E-02 -0.71614E-02
  0.17416E-02  0.24265E-02 -0.71614E-02
  0.40485E-03  0.21691E-02 -0.71614E-02
  0.39747E-03  0.29316E-02 -0.71614E-02
 -0.76975E-03 -0.10060E-02 -0.71614E-02
 -0.86811E-03  0.94345E-04 -0.71614E-02
  0.45268E-03 -0.68939E-03 -0.71614E-02
 -0.18356E-02 -0.70929E-03 -0.71614E-02
 -0.18422E-02  0.85096E-04 -0.71614E-02
 -0.27233E-02 -0.77542E-03 -0.71614E-02
 -0.27976E-02  0.45906E-04 -0.71614E-02
 -0.25394E-02 -0.15185E-02 -0.71614E-02
 -0.19369E-02 -0.13211E-02 -0.71614E-02
 -0.99090E-03  0.10142E-02 -0.71614E-02
 -0.14446E-02 -0.17317E-02 -0.71614E-02
 -0.31194E-03  0.20274E-02 -0.71614E-02
 -0.11002E-02  0.18590E-02 -0.71614E-02
 -0.18835E-02  0.17175E-02 -0.71614E-02
 -0.18689E-02  0.91395E-03 -0.71614E-02
 -0.16394E-03 -0.19805E-02 -0.71614E-02
 -0.95226E-03 -0.23494E-02 -0.71614E-02
  0.77601E-03 -0.17073E-02 -0.71614E-02
  0.17203E-02 -0.14941E-02 -0.71614E-02
  0.32112E-02  0.77946E-03 -0.71614E-02
  0.28042E-02  0.12558E-02 -0.71614E-02
  0.23038E-02  0.18672E-02 -0.71614E-02
 -0.40352E-03  0.28835E-02 -0.71614E-02
 -0.12093E-02  0.27118E-02 -0.71614E-02
 -0.19441E-02  0.24600E-02 -0.71614E-02
 -0.25023E-02  0.22358E-02 -0.71614E-02
 -0.26354E-02  0.16502E-02 -0.71614E-02
 -0.27612E-02  0.87990E-03 -0.71614E-02
 -0.21150E-02 -0.21374E-02 -0.71614E-02
 -0.16095E-02 -0.26935E-02 -0.71614E-02
 -0.11961E-02 -0.31291E-02 -0.71614E-02
 -0.59305E-03 -0.30381E-02 -0.71614E-02
  0.20140E-03 -0.28750E-02 -0.71614E-02
  0.10527E-02 -0.26474E-02 -0.71614E-02
  0.18421E-02 -0.23746E-02 -0.71614E-02
  0.24568E-02 -0.21549E-02 -0.71614E-02
  0.26036E-02 -0.15084E-02 -0.71614E-02
  0.37964E-02  0.93572E-03 -0.71614E-02
  0.39100E-02  0.00000E+00 -0.71614E-02
  0.34621E-02  0.18171E-02 -0.71614E-02
  0.29267E-02  0.25928E-02 -0.71614E-02
  0.22211E-02  0.32179E-02 -0.71614E-02
  0.13865E-02  0.36559E-02 -0.71614E-02
  0.47130E-03  0.38815E-02 -0.71614E-02
 -0.47130E-03  0.38815E-02 -0.71614E-02
 -0.13865E-02  0.36559E-02 -0.71614E-02
 -0.22211E-02  0.32179E-02 -0.71614E-02
 -0.29267E-02  0.25928E-02 -0.71614E-02
 -0.34621E-02  0.18171E-02 -0.71614E-02
 -0.37964E-02  0.93572E-03 -0.71614E-02
 -0.39100E-02  0.22152E-17 -0.71614E-02
 -0.37964E-02 -0.93572E-03 -0.71614E-02
 -0.34621E-02 -0.18171E-02 -0.71614E-02
 -0.29267E-02 -0.25928E-02 -0.71614E-02
 -0.22211E-02 -0.32179E-02 -0.71614E-02
 -0.13865E-02 -0.36559E-02 -0.71614E-02
 -0.47130E-03 -0.38815E-02 -0.71614E-02
  0.47130E-03 -0.38815E-02 -0.71614E-02
  0.13865E-02 -0.36559E-02 -0.71614E-02
  0.22211E-02 -0.32179E-02 -0.71614E-02
  0.29267E-02 -0.25928E-02 -0.71614E-02
  0.34621E-02 -0.18171E-02 -0.71614E-02
  0.37964E-02 -0.93572E-03 -0.71614E-02
  0.10355E-02  0.68401E-03 -0.61822E-02
  0.17416E-02  0.12440E-02 -0.61822E-02
  0.23152E-02  0.60198E-03 -0.61822E-02
  0.16655E-02 -0.32266E-03 -0.61822E-02
  0.30372E-02  0.15609E-03 -0.61822E-02
  0.27860E-02 -0.66657E-03 -0.61822E-02
  0.12829E-02  0.18449E-02 -0.61822E-02
  0.64649E-03  0.14777E-02 -0.61822E-02
  0.12232E-03  0.32230E-03 -0.61822E-02
 -0.13193E-03  0.12022E-02 -0.61822E-02
  0.93837E-03  0.22774E-02 -0.61822E-02
  0.11259E-02  0.28198E-02 -0.61822E-02
  0.17412E-02  0.24267E-02 -0.61822E-02
  0.40480E-03  0.21692E-02 -0.61822E-02
  0.39745E-03  0.29314E-02 -0.61822E-02
 -0.77011E-03 -0.10061E-02 -0.61822E-02
 -0.86822E-03  0.95155E-04 -0.61822E-02
  0.45223E-03 -0.68866E-03 -0.61822E-02
 -0.18359E-02 -0.70915E-03 -0.61822E-02
 -0.18421E-02  0.85220E-04 -0.61822E-02
 -0.27232E-02 -0.77525E-03 -0.61822E-02
 -0.27973E-02  0.46180E-04 -0.61822E-02
 -0.25396E-02 -0.15185E-02 -0.61822E-02
 -0.19373E-02 -0.13210E-02 -0.61822E-02
 -0.99075E-03  0.10156E-02 -0.61822E-02
 -0.14450E-02 -0.17317E-02 -0.61822E-02
 -0.31173E-03  0.20277E-02 -0.61822E-02
 -0.10999E-02  0.18589E-02 -0.61822E-02
 -0.18835E-02  0.17175E-02 -0.61822E-02
 -0.18687E-02  0.91419E-03 -0.61822E-02
 -0.16421E-03 -0.19805E-02 -0.61822E-02
 -0.95285E-03 -0.23494E-02 -0.61822E-02
  0.77535E-03 -0.17073E-02 -0.61822E-02
  0.17202E-02 -0.14943E-02 -0.61822E-02
  0.32115E-02  0.78047E-03 -0.61822E-02
  0.28041E-02  0.12563E-02 -0.61822E-02
  0.23037E-02  0.18672E-02 -0.61822E-02
 -0.40338E-03  0.28824E-02 -0.61822E-02
 -0.12093E-02  0.27113E-02 -0.61822E-02
 -0.19440E-02  0.24597E-02 -0.61822E-02
 -0.25023E-02  0.22358E-02 -0.61822E-02
 -0.26353E-02  0.16502E-02 -0.61822E-02
 -0.27609E-02  0.88016E-03 -0.61822E-02
 -0.21151E-02 -0.21374E-02 -0.61822E-02
 -0.16096E-02 -0.26935E-02 -0.61822E-02
 -0.11962E-02 -0.31291E-02 -0.61822E-02
 -0.59340E-03 -0.30381E-02 -0.61822E-02
  0.20099E-03 -0.28751E-02 -0.61822E-02
  0.10524E-02 -0.26476E-02 -0.61822E-02
  0.18422E-02 -0.23748E-02 -0.61822E-02
  0.24569E-02 -0.21554E-02 -0.61822E-02
  0.26036E-02 -0.15083E-02 -0.61822E-02
  0.37964E-02  0.93572E-03 -0.61822E-02
  0.39100E-02  0.00000E+00 -0.61822E-02
  0.34621E-02  0.18171E-02 -0.61822E-02
  0.29267E-02  0.25928E-02 -0.61822E-02
  0.22211E-02  0.32179E-02 -0.61822E-02
  0.13865E-02  0.36559E-02 -0.61822E-02
  0.47130E-03  0.38815E-02 -0.61822E-02
 -0.47130E-03  0.38815E-02 -0.61822E-02
 -0.13865E-02  0.36559E-02 -0.61822E-02
 -0.22211E-02  0.32179E-02 -0.61822E-02
 -0.29267E-02  0.25928E-02 -0.61822E-02
 -0.34621E-02  0.18171E-02 -0.61822E-02
 -0.37964E-02  0.93572E-03 -0.61822E-02
 -0.39100E-02 -0.47884E-18 -0.61822E-02
 -0.37964E-02 -0.93572E-03 -0.61822E-02
 -0.34621E-02 -0.18171E-02 -0.61822E-02
 -0.29267E-02 -0.25928E-02 -0.61822E-02
 -0.22211E-02 -0.32179E-02 -0.61822E-02
 -0.13865E-02 -0.36559E-02 -0.61822E-02
 -0.47130E-03 -0.38815E-02 -0.61822E-02
  0.47130E-03 -0.38815E-02 -0.61822E-02
  0.13865E-02 -0.36559E-02 -0.61822E-02
  0.22211E-02 -0.32179E-02 -0.61822E-02
  0.29267E-02 -0.25928E-02 -0.61822E-02
  0.34621E-02 -0.18171E-02 -0.61822E-02
  0.37964E-02 -0.93572E-03 -0.61822E-02
  0.10354E-02  0.68457E-03 -0.52030E-02
  0.17414E-02  0.12447E-02 -0.52030E-02
  0.23151E-02  0.60250E-03 -0.52030E-02
  0.16653E-02 -0.32191E-03 -0.52030E-02
  0.30372E-02  0.15645E-03 -0.52030E-02
  0.27863E-02 -0.66607E-03 -0.52030E-02
  0.12829E-02  0.18451E-02 -0.52030E-02
  0.64624E-03  0.14787E-02 -0.52030E-02
  0.12206E-03  0.32345E-03 -0.52030E-02
 -0.13211E-03  0.12040E-02 -0.52030E-02
  0.93804E-03  0.22775E-02 -0.52030E-02
  0.11255E-02  0.28194E-02 -0.52030E-02
  0.17408E-02  0.24268E-02 -0.52030E-02
  0.40474E-03  0.21692E-02 -0.52030E-02
  0.39744E-03  0.29311E-02 -0.52030E-02
 -0.77046E-03 -0.10062E-02 -0.52030E-02
 -0.86832E-03  0.95964E-04 -0.52030E-02
  0.45179E-03 -0.68793E-03 -0.52030E-02
 -0.18362E-02 -0.70901E-03 -0.52030E-02
 -0.18420E-02  0.85343E-04 -0.52030E-02
 -0.27232E-02 -0.77507E-03 -0.52030E-02
 -0.27970E-02  0.46453E-04 -0.52030E-02
 -0.25397E-02 -0.15184E-02 -0.52030E-02
 -0.19377E-02 -0.13209E-02 -0.52030E-02
 -0.99061E-03  0.10169E-02 -0.52030E-02
 -0.14453E-02 -0.17316E-02 -0.52030E-02
 -0.31153E-03  0.20280E-02 -0.52030E-02
 -0.10995E-02  0.18588E-02 -0.52030E-02
 -0.18834E-02  0.17175E-02 -0.52030E-02
 -0.18686E-02  0.91443E-03 -0.52030E-02
 -0.16449E-03 -0.19806E-02 -0.52030E-02
 -0.95345E-03 -0.23494E-02 -0.52030E-02
  0.77469E-03 -0.17073E-02 -0.52030E-02
  0.17202E-02 -0.14945E-02 -0.52030E-02
  0.32119E-02  0.78148E-03 -0.52030E-02
  0.28041E-02  0.12567E-02 -0.52030E-02
  0.23036E-02  0.18673E-02 -0.52030E-02
 -0.40324E-03  0.28813E-02 -0.52030E-02
 -0.12093E-02  0.27108E-02 -0.52030E-02
 -0.19440E-02  0.24595E-02 -0.52030E-02
 -0.25022E-02  0.22358E-02 -0.52030E-02
 -0.26352E-02  0.16502E-02 -0.52030E-02
 -0.27606E-02  0.88043E-03 -0.52030E-02
 -0.21152E-02 -0.21374E-02 -0.52030E-02
 -0.16096E-02 -0.26936E-02 -0.52030E-02
 -0.11963E-02 -0.31291E-02 -0.52030E-02
 -0.59375E-03 -0.30381E-02 -0.52030E-02
  0.20059E-03 -0.28751E-02 -0.52030E-02
  0.10521E-02 -0.26479E-02 -0.52030E-02
  0.18422E-02 -0.23750E-02 -0.52030E-02
  0.24570E-02 -0.21560E-02 -0.52030E-02
  0.26037E-02 -0.15082E-02 -0.52030E-02
  0.37964E-02  0.93572E-03 -0.52030E-02
  0.39100E-02  0.00000E+00 -0.52030E-02
  0.34621E-02  0.18171E-02 -0.52030E-02
  0.29267E-02  0.25928E-02 -0.52030E-02
  0.22211E-02  0.32179E-02 -0.52030E-02
  0.13865E-02  0.36559E-02 -0.52030E-02
  0.47130E-03  0.38815E-02 -0.52030E-02
 -0.47130E-03  0.38815E-02 -0.52030E-02
 -0.13865E-02  0.36559E-02 -0.52030E-02
 -0.22211E-02  0.32179E-02 -0.52030E-02
 -0.29267E-02  0.25928E-02 -0.52030E-02
 -0.34621E-02  0.18171E-02 -0.52030E-02
 -0.37964E-02  0.93572E-03 -0.52030E-02
 -0.39100E-02 -0.47884E-18 -0.52030E-02
 -0.37964E-02 -0.93572E-03 -0.52030E-02
 -0.34621E-02 -0.18171E-02 -0.52030E-02
 -0.29267E-02 -0.25928E-02 -0.52030E-02
 -0.22211E-02 -0.32179E-02 -0.52030E-02
 -0.13865E-02 -0.36559E-02 -0.52030E-02
 -0.47130E-03 -0.38815E-02 -0.52030E-02
  0.47130E-03 -0.38815E-02 -0.52030E-02
  0.13865E-02 -0.36559E-02 -0.52030E-02
  0.22211E-02 -0.32179E-02 -0.52030E-02
  0.29267E-02 -0.25928E-02 -0.52030E-02
  0.34621E-02 -0.18171E-02 -0.52030E-02
  0.37964E-02 -0.93572E-03 -0.52030E-02
  0.10352E-02  0.68512E-03 -0.42239E-02
  0.17413E-02  0.12454E-02 -0.42239E-02
  0.23150E-02  0.60302E-03 -0.42239E-02
  0.16651E-02 -0.32115E-03 -0.42239E-02
  0.30371E-02  0.15681E-03 -0.42239E-02
  0.27866E-02 -0.66558E-03 -0.42239E-02
  0.12827E-02  0.18453E-02 -0.42239E-02
  0.64600E-03  0.14797E-02 -0.42239E-02
  0.12180E-03  0.32459E-03 -0.42239E-02
 -0.13230E-03  0.12058E-02 -0.42239E-02
  0.93771E-03  0.22776E-02 -0.42239E-02
  0.11252E-02  0.28189E-02 -0.42239E-02
  0.17404E-02  0.24270E-02 -0.42239E-02
  0.40469E-03  0.21693E-02 -0.42239E-02
  0.39742E-03  0.29308E-02 -0.42239E-02
 -0.77081E-03 -0.10064E-02 -0.42239E-02
 -0.86843E-03  0.96773E-04 -0.42239E-02
  0.45134E-03 -0.68721E-03 -0.42239E-02
 -0.18365E-02 -0.70887E-03 -0.42239E-02
 -0.18419E-02  0.85467E-04 -0.42239E-02
 -0.27232E-02 -0.77490E-03 -0.42239E-02
 -0.27968E-02  0.46726E-04 -0.42239E-02
 -0.25399E-02 -0.15184E-02 -0.42239E-02
 -0.19382E-02 -0.13208E-02 -0.42239E-02
 -0.99046E-03  0.10183E-02 -0.42239E-02
 -0.14457E-02 -0.17316E-02 -0.42239E-02
 -0.31133E-03  0.20283E-02 -0.42239E-02
 -0.10992E-02  0.18586E-02 -0.42239E-02
 -0.18834E-02  0.17175E-02 -0.42239E-02
 -0.18685E-02  0.91467E-03 -0.42239E-02
 -0.16476E-03 -0.19806E-02 -0.42239E-02
 -0.95405E-03 -0.23494E-02 -0.42239E-02
  0.77402E-03 -0.17073E-02 -0.42239E-02
  0.17202E-02 -0.14948E-02 -0.42239E-02
  0.32122E-02  0.78248E-03 -0.42239E-02
  0.28041E-02  0.12571E-02 -0.42239E-02
  0.23034E-02  0.18673E-02 -0.42239E-02
 -0.40310E-03  0.28802E-02 -0.42239E-02
 -0.12093E-02  0.27103E-02 -0.42239E-02
 -0.19440E-02  0.24593E-02 -0.42239E-02
 -0.25022E-02  0.22358E-02 -0.42239E-02
 -0.26351E-02  0.16502E-02 -0.42239E-02
 -0.27602E-02  0.88069E-03 -0.42239E-02
 -0.21154E-02 -0.21374E-02 -0.42239E-02
 -0.16097E-02 -0.26936E-02 -0.42239E-02
 -0.11964E-02 -0.31291E-02 -0.42239E-02
 -0.59409E-03 -0.30381E-02 -0.42239E-02
  0.20018E-03 -0.28751E-02 -0.42239E-02
  0.10518E-02 -0.26482E-02 -0.42239E-02
  0.18422E-02 -0.23752E-02 -0.42239E-02
  0.24571E-02 -0.21565E-02 -0.42239E-02
  0.26038E-02 -0.15081E-02 -0.42239E-02
  0.37964E-02  0.93572E-03 -0.42239E-02
  0.39100E-02  0.00000E+00 -0.42239E-02
  0.34621E-02  0.18171E-02 -0.42239E-02
  0.29267E-02  0.25928E-02 -0.42239E-02
  0.22211E-02  0.32179E-02 -0.42239E-02
  0.13865E-02  0.36559E-02 -0.42239E-02
  0.47130E-03  0.38815E-02 -0.42239E-02
 -0.47130E-03  0.38815E-02 -0.42239E-02
 -0.13865E-02  0.36559E-02 -0.42239E-02
 -0.22211E-02  0.32179E-02 -0.42239E-02
 -0.29267E-02  0.25928E-02 -0.42239E-02
 -0.34621E-02  0.18171E-02 -0.42239E-02
 -0.37964E-02  0.93572E-03 -0.42239E-02
 -0.39100E-02 -0.47884E-18 -0.42239E-02
 -0.37964E-02 -0.93572E-03 -0.42239E-02
 -0.34621E-02 -0.18171E-02 -0.42239E-02
 -0.29267E-02 -0.25928E-02 -0.42239E-02
 -0.22211E-02 -0.32179E-02 -0.42239E-02
 -0.13865E-02 -0.36559E-02 -0.42239E-02
 -0.47130E-03 -0.38815E-02 -0.42239E-02
  0.47130E-03 -0.38815E-02 -0.42239E-02
  0.13865E-02 -0.36559E-02 -0.42239E-02
  0.22211E-02 -0.32179E-02 -0.42239E-02
  0.29267E-02 -0.25928E-02 -0.42239E-02
  0.34621E-02 -0.18171E-02 -0.42239E-02
  0.37964E-02 -0.93572E-03 -0.42239E-02
  0.10351E-02  0.68567E-03 -0.32447E-02
  0.17411E-02  0.12460E-02 -0.32447E-02
  0.23149E-02  0.60355E-03 -0.32447E-02
  0.16649E-02 -0.32040E-03 -0.32447E-02
  0.30371E-02  0.15718E-03 -0.32447E-02
  0.27870E-02 -0.66509E-03 -0.32447E-02
  0.12826E-02  0.18455E-02 -0.32447E-02
  0.64575E-03  0.14807E-02 -0.32447E-02
  0.12154E-03  0.32574E-03 -0.32447E-02
 -0.13248E-03  0.12075E-02 -0.32447E-02
  0.93738E-03  0.22777E-02 -0.32447E-02
  0.11249E-02  0.28185E-02 -0.32447E-02
  0.17400E-02  0.24271E-02 -0.32447E-02
  0.40463E-03  0.21693E-02 -0.32447E-02
  0.39740E-03  0.29306E-02 -0.32447E-02
 -0.77117E-03 -0.10065E-02 -0.32447E-02
 -0.86854E-03  0.97583E-04 -0.32447E-02
  0.45089E-03 -0.68648E-03 -0.32447E-02
 -0.18368E-02 -0.70873E-03 -0.32447E-02
 -0.18418E-02  0.85591E-04 -0.32447E-02
 -0.27232E-02 -0.77474E-03 -0.32447E-02
 -0.27965E-02  0.47000E-04 -0.32447E-02
 -0.25400E-02 -0.15183E-02 -0.32447E-02
 -0.19386E-02 -0.13207E-02 -0.32447E-02
 -0.99032E-03  0.10197E-02 -0.32447E-02
 -0.14460E-02 -0.17316E-02 -0.32447E-02
 -0.31113E-03  0.20285E-02 -0.32447E-02
 -0.10988E-02  0.18585E-02 -0.32447E-02
 -0.18833E-02  0.17175E-02 -0.32447E-02
 -0.18683E-02  0.91491E-03 -0.32447E-02
 -0.16504E-03 -0.19806E-02 -0.32447E-02
 -0.95465E-03 -0.23495E-02 -0.32447E-02
  0.77336E-03 -0.17073E-02 -0.32447E-02
  0.17201E-02 -0.14950E-02 -0.32447E-02
  0.32125E-02  0.78348E-03 -0.32447E-02
  0.28041E-02  0.12576E-02 -0.32447E-02
  0.23033E-02  0.18674E-02 -0.32447E-02
 -0.40296E-03  0.28792E-02 -0.32447E-02
 -0.12093E-02  0.27099E-02 -0.32447E-02
 -0.19439E-02  0.24591E-02 -0.32447E-02
 -0.25022E-02  0.22358E-02 -0.32447E-02
 -0.26350E-02  0.16502E-02 -0.32447E-02
 -0.27599E-02  0.88095E-03 -0.32447E-02
 -0.21155E-02 -0.21374E-02 -0.32447E-02
 -0.16097E-02 -0.26936E-02 -0.32447E-02
 -0.11965E-02 -0.31290E-02 -0.32447E-02
 -0.59444E-03 -0.30381E-02 -0.32447E-02
  0.19977E-03 -0.28751E-02 -0.32447E-02
  0.10515E-02 -0.26484E-02 -0.32447E-02
  0.18423E-02 -0.23754E-02 -0.32447E-02
  0.24573E-02 -0.21571E-02 -0.32447E-02
  0.26039E-02 -0.15080E-02 -0.32447E-02
  0.37964E-02  0.93572E-03 -0.32447E-02
  0.39100E-02  0.00000E+00 -0.32447E-02
  0.34621E-02  0.18171E-02 -0.32447E-02
  0.29267E-02  0.25928E-02 -0.32447E-02
  0.22211E-02  0.32179E-02 -0.32447E-02
  0.13865E-02  0.36559E-02 -0.32447E-02
  0.47130E-03  0.38815E-02 -0.32447E-02
 -0.47130E-03  0.38815E-02 -0.32447E-02
 -0.13865E-02  0.36559E-02 -0.32447E-02
 -0.22211E-02  0.32179E-02 -0.32447E-02
 -0.29267E-02  0.25928E-02 -0.32447E-02
 -0.34621E-02  0.18171E-02 -0.32447E-02
 -0.37964E-02  0.93572E-03 -0.32447E-02
 -0.39100E-02  0.47884E-18 -0.32447E-02
 -0.37964E-02 -0.93572E-03 -0.32447E-02
 -0.34621E-02 -0.18171E-02 -0.32447E-02
 -0.29267E-02 -0.25928E-02 -0.32447E-02
 -0.22211E-02 -0.32179E-02 -0.32447E-02
 -0.13865E-02 -0.36559E-02 -0.32447E-02
 -0.47130E-03 -0.38815E-02 -0.32447E-02
  0.47130E-03 -0.38815E-02 -0.32447E-02
  0.13865E-02 -0.36559E-02 -0.32447E-02
  0.22211E-02 -0.32179E-02 -0.32447E-02
  0.29267E-02 -0.25928E-02 -0.32447E-02
  0.34621E-02 -0.18171E-02 -0.32447E-02
  0.37964E-02 -0.93572E-03 -0.32447E-02
  
CELLS       3486               17724
       1       0
       1       1
       1       2
       1       3
       1       4
       1       5
       1       6
       1       7
       1       8
       1       9
       1      10
       1      11
       1      12
       1      13
       1      14
       1      15
       1      16
       1      17
       1      18
       1      19
       1      20
       1      21
       1      22
       1      23
       1      24
       1      25
       1      26
       1      27
       1      28
       1      29
       1      30
       1      31
       1      32
       1      33
       1      34
       1      35
       1      36
       1      37
       1      38
       1      39
       1      40
       1      41
       1      42
       1      43
       1      44
       1      45
       1      46
       1      47
       1      48
       1      49
       1      50
       1      51
       1      52
       1      53
       1      54
       1      55
       1      56
       1      57
       1      58
       1      59
       1      60
       1      61
       1      62
       1      63
       1      64
       1      65
       1      66
       1      67
       1      68
       1      69
       1      70
       1      71
       1      72
       1      73
       1      74
       1      75
       1      76
       1      77
       1      78
       1      79
       1      80
       1      81
       1      82
       1      83
       1      84
       1      85
       1      86
       1      87
       1      88
       1      89
       1      90
       1      91
       1      92
       1      93
       1      94
       1      95
       1      96
       1      97
       1      98
       1      99
       1     100
       1     101
       1     102
       1     103
       1     104
       1     105
       1     106
       1     107
       1     108
       1     109
       1     110
       1     111
       1     112
       1     113
       1     114
       1     115
       1     116
       1     117
       1     118
       1     119
       1     120
       1     121
       1     122
       1     123
       1     124
       1     125
       1     126
       1     127
       1     128
       1     129
       1     130
       1     131
       1     132
       1     133
       1     134
       1     135
       1     136
       1     137
       1     138
       1     139
       1     140
       1     141
       1     142
       1     143
       1     144
       1     145
       1     146
       1     147
       1     148
       1     149
       1     150
       1     151
       1     152
       1     153
       1     154
       1     155
       1     156
       1     157
       1     158
       1     159
       1     160
       1     161
       1     162
       1     163
       1     164
       1     165
       1     166
       1     167
       1     168
       1     169
       1     170
       1     171
       1     172
       1     173
       1     174
       1     175
       1     176
       1     177
       1     178
       1     179
       1     180
       1     181
       1     182
       1     183
       1     184
       1     185
       1     186
       1     187
       1     188
       1     189
       1     190
       1     191
       1     192
       1     193
       1     194
       1     195
       1     196
       1     197
       1     198
       1     199
       1     200
       1     201
       1     202
       1     203
       1     204
       1     205
       1     206
       1     207
       1     208
       1     209
       1     210
       1     211
       1     212
       1     213
       1     214
       1     215
       1     216
       1     217
       1     218
       1     219
       1     220
       1     221
       1     222
       1     223
       1     224
       1     225
       1     226
       1     227
       1     228
       1     229
       1     230
       1     231
       1     232
       1     233
       1     234
       1     235
       1     236
       1     237
       1     238
       1     239
       1     240
       1     241
       1     242
       1     243
       1     244
       1     245
       1     246
       1     247
       1     248
       1     249
       1     250
       1     251
       1     252
       1     253
       1     254
       1     255
       1     256
       1     257
       1     258
       1     259
       1     260
       1     261
       1     262
       1     263
       1     264
       1     265
       1     266
       1     267
       1     268
       1     269
       1     270
       1     271
       1     272
       1     273
       1     274
       1     275
       1     276
       1     277
       1     278
       1     279
       1     280
       1     281
       1     282
       1     283
       1     284
       1     285
       1     286
       1     287
       1     288
       1     289
       1     290
       1     291
       1     292
       1     293
       1     294
       1     295
       1     296
       1     297
       1     298
       1     299
       1     300
       1     301
       1     302
       1     303
       1     304
       1     305
       1     306
       1     307
       1     308
       1     309
       1     310
       1     311
       1     312
       1     313
       1     314
       1     315
       1     316
       1     317
       1     318
       1     319
       1     320
       1     321
       1     322
       1     323
       1     324
       1     325
       1     326
       1     327
       1     328
       1     329
       1     330
       1     331
       1     332
       1     333
       1     334
       1     335
       1     336
       1     337
       1     338
       1     339
       1     340
       1     341
       1     342
       1     343
       1     344
       1     345
       1     346
       1     347
       1     348
       1     349
       1     350
       1     351
       1     352
       1     353
       1     354
       1     355
       1     356
       1     357
       1     358
       1     359
       1     360
       1     361
       1     362
       1     363
       1     364
       1     365
       1     366
       1     367
       1     368
       1     369
       1     370
       1     371
       1     372
       1     373
       1     374
       1     375
       1     376
       1     377
       1     378
       1     379
       1     380
       1     381
       1     382
       1     383
       1     384
       1     385
       1     386
       1     387
       1     388
       1     389
       1     390
       1     391
       1     392
       1     393
       1     394
       1     395
       1     396
       1     397
       1     398
       1     399
       1     400
       1     401
       1     402
       1     403
       1     404
       1     405
       1     406
       1     407
       1     408
       1     409
       1     410
       1     411
       1     412
       1     413
       1     414
       1     415
       1     416
       1     417
       1     418
       1     419
       1     420
       1     421
       1     422
       1     423
       1     424
       1     425
       1     426
       1     427
       1     428
       1     429
       1     430
       1     431
       1     432
       1     433
       1     434
       1     435
       1     436
       1     437
       1     438
       1     439
       1     440
       1     441
       1     442
       1     443
       1     444
       1     445
       1     446
       1     447
       1     448
       1     449
       1     450
       1     451
       1     452
       1     453
       1     454
       1     455
       1     456
       1     457
       1     458
       1     459
       1     460
       1     461
       1     462
       1     463
       1     464
       1     465
       1     466
       1     467
       1     468
       1     469
       1     470
       1     471
       1     472
       1     473
       1     474
       1     475
       1     476
       1     477
       1     478
       1     479
       1     480
       1     481
       1     482
       1     483
       1     484
       1     485
       1     486
       1     487
       1     488
       1     489
       1     490
       1     491
       1     492
       1     493
       1     494
       1     495
       1     496
       1     497
       1     498
       1     499
       1     500
       1     501
       1     502
       1     503
       1     504
       1     505
       1     506
       1     507
       1     508
       1     509
       1     510
       1     511
       1     512
       1     513
       1     514
       1     515
       1     516
       1     517
       1     518
       1     519
       1     520
       1     521
       1     522
       1     523
       1     524
       1     525
       1     526
       1     527
       1     528
       1     529
       1     530
       1     531
       1     532
       1     533
       1     534
       1     535
       1     536
       1     537
       1     538
       1     539
       1     540
       1     541
       1     542
       1     543
       1     544
       1     545
       1     546
       1     547
       1     548
       1     549
       1     550
       1     551
       1     552
       1     553
       1     554
       1     555
       1     556
       1     557
       1     558
       1     559
       1     560
       1     561
       1     562
       1     563
       1     564
       1     565
       1     566
       1     567
       1     568
       1     569
       1     570
       1     571
       1     572
       1     573
       1     574
       1     575
       1     576
       1     577
       1     578
       1     579
       1     580
       1     581
       1     582
       1     583
       1     584
       1     585
       1     586
       1     587
       1     588
       1     589
       1     590
       1     591
       1     592
       1     593
       1     594
       1     595
       1     596
       1     597
       1     598
       1     599
       1     600
       1     601
       1     602
       1     603
       1     604
       1     605
       1     606
       1     607
       1     608
       1     609
       1     610
       1     611
       1     612
       1     613
       1     614
       1     615
       1     616
       1     617
       1     618
       1     619
       1     620
       1     621
       1     622
       1     623
       1     624
       1     625
       1     626
       1     627
       1     628
       1     629
       1     630
       1     631
       1     632
       1     633
       1     634
       1     635
       1     636
       1     637
       1     638
       1     639
       1     640
       1     641
       1     642
       1     643
       1     644
       1     645
       1     646
       1     647
       1     648
       1     649
       1     650
       1     651
       1     652
       1     653
       1     654
       1     655
       1     656
       1     657
       1     658
       1     659
       1     660
       1     661
       1     662
       1     663
       1     664
       1     665
       1     666
       1     667
       1     668
       1     669
       1     670
       1     671
       1     672
       1     673
       1     674
       1     675
       1     676
       1     677
       1     678
       1     679
       1     680
       1     681
       1     682
       1     683
       1     684
       1     685
       1     686
       1     687
       1     688
       1     689
       1     690
       1     691
       1     692
       1     693
       1     694
       1     695
       1     696
       1     697
       1     698
       1     699
       1     700
       1     701
       1     702
       1     703
       1     704
       1     705
       1     706
       1     707
       1     708
       1     709
       1     710
       1     711
       1     712
       1     713
       1     714
       1     715
       1     716
       1     717
       1     718
       1     719
       1     720
       1     721
       1     722
       1     723
       1     724
       1     725
       1     726
       1     727
       1     728
       1     729
       1     730
       1     731
       1     732
       1     733
       1     734
       1     735
       1     736
       1     737
       1     738
       1     739
       1     740
       1     741
       1     742
       1     743
       1     744
       1     745
       1     746
       1     747
       1     748
       1     749
       1     750
       1     751
       1     752
       1     753
       1     754
       1     755
       1     756
       1     757
       1     758
       1     759
       1     760
       1     761
       1     762
       1     763
       1     764
       1     765
       1     766
       1     767
       1     768
       1     769
       1     770
       1     771
       1     772
       1     773
       1     774
       1     775
       1     776
       1     777
       1     778
       1     779
       1     780
       1     781
       1     782
       1     783
       1     784
       1     785
       1     786
       1     787
       1     788
       1     789
       1     790
       1     791
       1     792
       1     793
       1     794
       1     795
       1     796
       1     797
       1     798
       1     799
       1     800
       1     801
       1     802
       1     803
       1     804
       1     805
       1     806
       1     807
       1     808
       1     809
       1     810
       1     811
       1     812
       1     813
       1     814
       1     815
       1     816
       1     817
       1     818
       1     819
       1     820
       1     821
       1     822
       1     823
       1     824
       1     825
       1     826
       1     827
       1     828
       1     829
       1     830
       1     831
       1     832
       1     833
       1     834
       1     835
       1     836
       1     837
       1     838
       1     839
       1     840
       1     841
       1     842
       1     843
       1     844
       1     845
       1     846
       1     847
       1     848
       1     849
       1     850
       1     851
       1     852
       1     853
       1     854
       1     855
       1     856
       1     857
       1     858
       1     859
       1     860
       1     861
       1     862
       1     863
       1     864
       1     865
       1     866
       1     867
       1     868
       1     869
       1     870
       1     871
       1     872
       1     873
       1     874
       1     875
       1     876
       1     877
       1     878
       1     879
       1     880
       1     881
       1     882
       1     883
       1     884
       1     885
       1     886
       1     887
       1     888
       1     889
       1     890
       1     891
       1     892
       1     893
       1     894
       1     895
       1     896
       1     897
       1     898
       1     899
       1     900
       1     901
       1     902
       1     903
       1     904
       1     905
       1     906
       1     907
       1     908
       1     909
       1     910
       1     911
       1     912
       1     913
       1     914
       1     915
       1     916
       1     917
       1     918
       1     919
       1     920
       1     921
       1     922
       1     923
       1     924
       1     925
       1     926
       1     927
       1     928
       1     929
       1     930
       1     931
       1     932
       1     933
       1     934
       1     935
       1     936
       1     937
       1     938
       1     939
       1     940
       1     941
       1     942
       1     943
       1     944
       1     945
       1     946
       1     947
       1     948
       1     949
       1     950
       1     951
       1     952
       1     953
       1     954
       1     955
       1     956
       1     957
       1     958
       1     959
       1     960
       1     961
       1     962
       1     963
       1     964
       1     965
       1     966
       1     967
       1     968
       1     969
       1     970
       1     971
       1     972
       1     973
       1     974
       1     975
       1     976
       1     977
       1     978
       1     979
       1     980
       1     981
       1     982
       1     983
       1     984
       1     985
       1     986
       1     987
       1     988
       1     989
       1     990
       1     991
       1     992
       1     993
       1     994
       1     995
       1     996
       1     997
       1     998
       1     999
       1    1000
       1    1001
       1    1002
       1    1003
       1    1004
       1    1005
       1    1006
       1    1007
       1    1008
       1    1009
       1    1010
       1    1011
       1    1012
       1    1013
       1    1014
       1    1015
       1    1016
       1    1017
       1    1018
       1    1019
       1    1020
       1    1021
       1    1022
       1    1023
       1    1024
       1    1025
       1    1026
       1    1027
       1    1028
       1    1029
       1    1030
       1    1031
       1    1032
       1    1033
       1    1034
       1    1035
       1    1036
       1    1037
       1    1038
       1    1039
       1    1040
       1    1041
       1    1042
       1    1043
       1    1044
       1    1045
       1    1046
       1    1047
       1    1048
       1    1049
       1    1050
       1    1051
       1    1052
       1    1053
       1    1054
       1    1055
       1    1056
       1    1057
       1    1058
       1    1059
       1    1060
       1    1061
       1    1062
       1    1063
       1    1064
       1    1065
       1    1066
       1    1067
       1    1068
       1    1069
       1    1070
       1    1071
       1    1072
       1    1073
       1    1074
       1    1075
       1    1076
       1    1077
       1    1078
       1    1079
       1    1080
       1    1081
       1    1082
       1    1083
       1    1084
       1    1085
       1    1086
       1    1087
       1    1088
       1    1089
       1    1090
       1    1091
       1    1092
       1    1093
       1    1094
       1    1095
       1    1096
       1    1097
       1    1098
       1    1099
       1    1100
       1    1101
       1    1102
       1    1103
       1    1104
       1    1105
       1    1106
       1    1107
       1    1108
       1    1109
       1    1110
       1    1111
       1    1112
       1    1113
       1    1114
       1    1115
       1    1116
       1    1117
       1    1118
       1    1119
       1    1120
       1    1121
       1    1122
       1    1123
       1    1124
       1    1125
       1    1126
       1    1127
       1    1128
       1    1129
       1    1130
       1    1131
       1    1132
       1    1133
       1    1134
       1    1135
       1    1136
       1    1137
       1    1138
       1    1139
       1    1140
       1    1141
       1    1142
       1    1143
       1    1144
       1    1145
       1    1146
       1    1147
       1    1148
       1    1149
       1    1150
       1    1151
       1    1152
       1    1153
       1    1154
       1    1155
       1    1156
       1    1157
       1    1158
       1    1159
       1    1160
       1    1161
       1    1162
       1    1163
       1    1164
       1    1165
       1    1166
       1    1167
       1    1168
       1    1169
       1    1170
       1    1171
       1    1172
       1    1173
       1    1174
       1    1175
       1    1176
       1    1177
       1    1178
       1    1179
       1    1180
       1    1181
       1    1182
       1    1183
       1    1184
       1    1185
       1    1186
       1    1187
       1    1188
       1    1189
       1    1190
       1    1191
       1    1192
       1    1193
       1    1194
       1    1195
       1    1196
       1    1197
       1    1198
       1    1199
       1    1200
       1    1201
       1    1202
       1    1203
       1    1204
       1    1205
       1    1206
       1    1207
       1    1208
       1    1209
       1    1210
       1    1211
       1    1212
       1    1213
       1    1214
       1    1215
       1    1216
       1    1217
       1    1218
       1    1219
       1    1220
       1    1221
       1    1222
       1    1223
       1    1224
       1    1225
       1    1226
       1    1227
       1    1228
       1    1229
       1    1230
       1    1231
       1    1232
       1    1233
       1    1234
       1    1235
       1    1236
       1    1237
       1    1238
       1    1239
       1    1240
       1    1241
       1    1242
       1    1243
       1    1244
       1    1245
       1    1246
       1    1247
       1    1248
       1    1249
       1    1250
       1    1251
       1    1252
       1    1253
       1    1254
       1    1255
       1    1256
       1    1257
       1    1258
       1    1259
       1    1260
       1    1261
       1    1262
       1    1263
       1    1264
       1    1265
       1    1266
       1    1267
       1    1268
       1    1269
       1    1270
       1    1271
       1    1272
       1    1273
       1    1274
       1    1275
       1    1276
       1    1277
       1    1278
       1    1279
       1    1280
       1    1281
       1    1282
       1    1283
       1    1284
       1    1285
       1    1286
       1    1287
       1    1288
       1    1289
       1    1290
       1    1291
       1    1292
       1    1293
       1    1294
       1    1295
       1    1296
       1    1297
       1    1298
       1    1299
       1    1300
       1    1301
       1    1302
       1    1303
       1    1304
       1    1305
       1    1306
       1    1307
       1    1308
       1    1309
       1    1310
       1    1311
       1    1312
       1    1313
       1    1314
       1    1315
       1    1316
       1    1317
       1    1318
       1    1319
       1    1320
       1    1321
       1    1322
       1    1323
       1    1324
       1    1325
       1    1326
       1    1327
       1    1328
       1    1329
       1    1330
       1    1331
       1    1332
       1    1333
       1    1334
       1    1335
       1    1336
       1    1337
       1    1338
       1    1339
       1    1340
       1    1341
       1    1342
       1    1343
       1    1344
       1    1345
       1    1346
       1    1347
       1    1348
       1    1349
       1    1350
       1    1351
       1    1352
       1    1353
       1    1354
       1    1355
       1    1356
       1    1357
       1    1358
       1    1359
       1    1360
       1    1361
       1    1362
       1    1363
       1    1364
       1    1365
       1    1366
       1    1367
       1    1368
       1    1369
       1    1370
       1    1371
       1    1372
       1    1373
       1    1374
       1    1375
       1    1376
       1    1377
       1    1378
       1    1379
       1    1380
       1    1381
       1    1382
       1    1383
       1    1384
       1    1385
       1    1386
       1    1387
       1    1388
       1    1389
       1    1390
       1    1391
       1    1392
       1    1393
       1    1394
       1    1395
       1    1396
       1    1397
       1    1398
       1    1399
       1    1400
       1    1401
       1    1402
       1    1403
       1    1404
       1    1405
       1    1406
       1    1407
       1    1408
       1    1409
       1    1410
       1    1411
       1    1412
       1    1413
       1    1414
       1    1415
       1    1416
       1    1417
       1    1418
       1    1419
       1    1420
       1    1421
       1    1422
       1    1423
       1    1424
       1    1425
       1    1426
       1    1427
       1    1428
       1    1429
       1    1430
       1    1431
       1    1432
       1    1433
       1    1434
       1    1435
       1    1436
       1    1437
       1    1438
       1    1439
       1    1440
       1    1441
       1    1442
       1    1443
       1    1444
       1    1445
       1    1446
       1    1447
       1    1448
       1    1449
       1    1450
       1    1451
       1    1452
       1    1453
       1    1454
       1    1455
       1    1456
       1    1457
       1    1458
       1    1459
       1    1460
       1    1461
       1    1462
       1    1463
       1    1464
       1    1465
       1    1466
       1    1467
       1    1468
       1    1469
       1    1470
       1    1471
       1    1472
       1    1473
       1    1474
       1    1475
       1    1476
       1    1477
       1    1478
       1    1479
       1    1480
       1    1481
       1    1482
       1    1483
       1    1484
       1    1485
       1    1486
       1    1487
       1    1488
       1    1489
       1    1490
       1    1491
       1    1492
       1    1493
       1    1494
       1    1495
       1    1496
       1    1497
       1    1498
       1    1499
       1    1500
       1    1501
       1    1502
       1    1503
       1    1504
       1    1505
       1    1506
       1    1507
       1    1508
       1    1509
       1    1510
       1    1511
       1    1512
       1    1513
       1    1514
       1    1515
       1    1516
       1    1517
       1    1518
       1    1519
       1    1520
       1    1521
       1    1522
       1    1523
       1    1524
       1    1525
       1    1526
       1    1527
       1    1528
       1    1529
       1    1530
       1    1531
       1    1532
       1    1533
       1    1534
       1    1535
       1    1536
       1    1537
       1    1538
       1    1539
       1    1540
       1    1541
       1    1542
       1    1543
       1    1544
       1    1545
       1    1546
       1    1547
       1    1548
       1    1549
       1    1550
       1    1551
       1    1552
       1    1553
       1    1554
       1    1555
       1    1556
       1    1557
       1    1558
       1    1559
       1    1560
       1    1561
       1    1562
       1    1563
       1    1564
       1    1565
       1    1566
       1    1567
       1    1568
       1    1569
       1    1570
       1    1571
       1    1572
       1    1573
       1    1574
       1    1575
       1    1576
       1    1577
       1    1578
       1    1579
       1    1580
       1    1581
       1    1582
       1    1583
       1    1584
       1    1585
       1    1586
       1    1587
       1    1588
       1    1589
       1    1590
       1    1591
       1    1592
       1    1593
       1    1594
       1    1595
       1    1596
       1    1597
       1    1598
       1    1599
       1    1600
       1    1601
       1    1602
       1    1603
       1    1604
       1    1605
       1    1606
       1    1607
       1    1608
       1    1609
       1    1610
       1    1611
       1    1612
       1    1613
       1    1614
       1    1615
       1    1616
       1    1617
       1    1618
       1    1619
       1    1620
       1    1621
       1    1622
       1    1623
       1    1624
       1    1625
       1    1626
       1    1627
       1    1628
       1    1629
       1    1630
       1    1631
       1    1632
       1    1633
       1    1634
       1    1635
       1    1636
       1    1637
       1    1638
       1    1639
       1    1640
       1    1641
       1    1642
       1    1643
       1    1644
       1    1645
       1    1646
       1    1647
       1    1648
       1    1649
       1    1650
       1    1651
       1    1652
       1    1653
       1    1654
       1    1655
       1    1656
       1    1657
       1    1658
       1    1659
       1    1660
       1    1661
       1    1662
       1    1663
       1    1664
       1    1665
       1    1666
       1    1667
       1    1668
       1    1669
       1    1670
       1    1671
       1    1672
       1    1673
       1    1674
       1    1675
       1    1676
       1    1677
       1    1678
       1    1679
       1    1680
       1    1681
       1    1682
       1    1683
       1    1684
       1    1685
       1    1686
       1    1687
       1    1688
       1    1689
       1    1690
       1    1691
       1    1692
       1    1693
       1    1694
       1    1695
       1    1696
       1    1697
       1    1698
       1    1699
       1    1700
       1    1701
       1    1702
       1    1703
       1    1704
       1    1705
       1    1706
       1    1707
       1    1708
       1    1709
       1    1710
       1    1711
       1    1712
       1    1713
       1    1714
       1    1715
       1    1716
       1    1717
       1    1718
       1    1719
       1    1720
       1    1721
       1    1722
       1    1723
       1    1724
       1    1725
       1    1726
       1    1727
       1    1728
       1    1729
       1    1730
       1    1731
       1    1732
       1    1733
       1    1734
       1    1735
       1    1736
       1    1737
       1    1738
       1    1739
       1    1740
       1    1741
       1    1742
       1    1743
       1    1744
       1    1745
       1    1746
       1    1747
       1    1748
       1    1749
       1    1750
       1    1751
       1    1752
       1    1753
       1    1754
       1    1755
       1    1756
       1    1757
       1    1758
       1    1759
       1    1760
       1    1761
       1    1762
       1    1763
       1    1764
       1    1765
       1    1766
       1    1767
       1    1768
       1    1769
       1    1770
       1    1771
       1    1772
       1    1773
       1    1774
       1    1775
       1    1776
       1    1777
       1    1778
       1    1779
       1    1780
       1    1781
       1    1782
       1    1783
       1    1784
       1    1785
       1    1786
       1    1787
       1    1788
       1    1789
       1    1790
       1    1791
       1    1792
       1    1793
       1    1794
       1    1795
       1    1796
       1    1797
       1    1798
       1    1799
       1    1800
       1    1801
       1    1802
       1    1803
       1    1804
       1    1805
       1    1806
       1    1807
       1    1808
       1    1809
       1    1810
       1    1811
       1    1812
       1    1813
       1    1814
       1    1815
       1    1816
       1    1817
       1    1818
       1    1819
       1    1820
       1    1821
       1    1822
       1    1823
       1    1824
       1    1825
       1    1826
       1    1827
       1    1828
       1    1829
       1    1830
       1    1831
       1    1832
       1    1833
       1    1834
       1    1835
       1    1836
       1    1837
       1    1838
       1    1839
       1    1840
       1    1841
       1    1842
       1    1843
       1    1844
       1    1845
       1    1846
       1    1847
       1    1848
       1    1849
       1    1850
       1    1851
       1    1852
       1    1853
       1    1854
       1    1855
       1    1856
       1    1857
       1    1858
       1    1859
       1    1860
       1    1861
       1    1862
       1    1863
       1    1864
       1    1865
       1    1866
       1    1867
       1    1868
       1    1869
       1    1870
       1    1871
       1    1872
       1    1873
       1    1874
       1    1875
       1    1876
       1    1877
       1    1878
       1    1879
       1    1880
       1    1881
       1    1882
       1    1883
       1    1884
       1    1885
       1    1886
       1    1887
       1    1888
       1    1889
       1    1890
       1    1891
       1    1892
       1    1893
       1    1894
       1    1895
       1    1896
       1    1897
       1    1898
       1    1899
       1    1900
       1    1901
       1    1902
       1    1903
       1    1904
       1    1905
       1    1906
       1    1907
       1    1908
       1    1909
       1    1910
       1    1911
       1    1912
       1    1913
       1    1914
       1    1915
       1    1916
       1    1917
       1    1918
       1    1919
       1    1920
       1    1921
       1    1922
       1    1923
       1    1924
       1    1925
       1    1926
       1    1927
       1    1928
       1    1929
       1    1930
       1    1931
       1    1932
       1    1933
       1    1934
       1    1935
       1    1936
       1    1937
       1    1938
       1    1939
       1    1940
       1    1941
       1    1942
       1    1943
       1    1944
       1    1945
       1    1946
       1    1947
       1    1948
       1    1949
       8       0       1       2       3       4       5       6       7
       8       2       8       9       3       6      10      11       7
       8      12       1       0      13      14       5       4      15
       8       0      16      17      13       4      18      19      15
       8      20      21      22      12      23      24      25      14
       8      26      27      21      20      28      29      24      23
       8      13      26      20      12      15      28      23      14
       8      30      31      16      32      33      34      18      35
       8      36      37      31      30      38      39      34      33
       8      40      41      37      36      42      43      39      38
       8      44      40      36      45      46      42      38      47
       8      48      17      16      31      49      19      18      34
       8      30      50      45      36      33      51      47      38
       8       0       3      32      16       4       7      35      18
       8      52      26      13      17      53      28      15      19
       8      54      52      17      48      55      53      19      49
       8      56      54      48      57      58      55      49      59
       8      37      57      48      31      39      59      49      34
       8      60      61      50      30      62      63      51      33
       8      64      60      30      32      65      62      33      35
       8      66      64      32       3      67      65      35       7
       8      68       8       2      69      70      10       6      71
       8      72      69       2       1      73      71       6       5
       8      22      72       1      12      25      73       5      14
       8      74      27      26      52      75      29      28      53
       8      76      74      52      54      77      75      53      55
       8      78      76      54      56      79      77      55      58
       8      80      78      56      81      82      79      58      83
       8      84      81      56      57      85      83      58      59
       8      41      84      57      37      43      85      59      39
       8      86      44      45      50      87      46      47      51
       8      88      86      50      61      89      87      51      63
       8      90      88      61      91      92      89      63      93
       8      94      91      61      60      95      93      63      62
       8      96      94      60      64      97      95      62      65
       8      98      96      64      66      99      97      65      67
       8     100      98      66     101     102      99      67     103
       8       9     101      66       3      11     103      67       7
       8     104     105       8      68     106     107      10      70
       8     108     104      68      69     109     106      70      71
       8     110     108      69      72     111     109      71      73
       8     112     110      72      22     113     111      73      25
       8     114     112      22      21     115     113      25      24
       8     116     114      21      27     117     115      24      29
       8     118     116      27      74     119     117      29      75
       8     120     118      74      76     121     119      75      77
       8     122     120      76      78     123     121      77      79
       8     124     122      78      80     125     123      79      82
       8     126     124      80      81     127     125      82      83
       8     128     126      81      84     129     127      83      85
       8     130     128      84      41     131     129      85      43
       8     132     130      41      40     133     131      43      42
       8     134     132      40      44     135     133      42      46
       8     136     134      44      86     137     135      46      87
       8     138     136      86      88     139     137      87      89
       8     140     138      88      90     141     139      89      92
       8     142     140      90      91     143     141      92      93
       8     144     142      91      94     145     143      93      95
       8     146     144      94      96     147     145      95      97
       8     148     146      96      98     149     147      97      99
       8     150     148      98     100     151     149      99     102
       8     152     150     100     101     153     151     102     103
       8     154     152     101       9     155     153     103      11
       8     105     154       9       8     107     155      11      10
       8     156     157     158     159       0       1       2       3
       8     158     160     161     159       2       8       9       3
       8     162     157     156     163      12       1       0      13
       8     156     164     165     163       0      16      17      13
       8     166     167     168     162      20      21      22      12
       8     169     170     167     166      26      27      21      20
       8     163     169     166     162      13      26      20      12
       8     171     172     164     173      30      31      16      32
       8     174     175     172     171      36      37      31      30
       8     176     177     175     174      40      41      37      36
       8     178     176     174     179      44      40      36      45
       8     180     165     164     172      48      17      16      31
       8     171     181     179     174      30      50      45      36
       8     156     159     173     164       0       3      32      16
       8     182     169     163     165      52      26      13      17
       8     183     182     165     180      54      52      17      48
       8     184     183     180     185      56      54      48      57
       8     175     185     180     172      37      57      48      31
       8     186     187     181     171      60      61      50      30
       8     188     186     171     173      64      60      30      32
       8     189     188     173     159      66      64      32       3
       8     190     160     158     191      68       8       2      69
       8     192     191     158     157      72      69       2       1
       8     168     192     157     162      22      72       1      12
       8     193     170     169     182      74      27      26      52
       8     194     193     182     183      76      74      52      54
       8     195     194     183     184      78      76      54      56
       8     196     195     184     197      80      78      56      81
       8     198     197     184     185      84      81      56      57
       8     177     198     185     175      41      84      57      37
       8     199     178     179     181      86      44      45      50
       8     200     199     181     187      88      86      50      61
       8     201     200     187     202      90      88      61      91
       8     203     202     187     186      94      91      61      60
       8     204     203     186     188      96      94      60      64
       8     205     204     188     189      98      96      64      66
       8     206     205     189     207     100      98      66     101
       8     161     207     189     159       9     101      66       3
       8     208     209     160     190     104     105       8      68
       8     210     208     190     191     108     104      68      69
       8     211     210     191     192     110     108      69      72
       8     212     211     192     168     112     110      72      22
       8     213     212     168     167     114     112      22      21
       8     214     213     167     170     116     114      21      27
       8     215     214     170     193     118     116      27      74
       8     216     215     193     194     120     118      74      76
       8     217     216     194     195     122     120      76      78
       8     218     217     195     196     124     122      78      80
       8     219     218     196     197     126     124      80      81
       8     220     219     197     198     128     126      81      84
       8     221     220     198     177     130     128      84      41
       8     222     221     177     176     132     130      41      40
       8     223     222     176     178     134     132      40      44
       8     224     223     178     199     136     134      44      86
       8     225     224     199     200     138     136      86      88
       8     226     225     200     201     140     138      88      90
       8     227     226     201     202     142     140      90      91
       8     228     227     202     203     144     142      91      94
       8     229     228     203     204     146     144      94      96
       8     230     229     204     205     148     146      96      98
       8     231     230     205     206     150     148      98     100
       8     232     231     206     207     152     150     100     101
       8     233     232     207     161     154     152     101       9
       8     209     233     161     160     105     154       9       8
       8     234     235     236     237     156     157     158     159
       8     236     238     239     237     158     160     161     159
       8     240     235     234     241     162     157     156     163
       8     234     242     243     241     156     164     165     163
       8     244     245     246     240     166     167     168     162
       8     247     248     245     244     169     170     167     166
       8     241     247     244     240     163     169     166     162
       8     249     250     242     251     171     172     164     173
       8     252     253     250     249     174     175     172     171
       8     254     255     253     252     176     177     175     174
       8     256     254     252     257     178     176     174     179
       8     258     243     242     250     180     165     164     172
       8     249     259     257     252     171     181     179     174
       8     234     237     251     242     156     159     173     164
       8     260     247     241     243     182     169     163     165
       8     261     260     243     258     183     182     165     180
       8     262     261     258     263     184     183     180     185
       8     253     263     258     250     175     185     180     172
       8     264     265     259     249     186     187     181     171
       8     266     264     249     251     188     186     171     173
       8     267     266     251     237     189     188     173     159
       8     268     238     236     269     190     160     158     191
       8     270     269     236     235     192     191     158     157
       8     246     270     235     240     168     192     157     162
       8     271     248     247     260     193     170     169     182
       8     272     271     260     261     194     193     182     183
       8     273     272     261     262     195     194     183     184
       8     274     273     262     275     196     195     184     197
       8     276     275     262     263     198     197     184     185
       8     255     276     263     253     177     198     185     175
       8     277     256     257     259     199     178     179     181
       8     278     277     259     265     200     199     181     187
       8     279     278     265     280     201     200     187     202
       8     281     280     265     264     203     202     187     186
       8     282     281     264     266     204     203     186     188
       8     283     282     266     267     205     204     188     189
       8     284     283     267     285     206     205     189     207
       8     239     285     267     237     161     207     189     159
       8     286     287     238     268     208     209     160     190
       8     288     286     268     269     210     208     190     191
       8     289     288     269     270     211     210     191     192
       8     290     289     270     246     212     211     192     168
       8     291     290     246     245     213     212     168     167
       8     292     291     245     248     214     213     167     170
       8     293     292     248     271     215     214     170     193
       8     294     293     271     272     216     215     193     194
       8     295     294     272     273     217     216     194     195
       8     296     295     273     274     218     217     195     196
       8     297     296     274     275     219     218     196     197
       8     298     297     275     276     220     219     197     198
       8     299     298     276     255     221     220     198     177
       8     300     299     255     254     222     221     177     176
       8     301     300     254     256     223     222     176     178
       8     302     301     256     277     224     223     178     199
       8     303     302     277     278     225     224     199     200
       8     304     303     278     279     226     225     200     201
       8     305     304     279     280     227     226     201     202
       8     306     305     280     281     228     227     202     203
       8     307     306     281     282     229     228     203     204
       8     308     307     282     283     230     229     204     205
       8     309     308     283     284     231     230     205     206
       8     310     309     284     285     232     231     206     207
       8     311     310     285     239     233     232     207     161
       8     287     311     239     238     209     233     161     160
       8     312     313     314     315     234     235     236     237
       8     314     316     317     315     236     238     239     237
       8     318     313     312     319     240     235     234     241
       8     312     320     321     319     234     242     243     241
       8     322     323     324     318     244     245     246     240
       8     325     326     323     322     247     248     245     244
       8     319     325     322     318     241     247     244     240
       8     327     328     320     329     249     250     242     251
       8     330     331     328     327     252     253     250     249
       8     332     333     331     330     254     255     253     252
       8     334     332     330     335     256     254     252     257
       8     336     321     320     328     258     243     242     250
       8     327     337     335     330     249     259     257     252
       8     312     315     329     320     234     237     251     242
       8     338     325     319     321     260     247     241     243
       8     339     338     321     336     261     260     243     258
       8     340     339     336     341     262     261     258     263
       8     331     341     336     328     253     263     258     250
       8     342     343     337     327     264     265     259     249
       8     344     342     327     329     266     264     249     251
       8     345     344     329     315     267     266     251     237
       8     346     316     314     347     268     238     236     269
       8     348     347     314     313     270     269     236     235
       8     324     348     313     318     246     270     235     240
       8     349     326     325     338     271     248     247     260
       8     350     349     338     339     272     271     260     261
       8     351     350     339     340     273     272     261     262
       8     352     351     340     353     274     273     262     275
       8     354     353     340     341     276     275     262     263
       8     333     354     341     331     255     276     263     253
       8     355     334     335     337     277     256     257     259
       8     356     355     337     343     278     277     259     265
       8     357     356     343     358     279     278     265     280
       8     359     358     343     342     281     280     265     264
       8     360     359     342     344     282     281     264     266
       8     361     360     344     345     283     282     266     267
       8     362     361     345     363     284     283     267     285
       8     317     363     345     315     239     285     267     237
       8     364     365     316     346     286     287     238     268
       8     366     364     346     347     288     286     268     269
       8     367     366     347     348     289     288     269     270
       8     368     367     348     324     290     289     270     246
       8     369     368     324     323     291     290     246     245
       8     370     369     323     326     292     291     245     248
       8     371     370     326     349     293     292     248     271
       8     372     371     349     350     294     293     271     272
       8     373     372     350     351     295     294     272     273
       8     374     373     351     352     296     295     273     274
       8     375     374     352     353     297     296     274     275
       8     376     375     353     354     298     297     275     276
       8     377     376     354     333     299     298     276     255
       8     378     377     333     332     300     299     255     254
       8     379     378     332     334     301     300     254     256
       8     380     379     334     355     302     301     256     277
       8     381     380     355     356     303     302     277     278
       8     382     381     356     357     304     303     278     279
       8     383     382     357     358     305     304     279     280
       8     384     383     358     359     306     305     280     281
       8     385     384     359     360     307     306     281     282
       8     386     385     360     361     308     307     282     283
       8     387     386     361     362     309     308     283     284
       8     388     387     362     363     310     309     284     285
       8     389     388     363     317     311     310     285     239
       8     365     389     317     316     287     311     239     238
       8     390     391     392     393     312     313     314     315
       8     392     394     395     393     314     316     317     315
       8     396     391     390     397     318     313     312     319
       8     390     398     399     397     312     320     321     319
       8     400     401     402     396     322     323     324     318
       8     403     404     401     400     325     326     323     322
       8     397     403     400     396     319     325     322     318
       8     405     406     398     407     327     328     320     329
       8     408     409     406     405     330     331     328     327
       8     410     411     409     408     332     333     331     330
       8     412     410     408     413     334     332     330     335
       8     414     399     398     406     336     321     320     328
       8     405     415     413     408     327     337     335     330
       8     390     393     407     398     312     315     329     320
       8     416     403     397     399     338     325     319     321
       8     417     416     399     414     339     338     321     336
       8     418     417     414     419     340     339     336     341
       8     409     419     414     406     331     341     336     328
       8     420     421     415     405     342     343     337     327
       8     422     420     405     407     344     342     327     329
       8     423     422     407     393     345     344     329     315
       8     424     394     392     425     346     316     314     347
       8     426     425     392     391     348     347     314     313
       8     402     426     391     396     324     348     313     318
       8     427     404     403     416     349     326     325     338
       8     428     427     416     417     350     349     338     339
       8     429     428     417     418     351     350     339     340
       8     430     429     418     431     352     351     340     353
       8     432     431     418     419     354     353     340     341
       8     411     432     419     409     333     354     341     331
       8     433     412     413     415     355     334     335     337
       8     434     433     415     421     356     355     337     343
       8     435     434     421     436     357     356     343     358
       8     437     436     421     420     359     358     343     342
       8     438     437     420     422     360     359     342     344
       8     439     438     422     423     361     360     344     345
       8     440     439     423     441     362     361     345     363
       8     395     441     423     393     317     363     345     315
       8     442     443     394     424     364     365     316     346
       8     444     442     424     425     366     364     346     347
       8     445     444     425     426     367     366     347     348
       8     446     445     426     402     368     367     348     324
       8     447     446     402     401     369     368     324     323
       8     448     447     401     404     370     369     323     326
       8     449     448     404     427     371     370     326     349
       8     450     449     427     428     372     371     349     350
       8     451     450     428     429     373     372     350     351
       8     452     451     429     430     374     373     351     352
       8     453     452     430     431     375     374     352     353
       8     454     453     431     432     376     375     353     354
       8     455     454     432     411     377     376     354     333
       8     456     455     411     410     378     377     333     332
       8     457     456     410     412     379     378     332     334
       8     458     457     412     433     380     379     334     355
       8     459     458     433     434     381     380     355     356
       8     460     459     434     435     382     381     356     357
       8     461     460     435     436     383     382     357     358
       8     462     461     436     437     384     383     358     359
       8     463     462     437     438     385     384     359     360
       8     464     463     438     439     386     385     360     361
       8     465     464     439     440     387     386     361     362
       8     466     465     440     441     388     387     362     363
       8     467     466     441     395     389     388     363     317
       8     443     467     395     394     365     389     317     316
       8     468     469     470     471     390     391     392     393
       8     470     472     473     471     392     394     395     393
       8     474     469     468     475     396     391     390     397
       8     468     476     477     475     390     398     399     397
       8     478     479     480     474     400     401     402     396
       8     481     482     479     478     403     404     401     400
       8     475     481     478     474     397     403     400     396
       8     483     484     476     485     405     406     398     407
       8     486     487     484     483     408     409     406     405
       8     488     489     487     486     410     411     409     408
       8     490     488     486     491     412     410     408     413
       8     492     477     476     484     414     399     398     406
       8     483     493     491     486     405     415     413     408
       8     468     471     485     476     390     393     407     398
       8     494     481     475     477     416     403     397     399
       8     495     494     477     492     417     416     399     414
       8     496     495     492     497     418     417     414     419
       8     487     497     492     484     409     419     414     406
       8     498     499     493     483     420     421     415     405
       8     500     498     483     485     422     420     405     407
       8     501     500     485     471     423     422     407     393
       8     502     472     470     503     424     394     392     425
       8     504     503     470     469     426     425     392     391
       8     480     504     469     474     402     426     391     396
       8     505     482     481     494     427     404     403     416
       8     506     505     494     495     428     427     416     417
       8     507     506     495     496     429     428     417     418
       8     508     507     496     509     430     429     418     431
       8     510     509     496     497     432     431     418     419
       8     489     510     497     487     411     432     419     409
       8     511     490     491     493     433     412     413     415
       8     512     511     493     499     434     433     415     421
       8     513     512     499     514     435     434     421     436
       8     515     514     499     498     437     436     421     420
       8     516     515     498     500     438     437     420     422
       8     517     516     500     501     439     438     422     423
       8     518     517     501     519     440     439     423     441
       8     473     519     501     471     395     441     423     393
       8     520     521     472     502     442     443     394     424
       8     522     520     502     503     444     442     424     425
       8     523     522     503     504     445     444     425     426
       8     524     523     504     480     446     445     426     402
       8     525     524     480     479     447     446     402     401
       8     526     525     479     482     448     447     401     404
       8     527     526     482     505     449     448     404     427
       8     528     527     505     506     450     449     427     428
       8     529     528     506     507     451     450     428     429
       8     530     529     507     508     452     451     429     430
       8     531     530     508     509     453     452     430     431
       8     532     531     509     510     454     453     431     432
       8     533     532     510     489     455     454     432     411
       8     534     533     489     488     456     455     411     410
       8     535     534     488     490     457     456     410     412
       8     536     535     490     511     458     457     412     433
       8     537     536     511     512     459     458     433     434
       8     538     537     512     513     460     459     434     435
       8     539     538     513     514     461     460     435     436
       8     540     539     514     515     462     461     436     437
       8     541     540     515     516     463     462     437     438
       8     542     541     516     517     464     463     438     439
       8     543     542     517     518     465     464     439     440
       8     544     543     518     519     466     465     440     441
       8     545     544     519     473     467     466     441     395
       8     521     545     473     472     443     467     395     394
       8     546     547     548     549     468     469     470     471
       8     548     550     551     549     470     472     473     471
       8     552     547     546     553     474     469     468     475
       8     546     554     555     553     468     476     477     475
       8     556     557     558     552     478     479     480     474
       8     559     560     557     556     481     482     479     478
       8     553     559     556     552     475     481     478     474
       8     561     562     554     563     483     484     476     485
       8     564     565     562     561     486     487     484     483
       8     566     567     565     564     488     489     487     486
       8     568     566     564     569     490     488     486     491
       8     570     555     554     562     492     477     476     484
       8     561     571     569     564     483     493     491     486
       8     546     549     563     554     468     471     485     476
       8     572     559     553     555     494     481     475     477
       8     573     572     555     570     495     494     477     492
       8     574     573     570     575     496     495     492     497
       8     565     575     570     562     487     497     492     484
       8     576     577     571     561     498     499     493     483
       8     578     576     561     563     500     498     483     485
       8     579     578     563     549     501     500     485     471
       8     580     550     548     581     502     472     470     503
       8     582     581     548     547     504     503     470     469
       8     558     582     547     552     480     504     469     474
       8     583     560     559     572     505     482     481     494
       8     584     583     572     573     506     505     494     495
       8     585     584     573     574     507     506     495     496
       8     586     585     574     587     508     507     496     509
       8     588     587     574     575     510     509     496     497
       8     567     588     575     565     489     510     497     487
       8     589     568     569     571     511     490     491     493
       8     590     589     571     577     512     511     493     499
       8     591     590     577     592     513     512     499     514
       8     593     592     577     576     515     514     499     498
       8     594     593     576     578     516     515     498     500
       8     595     594     578     579     517     516     500     501
       8     596     595     579     597     518     517     501     519
       8     551     597     579     549     473     519     501     471
       8     598     599     550     580     520     521     472     502
       8     600     598     580     581     522     520     502     503
       8     601     600     581     582     523     522     503     504
       8     602     601     582     558     524     523     504     480
       8     603     602     558     557     525     524     480     479
       8     604     603     557     560     526     525     479     482
       8     605     604     560     583     527     526     482     505
       8     606     605     583     584     528     527     505     506
       8     607     606     584     585     529     528     506     507
       8     608     607     585     586     530     529     507     508
       8     609     608     586     587     531     530     508     509
       8     610     609     587     588     532     531     509     510
       8     611     610     588     567     533     532     510     489
       8     612     611     567     566     534     533     489     488
       8     613     612     566     568     535     534     488     490
       8     614     613     568     589     536     535     490     511
       8     615     614     589     590     537     536     511     512
       8     616     615     590     591     538     537     512     513
       8     617     616     591     592     539     538     513     514
       8     618     617     592     593     540     539     514     515
       8     619     618     593     594     541     540     515     516
       8     620     619     594     595     542     541     516     517
       8     621     620     595     596     543     542     517     518
       8     622     621     596     597     544     543     518     519
       8     623     622     597     551     545     544     519     473
       8     599     623     551     550     521     545     473     472
       8     624     625     626     627     546     547     548     549
       8     626     628     629     627     548     550     551     549
       8     630     625     624     631     552     547     546     553
       8     624     632     633     631     546     554     555     553
       8     634     635     636     630     556     557     558     552
       8     637     638     635     634     559     560     557     556
       8     631     637     634     630     553     559     556     552
       8     639     640     632     641     561     562     554     563
       8     642     643     640     639     564     565     562     561
       8     644     645     643     642     566     567     565     564
       8     646     644     642     647     568     566     564     569
       8     648     633     632     640     570     555     554     562
       8     639     649     647     642     561     571     569     564
       8     624     627     641     632     546     549     563     554
       8     650     637     631     633     572     559     553     555
       8     651     650     633     648     573     572     555     570
       8     652     651     648     653     574     573     570     575
       8     643     653     648     640     565     575     570     562
       8     654     655     649     639     576     577     571     561
       8     656     654     639     641     578     576     561     563
       8     657     656     641     627     579     578     563     549
       8     658     628     626     659     580     550     548     581
       8     660     659     626     625     582     581     548     547
       8     636     660     625     630     558     582     547     552
       8     661     638     637     650     583     560     559     572
       8     662     661     650     651     584     583     572     573
       8     663     662     651     652     585     584     573     574
       8     664     663     652     665     586     585     574     587
       8     666     665     652     653     588     587     574     575
       8     645     666     653     643     567     588     575     565
       8     667     646     647     649     589     568     569     571
       8     668     667     649     655     590     589     571     577
       8     669     668     655     670     591     590     577     592
       8     671     670     655     654     593     592     577     576
       8     672     671     654     656     594     593     576     578
       8     673     672     656     657     595     594     578     579
       8     674     673     657     675     596     595     579     597
       8     629     675     657     627     551     597     579     549
       8     676     677     628     658     598     599     550     580
       8     678     676     658     659     600     598     580     581
       8     679     678     659     660     601     600     581     582
       8     680     679     660     636     602     601     582     558
       8     681     680     636     635     603     602     558     557
       8     682     681     635     638     604     603     557     560
       8     683     682     638     661     605     604     560     583
       8     684     683     661     662     606     605     583     584
       8     685     684     662     663     607     606     584     585
       8     686     685     663     664     608     607     585     586
       8     687     686     664     665     609     608     586     587
       8     688     687     665     666     610     609     587     588
       8     689     688     666     645     611     610     588     567
       8     690     689     645     644     612     611     567     566
       8     691     690     644     646     613     612     566     568
       8     692     691     646     667     614     613     568     589
       8     693     692     667     668     615     614     589     590
       8     694     693     668     669     616     615     590     591
       8     695     694     669     670     617     616     591     592
       8     696     695     670     671     618     617     592     593
       8     697     696     671     672     619     618     593     594
       8     698     697     672     673     620     619     594     595
       8     699     698     673     674     621     620     595     596
       8     700     699     674     675     622     621     596     597
       8     701     700     675     629     623     622     597     551
       8     677     701     629     628     599     623     551     550
       8     702     703     704     705     624     625     626     627
       8     704     706     707     705     626     628     629     627
       8     708     703     702     709     630     625     624     631
       8     702     710     711     709     624     632     633     631
       8     712     713     714     708     634     635     636     630
       8     715     716     713     712     637     638     635     634
       8     709     715     712     708     631     637     634     630
       8     717     718     710     719     639     640     632     641
       8     720     721     718     717     642     643     640     639
       8     722     723     721     720     644     645     643     642
       8     724     722     720     725     646     644     642     647
       8     726     711     710     718     648     633     632     640
       8     717     727     725     720     639     649     647     642
       8     702     705     719     710     624     627     641     632
       8     728     715     709     711     650     637     631     633
       8     729     728     711     726     651     650     633     648
       8     730     729     726     731     652     651     648     653
       8     721     731     726     718     643     653     648     640
       8     732     733     727     717     654     655     649     639
       8     734     732     717     719     656     654     639     641
       8     735     734     719     705     657     656     641     627
       8     736     706     704     737     658     628     626     659
       8     738     737     704     703     660     659     626     625
       8     714     738     703     708     636     660     625     630
       8     739     716     715     728     661     638     637     650
       8     740     739     728     729     662     661     650     651
       8     741     740     729     730     663     662     651     652
       8     742     741     730     743     664     663     652     665
       8     744     743     730     731     666     665     652     653
       8     723     744     731     721     645     666     653     643
       8     745     724     725     727     667     646     647     649
       8     746     745     727     733     668     667     649     655
       8     747     746     733     748     669     668     655     670
       8     749     748     733     732     671     670     655     654
       8     750     749     732     734     672     671     654     656
       8     751     750     734     735     673     672     656     657
       8     752     751     735     753     674     673     657     675
       8     707     753     735     705     629     675     657     627
       8     754     755     706     736     676     677     628     658
       8     756     754     736     737     678     676     658     659
       8     757     756     737     738     679     678     659     660
       8     758     757     738     714     680     679     660     636
       8     759     758     714     713     681     680     636     635
       8     760     759     713     716     682     681     635     638
       8     761     760     716     739     683     682     638     661
       8     762     761     739     740     684     683     661     662
       8     763     762     740     741     685     684     662     663
       8     764     763     741     742     686     685     663     664
       8     765     764     742     743     687     686     664     665
       8     766     765     743     744     688     687     665     666
       8     767     766     744     723     689     688     666     645
       8     768     767     723     722     690     689     645     644
       8     769     768     722     724     691     690     644     646
       8     770     769     724     745     692     691     646     667
       8     771     770     745     746     693     692     667     668
       8     772     771     746     747     694     693     668     669
       8     773     772     747     748     695     694     669     670
       8     774     773     748     749     696     695     670     671
       8     775     774     749     750     697     696     671     672
       8     776     775     750     751     698     697     672     673
       8     777     776     751     752     699     698     673     674
       8     778     777     752     753     700     699     674     675
       8     779     778     753     707     701     700     675     629
       8     755     779     707     706     677     701     629     628
       8     780     781     782     783     702     703     704     705
       8     782     784     785     783     704     706     707     705
       8     786     781     780     787     708     703     702     709
       8     780     788     789     787     702     710     711     709
       8     790     791     792     786     712     713     714     708
       8     793     794     791     790     715     716     713     712
       8     787     793     790     786     709     715     712     708
       8     795     796     788     797     717     718     710     719
       8     798     799     796     795     720     721     718     717
       8     800     801     799     798     722     723     721     720
       8     802     800     798     803     724     722     720     725
       8     804     789     788     796     726     711     710     718
       8     795     805     803     798     717     727     725     720
       8     780     783     797     788     702     705     719     710
       8     806     793     787     789     728     715     709     711
       8     807     806     789     804     729     728     711     726
       8     808     807     804     809     730     729     726     731
       8     799     809     804     796     721     731     726     718
       8     810     811     805     795     732     733     727     717
       8     812     810     795     797     734     732     717     719
       8     813     812     797     783     735     734     719     705
       8     814     784     782     815     736     706     704     737
       8     816     815     782     781     738     737     704     703
       8     792     816     781     786     714     738     703     708
       8     817     794     793     806     739     716     715     728
       8     818     817     806     807     740     739     728     729
       8     819     818     807     808     741     740     729     730
       8     820     819     808     821     742     741     730     743
       8     822     821     808     809     744     743     730     731
       8     801     822     809     799     723     744     731     721
       8     823     802     803     805     745     724     725     727
       8     824     823     805     811     746     745     727     733
       8     825     824     811     826     747     746     733     748
       8     827     826     811     810     749     748     733     732
       8     828     827     810     812     750     749     732     734
       8     829     828     812     813     751     750     734     735
       8     830     829     813     831     752     751     735     753
       8     785     831     813     783     707     753     735     705
       8     832     833     784     814     754     755     706     736
       8     834     832     814     815     756     754     736     737
       8     835     834     815     816     757     756     737     738
       8     836     835     816     792     758     757     738     714
       8     837     836     792     791     759     758     714     713
       8     838     837     791     794     760     759     713     716
       8     839     838     794     817     761     760     716     739
       8     840     839     817     818     762     761     739     740
       8     841     840     818     819     763     762     740     741
       8     842     841     819     820     764     763     741     742
       8     843     842     820     821     765     764     742     743
       8     844     843     821     822     766     765     743     744
       8     845     844     822     801     767     766     744     723
       8     846     845     801     800     768     767     723     722
       8     847     846     800     802     769     768     722     724
       8     848     847     802     823     770     769     724     745
       8     849     848     823     824     771     770     745     746
       8     850     849     824     825     772     771     746     747
       8     851     850     825     826     773     772     747     748
       8     852     851     826     827     774     773     748     749
       8     853     852     827     828     775     774     749     750
       8     854     853     828     829     776     775     750     751
       8     855     854     829     830     777     776     751     752
       8     856     855     830     831     778     777     752     753
       8     857     856     831     785     779     778     753     707
       8     833     857     785     784     755     779     707     706
       8     858     859     860     861     780     781     782     783
       8     860     862     863     861     782     784     785     783
       8     864     859     858     865     786     781     780     787
       8     858     866     867     865     780     788     789     787
       8     868     869     870     864     790     791     792     786
       8     871     872     869     868     793     794     791     790
       8     865     871     868     864     787     793     790     786
       8     873     874     866     875     795     796     788     797
       8     876     877     874     873     798     799     796     795
       8     878     879     877     876     800     801     799     798
       8     880     878     876     881     802     800     798     803
       8     882     867     866     874     804     789     788     796
       8     873     883     881     876     795     805     803     798
       8     858     861     875     866     780     783     797     788
       8     884     871     865     867     806     793     787     789
       8     885     884     867     882     807     806     789     804
       8     886     885     882     887     808     807     804     809
       8     877     887     882     874     799     809     804     796
       8     888     889     883     873     810     811     805     795
       8     890     888     873     875     812     810     795     797
       8     891     890     875     861     813     812     797     783
       8     892     862     860     893     814     784     782     815
       8     894     893     860     859     816     815     782     781
       8     870     894     859     864     792     816     781     786
       8     895     872     871     884     817     794     793     806
       8     896     895     884     885     818     817     806     807
       8     897     896     885     886     819     818     807     808
       8     898     897     886     899     820     819     808     821
       8     900     899     886     887     822     821     808     809
       8     879     900     887     877     801     822     809     799
       8     901     880     881     883     823     802     803     805
       8     902     901     883     889     824     823     805     811
       8     903     902     889     904     825     824     811     826
       8     905     904     889     888     827     826     811     810
       8     906     905     888     890     828     827     810     812
       8     907     906     890     891     829     828     812     813
       8     908     907     891     909     830     829     813     831
       8     863     909     891     861     785     831     813     783
       8     910     911     862     892     832     833     784     814
       8     912     910     892     893     834     832     814     815
       8     913     912     893     894     835     834     815     816
       8     914     913     894     870     836     835     816     792
       8     915     914     870     869     837     836     792     791
       8     916     915     869     872     838     837     791     794
       8     917     916     872     895     839     838     794     817
       8     918     917     895     896     840     839     817     818
       8     919     918     896     897     841     840     818     819
       8     920     919     897     898     842     841     819     820
       8     921     920     898     899     843     842     820     821
       8     922     921     899     900     844     843     821     822
       8     923     922     900     879     845     844     822     801
       8     924     923     879     878     846     845     801     800
       8     925     924     878     880     847     846     800     802
       8     926     925     880     901     848     847     802     823
       8     927     926     901     902     849     848     823     824
       8     928     927     902     903     850     849     824     825
       8     929     928     903     904     851     850     825     826
       8     930     929     904     905     852     851     826     827
       8     931     930     905     906     853     852     827     828
       8     932     931     906     907     854     853     828     829
       8     933     932     907     908     855     854     829     830
       8     934     933     908     909     856     855     830     831
       8     935     934     909     863     857     856     831     785
       8     911     935     863     862     833     857     785     784
       8     936     937     938     939     858     859     860     861
       8     938     940     941     939     860     862     863     861
       8     942     937     936     943     864     859     858     865
       8     936     944     945     943     858     866     867     865
       8     946     947     948     942     868     869     870     864
       8     949     950     947     946     871     872     869     868
       8     943     949     946     942     865     871     868     864
       8     951     952     944     953     873     874     866     875
       8     954     955     952     951     876     877     874     873
       8     956     957     955     954     878     879     877     876
       8     958     956     954     959     880     878     876     881
       8     960     945     944     952     882     867     866     874
       8     951     961     959     954     873     883     881     876
       8     936     939     953     944     858     861     875     866
       8     962     949     943     945     884     871     865     867
       8     963     962     945     960     885     884     867     882
       8     964     963     960     965     886     885     882     887
       8     955     965     960     952     877     887     882     874
       8     966     967     961     951     888     889     883     873
       8     968     966     951     953     890     888     873     875
       8     969     968     953     939     891     890     875     861
       8     970     940     938     971     892     862     860     893
       8     972     971     938     937     894     893     860     859
       8     948     972     937     942     870     894     859     864
       8     973     950     949     962     895     872     871     884
       8     974     973     962     963     896     895     884     885
       8     975     974     963     964     897     896     885     886
       8     976     975     964     977     898     897     886     899
       8     978     977     964     965     900     899     886     887
       8     957     978     965     955     879     900     887     877
       8     979     958     959     961     901     880     881     883
       8     980     979     961     967     902     901     883     889
       8     981     980     967     982     903     902     889     904
       8     983     982     967     966     905     904     889     888
       8     984     983     966     968     906     905     888     890
       8     985     984     968     969     907     906     890     891
       8     986     985     969     987     908     907     891     909
       8     941     987     969     939     863     909     891     861
       8     988     989     940     970     910     911     862     892
       8     990     988     970     971     912     910     892     893
       8     991     990     971     972     913     912     893     894
       8     992     991     972     948     914     913     894     870
       8     993     992     948     947     915     914     870     869
       8     994     993     947     950     916     915     869     872
       8     995     994     950     973     917     916     872     895
       8     996     995     973     974     918     917     895     896
       8     997     996     974     975     919     918     896     897
       8     998     997     975     976     920     919     897     898
       8     999     998     976     977     921     920     898     899
       8    1000     999     977     978     922     921     899     900
       8    1001    1000     978     957     923     922     900     879
       8    1002    1001     957     956     924     923     879     878
       8    1003    1002     956     958     925     924     878     880
       8    1004    1003     958     979     926     925     880     901
       8    1005    1004     979     980     927     926     901     902
       8    1006    1005     980     981     928     927     902     903
       8    1007    1006     981     982     929     928     903     904
       8    1008    1007     982     983     930     929     904     905
       8    1009    1008     983     984     931     930     905     906
       8    1010    1009     984     985     932     931     906     907
       8    1011    1010     985     986     933     932     907     908
       8    1012    1011     986     987     934     933     908     909
       8    1013    1012     987     941     935     934     909     863
       8     989    1013     941     940     911     935     863     862
       8    1014    1015    1016    1017     936     937     938     939
       8    1016    1018    1019    1017     938     940     941     939
       8    1020    1015    1014    1021     942     937     936     943
       8    1014    1022    1023    1021     936     944     945     943
       8    1024    1025    1026    1020     946     947     948     942
       8    1027    1028    1025    1024     949     950     947     946
       8    1021    1027    1024    1020     943     949     946     942
       8    1029    1030    1022    1031     951     952     944     953
       8    1032    1033    1030    1029     954     955     952     951
       8    1034    1035    1033    1032     956     957     955     954
       8    1036    1034    1032    1037     958     956     954     959
       8    1038    1023    1022    1030     960     945     944     952
       8    1029    1039    1037    1032     951     961     959     954
       8    1014    1017    1031    1022     936     939     953     944
       8    1040    1027    1021    1023     962     949     943     945
       8    1041    1040    1023    1038     963     962     945     960
       8    1042    1041    1038    1043     964     963     960     965
       8    1033    1043    1038    1030     955     965     960     952
       8    1044    1045    1039    1029     966     967     961     951
       8    1046    1044    1029    1031     968     966     951     953
       8    1047    1046    1031    1017     969     968     953     939
       8    1048    1018    1016    1049     970     940     938     971
       8    1050    1049    1016    1015     972     971     938     937
       8    1026    1050    1015    1020     948     972     937     942
       8    1051    1028    1027    1040     973     950     949     962
       8    1052    1051    1040    1041     974     973     962     963
       8    1053    1052    1041    1042     975     974     963     964
       8    1054    1053    1042    1055     976     975     964     977
       8    1056    1055    1042    1043     978     977     964     965
       8    1035    1056    1043    1033     957     978     965     955
       8    1057    1036    1037    1039     979     958     959     961
       8    1058    1057    1039    1045     980     979     961     967
       8    1059    1058    1045    1060     981     980     967     982
       8    1061    1060    1045    1044     983     982     967     966
       8    1062    1061    1044    1046     984     983     966     968
       8    1063    1062    1046    1047     985     984     968     969
       8    1064    1063    1047    1065     986     985     969     987
       8    1019    1065    1047    1017     941     987     969     939
       8    1066    1067    1018    1048     988     989     940     970
       8    1068    1066    1048    1049     990     988     970     971
       8    1069    1068    1049    1050     991     990     971     972
       8    1070    1069    1050    1026     992     991     972     948
       8    1071    1070    1026    1025     993     992     948     947
       8    1072    1071    1025    1028     994     993     947     950
       8    1073    1072    1028    1051     995     994     950     973
       8    1074    1073    1051    1052     996     995     973     974
       8    1075    1074    1052    1053     997     996     974     975
       8    1076    1075    1053    1054     998     997     975     976
       8    1077    1076    1054    1055     999     998     976     977
       8    1078    1077    1055    1056    1000     999     977     978
       8    1079    1078    1056    1035    1001    1000     978     957
       8    1080    1079    1035    1034    1002    1001     957     956
       8    1081    1080    1034    1036    1003    1002     956     958
       8    1082    1081    1036    1057    1004    1003     958     979
       8    1083    1082    1057    1058    1005    1004     979     980
       8    1084    1083    1058    1059    1006    1005     980     981
       8    1085    1084    1059    1060    1007    1006     981     982
       8    1086    1085    1060    1061    1008    1007     982     983
       8    1087    1086    1061    1062    1009    1008     983     984
       8    1088    1087    1062    1063    1010    1009     984     985
       8    1089    1088    1063    1064    1011    1010     985     986
       8    1090    1089    1064    1065    1012    1011     986     987
       8    1091    1090    1065    1019    1013    1012     987     941
       8    1067    1091    1019    1018     989    1013     941     940
       8    1092    1093    1094    1095    1014    1015    1016    1017
       8    1094    1096    1097    1095    1016    1018    1019    1017
       8    1098    1093    1092    1099    1020    1015    1014    1021
       8    1092    1100    1101    1099    1014    1022    1023    1021
       8    1102    1103    1104    1098    1024    1025    1026    1020
       8    1105    1106    1103    1102    1027    1028    1025    1024
       8    1099    1105    1102    1098    1021    1027    1024    1020
       8    1107    1108    1100    1109    1029    1030    1022    1031
       8    1110    1111    1108    1107    1032    1033    1030    1029
       8    1112    1113    1111    1110    1034    1035    1033    1032
       8    1114    1112    1110    1115    1036    1034    1032    1037
       8    1116    1101    1100    1108    1038    1023    1022    1030
       8    1107    1117    1115    1110    1029    1039    1037    1032
       8    1092    1095    1109    1100    1014    1017    1031    1022
       8    1118    1105    1099    1101    1040    1027    1021    1023
       8    1119    1118    1101    1116    1041    1040    1023    1038
       8    1120    1119    1116    1121    1042    1041    1038    1043
       8    1111    1121    1116    1108    1033    1043    1038    1030
       8    1122    1123    1117    1107    1044    1045    1039    1029
       8    1124    1122    1107    1109    1046    1044    1029    1031
       8    1125    1124    1109    1095    1047    1046    1031    1017
       8    1126    1096    1094    1127    1048    1018    1016    1049
       8    1128    1127    1094    1093    1050    1049    1016    1015
       8    1104    1128    1093    1098    1026    1050    1015    1020
       8    1129    1106    1105    1118    1051    1028    1027    1040
       8    1130    1129    1118    1119    1052    1051    1040    1041
       8    1131    1130    1119    1120    1053    1052    1041    1042
       8    1132    1131    1120    1133    1054    1053    1042    1055
       8    1134    1133    1120    1121    1056    1055    1042    1043
       8    1113    1134    1121    1111    1035    1056    1043    1033
       8    1135    1114    1115    1117    1057    1036    1037    1039
       8    1136    1135    1117    1123    1058    1057    1039    1045
       8    1137    1136    1123    1138    1059    1058    1045    1060
       8    1139    1138    1123    1122    1061    1060    1045    1044
       8    1140    1139    1122    1124    1062    1061    1044    1046
       8    1141    1140    1124    1125    1063    1062    1046    1047
       8    1142    1141    1125    1143    1064    1063    1047    1065
       8    1097    1143    1125    1095    1019    1065    1047    1017
       8    1144    1145    1096    1126    1066    1067    1018    1048
       8    1146    1144    1126    1127    1068    1066    1048    1049
       8    1147    1146    1127    1128    1069    1068    1049    1050
       8    1148    1147    1128    1104    1070    1069    1050    1026
       8    1149    1148    1104    1103    1071    1070    1026    1025
       8    1150    1149    1103    1106    1072    1071    1025    1028
       8    1151    1150    1106    1129    1073    1072    1028    1051
       8    1152    1151    1129    1130    1074    1073    1051    1052
       8    1153    1152    1130    1131    1075    1074    1052    1053
       8    1154    1153    1131    1132    1076    1075    1053    1054
       8    1155    1154    1132    1133    1077    1076    1054    1055
       8    1156    1155    1133    1134    1078    1077    1055    1056
       8    1157    1156    1134    1113    1079    1078    1056    1035
       8    1158    1157    1113    1112    1080    1079    1035    1034
       8    1159    1158    1112    1114    1081    1080    1034    1036
       8    1160    1159    1114    1135    1082    1081    1036    1057
       8    1161    1160    1135    1136    1083    1082    1057    1058
       8    1162    1161    1136    1137    1084    1083    1058    1059
       8    1163    1162    1137    1138    1085    1084    1059    1060
       8    1164    1163    1138    1139    1086    1085    1060    1061
       8    1165    1164    1139    1140    1087    1086    1061    1062
       8    1166    1165    1140    1141    1088    1087    1062    1063
       8    1167    1166    1141    1142    1089    1088    1063    1064
       8    1168    1167    1142    1143    1090    1089    1064    1065
       8    1169    1168    1143    1097    1091    1090    1065    1019
       8    1145    1169    1097    1096    1067    1091    1019    1018
       8    1170    1171    1172    1173    1092    1093    1094    1095
       8    1172    1174    1175    1173    1094    1096    1097    1095
       8    1176    1171    1170    1177    1098    1093    1092    1099
       8    1170    1178    1179    1177    1092    1100    1101    1099
       8    1180    1181    1182    1176    1102    1103    1104    1098
       8    1183    1184    1181    1180    1105    1106    1103    1102
       8    1177    1183    1180    1176    1099    1105    1102    1098
       8    1185    1186    1178    1187    1107    1108    1100    1109
       8    1188    1189    1186    1185    1110    1111    1108    1107
       8    1190    1191    1189    1188    1112    1113    1111    1110
       8    1192    1190    1188    1193    1114    1112    1110    1115
       8    1194    1179    1178    1186    1116    1101    1100    1108
       8    1185    1195    1193    1188    1107    1117    1115    1110
       8    1170    1173    1187    1178    1092    1095    1109    1100
       8    1196    1183    1177    1179    1118    1105    1099    1101
       8    1197    1196    1179    1194    1119    1118    1101    1116
       8    1198    1197    1194    1199    1120    1119    1116    1121
       8    1189    1199    1194    1186    1111    1121    1116    1108
       8    1200    1201    1195    1185    1122    1123    1117    1107
       8    1202    1200    1185    1187    1124    1122    1107    1109
       8    1203    1202    1187    1173    1125    1124    1109    1095
       8    1204    1174    1172    1205    1126    1096    1094    1127
       8    1206    1205    1172    1171    1128    1127    1094    1093
       8    1182    1206    1171    1176    1104    1128    1093    1098
       8    1207    1184    1183    1196    1129    1106    1105    1118
       8    1208    1207    1196    1197    1130    1129    1118    1119
       8    1209    1208    1197    1198    1131    1130    1119    1120
       8    1210    1209    1198    1211    1132    1131    1120    1133
       8    1212    1211    1198    1199    1134    1133    1120    1121
       8    1191    1212    1199    1189    1113    1134    1121    1111
       8    1213    1192    1193    1195    1135    1114    1115    1117
       8    1214    1213    1195    1201    1136    1135    1117    1123
       8    1215    1214    1201    1216    1137    1136    1123    1138
       8    1217    1216    1201    1200    1139    1138    1123    1122
       8    1218    1217    1200    1202    1140    1139    1122    1124
       8    1219    1218    1202    1203    1141    1140    1124    1125
       8    1220    1219    1203    1221    1142    1141    1125    1143
       8    1175    1221    1203    1173    1097    1143    1125    1095
       8    1222    1223    1174    1204    1144    1145    1096    1126
       8    1224    1222    1204    1205    1146    1144    1126    1127
       8    1225    1224    1205    1206    1147    1146    1127    1128
       8    1226    1225    1206    1182    1148    1147    1128    1104
       8    1227    1226    1182    1181    1149    1148    1104    1103
       8    1228    1227    1181    1184    1150    1149    1103    1106
       8    1229    1228    1184    1207    1151    1150    1106    1129
       8    1230    1229    1207    1208    1152    1151    1129    1130
       8    1231    1230    1208    1209    1153    1152    1130    1131
       8    1232    1231    1209    1210    1154    1153    1131    1132
       8    1233    1232    1210    1211    1155    1154    1132    1133
       8    1234    1233    1211    1212    1156    1155    1133    1134
       8    1235    1234    1212    1191    1157    1156    1134    1113
       8    1236    1235    1191    1190    1158    1157    1113    1112
       8    1237    1236    1190    1192    1159    1158    1112    1114
       8    1238    1237    1192    1213    1160    1159    1114    1135
       8    1239    1238    1213    1214    1161    1160    1135    1136
       8    1240    1239    1214    1215    1162    1161    1136    1137
       8    1241    1240    1215    1216    1163    1162    1137    1138
       8    1242    1241    1216    1217    1164    1163    1138    1139
       8    1243    1242    1217    1218    1165    1164    1139    1140
       8    1244    1243    1218    1219    1166    1165    1140    1141
       8    1245    1244    1219    1220    1167    1166    1141    1142
       8    1246    1245    1220    1221    1168    1167    1142    1143
       8    1247    1246    1221    1175    1169    1168    1143    1097
       8    1223    1247    1175    1174    1145    1169    1097    1096
       8    1248    1249    1250    1251    1170    1171    1172    1173
       8    1250    1252    1253    1251    1172    1174    1175    1173
       8    1254    1249    1248    1255    1176    1171    1170    1177
       8    1248    1256    1257    1255    1170    1178    1179    1177
       8    1258    1259    1260    1254    1180    1181    1182    1176
       8    1261    1262    1259    1258    1183    1184    1181    1180
       8    1255    1261    1258    1254    1177    1183    1180    1176
       8    1263    1264    1256    1265    1185    1186    1178    1187
       8    1266    1267    1264    1263    1188    1189    1186    1185
       8    1268    1269    1267    1266    1190    1191    1189    1188
       8    1270    1268    1266    1271    1192    1190    1188    1193
       8    1272    1257    1256    1264    1194    1179    1178    1186
       8    1263    1273    1271    1266    1185    1195    1193    1188
       8    1248    1251    1265    1256    1170    1173    1187    1178
       8    1274    1261    1255    1257    1196    1183    1177    1179
       8    1275    1274    1257    1272    1197    1196    1179    1194
       8    1276    1275    1272    1277    1198    1197    1194    1199
       8    1267    1277    1272    1264    1189    1199    1194    1186
       8    1278    1279    1273    1263    1200    1201    1195    1185
       8    1280    1278    1263    1265    1202    1200    1185    1187
       8    1281    1280    1265    1251    1203    1202    1187    1173
       8    1282    1252    1250    1283    1204    1174    1172    1205
       8    1284    1283    1250    1249    1206    1205    1172    1171
       8    1260    1284    1249    1254    1182    1206    1171    1176
       8    1285    1262    1261    1274    1207    1184    1183    1196
       8    1286    1285    1274    1275    1208    1207    1196    1197
       8    1287    1286    1275    1276    1209    1208    1197    1198
       8    1288    1287    1276    1289    1210    1209    1198    1211
       8    1290    1289    1276    1277    1212    1211    1198    1199
       8    1269    1290    1277    1267    1191    1212    1199    1189
       8    1291    1270    1271    1273    1213    1192    1193    1195
       8    1292    1291    1273    1279    1214    1213    1195    1201
       8    1293    1292    1279    1294    1215    1214    1201    1216
       8    1295    1294    1279    1278    1217    1216    1201    1200
       8    1296    1295    1278    1280    1218    1217    1200    1202
       8    1297    1296    1280    1281    1219    1218    1202    1203
       8    1298    1297    1281    1299    1220    1219    1203    1221
       8    1253    1299    1281    1251    1175    1221    1203    1173
       8    1300    1301    1252    1282    1222    1223    1174    1204
       8    1302    1300    1282    1283    1224    1222    1204    1205
       8    1303    1302    1283    1284    1225    1224    1205    1206
       8    1304    1303    1284    1260    1226    1225    1206    1182
       8    1305    1304    1260    1259    1227    1226    1182    1181
       8    1306    1305    1259    1262    1228    1227    1181    1184
       8    1307    1306    1262    1285    1229    1228    1184    1207
       8    1308    1307    1285    1286    1230    1229    1207    1208
       8    1309    1308    1286    1287    1231    1230    1208    1209
       8    1310    1309    1287    1288    1232    1231    1209    1210
       8    1311    1310    1288    1289    1233    1232    1210    1211
       8    1312    1311    1289    1290    1234    1233    1211    1212
       8    1313    1312    1290    1269    1235    1234    1212    1191
       8    1314    1313    1269    1268    1236    1235    1191    1190
       8    1315    1314    1268    1270    1237    1236    1190    1192
       8    1316    1315    1270    1291    1238    1237    1192    1213
       8    1317    1316    1291    1292    1239    1238    1213    1214
       8    1318    1317    1292    1293    1240    1239    1214    1215
       8    1319    1318    1293    1294    1241    1240    1215    1216
       8    1320    1319    1294    1295    1242    1241    1216    1217
       8    1321    1320    1295    1296    1243    1242    1217    1218
       8    1322    1321    1296    1297    1244    1243    1218    1219
       8    1323    1322    1297    1298    1245    1244    1219    1220
       8    1324    1323    1298    1299    1246    1245    1220    1221
       8    1325    1324    1299    1253    1247    1246    1221    1175
       8    1301    1325    1253    1252    1223    1247    1175    1174
       8    1326    1327    1328    1329    1248    1249    1250    1251
       8    1328    1330    1331    1329    1250    1252    1253    1251
       8    1332    1327    1326    1333    1254    1249    1248    1255
       8    1326    1334    1335    1333    1248    1256    1257    1255
       8    1336    1337    1338    1332    1258    1259    1260    1254
       8    1339    1340    1337    1336    1261    1262    1259    1258
       8    1333    1339    1336    1332    1255    1261    1258    1254
       8    1341    1342    1334    1343    1263    1264    1256    1265
       8    1344    1345    1342    1341    1266    1267    1264    1263
       8    1346    1347    1345    1344    1268    1269    1267    1266
       8    1348    1346    1344    1349    1270    1268    1266    1271
       8    1350    1335    1334    1342    1272    1257    1256    1264
       8    1341    1351    1349    1344    1263    1273    1271    1266
       8    1326    1329    1343    1334    1248    1251    1265    1256
       8    1352    1339    1333    1335    1274    1261    1255    1257
       8    1353    1352    1335    1350    1275    1274    1257    1272
       8    1354    1353    1350    1355    1276    1275    1272    1277
       8    1345    1355    1350    1342    1267    1277    1272    1264
       8    1356    1357    1351    1341    1278    1279    1273    1263
       8    1358    1356    1341    1343    1280    1278    1263    1265
       8    1359    1358    1343    1329    1281    1280    1265    1251
       8    1360    1330    1328    1361    1282    1252    1250    1283
       8    1362    1361    1328    1327    1284    1283    1250    1249
       8    1338    1362    1327    1332    1260    1284    1249    1254
       8    1363    1340    1339    1352    1285    1262    1261    1274
       8    1364    1363    1352    1353    1286    1285    1274    1275
       8    1365    1364    1353    1354    1287    1286    1275    1276
       8    1366    1365    1354    1367    1288    1287    1276    1289
       8    1368    1367    1354    1355    1290    1289    1276    1277
       8    1347    1368    1355    1345    1269    1290    1277    1267
       8    1369    1348    1349    1351    1291    1270    1271    1273
       8    1370    1369    1351    1357    1292    1291    1273    1279
       8    1371    1370    1357    1372    1293    1292    1279    1294
       8    1373    1372    1357    1356    1295    1294    1279    1278
       8    1374    1373    1356    1358    1296    1295    1278    1280
       8    1375    1374    1358    1359    1297    1296    1280    1281
       8    1376    1375    1359    1377    1298    1297    1281    1299
       8    1331    1377    1359    1329    1253    1299    1281    1251
       8    1378    1379    1330    1360    1300    1301    1252    1282
       8    1380    1378    1360    1361    1302    1300    1282    1283
       8    1381    1380    1361    1362    1303    1302    1283    1284
       8    1382    1381    1362    1338    1304    1303    1284    1260
       8    1383    1382    1338    1337    1305    1304    1260    1259
       8    1384    1383    1337    1340    1306    1305    1259    1262
       8    1385    1384    1340    1363    1307    1306    1262    1285
       8    1386    1385    1363    1364    1308    1307    1285    1286
       8    1387    1386    1364    1365    1309    1308    1286    1287
       8    1388    1387    1365    1366    1310    1309    1287    1288
       8    1389    1388    1366    1367    1311    1310    1288    1289
       8    1390    1389    1367    1368    1312    1311    1289    1290
       8    1391    1390    1368    1347    1313    1312    1290    1269
       8    1392    1391    1347    1346    1314    1313    1269    1268
       8    1393    1392    1346    1348    1315    1314    1268    1270
       8    1394    1393    1348    1369    1316    1315    1270    1291
       8    1395    1394    1369    1370    1317    1316    1291    1292
       8    1396    1395    1370    1371    1318    1317    1292    1293
       8    1397    1396    1371    1372    1319    1318    1293    1294
       8    1398    1397    1372    1373    1320    1319    1294    1295
       8    1399    1398    1373    1374    1321    1320    1295    1296
       8    1400    1399    1374    1375    1322    1321    1296    1297
       8    1401    1400    1375    1376    1323    1322    1297    1298
       8    1402    1401    1376    1377    1324    1323    1298    1299
       8    1403    1402    1377    1331    1325    1324    1299    1253
       8    1379    1403    1331    1330    1301    1325    1253    1252
       8    1404    1405    1406    1407    1326    1327    1328    1329
       8    1406    1408    1409    1407    1328    1330    1331    1329
       8    1410    1405    1404    1411    1332    1327    1326    1333
       8    1404    1412    1413    1411    1326    1334    1335    1333
       8    1414    1415    1416    1410    1336    1337    1338    1332
       8    1417    1418    1415    1414    1339    1340    1337    1336
       8    1411    1417    1414    1410    1333    1339    1336    1332
       8    1419    1420    1412    1421    1341    1342    1334    1343
       8    1422    1423    1420    1419    1344    1345    1342    1341
       8    1424    1425    1423    1422    1346    1347    1345    1344
       8    1426    1424    1422    1427    1348    1346    1344    1349
       8    1428    1413    1412    1420    1350    1335    1334    1342
       8    1419    1429    1427    1422    1341    1351    1349    1344
       8    1404    1407    1421    1412    1326    1329    1343    1334
       8    1430    1417    1411    1413    1352    1339    1333    1335
       8    1431    1430    1413    1428    1353    1352    1335    1350
       8    1432    1431    1428    1433    1354    1353    1350    1355
       8    1423    1433    1428    1420    1345    1355    1350    1342
       8    1434    1435    1429    1419    1356    1357    1351    1341
       8    1436    1434    1419    1421    1358    1356    1341    1343
       8    1437    1436    1421    1407    1359    1358    1343    1329
       8    1438    1408    1406    1439    1360    1330    1328    1361
       8    1440    1439    1406    1405    1362    1361    1328    1327
       8    1416    1440    1405    1410    1338    1362    1327    1332
       8    1441    1418    1417    1430    1363    1340    1339    1352
       8    1442    1441    1430    1431    1364    1363    1352    1353
       8    1443    1442    1431    1432    1365    1364    1353    1354
       8    1444    1443    1432    1445    1366    1365    1354    1367
       8    1446    1445    1432    1433    1368    1367    1354    1355
       8    1425    1446    1433    1423    1347    1368    1355    1345
       8    1447    1426    1427    1429    1369    1348    1349    1351
       8    1448    1447    1429    1435    1370    1369    1351    1357
       8    1449    1448    1435    1450    1371    1370    1357    1372
       8    1451    1450    1435    1434    1373    1372    1357    1356
       8    1452    1451    1434    1436    1374    1373    1356    1358
       8    1453    1452    1436    1437    1375    1374    1358    1359
       8    1454    1453    1437    1455    1376    1375    1359    1377
       8    1409    1455    1437    1407    1331    1377    1359    1329
       8    1456    1457    1408    1438    1378    1379    1330    1360
       8    1458    1456    1438    1439    1380    1378    1360    1361
       8    1459    1458    1439    1440    1381    1380    1361    1362
       8    1460    1459    1440    1416    1382    1381    1362    1338
       8    1461    1460    1416    1415    1383    1382    1338    1337
       8    1462    1461    1415    1418    1384    1383    1337    1340
       8    1463    1462    1418    1441    1385    1384    1340    1363
       8    1464    1463    1441    1442    1386    1385    1363    1364
       8    1465    1464    1442    1443    1387    1386    1364    1365
       8    1466    1465    1443    1444    1388    1387    1365    1366
       8    1467    1466    1444    1445    1389    1388    1366    1367
       8    1468    1467    1445    1446    1390    1389    1367    1368
       8    1469    1468    1446    1425    1391    1390    1368    1347
       8    1470    1469    1425    1424    1392    1391    1347    1346
       8    1471    1470    1424    1426    1393    1392    1346    1348
       8    1472    1471    1426    1447    1394    1393    1348    1369
       8    1473    1472    1447    1448    1395    1394    1369    1370
       8    1474    1473    1448    1449    1396    1395    1370    1371
       8    1475    1474    1449    1450    1397    1396    1371    1372
       8    1476    1475    1450    1451    1398    1397    1372    1373
       8    1477    1476    1451    1452    1399    1398    1373    1374
       8    1478    1477    1452    1453    1400    1399    1374    1375
       8    1479    1478    1453    1454    1401    1400    1375    1376
       8    1480    1479    1454    1455    1402    1401    1376    1377
       8    1481    1480    1455    1409    1403    1402    1377    1331
       8    1457    1481    1409    1408    1379    1403    1331    1330
       8    1482    1483    1484    1485    1404    1405    1406    1407
       8    1484    1486    1487    1485    1406    1408    1409    1407
       8    1488    1483    1482    1489    1410    1405    1404    1411
       8    1482    1490    1491    1489    1404    1412    1413    1411
       8    1492    1493    1494    1488    1414    1415    1416    1410
       8    1495    1496    1493    1492    1417    1418    1415    1414
       8    1489    1495    1492    1488    1411    1417    1414    1410
       8    1497    1498    1490    1499    1419    1420    1412    1421
       8    1500    1501    1498    1497    1422    1423    1420    1419
       8    1502    1503    1501    1500    1424    1425    1423    1422
       8    1504    1502    1500    1505    1426    1424    1422    1427
       8    1506    1491    1490    1498    1428    1413    1412    1420
       8    1497    1507    1505    1500    1419    1429    1427    1422
       8    1482    1485    1499    1490    1404    1407    1421    1412
       8    1508    1495    1489    1491    1430    1417    1411    1413
       8    1509    1508    1491    1506    1431    1430    1413    1428
       8    1510    1509    1506    1511    1432    1431    1428    1433
       8    1501    1511    1506    1498    1423    1433    1428    1420
       8    1512    1513    1507    1497    1434    1435    1429    1419
       8    1514    1512    1497    1499    1436    1434    1419    1421
       8    1515    1514    1499    1485    1437    1436    1421    1407
       8    1516    1486    1484    1517    1438    1408    1406    1439
       8    1518    1517    1484    1483    1440    1439    1406    1405
       8    1494    1518    1483    1488    1416    1440    1405    1410
       8    1519    1496    1495    1508    1441    1418    1417    1430
       8    1520    1519    1508    1509    1442    1441    1430    1431
       8    1521    1520    1509    1510    1443    1442    1431    1432
       8    1522    1521    1510    1523    1444    1443    1432    1445
       8    1524    1523    1510    1511    1446    1445    1432    1433
       8    1503    1524    1511    1501    1425    1446    1433    1423
       8    1525    1504    1505    1507    1447    1426    1427    1429
       8    1526    1525    1507    1513    1448    1447    1429    1435
       8    1527    1526    1513    1528    1449    1448    1435    1450
       8    1529    1528    1513    1512    1451    1450    1435    1434
       8    1530    1529    1512    1514    1452    1451    1434    1436
       8    1531    1530    1514    1515    1453    1452    1436    1437
       8    1532    1531    1515    1533    1454    1453    1437    1455
       8    1487    1533    1515    1485    1409    1455    1437    1407
       8    1534    1535    1486    1516    1456    1457    1408    1438
       8    1536    1534    1516    1517    1458    1456    1438    1439
       8    1537    1536    1517    1518    1459    1458    1439    1440
       8    1538    1537    1518    1494    1460    1459    1440    1416
       8    1539    1538    1494    1493    1461    1460    1416    1415
       8    1540    1539    1493    1496    1462    1461    1415    1418
       8    1541    1540    1496    1519    1463    1462    1418    1441
       8    1542    1541    1519    1520    1464    1463    1441    1442
       8    1543    1542    1520    1521    1465    1464    1442    1443
       8    1544    1543    1521    1522    1466    1465    1443    1444
       8    1545    1544    1522    1523    1467    1466    1444    1445
       8    1546    1545    1523    1524    1468    1467    1445    1446
       8    1547    1546    1524    1503    1469    1468    1446    1425
       8    1548    1547    1503    1502    1470    1469    1425    1424
       8    1549    1548    1502    1504    1471    1470    1424    1426
       8    1550    1549    1504    1525    1472    1471    1426    1447
       8    1551    1550    1525    1526    1473    1472    1447    1448
       8    1552    1551    1526    1527    1474    1473    1448    1449
       8    1553    1552    1527    1528    1475    1474    1449    1450
       8    1554    1553    1528    1529    1476    1475    1450    1451
       8    1555    1554    1529    1530    1477    1476    1451    1452
       8    1556    1555    1530    1531    1478    1477    1452    1453
       8    1557    1556    1531    1532    1479    1478    1453    1454
       8    1558    1557    1532    1533    1480    1479    1454    1455
       8    1559    1558    1533    1487    1481    1480    1455    1409
       8    1535    1559    1487    1486    1457    1481    1409    1408
       8    1560    1561    1562    1563    1482    1483    1484    1485
       8    1562    1564    1565    1563    1484    1486    1487    1485
       8    1566    1561    1560    1567    1488    1483    1482    1489
       8    1560    1568    1569    1567    1482    1490    1491    1489
       8    1570    1571    1572    1566    1492    1493    1494    1488
       8    1573    1574    1571    1570    1495    1496    1493    1492
       8    1567    1573    1570    1566    1489    1495    1492    1488
       8    1575    1576    1568    1577    1497    1498    1490    1499
       8    1578    1579    1576    1575    1500    1501    1498    1497
       8    1580    1581    1579    1578    1502    1503    1501    1500
       8    1582    1580    1578    1583    1504    1502    1500    1505
       8    1584    1569    1568    1576    1506    1491    1490    1498
       8    1575    1585    1583    1578    1497    1507    1505    1500
       8    1560    1563    1577    1568    1482    1485    1499    1490
       8    1586    1573    1567    1569    1508    1495    1489    1491
       8    1587    1586    1569    1584    1509    1508    1491    1506
       8    1588    1587    1584    1589    1510    1509    1506    1511
       8    1579    1589    1584    1576    1501    1511    1506    1498
       8    1590    1591    1585    1575    1512    1513    1507    1497
       8    1592    1590    1575    1577    1514    1512    1497    1499
       8    1593    1592    1577    1563    1515    1514    1499    1485
       8    1594    1564    1562    1595    1516    1486    1484    1517
       8    1596    1595    1562    1561    1518    1517    1484    1483
       8    1572    1596    1561    1566    1494    1518    1483    1488
       8    1597    1574    1573    1586    1519    1496    1495    1508
       8    1598    1597    1586    1587    1520    1519    1508    1509
       8    1599    1598    1587    1588    1521    1520    1509    1510
       8    1600    1599    1588    1601    1522    1521    1510    1523
       8    1602    1601    1588    1589    1524    1523    1510    1511
       8    1581    1602    1589    1579    1503    1524    1511    1501
       8    1603    1582    1583    1585    1525    1504    1505    1507
       8    1604    1603    1585    1591    1526    1525    1507    1513
       8    1605    1604    1591    1606    1527    1526    1513    1528
       8    1607    1606    1591    1590    1529    1528    1513    1512
       8    1608    1607    1590    1592    1530    1529    1512    1514
       8    1609    1608    1592    1593    1531    1530    1514    1515
       8    1610    1609    1593    1611    1532    1531    1515    1533
       8    1565    1611    1593    1563    1487    1533    1515    1485
       8    1612    1613    1564    1594    1534    1535    1486    1516
       8    1614    1612    1594    1595    1536    1534    1516    1517
       8    1615    1614    1595    1596    1537    1536    1517    1518
       8    1616    1615    1596    1572    1538    1537    1518    1494
       8    1617    1616    1572    1571    1539    1538    1494    1493
       8    1618    1617    1571    1574    1540    1539    1493    1496
       8    1619    1618    1574    1597    1541    1540    1496    1519
       8    1620    1619    1597    1598    1542    1541    1519    1520
       8    1621    1620    1598    1599    1543    1542    1520    1521
       8    1622    1621    1599    1600    1544    1543    1521    1522
       8    1623    1622    1600    1601    1545    1544    1522    1523
       8    1624    1623    1601    1602    1546    1545    1523    1524
       8    1625    1624    1602    1581    1547    1546    1524    1503
       8    1626    1625    1581    1580    1548    1547    1503    1502
       8    1627    1626    1580    1582    1549    1548    1502    1504
       8    1628    1627    1582    1603    1550    1549    1504    1525
       8    1629    1628    1603    1604    1551    1550    1525    1526
       8    1630    1629    1604    1605    1552    1551    1526    1527
       8    1631    1630    1605    1606    1553    1552    1527    1528
       8    1632    1631    1606    1607    1554    1553    1528    1529
       8    1633    1632    1607    1608    1555    1554    1529    1530
       8    1634    1633    1608    1609    1556    1555    1530    1531
       8    1635    1634    1609    1610    1557    1556    1531    1532
       8    1636    1635    1610    1611    1558    1557    1532    1533
       8    1637    1636    1611    1565    1559    1558    1533    1487
       8    1613    1637    1565    1564    1535    1559    1487    1486
       8    1638    1639    1640    1641    1560    1561    1562    1563
       8    1640    1642    1643    1641    1562    1564    1565    1563
       8    1644    1639    1638    1645    1566    1561    1560    1567
       8    1638    1646    1647    1645    1560    1568    1569    1567
       8    1648    1649    1650    1644    1570    1571    1572    1566
       8    1651    1652    1649    1648    1573    1574    1571    1570
       8    1645    1651    1648    1644    1567    1573    1570    1566
       8    1653    1654    1646    1655    1575    1576    1568    1577
       8    1656    1657    1654    1653    1578    1579    1576    1575
       8    1658    1659    1657    1656    1580    1581    1579    1578
       8    1660    1658    1656    1661    1582    1580    1578    1583
       8    1662    1647    1646    1654    1584    1569    1568    1576
       8    1653    1663    1661    1656    1575    1585    1583    1578
       8    1638    1641    1655    1646    1560    1563    1577    1568
       8    1664    1651    1645    1647    1586    1573    1567    1569
       8    1665    1664    1647    1662    1587    1586    1569    1584
       8    1666    1665    1662    1667    1588    1587    1584    1589
       8    1657    1667    1662    1654    1579    1589    1584    1576
       8    1668    1669    1663    1653    1590    1591    1585    1575
       8    1670    1668    1653    1655    1592    1590    1575    1577
       8    1671    1670    1655    1641    1593    1592    1577    1563
       8    1672    1642    1640    1673    1594    1564    1562    1595
       8    1674    1673    1640    1639    1596    1595    1562    1561
       8    1650    1674    1639    1644    1572    1596    1561    1566
       8    1675    1652    1651    1664    1597    1574    1573    1586
       8    1676    1675    1664    1665    1598    1597    1586    1587
       8    1677    1676    1665    1666    1599    1598    1587    1588
       8    1678    1677    1666    1679    1600    1599    1588    1601
       8    1680    1679    1666    1667    1602    1601    1588    1589
       8    1659    1680    1667    1657    1581    1602    1589    1579
       8    1681    1660    1661    1663    1603    1582    1583    1585
       8    1682    1681    1663    1669    1604    1603    1585    1591
       8    1683    1682    1669    1684    1605    1604    1591    1606
       8    1685    1684    1669    1668    1607    1606    1591    1590
       8    1686    1685    1668    1670    1608    1607    1590    1592
       8    1687    1686    1670    1671    1609    1608    1592    1593
       8    1688    1687    1671    1689    1610    1609    1593    1611
       8    1643    1689    1671    1641    1565    1611    1593    1563
       8    1690    1691    1642    1672    1612    1613    1564    1594
       8    1692    1690    1672    1673    1614    1612    1594    1595
       8    1693    1692    1673    1674    1615    1614    1595    1596
       8    1694    1693    1674    1650    1616    1615    1596    1572
       8    1695    1694    1650    1649    1617    1616    1572    1571
       8    1696    1695    1649    1652    1618    1617    1571    1574
       8    1697    1696    1652    1675    1619    1618    1574    1597
       8    1698    1697    1675    1676    1620    1619    1597    1598
       8    1699    1698    1676    1677    1621    1620    1598    1599
       8    1700    1699    1677    1678    1622    1621    1599    1600
       8    1701    1700    1678    1679    1623    1622    1600    1601
       8    1702    1701    1679    1680    1624    1623    1601    1602
       8    1703    1702    1680    1659    1625    1624    1602    1581
       8    1704    1703    1659    1658    1626    1625    1581    1580
       8    1705    1704    1658    1660    1627    1626    1580    1582
       8    1706    1705    1660    1681    1628    1627    1582    1603
       8    1707    1706    1681    1682    1629    1628    1603    1604
       8    1708    1707    1682    1683    1630    1629    1604    1605
       8    1709    1708    1683    1684    1631    1630    1605    1606
       8    1710    1709    1684    1685    1632    1631    1606    1607
       8    1711    1710    1685    1686    1633    1632    1607    1608
       8    1712    1711    1686    1687    1634    1633    1608    1609
       8    1713    1712    1687    1688    1635    1634    1609    1610
       8    1714    1713    1688    1689    1636    1635    1610    1611
       8    1715    1714    1689    1643    1637    1636    1611    1565
       8    1691    1715    1643    1642    1613    1637    1565    1564
       8    1716    1717    1718    1719    1638    1639    1640    1641
       8    1718    1720    1721    1719    1640    1642    1643    1641
       8    1722    1717    1716    1723    1644    1639    1638    1645
       8    1716    1724    1725    1723    1638    1646    1647    1645
       8    1726    1727    1728    1722    1648    1649    1650    1644
       8    1729    1730    1727    1726    1651    1652    1649    1648
       8    1723    1729    1726    1722    1645    1651    1648    1644
       8    1731    1732    1724    1733    1653    1654    1646    1655
       8    1734    1735    1732    1731    1656    1657    1654    1653
       8    1736    1737    1735    1734    1658    1659    1657    1656
       8    1738    1736    1734    1739    1660    1658    1656    1661
       8    1740    1725    1724    1732    1662    1647    1646    1654
       8    1731    1741    1739    1734    1653    1663    1661    1656
       8    1716    1719    1733    1724    1638    1641    1655    1646
       8    1742    1729    1723    1725    1664    1651    1645    1647
       8    1743    1742    1725    1740    1665    1664    1647    1662
       8    1744    1743    1740    1745    1666    1665    1662    1667
       8    1735    1745    1740    1732    1657    1667    1662    1654
       8    1746    1747    1741    1731    1668    1669    1663    1653
       8    1748    1746    1731    1733    1670    1668    1653    1655
       8    1749    1748    1733    1719    1671    1670    1655    1641
       8    1750    1720    1718    1751    1672    1642    1640    1673
       8    1752    1751    1718    1717    1674    1673    1640    1639
       8    1728    1752    1717    1722    1650    1674    1639    1644
       8    1753    1730    1729    1742    1675    1652    1651    1664
       8    1754    1753    1742    1743    1676    1675    1664    1665
       8    1755    1754    1743    1744    1677    1676    1665    1666
       8    1756    1755    1744    1757    1678    1677    1666    1679
       8    1758    1757    1744    1745    1680    1679    1666    1667
       8    1737    1758    1745    1735    1659    1680    1667    1657
       8    1759    1738    1739    1741    1681    1660    1661    1663
       8    1760    1759    1741    1747    1682    1681    1663    1669
       8    1761    1760    1747    1762    1683    1682    1669    1684
       8    1763    1762    1747    1746    1685    1684    1669    1668
       8    1764    1763    1746    1748    1686    1685    1668    1670
       8    1765    1764    1748    1749    1687    1686    1670    1671
       8    1766    1765    1749    1767    1688    1687    1671    1689
       8    1721    1767    1749    1719    1643    1689    1671    1641
       8    1768    1769    1720    1750    1690    1691    1642    1672
       8    1770    1768    1750    1751    1692    1690    1672    1673
       8    1771    1770    1751    1752    1693    1692    1673    1674
       8    1772    1771    1752    1728    1694    1693    1674    1650
       8    1773    1772    1728    1727    1695    1694    1650    1649
       8    1774    1773    1727    1730    1696    1695    1649    1652
       8    1775    1774    1730    1753    1697    1696    1652    1675
       8    1776    1775    1753    1754    1698    1697    1675    1676
       8    1777    1776    1754    1755    1699    1698    1676    1677
       8    1778    1777    1755    1756    1700    1699    1677    1678
       8    1779    1778    1756    1757    1701    1700    1678    1679
       8    1780    1779    1757    1758    1702    1701    1679    1680
       8    1781    1780    1758    1737    1703    1702    1680    1659
       8    1782    1781    1737    1736    1704    1703    1659    1658
       8    1783    1782    1736    1738    1705    1704    1658    1660
       8    1784    1783    1738    1759    1706    1705    1660    1681
       8    1785    1784    1759    1760    1707    1706    1681    1682
       8    1786    1785    1760    1761    1708    1707    1682    1683
       8    1787    1786    1761    1762    1709    1708    1683    1684
       8    1788    1787    1762    1763    1710    1709    1684    1685
       8    1789    1788    1763    1764    1711    1710    1685    1686
       8    1790    1789    1764    1765    1712    1711    1686    1687
       8    1791    1790    1765    1766    1713    1712    1687    1688
       8    1792    1791    1766    1767    1714    1713    1688    1689
       8    1793    1792    1767    1721    1715    1714    1689    1643
       8    1769    1793    1721    1720    1691    1715    1643    1642
       8    1794    1795    1796    1797    1716    1717    1718    1719
       8    1796    1798    1799    1797    1718    1720    1721    1719
       8    1800    1795    1794    1801    1722    1717    1716    1723
       8    1794    1802    1803    1801    1716    1724    1725    1723
       8    1804    1805    1806    1800    1726    1727    1728    1722
       8    1807    1808    1805    1804    1729    1730    1727    1726
       8    1801    1807    1804    1800    1723    1729    1726    1722
       8    1809    1810    1802    1811    1731    1732    1724    1733
       8    1812    1813    1810    1809    1734    1735    1732    1731
       8    1814    1815    1813    1812    1736    1737    1735    1734
       8    1816    1814    1812    1817    1738    1736    1734    1739
       8    1818    1803    1802    1810    1740    1725    1724    1732
       8    1809    1819    1817    1812    1731    1741    1739    1734
       8    1794    1797    1811    1802    1716    1719    1733    1724
       8    1820    1807    1801    1803    1742    1729    1723    1725
       8    1821    1820    1803    1818    1743    1742    1725    1740
       8    1822    1821    1818    1823    1744    1743    1740    1745
       8    1813    1823    1818    1810    1735    1745    1740    1732
       8    1824    1825    1819    1809    1746    1747    1741    1731
       8    1826    1824    1809    1811    1748    1746    1731    1733
       8    1827    1826    1811    1797    1749    1748    1733    1719
       8    1828    1798    1796    1829    1750    1720    1718    1751
       8    1830    1829    1796    1795    1752    1751    1718    1717
       8    1806    1830    1795    1800    1728    1752    1717    1722
       8    1831    1808    1807    1820    1753    1730    1729    1742
       8    1832    1831    1820    1821    1754    1753    1742    1743
       8    1833    1832    1821    1822    1755    1754    1743    1744
       8    1834    1833    1822    1835    1756    1755    1744    1757
       8    1836    1835    1822    1823    1758    1757    1744    1745
       8    1815    1836    1823    1813    1737    1758    1745    1735
       8    1837    1816    1817    1819    1759    1738    1739    1741
       8    1838    1837    1819    1825    1760    1759    1741    1747
       8    1839    1838    1825    1840    1761    1760    1747    1762
       8    1841    1840    1825    1824    1763    1762    1747    1746
       8    1842    1841    1824    1826    1764    1763    1746    1748
       8    1843    1842    1826    1827    1765    1764    1748    1749
       8    1844    1843    1827    1845    1766    1765    1749    1767
       8    1799    1845    1827    1797    1721    1767    1749    1719
       8    1846    1847    1798    1828    1768    1769    1720    1750
       8    1848    1846    1828    1829    1770    1768    1750    1751
       8    1849    1848    1829    1830    1771    1770    1751    1752
       8    1850    1849    1830    1806    1772    1771    1752    1728
       8    1851    1850    1806    1805    1773    1772    1728    1727
       8    1852    1851    1805    1808    1774    1773    1727    1730
       8    1853    1852    1808    1831    1775    1774    1730    1753
       8    1854    1853    1831    1832    1776    1775    1753    1754
       8    1855    1854    1832    1833    1777    1776    1754    1755
       8    1856    1855    1833    1834    1778    1777    1755    1756
       8    1857    1856    1834    1835    1779    1778    1756    1757
       8    1858    1857    1835    1836    1780    1779    1757    1758
       8    1859    1858    1836    1815    1781    1780    1758    1737
       8    1860    1859    1815    1814    1782    1781    1737    1736
       8    1861    1860    1814    1816    1783    1782    1736    1738
       8    1862    1861    1816    1837    1784    1783    1738    1759
       8    1863    1862    1837    1838    1785    1784    1759    1760
       8    1864    1863    1838    1839    1786    1785    1760    1761
       8    1865    1864    1839    1840    1787    1786    1761    1762
       8    1866    1865    1840    1841    1788    1787    1762    1763
       8    1867    1866    1841    1842    1789    1788    1763    1764
       8    1868    1867    1842    1843    1790    1789    1764    1765
       8    1869    1868    1843    1844    1791    1790    1765    1766
       8    1870    1869    1844    1845    1792    1791    1766    1767
       8    1871    1870    1845    1799    1793    1792    1767    1721
       8    1847    1871    1799    1798    1769    1793    1721    1720
       8    1872    1873    1874    1875    1794    1795    1796    1797
       8    1874    1876    1877    1875    1796    1798    1799    1797
       8    1878    1873    1872    1879    1800    1795    1794    1801
       8    1872    1880    1881    1879    1794    1802    1803    1801
       8    1882    1883    1884    1878    1804    1805    1806    1800
       8    1885    1886    1883    1882    1807    1808    1805    1804
       8    1879    1885    1882    1878    1801    1807    1804    1800
       8    1887    1888    1880    1889    1809    1810    1802    1811
       8    1890    1891    1888    1887    1812    1813    1810    1809
       8    1892    1893    1891    1890    1814    1815    1813    1812
       8    1894    1892    1890    1895    1816    1814    1812    1817
       8    1896    1881    1880    1888    1818    1803    1802    1810
       8    1887    1897    1895    1890    1809    1819    1817    1812
       8    1872    1875    1889    1880    1794    1797    1811    1802
       8    1898    1885    1879    1881    1820    1807    1801    1803
       8    1899    1898    1881    1896    1821    1820    1803    1818
       8    1900    1899    1896    1901    1822    1821    1818    1823
       8    1891    1901    1896    1888    1813    1823    1818    1810
       8    1902    1903    1897    1887    1824    1825    1819    1809
       8    1904    1902    1887    1889    1826    1824    1809    1811
       8    1905    1904    1889    1875    1827    1826    1811    1797
       8    1906    1876    1874    1907    1828    1798    1796    1829
       8    1908    1907    1874    1873    1830    1829    1796    1795
       8    1884    1908    1873    1878    1806    1830    1795    1800
       8    1909    1886    1885    1898    1831    1808    1807    1820
       8    1910    1909    1898    1899    1832    1831    1820    1821
       8    1911    1910    1899    1900    1833    1832    1821    1822
       8    1912    1911    1900    1913    1834    1833    1822    1835
       8    1914    1913    1900    1901    1836    1835    1822    1823
       8    1893    1914    1901    1891    1815    1836    1823    1813
       8    1915    1894    1895    1897    1837    1816    1817    1819
       8    1916    1915    1897    1903    1838    1837    1819    1825
       8    1917    1916    1903    1918    1839    1838    1825    1840
       8    1919    1918    1903    1902    1841    1840    1825    1824
       8    1920    1919    1902    1904    1842    1841    1824    1826
       8    1921    1920    1904    1905    1843    1842    1826    1827
       8    1922    1921    1905    1923    1844    1843    1827    1845
       8    1877    1923    1905    1875    1799    1845    1827    1797
       8    1924    1925    1876    1906    1846    1847    1798    1828
       8    1926    1924    1906    1907    1848    1846    1828    1829
       8    1927    1926    1907    1908    1849    1848    1829    1830
       8    1928    1927    1908    1884    1850    1849    1830    1806
       8    1929    1928    1884    1883    1851    1850    1806    1805
       8    1930    1929    1883    1886    1852    1851    1805    1808
       8    1931    1930    1886    1909    1853    1852    1808    1831
       8    1932    1931    1909    1910    1854    1853    1831    1832
       8    1933    1932    1910    1911    1855    1854    1832    1833
       8    1934    1933    1911    1912    1856    1855    1833    1834
       8    1935    1934    1912    1913    1857    1856    1834    1835
       8    1936    1935    1913    1914    1858    1857    1835    1836
       8    1937    1936    1914    1893    1859    1858    1836    1815
       8    1938    1937    1893    1892    1860    1859    1815    1814
       8    1939    1938    1892    1894    1861    1860    1814    1816
       8    1940    1939    1894    1915    1862    1861    1816    1837
       8    1941    1940    1915    1916    1863    1862    1837    1838
       8    1942    1941    1916    1917    1864    1863    1838    1839
       8    1943    1942    1917    1918    1865    1864    1839    1840
       8    1944    1943    1918    1919    1866    1865    1840    1841
       8    1945    1944    1919    1920    1867    1866    1841    1842
       8    1946    1945    1920    1921    1868    1867    1842    1843
       8    1947    1946    1921    1922    1869    1868    1843    1844
       8    1948    1947    1922    1923    1870    1869    1844    1845
       8    1949    1948    1923    1877    1871    1870    1845    1799
       8    1925    1949    1877    1876    1847    1871    1799    1798
  
CELL_TYPES    3486
       1
       1
       1
       1
       1
       1
       1
       1
       1
       1
       1
       1
       1
       1
       1
       1
       1
       1
       1
       1
       1
       1
       1
       1
       1
       1
       1
       1
       1
       1
       1
       1
       1
       1
       1
       1
       1
       1
       1
       1
       1
       1
       1
       1
       1
       1
       1
       1
       1
       1
       1
       1
       1
       1
       1
       1
       1
       1
       1
       1
       1
       1
       1
       1
       1
       1
       1
       1
       1
       1
       1
       1
       1
       1
       1
       1
       1
       1
       1
       1
       1
       1
       1
       1
       1
       1
       1
       1
       1
       1
       1
       1
       1
       1
       1
       1
       1
       1
       1
       1
       1
       1
       1
       1
       1
       1
       1
       1
       1
       1
       1
       1
       1
       1
       1
       1
       1
       1
       1
       1
       1
       1
       1
       1
       1
       1
       1
       1
       1
       1
       1
       1
       1
       1
       1
       1
       1
       1
       1
       1
       1
       1
       1
       1
       1
       1
       1
       1
       1
       1
       1
       1
       1
       1
       1
       1
       1
       1
       1
       1
       1
       1
       1
       1
       1
       1
       1
       1
       1
       1
       1
       1
       1
       1
       1
       1
       1
       1
       1
       1
       1
       1
       1
       1
       1
       1
       1
       1
       1
       1
       1
       1
       1
       1
       1
       1
       1
       1
       1
       1
       1
       1
       1
       1
       1
       1
       1
       1
       1
       1
       1
       1
       1
       1
       1
       1
       1
       1
       1
       1
       1
       1
       1
       1
       1
       1
       1
       1
       1
       1
       1
       1
       1
       1
       1
       1
       1
       1
       1
       1
       1
       1
       1
       1
       1
       1
       1
       1
       1
       1
       1
       1
       1
       1
       1
       1
       1
       1
       1
       1
       1
       1
       1
       1
       1
       1
       1
       1
       1
       1
       1
       1
       1
       1
       1
       1
       1
       1
       1
       1
       1
       1
       1
       1
       1
       1
       1
       1
       1
       1
       1
       1
       1
       1
       1
       1
       1
       1
       1
       1
       1
       1
       1
       1
       1
       1
       1
       1
       1
       1
       1
       1
       1
       1
       1
       1
       1
       1
       1
       1
       1
       1
       1
       1
       1
       1
       1
       1
       1
       1
       1
       1
       1
       1
       1
       1
       1
       1
       1
       1
       1
       1
       1
       1
       1
       1
       1
       1
       1
       1
       1
       1
       1
       1
       1
       1
       1
       1
       1
       1
       1
       1
       1
       1
       1
       1
       1
       1
       1
       1
       1
       1
       1
       1
       1
       1
       1
       1
       1
       1
       1
       1
       1
       1
       1
       1
       1
       1
       1
       1
       1
       1
       1
       1
       1
       1
       1
       1
       1
       1
       1
       1
       1
       1
       1
       1
       1
       1
       1
       1
       1
       1
       1
       1
       1
       1
       1
       1
       1
       1
       1
       1
       1
       1
       1
       1
       1
       1
       1
       1
       1
       1
       1
       1
       1
       1
       1
       1
       1
       1
       1
       1
       1
       1
       1
       1
       1
       1
       1
       1
       1
       1
       1
       1
       1
       1
       1
       1
       1
       1
       1
       1
       1
       1
       1
       1
       1
       1
       1
       1
       1
       1
       1
       1
       1
       1
       1
       1
       1
       1
       1
       1
       1
       1
       1
       1
       1
       1
       1
       1
       1
       1
       1
       1
       1
       1
       1
       1
       1
       1
       1
       1
       1
       1
       1
       1
       1
       1
       1
       1
       1
       1
       1
       1
       1
       1
       1
       1
       1
       1
       1
       1
       1
       1
       1
       1
       1
       1
       1
       1
       1
       1
       1
       1
       1
       1
       1
       1
       1
       1
       1
       1
       1
       1
       1
       1
       1
       1
       1
       1
       1
       1
       1
       1
       1
       1
       1
       1
       1
       1
       1
       1
       1
       1
       1
       1
       1
       1
       1
       1
       1
       1
       1
       1
       1
       1
       1
       1
       1
       1
       1
       1
       1
       1
       1
       1
       1
       1
       1
       1
       1
       1
       1
       1
       1
       1
       1
       1
       1
       1
       1
       1
       1
       1
       1
       1
       1
       1
       1
       1
       1
       1
       1
       1
       1
       1
       1
       1
       1
       1
       1
       1
       1
       1
       1
       1
       1
       1
       1
       1
       1
       1
       1
       1
       1
       1
       1
       1
       1
       1
       1
       1
       1
       1
       1
       1
       1
       1
       1
       1
       1
       1
       1
       1
       1
       1
       1
       1
       1
       1
       1
       1
       1
       1
       1
       1
       1
       1
       1
       1
       1
       1
       1
       1
       1
       1
       1
       1
       1
       1
       1
       1
       1
       1
       1
       1
       1
       1
       1
       1
       1
       1
       1
       1
       1
       1
       1
       1
       1
       1
       1
       1
       1
       1
       1
       1
       1
       1
       1
       1
       1
       1
       1
       1
       1
       1
       1
       1
       1
       1
       1
       1
       1
       1
       1
       1
       1
       1
       1
       1
       1
       1
       1
       1
       1
       1
       1
       1
       1
       1
       1
       1
       1
       1
       1
       1
       1
       1
       1
       1
       1
       1
       1
       1
       1
       1
       1
       1
       1
       1
       1
       1
       1
       1
       1
       1
       1
       1
       1
       1
       1
       1
       1
       1
       1
       1
       1
       1
       1
       1
       1
       1
       1
       1
       1
       1
       1
       1
       1
       1
       1
       1
       1
       1
       1
       1
       1
       1
       1
       1
       1
       1
       1
       1
       1
       1
       1
       1
       1
       1
       1
       1
       1
       1
       1
       1
       1
       1
       1
       1
       1
       1
       1
       1
       1
       1
       1
       1
       1
       1
       1
       1
       1
       1
       1
       1
       1
       1
       1
       1
       1
       1
       1
       1
       1
       1
       1
       1
       1
       1
       1
       1
       1
       1
       1
       1
       1
       1
       1
       1
       1
       1
       1
       1
       1
       1
       1
       1
       1
       1
       1
       1
       1
       1
       1
       1
       1
       1
       1
       1
       1
       1
       1
       1
       1
       1
       1
       1
       1
       1
       1
       1
       1
       1
       1
       1
       1
       1
       1
       1
       1
       1
       1
       1
       1
       1
       1
       1
       1
       1
       1
       1
       1
       1
       1
       1
       1
       1
       1
       1
       1
       1
       1
       1
       1
       1
       1
       1
       1
       1
       1
       1
       1
       1
       1
       1
       1
       1
       1
       1
       1
       1
       1
       1
       1
       1
       1
       1
       1
       1
       1
       1
       1
       1
       1
       1
       1
       1
       1
       1
       1
       1
       1
       1
       1
       1
       1
       1
       1
       1
       1
       1
       1
       1
       1
       1
       1
       1
       1
       1
       1
       1
       1
       1
       1
       1
       1
       1
       1
       1
       1
       1
       1
       1
       1
       1
       1
       1
       1
       1
       1
       1
       1
       1
       1
       1
       1
       1
       1
       1
       1
       1
       1
       1
       1
       1
       1
       1
       1
       1
       1
       1
       1
       1
       1
       1
       1
       1
       1
       1
       1
       1
       1
       1
       1
       1
       1
       1
       1
       1
       1
       1
       1
       1
       1
       1
       1
       1
       1
       1
       1
       1
       1
       1
       1
       1
       1
       1
       1
       1
       1
       1
       1
       1
       1
       1
       1
       1
       1
       1
       1
       1
       1
       1
       1
       1
       1
       1
       1
       1
       1
       1
       1
       1
       1
       1
       1
       1
       1
       1
       1
       1
       1
       1
       1
       1
       1
       1
       1
       1
       1
       1
       1
       1
       1
       1
       1
       1
       1
       1
       1
       1
       1
       1
       1
       1
       1
       1
       1
       1
       1
       1
       1
       1
       1
       1
       1
       1
       1
       1
       1
       1
       1
       1
       1
       1
       1
       1
       1
       1
       1
       1
       1
       1
       1
       1
       1
       1
       1
       1
       1
       1
       1
       1
       1
       1
       1
       1
       1
       1
       1
       1
       1
       1
       1
       1
       1
       1
       1
       1
       1
       1
       1
       1
       1
       1
       1
       1
       1
       1
       1
       1
       1
       1
       1
       1
       1
       1
       1
       1
       1
       1
       1
       1
       1
       1
       1
       1
       1
       1
       1
       1
       1
       1
       1
       1
       1
       1
       1
       1
       1
       1
       1
       1
       1
       1
       1
       1
       1
       1
       1
       1
       1
       1
       1
       1
       1
       1
       1
       1
       1
       1
       1
       1
       1
       1
       1
       1
       1
       1
       1
       1
       1
       1
       1
       1
       1
       1
       1
       1
       1
       1
       1
       1
       1
       1
       1
       1
       1
       1
       1
       1
       1
       1
       1
       1
       1
       1
       1
       1
       1
       1
       1
       1
       1
       1
       1
       1
       1
       1
       1
       1
       1
       1
       1
       1
       1
       1
       1
       1
       1
       1
       1
       1
       1
       1
       1
       1
       1
       1
       1
       1
       1
       1
       1
       1
       1
       1
       1
       1
       1
       1
       1
       1
       1
       1
       1
       1
       1
       1
       1
       1
       1
       1
       1
       1
       1
       1
       1
       1
       1
       1
       1
       1
       1
       1
       1
       1
       1
       1
       1
       1
       1
       1
       1
       1
       1
       1
       1
       1
       1
       1
       1
       1
       1
       1
       1
       1
       1
       1
       1
       1
       1
       1
       1
       1
       1
       1
       1
       1
       1
       1
       1
       1
       1
       1
       1
       1
       1
       1
       1
       1
       1
       1
       1
       1
       1
       1
       1
       1
       1
       1
       1
       1
       1
       1
       1
       1
       1
       1
       1
       1
       1
       1
       1
       1
       1
       1
       1
       1
       1
       1
       1
       1
       1
       1
       1
       1
       1
       1
       1
       1
       1
       1
       1
       1
       1
       1
       1
       1
       1
       1
       1
       1
       1
       1
       1
       1
       1
       1
       1
       1
       1
       1
       1
       1
       1
       1
       1
       1
       1
       1
       1
       1
       1
       1
       1
       1
       1
       1
       1
       1
       1
       1
       1
       1
       1
       1
       1
       1
       1
       1
       1
       1
       1
       1
       1
       1
       1
       1
       1
       1
       1
       1
       1
       1
       1
       1
       1
       1
       1
       1
       1
       1
       1
       1
       1
       1
       1
       1
       1
       1
       1
       1
       1
       1
       1
       1
       1
       1
       1
       1
       1
       1
       1
       1
       1
       1
       1
       1
       1
       1
       1
       1
       1
       1
       1
       1
       1
       1
       1
       1
       1
       1
       1
       1
       1
       1
       1
       1
       1
       1
       1
       1
       1
       1
       1
       1
       1
       1
       1
       1
       1
       1
       1
       1
       1
       1
       1
       1
       1
       1
       1
       1
       1
       1
       1
       1
       1
       1
       1
       1
       1
       1
       1
       1
       1
       1
       1
       1
       1
       1
       1
       1
       1
       1
       1
       1
       1
       1
       1
       1
       1
       1
       1
       1
       1
       1
       1
       1
       1
       1
       1
       1
       1
       1
       1
       1
       1
       1
       1
       1
       1
       1
       1
       1
       1
       1
       1
       1
       1
       1
       1
       1
       1
       1
       1
       1
       1
       1
       1
       1
       1
       1
       1
       1
       1
       1
       1
       1
       1
       1
       1
       1
       1
       1
       1
       1
       1
       1
       1
       1
       1
       1
       1
       1
       1
       1
       1
       1
       1
       1
       1
       1
       1
       1
       1
       1
       1
       1
       1
       1
       1
       1
       1
       1
       1
       1
       1
       1
       1
       1
       1
       1
       1
       1
       1
       1
       1
       1
       1
       1
       1
       1
       1
       1
       1
       1
       1
       1
       1
       1
       1
       1
       1
       1
       1
       1
       1
       1
       1
       1
       1
       1
       1
       1
       1
       1
       1
       1
       1
       1
       1
       1
       1
       1
       1
       1
       1
       1
       1
       1
       1
       1
       1
       1
       1
       1
       1
       1
       1
       1
       1
       1
       1
       1
       1
       1
       1
       1
       1
       1
       1
       1
       1
       1
       1
       1
       1
       1
       1
       1
       1
       1
       1
       1
       1
       1
       1
       1
       1
       1
       1
       1
       1
       1
       1
       1
       1
       1
       1
       1
       1
       1
       1
       1
       1
       1
       1
       1
       1
       1
       1
       1
       1
       1
       1
       1
       1
       1
       1
       1
       1
       1
       1
       1
       1
       1
       1
       1
       1
       1
       1
       1
       1
       1
       1
       1
       1
       1
       1
       1
       1
       1
       1
       1
       1
       1
       1
       1
       1
       1
       1
       1
       1
       1
       1
       1
       1
       1
       1
       1
       1
       1
       1
       1
       1
       1
       1
       1
       1
       1
       1
       1
       1
       1
       1
       1
       1
       1
       1
       1
       1
       1
       1
       1
       1
       1
       1
       1
       1
       1
       1
       1
       1
       1
       1
       1
       1
       1
       1
       1
       1
       1
       1
       1
       1
       1
       1
       1
       1
       1
       1
       1
       1
       1
       1
       1
       1
       1
       1
       1
       1
       1
       1
       1
       1
       1
       1
       1
       1
       1
       1
       1
       1
       1
       1
       1
       1
       1
       1
       1
       1
       1
       1
       1
       1
       1
       1
       1
       1
       1
       1
       1
       1
       1
       1
       1
       1
       1
       1
       1
       1
       1
       1
       1
       1
       1
       1
       1
      12
      12
      12
      12
      12
      12
      12
      12
      12
      12
      12
      12
      12
      12
      12
      12
      12
      12
      12
      12
      12
      12
      12
      12
      12
      12
      12
      12
      12
      12
      12
      12
      12
      12
      12
      12
      12
      12
      12
      12
      12
      12
      12
      12
      12
      12
      12
      12
      12
      12
      12
      12
      12
      12
      12
      12
      12
      12
      12
      12
      12
      12
      12
      12
      12
      12
      12
      12
      12
      12
      12
      12
      12
      12
      12
      12
      12
      12
      12
      12
      12
      12
      12
      12
      12
      12
      12
      12
      12
      12
      12
      12
      12
      12
      12
      12
      12
      12
      12
      12
      12
      12
      12
      12
      12
      12
      12
      12
      12
      12
      12
      12
      12
      12
      12
      12
      12
      12
      12
      12
      12
      12
      12
      12
      12
      12
      12
      12
      12
      12
      12
      12
      12
      12
      12
      12
      12
      12
      12
      12
      12
      12
      12
      12
      12
      12
      12
      12
      12
      12
      12
      12
      12
      12
      12
      12
      12
      12
      12
      12
      12
      12
      12
      12
      12
      12
      12
      12
      12
      12
      12
      12
      12
      12
      12
      12
      12
      12
      12
      12
      12
      12
      12
      12
      12
      12
      12
      12
      12
      12
      12
      12
      12
      12
      12
      12
      12
      12
      12
      12
      12
      12
      12
      12
      12
      12
      12
      12
      12
      12
      12
      12
      12
      12
      12
      12
      12
      12
      12
      12
      12
      12
      12
      12
      12
      12
      12
      12
      12
      12
      12
      12
      12
      12
      12
      12
      12
      12
      12
      12
      12
      12
      12
      12
      12
      12
      12
      12
      12
      12
      12
      12
      12
      12
      12
      12
      12
      12
      12
      12
      12
      12
      12
      12
      12
      12
      12
      12
      12
      12
      12
      12
      12
      12
      12
      12
      12
      12
      12
      12
      12
      12
      12
      12
      12
      12
      12
      12
      12
      12
      12
      12
      12
      12
      12
      12
      12
      12
      12
      12
      12
      12
      12
      12
      12
      12
      12
      12
      12
      12
      12
      12
      12
      12
      12
      12
      12
      12
      12
      12
      12
      12
      12
      12
      12
      12
      12
      12
      12
      12
      12
      12
      12
      12
      12
      12
      12
      12
      12
      12
      12
      12
      12
      12
      12
      12
      12
      12
      12
      12
      12
      12
      12
      12
      12
      12
      12
      12
      12
      12
      12
      12
      12
      12
      12
      12
      12
      12
      12
      12
      12
      12
      12
      12
      12
      12
      12
      12
      12
      12
      12
      12
      12
      12
      12
      12
      12
      12
      12
      12
      12
      12
      12
      12
      12
      12
      12
      12
      12
      12
      12
      12
      12
      12
      12
      12
      12
      12
      12
      12
      12
      12
      12
      12
      12
      12
      12
      12
      12
      12
      12
      12
      12
      12
      12
      12
      12
      12
      12
      12
      12
      12
      12
      12
      12
      12
      12
      12
      12
      12
      12
      12
      12
      12
      12
      12
      12
      12
      12
      12
      12
      12
      12
      12
      12
      12
      12
      12
      12
      12
      12
      12
      12
      12
      12
      12
      12
      12
      12
      12
      12
      12
      12
      12
      12
      12
      12
      12
      12
      12
      12
      12
      12
      12
      12
      12
      12
      12
      12
      12
      12
      12
      12
      12
      12
      12
      12
      12
      12
      12
      12
      12
      12
      12
      12
      12
      12
      12
      12
      12
      12
      12
      12
      12
      12
      12
      12
      12
      12
      12
      12
      12
      12
      12
      12
      12
      12
      12
      12
      12
      12
      12
      12
      12
      12
      12
      12
      12
      12
      12
      12
      12
      12
      12
      12
      12
      12
      12
      12
      12
      12
      12
      12
      12
      12
      12
      12
      12
      12
      12
      12
      12
      12
      12
      12
      12
      12
      12
      12
      12
      12
      12
      12
      12
      12
      12
      12
      12
      12
      12
      12
      12
      12
      12
      12
      12
      12
      12
      12
      12
      12
      12
      12
      12
      12
      12
      12
      12
      12
      12
      12
      12
      12
      12
      12
      12
      12
      12
      12
      12
      12
      12
      12
      12
      12
      12
      12
      12
      12
      12
      12
      12
      12
      12
      12
      12
      12
      12
      12
      12
      12
      12
      12
      12
      12
      12
      12
      12
      12
      12
      12
      12
      12
      12
      12
      12
      12
      12
      12
      12
      12
      12
      12
      12
      12
      12
      12
      12
      12
      12
      12
      12
      12
      12
      12
      12
      12
      12
      12
      12
      12
      12
      12
      12
      12
      12
      12
      12
      12
      12
      12
      12
      12
      12
      12
      12
      12
      12
      12
      12
      12
      12
      12
      12
      12
      12
      12
      12
      12
      12
      12
      12
      12
      12
      12
      12
      12
      12
      12
      12
      12
      12
      12
      12
      12
      12
      12
      12
      12
      12
      12
      12
      12
      12
      12
      12
      12
      12
      12
      12
      12
      12
      12
      12
      12
      12
      12
      12
      12
      12
      12
      12
      12
      12
      12
      12
      12
      12
      12
      12
      12
      12
      12
      12
      12
      12
      12
      12
      12
      12
      12
      12
      12
      12
      12
      12
      12
      12
      12
      12
      12
      12
      12
      12
      12
      12
      12
      12
      12
      12
      12
      12
      12
      12
      12
      12
      12
      12
      12
      12
      12
      12
      12
      12
      12
      12
      12
      12
      12
      12
      12
      12
      12
      12
      12
      12
      12
      12
      12
      12
      12
      12
      12
      12
      12
      12
      12
      12
      12
      12
      12
      12
      12
      12
      12
      12
      12
      12
      12
      12
      12
      12
      12
      12
      12
      12
      12
      12
      12
      12
      12
      12
      12
      12
      12
      12
      12
      12
      12
      12
      12
      12
      12
      12
      12
      12
      12
      12
      12
      12
      12
      12
      12
      12
      12
      12
      12
      12
      12
      12
      12
      12
      12
      12
      12
      12
      12
      12
      12
      12
      12
      12
      12
      12
      12
      12
      12
      12
      12
      12
      12
      12
      12
      12
      12
      12
      12
      12
      12
      12
      12
      12
      12
      12
      12
      12
      12
      12
      12
      12
      12
      12
      12
      12
      12
      12
      12
      12
      12
      12
      12
      12
      12
      12
      12
      12
      12
      12
      12
      12
      12
      12
      12
      12
      12
      12
      12
      12
      12
      12
      12
      12
      12
      12
      12
      12
      12
      12
      12
      12
      12
      12
      12
      12
      12
      12
      12
      12
      12
      12
      12
      12
      12
      12
      12
      12
      12
      12
      12
      12
      12
      12
      12
      12
      12
      12
      12
      12
      12
      12
      12
      12
      12
      12
      12
      12
      12
      12
      12
      12
      12
      12
      12
      12
      12
      12
      12
      12
      12
      12
      12
      12
      12
      12
      12
      12
      12
      12
      12
      12
      12
      12
      12
      12
      12
      12
      12
      12
      12
      12
      12
      12
      12
      12
      12
      12
      12
      12
      12
      12
      12
      12
      12
      12
      12
      12
      12
      12
      12
      12
      12
      12
      12
      12
      12
      12
      12
      12
      12
      12
      12
      12
      12
      12
      12
      12
      12
      12
      12
      12
      12
      12
      12
      12
      12
      12
      12
      12
      12
      12
      12
      12
      12
      12
      12
      12
      12
      12
      12
      12
      12
      12
      12
      12
      12
      12
      12
      12
      12
      12
      12
      12
      12
      12
      12
      12
      12
      12
      12
      12
      12
      12
      12
      12
      12
      12
      12
      12
      12
      12
      12
      12
      12
      12
      12
      12
      12
      12
      12
      12
      12
      12
      12
      12
      12
      12
      12
      12
      12
      12
      12
      12
      12
      12
      12
      12
      12
      12
      12
      12
      12
      12
      12
      12
      12
      12
      12
      12
      12
      12
      12
      12
      12
      12
      12
      12
      12
      12
      12
      12
      12
      12
      12
      12
      12
      12
      12
      12
      12
      12
      12
      12
      12
      12
      12
      12
      12
      12
      12
      12
      12
      12
      12
      12
      12
      12
      12
      12
      12
      12
      12
      12
      12
      12
      12
      12
      12
      12
      12
      12
      12
      12
      12
      12
      12
      12
      12
      12
      12
      12
      12
      12
      12
      12
      12
      12
      12
      12
      12
      12
      12
      12
      12
      12
      12
      12
      12
      12
      12
      12
      12
      12
      12
      12
      12
      12
      12
      12
      12
      12
      12
      12
      12
      12
      12
      12
      12
      12
      12
      12
      12
      12
      12
      12
      12
      12
      12
      12
      12
      12
      12
      12
      12
      12
      12
      12
      12
      12
      12
      12
      12
      12
      12
      12
      12
      12
      12
      12
      12
      12
      12
      12
      12
      12
      12
      12
      12
      12
      12
      12
      12
      12
      12
      12
      12
      12
      12
      12
      12
      12
      12
      12
      12
      12
      12
      12
      12
      12
      12
      12
      12
      12
      12
      12
      12
      12
      12
      12
      12
      12
      12
      12
      12
      12
      12
      12
      12
      12
      12
      12
      12
      12
      12
      12
      12
      12
      12
      12
      12
      12
      12
      12
      12
      12
      12
      12
      12
      12
      12
      12
      12
      12
      12
      12
      12
      12
      12
      12
      12
      12
      12
      12
      12
      12
      12
      12
      12
      12
      12
      12
      12
      12
      12
      12
      12
      12
      12
      12
      12
      12
      12
      12
      12
      12
      12
      12
      12
      12
      12
      12
      12
      12
      12
      12
      12
      12
      12
      12
      12
      12
      12
      12
      12
      12
      12
      12
      12
      12
      12
      12
      12
      12
      12
      12
      12
      12
      12
      12
      12
      12
      12
      12
      12
      12
      12
      12
      12
      12
      12
      12
      12
      12
      12
      12
      12
      12
      12
      12
      12
      12
      12
      12
      12
      12
      12
      12
      12
      12
      12
      12
      12
      12
      12
      12
      12
      12
      12
      12
      12
      12
      12
      12
      12
      12
      12
      12
      12
      12
      12
      12
      12
      12
      12
      12
      12
      12
      12
      12
      12
      12
      12
      12
      12
      12
      12
      12
      12
      12
      12
      12
      12
      12
      12
      12
      12
      12
      12
      12
      12
      12
      12
      12
      12
      12
      12
      12
      12
      12
      12
      12
      12
      12
      12
      12
      12
      12
      12
      12
      12
      12
      12
      12
      12
      12
      12
      12
      12
      12
      12
      12
      12
      12
      12
      12
      12
      12
  
  
POINT_DATA       1950
  
SCALARS                  material_type  double 1
LOOKUP_TABLE default
                   2
                   2
                   2
                   2
                   2
                   2
                   2
                   2
                   2
                   2
                   2
                   2
                   2
                   2
                   2
                   2
                   2
                   2
                   2
                   2
                   2
                   2
                   2
                   2
                   2
                   2
                   2
                   2
                   2
                   2
                   2
                   2
                   2
                   2
                   2
                   2
                   2
                   2
                   2
                   2
                   2
                   2
                   2
                   2
                   2
                   2
                   2
                   2
                   2
                   2
                   2
                   2
                   2
                   2
                   2
                   2
                   2
                   2
                   2
                   2
                   2
                   2
                   2
                   2
                   2
                   2
                   2
                   2
                   2
                   2
                   2
                   2
                   2
                   2
                   2
                   2
                   2
                   2
                   2
                   2
                   2
                   2
                   2
                   2
                   2
                   2
                   2
                   2
                   2
                   2
                   2
                   2
                   2
                   2
                   2
                   2
                   2
                   2
                   2
                   2
                   2
                   2
                   2
                   2
                   2
                   2
                   2
                   2
                   2
                   2
                   2
                   2
                   2
                   2
                   2
                   2
                   2
                   2
                   2
                   2
                   2
                   2
                   2
                   2
                   2
                   2
                   2
                   2
                   2
                   2
                   2
                   2
                   2
                   2
                   2
                   2
                   2
                   2
                   2
                   2
                   2
                   2
                   2
                   2
                   2
                   2
                   2
                   2
                   2
                   2
                   2
                   2
                   2
                   2
                   2
                   2
                   2
                   2
                   2
                   2
                   2
                   2
                   2
                   2
                   2
                   2
                   2
                   2
                   2
                   2
                   2
                   2
                   2
                   2
                   2
                   2
                   2
                   2
                   2
                   2
                   2
                   2
                   2
                   2
                   2
                   2
                   2
                   2
                   2
                   2
                   2
                   2
                   2
                   2
                   2
                   2
                   2
                   2
                   2
                   2
                   2
                   2
                   2
                   2
                   2
                   2
                   2
                   2
                   2
                   2
                   2
                   2
                   2
                   2
                   2
                   2
                   2
                   2
                   2
                   2
                   2
                   2
                   2
                   2
                   2
                   2
                   2
                   2
                   2
                   2
                   2
                   2
                   2
                   2
                   2
                   2
                   2
                   2
                   2
                   2
                   2
                   2
                   2
                   2
                   2
                   2
                   2
                   2
                   2
                   2
                   2
                   2
                   2
                   2
                   2
                   2
                   2
                   2
                   2
                   2
                   2
                   2
                   2
                   2
                   2
                   2
                   2
                   2
                   2
                   2
                   2
                   2
                   2
                   2
                   2
                   2
                   2
                   2
                   2
                   2
                   2
                   2
                   2
                   2
                   2
                   2
                   2
                   2
                   2
                   2
                   2
                   2
                   2
                   2
                   2
                   2
                   2
                   2
                   2
                   2
                   2
                   2
                   2
                   2
                   2
                   2
                   2
                   2
                   2
                   2
                   2
                   2
                   2
                   2
                   2
                   2
                   2
                   2
                   2
                   2
                   2
                   2
                   2
                   2
                   2
                   2
                   2
                   2
                   2
                   2
                   2
                   2
                   2
                   2
                   2
                   2
                   2
                   2
                   2
                   2
                   2
                   2
                   2
                   2
                   2
                   2
                   2
                   2
                   2
                   2
                   2
                   2
                   2
                   2
                   2
                   2
                   2
                   2
                   2
                   2
                   2
                   2
                   2
                   2
                   2
                   2
                   2
                   2
                   2
                   2
                   2
                   2
                   2
                   2
                   2
                   2
                   2
                   2
                   2
                   2
                   2
                   2
                   2
                   2
                   2
                   2
                   2
                   2
                   2
                   2
                   2
                   2
                   2
                   2
                   2
                   2
                   2
                   2
                   2
                   2
                   2
                   2
                   2
                   2
                   2
                   2
                   2
                   2
                   2
                   2
                   2
                   2
                   2
                   2
                   2
                   2
                   2
                   2
                   2
                   2
                   2
                   2
                   2
                   2
                   2
                   2
                   2
                   2
                   2
                   2
                   2
                   2
                   2
                   2
                   2
                   2
                   2
                   2
                   2
                   2
                   2
                   2
                   2
                   2
                   2
                   2
                   2
                   2
                   2
                   2
                   2
                   2
                   2
                   2
                   2
                   2
                   2
                   2
                   2
                   2
                   2
                   2
                   2
                   2
                   2
                   2
                   2
                   2
                   2
                   2
                   2
                   2
                   2
                   2
                   2
                   2
                   2
                   2
                   2
                   2
                   2
                   2
                   2
                   2
                   2
                   2
                   2
                   2
                   2
                   2
                   2
                   2
                   2
                   2
                   2
                   2
                   2
                   2
                   2
                   2
                   2
                   2
                   2
                   2
                   2
                   2
                   2
                   2
                   2
                   2
                   2
                   2
                   2
                   2
                   2
                   2
                   2
                   2
                   2
                   2
                   2
                   2
                   2
                   2
                   2
                   2
                   2
                   2
                   2
                   2
                   2
                   2
                   2
                   2
                   2
                   2
                   2
                   2
                   2
                   2
                   2
                   2
                   2
                   2
                   2
                   2
                   2
                   2
                   2
                   2
                   2
                   2
                   2
                   2
                   2
                   2
                   2
                   2
                   2
                   2
                   2
                   2
                   2
                   2
                   2
                   2
                   2
                   2
                   2
                   2
                   2
                   2
                   2
                   2
                   2
                   2
                   2
                   2
                   2
                   2
                   2
                   2
                   2
                   2
                   2
                   2
                   2
                   2
                   2
                   2
                   2
                   2
                   2
                   2
                   2
                   2
                   2
                   2
                   2
                   2
                   2
                   2
                   2
                   2
                   2
                   2
                   2
                   2
                   2
                   2
                   2
                   2
                   2
                   2
                   2
                   2
                   2
                   2
                   2
                   2
                   2
                   2
                   2
                   2
                   2
                   2
                   2
                   2
                   2
                   2
                   2
                   2
                   2
                   2
                   2
                   2
                   2
                   2
                   2
                   2
                   2
                   2
                   2
                   2
                   2
                   2
                   2
                   2
                   2
                   2
                   2
                   2
                   2
                   2
                   2
                   2
                   2
                   2
                   2
                   2
                   2
                   2
                   2
                   2
                   2
                   2
                   2
                   2
                   2
                   2
                   2
                   2
                   2
                   2
                   2
                   2
                   2
                   2
                   2
                   2
                   2
                   2
                   2
                   2
                   2
                   2
                   2
                   2
                   2
                   2
                   2
                   2
                   2
                   2
                   2
                   2
                   2
                   2
                   2
                   2
                   2
                   2
                   2
                   2
                   2
                   2
                   2
                   2
                   2
                   2
                   2
                   2
                   2
                   2
                   2
                   2
                   2
                   2
                   2
                   2
                   2
                   2
                   2
                   2
                   2
                   2
                   2
                   2
                   2
                   2
                   2
                   2
                   2
                   2
                   2
                   2
                   2
                   2
                   2
                   2
                   2
                   2
                   2
                   2
                   2
                   2
                   2
                   2
                   2
                   2
                   2
                   2
                   2
                   2
                   2
                   2
                   2
                   2
                   2
                   2
                   2
                   2
                   2
                   2
                   2
                   2
                   2
                   2
                   2
                   2
                   2
                   2
                   2
                   2
                   2
                   2
                   2
                   2
                   2
                   2
                   2
                   2
                   2
                   2
                   2
                   2
                   2
                   2
                   2
                   2
                   2
                   2
                   2
                   2
                   2
                   2
                   2
                   2
                   2
                   2
                   2
                   2
                   2
                   2
                   2
                   2
                   2
                   2
                   2
                   2
                   2
                   2
                   2
                   2
                   2
                   2
                   2
                   2
                   2
                   2
                   2
                   2
                   2
                   2
                   2
                   2
                   2
                   2
                   2
                   2
                   2
                   2
                   2
                   2
                   2
                   2
                   2
                   2
                   2
                   2
                   2
                   2
                   2
                   2
                   2
                   2
                   2
                   2
                   2
                   2
                   2
                   2
                   2
                   2
                   2
                   2
                   2
                   2
                   2
                   2
                   2
                   2
                   2
                   2
                   2
                   2
                   2
                   2
                   2
                   2
                   2
                   2
                   2
                   2
                   2
                   2
                   2
                   2
                   2
                   2
                   2
                   2
                   2
                   2
                   2
                   2
                   2
                   2
                   2
                   2
                   2
                   2
                   2
                   2
                   2
                   2
                   2
                   2
                   2
                   2
                   2
                   2
                   2
                   2
                   2
                   2
                   2
                   2
                   2
                   2
                   2
                   2
                   2
                   2
                   2
                   2
                   2
                   2
                   2
                   2
                   2
                   2
                   2
                   2
                   2
                   2
                   2
                   2
                   2
                   2
                   2
                   2
                   2
                   2
                   2
                   2
                   2
                   2
                   2
                   2
                   2
                   2
                   2
                   2
                   2
                   2
                   2
                   2
                   2
                   2
                   2
                   2
                   2
                   2
                   2
                   2
                   2
                   2
                   2
                   2
                   2
                   2
                   2
                   2
                   2
                   2
                   2
                   2
                   2
                   2
                   2
                   2
                   2
                   2
                   2
                   2
                   2
                   2
                   2
                   2
                   2
                   2
                   2
                   2
                   2
                   2
                   2
                   2
                   2
                   2
                   2
                   2
                   2
                   2
                   2
                   2
                   2
                   2
                   2
                   2
                   2
                   2
                   2
                   2
                   2
                   2
                   2
                   2
                   2
                   2
                   2
                   2
                   2
                   2
                   2
                   2
                   2
                   2
                   2
                   2
                   2
                   2
                   2
                   2
                   2
                   2
                   2
                   2
                   2
                   2
                   2
                   2
                   2
                   2
                   2
                   2
                   2
                   2
                   2
                   2
                   2
                   2
                   2
                   2
                   2
                   2
                   2
                   2
                   2
                   2
                   2
                   2
                   2
                   2
                   2
                   2
                   2
                   2
                   2
                   2
                   2
                   2
                   2
                   2
                   2
                   2
                   2
                   2
                   2
                   2
                   2
                   2
                   2
                   2
                   2
                   2
                   2
                   2
                   2
                   2
                   2
                   2
                   2
                   2
                   2
                   2
                   2
                   2
                   2
                   2
                   2
                   2
                   2
                   2
                   2
                   2
                   2
                   2
                   2
                   2
                   2
                   2
                   2
                   2
                   2
                   2
                   2
                   2
                   2
                   2
                   2
                   2
                   2
                   2
                   2
                   2
                   2
                   2
                   2
                   2
                   2
                   2
                   2
                   2
                   2
                   2
                   2
                   2
                   2
                   2
                   2
                   2
                   2
                   2
                   2
                   2
                   2
                   2
                   2
                   2
                   2
                   2
                   2
                   2
                   2
                   2
                   2
                   2
                   2
                   2
                   2
                   2
                   2
                   2
                   2
                   2
                   2
                   2
                   2
                   2
                   2
                   2
                   2
                   2
                   2
                   2
                   2
                   2
                   2
                   2
                   2
                   2
                   2
                   2
                   2
                   2
                   2
                   2
                   2
                   2
                   2
                   2
                   2
                   2
                   2
                   2
                   2
                   2
                   2
                   2
                   2
                   2
                   2
                   2
                   2
                   2
                   2
                   2
                   2
                   2
                   2
                   2
                   2
                   2
                   2
                   2
                   2
                   2
                   2
                   2
                   2
                   2
                   2
                   2
                   2
                   2
                   2
                   2
                   2
                   2
                   2
                   2
                   2
                   2
                   2
                   2
                   2
                   2
                   2
                   2
                   2
                   2
                   2
                   2
                   2
                   2
                   2
                   2
                   2
                   2
                   2
                   2
                   2
                   2
                   2
                   2
                   2
                   2
                   2
                   2
                   2
                   2
                   2
                   2
                   2
                   2
                   2
                   2
                   2
                   2
                   2
                   2
                   2
                   2
                   2
                   2
                   2
                   2
                   2
                   2
                   2
                   2
                   2
                   2
                   2
                   2
                   2
                   2
                   2
                   2
                   2
                   2
                   2
                   2
                   2
                   2
                   2
                   2
                   2
                   2
                   2
                   2
                   2
                   2
                   2
                   2
                   2
                   2
                   2
                   2
                   2
                   2
                   2
                   2
                   2
                   2
                   2
                   2
                   2
                   2
                   2
                   2
                   2
                   2
                   2
                   2
                   2
                   2
                   2
                   2
                   2
                   2
                   2
                   2
                   2
                   2
                   2
                   2
                   2
                   2
                   2
                   2
                   2
                   2
                   2
                   2
                   2
                   2
                   2
                   2
                   2
                   2
                   2
                   2
                   2
                   2
                   2
                   2
                   2
                   2
                   2
                   2
                   2
                   2
                   2
                   2
                   2
                   2
                   2
                   2
                   2
                   2
                   2
                   2
                   2
                   2
                   2
                   2
                   2
                   2
                   2
                   2
                   2
                   2
                   2
                   2
                   2
                   2
                   2
                   2
                   2
                   2
                   2
                   2
                   2
                   2
                   2
                   2
                   2
                   2
                   2
                   2
                   2
                   2
                   2
                   2
                   2
                   2
                   2
                   2
                   2
                   2
                   2
                   2
                   2
                   2
                   2
                   2
                   2
                   2
                   2
                   2
                   2
                   2
                   2
                   2
                   2
                   2
                   2
                   2
                   2
                   2
                   2
                   2
                   2
                   2
                   2
                   2
                   2
                   2
                   2
                   2
                   2
                   2
                   2
                   2
                   2
                   2
                   2
                   2
                   2
                   2
                   2
                   2
                   2
                   2
                   2
                   2
                   2
                   2
                   2
                   2
                   2
                   2
                   2
                   2
                   2
                   2
                   2
                   2
                   2
                   2
                   2
                   2
                   2
                   2
                   2
                   2
                   2
                   2
                   2
                   2
                   2
                   2
                   2
                   2
                   2
                   2
                   2
                   2
                   2
                   2
                   2
                   2
                   2
                   2
                   2
                   2
                   2
                   2
                   2
                   2
                   2
                   2
                   2
                   2
                   2
                   2
                   2
                   2
                   2
                   2
                   2
                   2
                   2
                   2
                   2
                   2
                   2
                   2
                   2
                   2
                   2
                   2
                   2
                   2
                   2
                   2
                   2
                   2
                   2
                   2
                   2
                   2
                   2
                   2
                   2
                   2
                   2
                   2
                   2
                   2
                   2
                   2
                   2
                   2
                   2
                   2
                   2
                   2
                   2
                   2
                   2
                   2
                   2
                   2
                   2
                   2
                   2
                   2
                   2
                   2
                   2
                   2
                   2
                   2
                   2
                   2
                   2
                   2
                   2
                   2
                   2
                   2
                   2
                   2
                   2
                   2
                   2
                   2
                   2
                   2
                   2
                   2
                   2
                   2
                   2
                   2
                   2
                   2
                   2
                   2
                   2
                   2
                   2
                   2
                   2
                   2
                   2
                   2
                   2
                   2
                   2
                   2
                   2
                   2
                   2
                   2
                   2
                   2
                   2
                   2
                   2
                   2
                   2
                   2
                   2
                   2
                   2
                   2
                   2
                   2
                   2
                   2
                   2
                   2
                   2
                   2
                   2
                   2
                   2
                   2
                   2
                   2
                   2
                   2
                   2
                   2
                   2
                   2
                   2
                   2
                   2
                   2
                   2
                   2
                   2
                   2
                   2
                   2
                   2
                   2
                   2
                   2
                   2
                   2
                   2
                   2
                   2
                   2
                   2
                   2
                   2
                   2
                   2
                   2
                   2
                   2
                   2
                   2
                   2
                   2
                   2
                   2
                   2
                   2
                   2
                   2
                   2
                   2
                   2
                   2
                   2
                   2
                   2
                   2
                   2
                   2
                   2
                   2
                   2
                   2
                   2
                   2
                   2
                   2
                   2
                   2
                   2
                   2
                   2
                   2
                   2
                   2
                   2
                   2
                   2
                   2
                   2
                   2
                   2
                   2
                   2
                   2
                   2
                   2
                   2
                   2
                   2
                   2
                   2
                   2
                   2
                   2
                   2
                   2
                   2
                   2
                   2
                   2
                   2
                   2
                   2
                   2
                   2
                   2
                   2
                   2
                   2
                   2
                   2
                   2
                   2
                   2
                   2
                   2
                   2
                   2
                   2
                   2
                   2
                   2
                   2
                   2
                   2
                   2
                   2
                   2
                   2
                   2
                   2
                   2
                   2
                   2
                   2
                   2
                   2
                   2
                   2
                   2
                   2
                   2
                   2
                   2
                   2
                   2
                   2
                   2
                   2
                   2
                   2
                   2
                   2
                   2
                   2
                   2
                   2
                   2
                   2
                   2
                   2
                   2
                   2
                   2
                   2
                   2
                   2
                   2
                   2
                   2
                   2
                   2
                   2
                   2
                   2
                   2
                   2
                   2
                   2
                   2
                   2
                   2
                   2
                   2
                   2
                   2
                   2
                   2
                   2
                   2
                   2
                   2
                   2
                   2
                   2
                   2
                   2
                   2
                   2
                   2
                   2
                   2
                   2
                   2
                   2
                   2
                   2
                   2
                   2
                   2
                   2
                   2
                   2
                   2
                   2
                   2
                   2
                   2
                   2
                   2
                   2
                   2
                   2
                   2
                   2
                   2
                   2
                   2
                   2
                   2
                   2
                   2
                   2
                   2
                   2
                   2
                   2
                   2
                   2
                   2
                   2
                   2
                   2
                   2
                   2
                   2
                   2
                   2
                   2
                   2
                   2
                   2
                   2
                   2
                   2
                   2
                   2
                   2
                   2
                   2
                   2
                   2
                   2
                   2
                   2
                   2
                   2
                   2
                   2
                   2
                   2
                   2
                   2
                   2
                   2
                   2
                   2
                   2
                   2
                   2
                   2
                   2
                   2
                   2
                   2
                   2
                   2
                   2
                   2
                   2
                   2
                   2
                   2
                   2
                   2
                   2
                   2
                   2
                   2
                   2
                   2
                   2
                   2
                   2
                   2
                   2
                   2
                   2
                   2
                   2
                   2
                   2
                   2
                   2
                   2
                   2
                   2
                   2
                   2
                   2
                   2
                   2
                   2
                   2
                   2
                   2
                   2
                   2
                   2
                   2
  
SCALARS                        node_id  double 1
LOOKUP_TABLE default
                   1
                   2
                   3
                   4
                   5
                   6
                   7
                   8
                   9
                  10
                  11
                  12
                  13
                  14
                  15
                  16
                  17
                  18
                  19
                  20
                  21
                  22
                  23
                  24
                  25
                  26
                  27
                  28
                  29
                  30
                  31
                  32
                  33
                  34
                  35
                  36
                  37
                  38
                  39
                  40
                  41
                  42
                  43
                  44
                  45
                  46
                  47
                  48
                  49
                  50
                  51
                  52
                  53
                  54
                  55
                  56
                  57
                  58
                  59
                  60
                  61
                  62
                  63
                  64
                  65
                  66
                  67
                  68
                  69
                  70
                  71
                  72
                  73
                  74
                  75
                  76
                  77
                  78
                  79
                  80
                  81
                  82
                  83
                  84
                  85
                  86
                  87
                  88
                  89
                  90
                  91
                  92
                  93
                  94
                  95
                  96
                  97
                  98
                  99
                 100
                 101
                 102
                 103
                 104
                 105
                 106
                 107
                 108
                 109
                 110
                 111
                 112
                 113
                 114
                 115
                 116
                 117
                 118
                 119
                 120
                 121
                 122
                 123
                 124
                 125
                 126
                 127
                 128
                 129
                 130
                 131
                 132
                 133
                 134
                 135
                 136
                 137
                 138
                 139
                 140
                 141
                 142
                 143
                 144
                 145
                 146
                 147
                 148
                 149
                 150
                 151
                 152
                 153
                 154
                 155
                 156
                 157
                 158
                 159
                 160
                 161
                 162
                 163
                 164
                 165
                 166
                 167
                 168
                 169
                 170
                 171
                 172
                 173
                 174
                 175
                 176
                 177
                 178
                 179
                 180
                 181
                 182
                 183
                 184
                 185
                 186
                 187
                 188
                 189
                 190
                 191
                 192
                 193
                 194
                 195
                 196
                 197
                 198
                 199
                 200
                 201
                 202
                 203
                 204
                 205
                 206
                 207
                 208
                 209
                 210
                 211
                 212
                 213
                 214
                 215
                 216
                 217
                 218
                 219
                 220
                 221
                 222
                 223
                 224
                 225
                 226
                 227
                 228
                 229
                 230
                 231
                 232
                 233
                 234
                 235
                 236
                 237
                 238
                 239
                 240
                 241
                 242
                 243
                 244
                 245
                 246
                 247
                 248
                 249
                 250
                 251
                 252
                 253
                 254
                 255
                 256
                 257
                 258
                 259
                 260
                 261
                 262
                 263
                 264
                 265
                 266
                 267
                 268
                 269
                 270
                 271
                 272
                 273
                 274
                 275
                 276
                 277
                 278
                 279
                 280
                 281
                 282
                 283
                 284
                 285
                 286
                 287
                 288
                 289
                 290
                 291
                 292
                 293
                 294
                 295
                 296
                 297
                 298
                 299
                 300
                 301
                 302
                 303
                 304
                 305
                 306
                 307
                 308
                 309
                 310
                 311
                 312
                 313
                 314
                 315
                 316
                 317
                 318
                 319
                 320
                 321
                 322
                 323
                 324
                 325
                 326
                 327
                 328
                 329
                 330
                 331
                 332
                 333
                 334
                 335
                 336
                 337
                 338
                 339
                 340
                 341
                 342
                 343
                 344
                 345
                 346
                 347
                 348
                 349
                 350
                 351
                 352
                 353
                 354
                 355
                 356
                 357
                 358
                 359
                 360
                 361
                 362
                 363
                 364
                 365
                 366
                 367
                 368
                 369
                 370
                 371
                 372
                 373
                 374
                 375
                 376
                 377
                 378
                 379
                 380
                 381
                 382
                 383
                 384
                 385
                 386
                 387
                 388
                 389
                 390
                 391
                 392
                 393
                 394
                 395
                 396
                 397
                 398
                 399
                 400
                 401
                 402
                 403
                 404
                 405
                 406
                 407
                 408
                 409
                 410
                 411
                 412
                 413
                 414
                 415
                 416
                 417
                 418
                 419
                 420
                 421
                 422
                 423
                 424
                 425
                 426
                 427
                 428
                 429
                 430
                 431
                 432
                 433
                 434
                 435
                 436
                 437
                 438
                 439
                 440
                 441
                 442
                 443
                 444
                 445
                 446
                 447
                 448
                 449
                 450
                 451
                 452
                 453
                 454
                 455
                 456
                 457
                 458
                 459
                 460
                 461
                 462
                 463
                 464
                 465
                 466
                 467
                 468
                 469
                 470
                 471
                 472
                 473
                 474
                 475
                 476
                 477
                 478
                 479
                 480
                 481
                 482
                 483
                 484
                 485
                 486
                 487
                 488
                 489
                 490
                 491
                 492
                 493
                 494
                 495
                 496
                 497
                 498
                 499
                 500
                 501
                 502
                 503
                 504
                 505
                 506
                 507
                 508
                 509
                 510
                 511
                 512
                 513
                 514
                 515
                 516
                 517
                 518
                 519
                 520
                 521
                 522
                 523
                 524
                 525
                 526
                 527
                 528
                 529
                 530
                 531
                 532
                 533
                 534
                 535
                 536
                 537
                 538
                 539
                 540
                 541
                 542
                 543
                 544
                 545
                 546
                 547
                 548
                 549
                 550
                 551
                 552
                 553
                 554
                 555
                 556
                 557
                 558
                 559
                 560
                 561
                 562
                 563
                 564
                 565
                 566
                 567
                 568
                 569
                 570
                 571
                 572
                 573
                 574
                 575
                 576
                 577
                 578
                 579
                 580
                 581
                 582
                 583
                 584
                 585
                 586
                 587
                 588
                 589
                 590
                 591
                 592
                 593
                 594
                 595
                 596
                 597
                 598
                 599
                 600
                 601
                 602
                 603
                 604
                 605
                 606
                 607
                 608
                 609
                 610
                 611
                 612
                 613
                 614
                 615
                 616
                 617
                 618
                 619
                 620
                 621
                 622
                 623
                 624
                 625
                 626
                 627
                 628
                 629
                 630
                 631
                 632
                 633
                 634
                 635
                 636
                 637
                 638
                 639
                 640
                 641
                 642
                 643
                 644
                 645
                 646
                 647
                 648
                 649
                 650
                 651
                 652
                 653
                 654
                 655
                 656
                 657
                 658
                 659
                 660
                 661
                 662
                 663
                 664
                 665
                 666
                 667
                 668
                 669
                 670
                 671
                 672
                 673
                 674
                 675
                 676
                 677
                 678
                 679
                 680
                 681
                 682
                 683
                 684
                 685
                 686
                 687
                 688
                 689
                 690
                 691
                 692
                 693
                 694
                 695
                 696
                 697
                 698
                 699
                 700
                 701
                 702
                 703
                 704
                 705
                 706
                 707
                 708
                 709
                 710
                 711
                 712
                 713
                 714
                 715
                 716
                 717
                 718
                 719
                 720
                 721
                 722
                 723
                 724
                 725
                 726
                 727
                 728
                 729
                 730
                 731
                 732
                 733
                 734
                 735
                 736
                 737
                 738
                 739
                 740
                 741
                 742
                 743
                 744
                 745
                 746
                 747
                 748
                 749
                 750
                 751
                 752
                 753
                 754
                 755
                 756
                 757
                 758
                 759
                 760
                 761
                 762
                 763
                 764
                 765
                 766
                 767
                 768
                 769
                 770
                 771
                 772
                 773
                 774
                 775
                 776
                 777
                 778
                 779
                 780
                 781
                 782
                 783
                 784
                 785
                 786
                 787
                 788
                 789
                 790
                 791
                 792
                 793
                 794
                 795
                 796
                 797
                 798
                 799
                 800
                 801
                 802
                 803
                 804
                 805
                 806
                 807
                 808
                 809
                 810
                 811
                 812
                 813
                 814
                 815
                 816
                 817
                 818
                 819
                 820
                 821
                 822
                 823
                 824
                 825
                 826
                 827
                 828
                 829
                 830
                 831
                 832
                 833
                 834
                 835
                 836
                 837
                 838
                 839
                 840
                 841
                 842
                 843
                 844
                 845
                 846
                 847
                 848
                 849
                 850
                 851
                 852
                 853
                 854
                 855
                 856
                 857
                 858
                 859
                 860
                 861
                 862
                 863
                 864
                 865
                 866
                 867
                 868
                 869
                 870
                 871
                 872
                 873
                 874
                 875
                 876
                 877
                 878
                 879
                 880
                 881
                 882
                 883
                 884
                 885
                 886
                 887
                 888
                 889
                 890
                 891
                 892
                 893
                 894
                 895
                 896
                 897
                 898
                 899
                 900
                 901
                 902
                 903
                 904
                 905
                 906
                 907
                 908
                 909
                 910
                 911
                 912
                 913
                 914
                 915
                 916
                 917
                 918
                 919
                 920
                 921
                 922
                 923
                 924
                 925
                 926
                 927
                 928
                 929
                 930
                 931
                 932
                 933
                 934
                 935
                 936
                 937
                 938
                 939
                 940
                 941
                 942
                 943
                 944
                 945
                 946
                 947
                 948
                 949
                 950
                 951
                 952
                 953
                 954
                 955
                 956
                 957
                 958
                 959
                 960
                 961
                 962
                 963
                 964
                 965
                 966
                 967
                 968
                 969
                 970
                 971
                 972
                 973
                 974
                 975
                 976
                 977
                 978
                 979
                 980
                 981
                 982
                 983
                 984
                 985
                 986
                 987
                 988
                 989
                 990
                 991
                 992
                 993
                 994
                 995
                 996
                 997
                 998
                 999
                1000
                1001
                1002
                1003
                1004
                1005
                1006
                1007
                1008
                1009
                1010
                1011
                1012
                1013
                1014
                1015
                1016
                1017
                1018
                1019
                1020
                1021
                1022
                1023
                1024
                1025
                1026
                1027
                1028
                1029
                1030
                1031
                1032
                1033
                1034
                1035
                1036
                1037
                1038
                1039
                1040
                1041
                1042
                1043
                1044
                1045
                1046
                1047
                1048
                1049
                1050
                1051
                1052
                1053
                1054
                1055
                1056
                1057
                1058
                1059
                1060
                1061
                1062
                1063
                1064
                1065
                1066
                1067
                1068
                1069
                1070
                1071
                1072
                1073
                1074
                1075
                1076
                1077
                1078
                1079
                1080
                1081
                1082
                1083
                1084
                1085
                1086
                1087
                1088
                1089
                1090
                1091
                1092
                1093
                1094
                1095
                1096
                1097
                1098
                1099
                1100
                1101
                1102
                1103
                1104
                1105
                1106
                1107
                1108
                1109
                1110
                1111
                1112
                1113
                1114
                1115
                1116
                1117
                1118
                1119
                1120
                1121
                1122
                1123
                1124
                1125
                1126
                1127
                1128
                1129
                1130
                1131
                1132
                1133
                1134
                1135
                1136
                1137
                1138
                1139
                1140
                1141
                1142
                1143
                1144
                1145
                1146
                1147
                1148
                1149
                1150
                1151
                1152
                1153
                1154
                1155
                1156
                1157
                1158
                1159
                1160
                1161
                1162
                1163
                1164
                1165
                1166
                1167
                1168
                1169
                1170
                1171
                1172
                1173
                1174
                1175
                1176
                1177
                1178
                1179
                1180
                1181
                1182
                1183
                1184
                1185
                1186
                1187
                1188
                1189
                1190
                1191
                1192
                1193
                1194
                1195
                1196
                1197
                1198
                1199
                1200
                1201
                1202
                1203
                1204
                1205
                1206
                1207
                1208
                1209
                1210
                1211
                1212
                1213
                1214
                1215
                1216
                1217
                1218
                1219
                1220
                1221
                1222
                1223
                1224
                1225
                1226
                1227
                1228
                1229
                1230
                1231
                1232
                1233
                1234
                1235
                1236
                1237
                1238
                1239
                1240
                1241
                1242
                1243
                1244
                1245
                1246
                1247
                1248
                1249
                1250
                1251
                1252
                1253
                1254
                1255
                1256
                1257
                1258
                1259
                1260
                1261
                1262
                1263
                1264
                1265
                1266
                1267
                1268
                1269
                1270
                1271
                1272
                1273
                1274
                1275
                1276
                1277
                1278
                1279
                1280
                1281
                1282
                1283
                1284
                1285
                1286
                1287
                1288
                1289
                1290
                1291
                1292
                1293
                1294
                1295
                1296
                1297
                1298
                1299
                1300
                1301
                1302
                1303
                1304
                1305
                1306
                1307
                1308
                1309
                1310
                1311
                1312
                1313
                1314
                1315
                1316
                1317
                1318
                1319
                1320
                1321
                1322
                1323
                1324
                1325
                1326
                1327
                1328
                1329
                1330
                1331
                1332
                1333
                1334
                1335
                1336
                1337
                1338
                1339
                1340
                1341
                1342
                1343
                1344
                1345
                1346
                1347
                1348
                1349
                1350
                1351
                1352
                1353
                1354
                1355
                1356
                1357
                1358
                1359
                1360
                1361
                1362
                1363
                1364
                1365
                1366
                1367
                1368
                1369
                1370
                1371
                1372
                1373
                1374
                1375
                1376
                1377
                1378
                1379
                1380
                1381
                1382
                1383
                1384
                1385
                1386
                1387
                1388
                1389
                1390
                1391
                1392
                1393
                1394
                1395
                1396
                1397
                1398
                1399
                1400
                1401
                1402
                1403
                1404
                1405
                1406
                1407
                1408
                1409
                1410
                1411
                1412
                1413
                1414
                1415
                1416
                1417
                1418
                1419
                1420
                1421
                1422
                1423
                1424
                1425
                1426
                1427
                1428
                1429
                1430
                1431
                1432
                1433
                1434
                1435
                1436
                1437
                1438
                1439
                1440
                1441
                1442
                1443
                1444
                1445
                1446
                1447
                1448
                1449
                1450
                1451
                1452
                1453
                1454
                1455
                1456
                1457
                1458
                1459
                1460
                1461
                1462
                1463
                1464
                1465
                1466
                1467
                1468
                1469
                1470
                1471
                1472
                1473
                1474
                1475
                1476
                1477
                1478
                1479
                1480
                1481
                1482
                1483
                1484
                1485
                1486
                1487
                1488
                1489
                1490
                1491
                1492
                1493
                1494
                1495
                1496
                1497
                1498
                1499
                1500
                1501
                1502
                1503
                1504
                1505
                1506
                1507
                1508
                1509
                1510
                1511
                1512
                1513
                1514
                1515
                1516
                1517
                1518
                1519
                1520
                1521
                1522
                1523
                1524
                1525
                1526
                1527
                1528
                1529
                1530
                1531
                1532
                1533
                1534
                1535
                1536
                1537
                1538
                1539
                1540
                1541
                1542
                1543
                1544
                1545
                1546
                1547
                1548
                1549
                1550
                1551
                1552
                1553
                1554
                1555
                1556
                1557
                1558
                1559
                1560
                1561
                1562
                1563
                1564
                1565
                1566
                1567
                1568
                1569
                1570
                1571
                1572
                1573
                1574
                1575
                1576
                1577
                1578
                1579
                1580
                1581
                1582
                1583
                1584
                1585
                1586
                1587
                1588
                1589
                1590
                1591
                1592
                1593
                1594
                1595
                1596
                1597
                1598
                1599
                1600
                1601
                1602
                1603
                1604
                1605
                1606
                1607
                1608
                1609
                1610
                1611
                1612
                1613
                1614
                1615
                1616
                1617
                1618
                1619
                1620
                1621
                1622
                1623
                1624
                1625
                1626
                1627
                1628
                1629
                1630
                1631
                1632
                1633
                1634
                1635
                1636
                1637
                1638
                1639
                1640
                1641
                1642
                1643
                1644
                1645
                1646
                1647
                1648
                1649
                1650
                1651
                1652
                1653
                1654
                1655
                1656
                1657
                1658
                1659
                1660
                1661
                1662
                1663
                1664
                1665
                1666
                1667
                1668
                1669
                1670
                1671
                1672
                1673
                1674
                1675
                1676
                1677
                1678
                1679
                1680
                1681
                1682
                1683
                1684
                1685
                1686
                1687
                1688
                1689
                1690
                1691
                1692
                1693
                1694
                1695
                1696
                1697
                1698
                1699
                1700
                1701
                1702
                1703
                1704
                1705
                1706
                1707
                1708
                1709
                1710
                1711
                1712
                1713
                1714
                1715
                1716
                1717
                1718
                1719
                1720
                1721
                1722
                1723
                1724
                1725
                1726
                1727
                1728
                1729
                1730
                1731
                1732
                1733
                1734
                1735
                1736
                1737
                1738
                1739
                1740
                1741
                1742
                1743
                1744
                1745
                1746
                1747
                1748
                1749
                1750
                1751
                1752
                1753
                1754
                1755
                1756
                1757
                1758
                1759
                1760
                1761
                1762
                1763
                1764
                1765
                1766
                1767
                1768
                1769
                1770
                1771
                1772
                1773
                1774
                1775
                1776
                1777
                1778
                1779
                1780
                1781
                1782
                1783
                1784
                1785
                1786
                1787
                1788
                1789
                1790
                1791
                1792
                1793
                1794
                1795
                1796
                1797
                1798
                1799
                1800
                1801
                1802
                1803
                1804
                1805
                1806
                1807
                1808
                1809
                1810
                1811
                1812
                1813
                1814
                1815
                1816
                1817
                1818
                1819
                1820
                1821
                1822
                1823
                1824
                1825
                1826
                1827
                1828
                1829
                1830
                1831
                1832
                1833
                1834
                1835
                1836
                1837
                1838
                1839
                1840
                1841
                1842
                1843
                1844
                1845
                1846
                1847
                1848
                1849
                1850
                1851
                1852
                1853
                1854
                1855
                1856
                1857
                1858
                1859
                1860
                1861
                1862
                1863
                1864
                1865
                1866
                1867
                1868
                1869
                1870
                1871
                1872
                1873
                1874
                1875
                1876
                1877
                1878
                1879
                1880
                1881
                1882
                1883
                1884
                1885
                1886
                1887
                1888
                1889
                1890
                1891
                1892
                1893
                1894
                1895
                1896
                1897
                1898
                1899
                1900
                1901
                1902
                1903
                1904
                1905
                1906
                1907
                1908
                1909
                1910
                1911
                1912
                1913
                1914
                1915
                1916
                1917
                1918
                1919
                1920
                1921
                1922
                1923
                1924
                1925
                1926
                1927
                1928
                1929
                1930
                1931
                1932
                1933
                1934
                1935
                1936
                1937
                1938
                1939
                1940
                1941
                1942
                1943
                1944
                1945
                1946
                1947
                1948
                1949
                1950
  
SCALARS                         bodyid  double 1
LOOKUP_TABLE default
                   1
                   1
                   1
                   1
                   1
                   1
                   1
                   1
                   1
                   1
                   1
                   1
                   1
                   1
                   1
                   1
                   1
                   1
                   1
                   1
                   1
                   1
                   1
                   1
                   1
                   1
                   1
                   1
                   1
                   1
                   1
                   1
                   1
                   1
                   1
                   1
                   1
                   1
                   1
                   1
                   1
                   1
                   1
                   1
                   1
                   1
                   1
                   1
                   1
                   1
                   1
                   1
                   1
                   1
                   1
                   1
                   1
                   1
                   1
                   1
                   1
                   1
                   1
                   1
                   1
                   1
                   1
                   1
                   1
                   1
                   1
                   1
                   1
                   1
                   1
                   1
                   1
                   1
                   1
                   1
                   1
                   1
                   1
                   1
                   1
                   1
                   1
                   1
                   1
                   1
                   1
                   1
                   1
                   1
                   1
                   1
                   1
                   1
                   1
                   1
                   1
                   1
                   1
                   1
                   1
                   1
                   1
                   1
                   1
                   1
                   1
                   1
                   1
                   1
                   1
                   1
                   1
                   1
                   1
                   1
                   1
                   1
                   1
                   1
                   1
                   1
                   1
                   1
                   1
                   1
                   1
                   1
                   1
                   1
                   1
                   1
                   1
                   1
                   1
                   1
                   1
                   1
                   1
                   1
                   1
                   1
                   1
                   1
                   1
                   1
                   1
                   1
                   1
                   1
                   1
                   1
                   1
                   1
                   1
                   1
                   1
                   1
                   1
                   1
                   1
                   1
                   1
                   1
                   1
                   1
                   1
                   1
                   1
                   1
                   1
                   1
                   1
                   1
                   1
                   1
                   1
                   1
                   1
                   1
                   1
                   1
                   1
                   1
                   1
                   1
                   1
                   1
                   1
                   1
                   1
                   1
                   1
                   1
                   1
                   1
                   1
                   1
                   1
                   1
                   1
                   1
                   1
                   1
                   1
                   1
                   1
                   1
                   1
                   1
                   1
                   1
                   1
                   1
                   1
                   1
                   1
                   1
                   1
                   1
                   1
                   1
                   1
                   1
                   1
                   1
                   1
                   1
                   1
                   1
                   1
                   1
                   1
                   1
                   1
                   1
                   1
                   1
                   1
                   1
                   1
                   1
                   1
                   1
                   1
                   1
                   1
                   1
                   1
                   1
                   1
                   1
                   1
                   1
                   1
                   1
                   1
                   1
                   1
                   1
                   1
                   1
                   1
                   1
                   1
                   1
                   1
                   1
                   1
                   1
                   1
                   1
                   1
                   1
                   1
                   1
                   1
                   1
                   1
                   1
                   1
                   1
                   1
                   1
                   1
                   1
                   1
                   1
                   1
                   1
                   1
                   1
                   1
                   1
                   1
                   1
                   1
                   1
                   1
                   1
                   1
                   1
                   1
                   1
                   1
                   1
                   1
                   1
                   1
                   1
                   1
                   1
                   1
                   1
                   1
                   1
                   1
                   1
                   1
                   1
                   1
                   1
                   1
                   1
                   1
                   1
                   1
                   1
                   1
                   1
                   1
                   1
                   1
                   1
                   1
                   1
                   1
                   1
                   1
                   1
                   1
                   1
                   1
                   1
                   1
                   1
                   1
                   1
                   1
                   1
                   1
                   1
                   1
                   1
                   1
                   1
                   1
                   1
                   1
                   1
                   1
                   1
                   1
                   1
                   1
                   1
                   1
                   1
                   1
                   1
                   1
                   1
                   1
                   1
                   1
                   1
                   1
                   1
                   1
                   1
                   1
                   1
                   1
                   1
                   1
                   1
                   1
                   1
                   1
                   1
                   1
                   1
                   1
                   1
                   1
                   1
                   1
                   1
                   1
                   1
                   1
                   1
                   1
                   1
                   1
                   1
                   1
                   1
                   1
                   1
                   1
                   1
                   1
                   1
                   1
                   1
                   1
                   1
                   1
                   1
                   1
                   1
                   1
                   1
                   1
                   1
                   1
                   1
                   1
                   1
                   1
                   1
                   1
                   1
                   1
                   1
                   1
                   1
                   1
                   1
                   1
                   1
                   1
                   1
                   1
                   1
                   1
                   1
                   1
                   1
                   1
                   1
                   1
                   1
                   1
                   1
                   1
                   1
                   1
                   1
                   1
                   1
                   1
                   1
                   1
                   1
                   1
                   1
                   1
                   1
                   1
                   1
                   1
                   1
                   1
                   1
                   1
                   1
                   1
                   1
                   1
                   1
                   1
                   1
                   1
                   1
                   1
                   1
                   1
                   1
                   1
                   1
                   1
                   1
                   1
                   1
                   1
                   1
                   1
                   1
                   1
                   1
                   1
                   1
                   1
                   1
                   1
                   1
                   1
                   1
                   1
                   1
                   1
                   1
                   1
                   1
                   1
                   1
                   1
                   1
                   1
                   1
                   1
                   1
                   1
                   1
                   1
                   1
                   1
                   1
                   1
                   1
                   1
                   1
                   1
                   1
                   1
                   1
                   1
                   1
                   1
                   1
                   1
                   1
                   1
                   1
                   1
                   1
                   1
                   1
                   1
                   1
                   1
                   1
                   1
                   1
                   1
                   1
                   1
                   1
                   1
                   1
                   1
                   1
                   1
                   1
                   1
                   1
                   1
                   1
                   1
                   1
                   1
                   1
                   1
                   1
                   1
                   1
                   1
                   1
                   1
                   1
                   1
                   1
                   1
                   1
                   1
                   1
                   1
                   1
                   1
                   1
                   1
                   1
                   1
                   1
                   1
                   1
                   1
                   1
                   1
                   1
                   1
                   1
                   1
                   1
                   1
                   1
                   1
                   1
                   1
                   1
                   1
                   1
                   1
                   1
                   1
                   1
                   1
                   1
                   1
                   1
                   1
                   1
                   1
                   1
                   1
                   1
                   1
                   1
                   1
                   1
                   1
                   1
                   1
                   1
                   1
                   1
                   1
                   1
                   1
                   1
                   1
                   1
                   1
                   1
                   1
                   1
                   1
                   1
                   1
                   1
                   1
                   1
                   1
                   1
                   1
                   1
                   1
                   1
                   1
                   1
                   1
                   1
                   1
                   1
                   1
                   1
                   1
                   1
                   1
                   1
                   1
                   1
                   1
                   1
                   1
                   1
                   1
                   1
                   1
                   1
                   1
                   1
                   1
                   1
                   1
                   1
                   1
                   1
                   1
                   1
                   1
                   1
                   1
                   1
                   1
                   1
                   1
                   1
                   1
                   1
                   1
                   1
                   1
                   1
                   1
                   1
                   1
                   1
                   1
                   1
                   1
                   1
                   1
                   1
                   1
                   1
                   1
                   1
                   1
                   1
                   1
                   1
                   1
                   1
                   1
                   1
                   1
                   1
                   1
                   1
                   1
                   1
                   1
                   1
                   1
                   1
                   1
                   1
                   1
                   1
                   1
                   1
                   1
                   1
                   1
                   1
                   1
                   1
                   1
                   1
                   1
                   1
                   1
                   1
                   1
                   1
                   1
                   1
                   1
                   1
                   1
                   1
                   1
                   1
                   1
                   1
                   1
                   1
                   1
                   1
                   1
                   1
                   1
                   1
                   1
                   1
                   1
                   1
                   1
                   1
                   1
                   1
                   1
                   1
                   1
                   1
                   1
                   1
                   1
                   1
                   1
                   1
                   1
                   1
                   1
                   1
                   1
                   1
                   1
                   1
                   1
                   1
                   1
                   1
                   1
                   1
                   1
                   1
                   1
                   1
                   1
                   1
                   1
                   1
                   1
                   1
                   1
                   1
                   1
                   1
                   1
                   1
                   1
                   1
                   1
                   1
                   1
                   1
                   1
                   1
                   1
                   1
                   1
                   1
                   1
                   1
                   1
                   1
                   1
                   1
                   1
                   1
                   1
                   1
                   1
                   1
                   1
                   1
                   1
                   1
                   1
                   1
                   1
                   1
                   1
                   1
                   1
                   1
                   1
                   1
                   1
                   1
                   1
                   1
                   1
                   1
                   1
                   1
                   1
                   1
                   1
                   1
                   1
                   1
                   1
                   1
                   1
                   1
                   1
                   1
                   1
                   1
                   1
                   1
                   1
                   1
                   1
                   1
                   1
                   1
                   1
                   1
                   1
                   1
                   1
                   1
                   1
                   1
                   1
                   1
                   1
                   1
                   1
                   1
                   1
                   1
                   1
                   1
                   1
                   1
                   1
                   1
                   1
                   1
                   1
                   1
                   1
                   1
                   1
                   1
                   1
                   1
                   1
                   1
                   1
                   1
                   1
                   1
                   1
                   1
                   1
                   1
                   1
                   1
                   1
                   1
                   1
                   1
                   1
                   1
                   1
                   1
                   1
                   1
                   1
                   1
                   1
                   1
                   1
                   1
                   1
                   1
                   1
                   1
                   1
                   1
                   1
                   1
                   1
                   1
                   1
                   1
                   1
                   1
                   1
                   1
                   1
                   1
                   1
                   1
                   1
                   1
                   1
                   1
                   1
                   1
                   1
                   1
                   1
                   1
                   1
                   1
                   1
                   1
                   1
                   1
                   1
                   1
                   1
                   1
                   1
                   1
                   1
                   1
                   1
                   1
                   1
                   1
                   1
                   1
                   1
                   1
                   1
                   1
                   1
                   1
                   1
                   1
                   1
                   1
                   1
                   1
                   1
                   1
                   1
                   1
                   1
                   1
                   1
                   1
                   1
                   1
                   1
                   1
                   1
                   1
                   1
                   1
                   1
                   1
                   1
                   1
                   1
                   1
                   1
                   1
                   1
                   1
                   1
                   1
                   1
                   1
                   1
                   1
                   1
                   1
                   1
                   1
                   1
                   1
                   1
                   1
                   1
                   1
                   1
                   1
                   1
                   1
                   1
                   1
                   1
                   1
                   1
                   1
                   1
                   1
                   1
                   1
                   1
                   1
                   1
                   1
                   1
                   1
                   1
                   1
                   1
                   1
                   1
                   1
                   1
                   1
                   1
                   1
                   1
                   1
                   1
                   1
                   1
                   1
                   1
                   1
                   1
                   1
                   1
                   1
                   1
                   1
                   1
                   1
                   1
                   1
                   1
                   1
                   1
                   1
                   1
                   1
                   1
                   1
                   1
                   1
                   1
                   1
                   1
                   1
                   1
                   1
                   1
                   1
                   1
                   1
                   1
                   1
                   1
                   1
                   1
                   1
                   1
                   1
                   1
                   1
                   1
                   1
                   1
                   1
                   1
                   1
                   1
                   1
                   1
                   1
                   1
                   1
                   1
                   1
                   1
                   1
                   1
                   1
                   1
                   1
                   1
                   1
                   1
                   1
                   1
                   1
                   1
                   1
                   1
                   1
                   1
                   1
                   1
                   1
                   1
                   1
                   1
                   1
                   1
                   1
                   1
                   1
                   1
                   1
                   1
                   1
                   1
                   1
                   1
                   1
                   1
                   1
                   1
                   1
                   1
                   1
                   1
                   1
                   1
                   1
                   1
                   1
                   1
                   1
                   1
                   1
                   1
                   1
                   1
                   1
                   1
                   1
                   1
                   1
                   1
                   1
                   1
                   1
                   1
                   1
                   1
                   1
                   1
                   1
                   1
                   1
                   1
                   1
                   1
                   1
                   1
                   1
                   1
                   1
                   1
                   1
                   1
                   1
                   1
                   1
                   1
                   1
                   1
                   1
                   1
                   1
                   1
                   1
                   1
                   1
                   1
                   1
                   1
                   1
                   1
                   1
                   1
                   1
                   1
                   1
                   1
                   1
                   1
                   1
                   1
                   1
                   1
                   1
                   1
                   1
                   1
                   1
                   1
                   1
                   1
                   1
                   1
                   1
                   1
                   1
                   1
                   1
                   1
                   1
                   1
                   1
                   1
                   1
                   1
                   1
                   1
                   1
                   1
                   1
                   1
                   1
                   1
                   1
                   1
                   1
                   1
                   1
                   1
                   1
                   1
                   1
                   1
                   1
                   1
                   1
                   1
                   1
                   1
                   1
                   1
                   1
                   1
                   1
                   1
                   1
                   1
                   1
                   1
                   1
                   1
                   1
                   1
                   1
                   1
                   1
                   1
                   1
                   1
                   1
                   1
                   1
                   1
                   1
                   1
                   1
                   1
                   1
                   1
                   1
                   1
                   1
                   1
                   1
                   1
                   1
                   1
                   1
                   1
                   1
                   1
                   1
                   1
                   1
                   1
                   1
                   1
                   1
                   1
                   1
                   1
                   1
                   1
                   1
                   1
                   1
                   1
                   1
                   1
                   1
                   1
                   1
                   1
                   1
                   1
                   1
                   1
                   1
                   1
                   1
                   1
                   1
                   1
                   1
                   1
                   1
                   1
                   1
                   1
                   1
                   1
                   1
                   1
                   1
                   1
                   1
                   1
                   1
                   1
                   1
                   1
                   1
                   1
                   1
                   1
                   1
                   1
                   1
                   1
                   1
                   1
                   1
                   1
                   1
                   1
                   1
                   1
                   1
                   1
                   1
                   1
                   1
                   1
                   1
                   1
                   1
                   1
                   1
                   1
                   1
                   1
                   1
                   1
                   1
                   1
                   1
                   1
                   1
                   1
                   1
                   1
                   1
                   1
                   1
                   1
                   1
                   1
                   1
                   1
                   1
                   1
                   1
                   1
                   1
                   1
                   1
                   1
                   1
                   1
                   1
                   1
                   1
                   1
                   1
                   1
                   1
                   1
                   1
                   1
                   1
                   1
                   1
                   1
                   1
                   1
                   1
                   1
                   1
                   1
                   1
                   1
                   1
                   1
                   1
                   1
                   1
                   1
                   1
                   1
                   1
                   1
                   1
                   1
                   1
                   1
                   1
                   1
                   1
                   1
                   1
                   1
                   1
                   1
                   1
                   1
                   1
                   1
                   1
                   1
                   1
                   1
                   1
                   1
                   1
                   1
                   1
                   1
                   1
                   1
                   1
                   1
                   1
                   1
                   1
                   1
                   1
                   1
                   1
                   1
                   1
                   1
                   1
                   1
                   1
                   1
                   1
                   1
                   1
                   1
                   1
                   1
                   1
                   1
                   1
                   1
                   1
                   1
                   1
                   1
                   1
                   1
                   1
                   1
                   1
                   1
                   1
                   1
                   1
                   1
                   1
                   1
                   1
                   1
                   1
                   1
                   1
                   1
                   1
                   1
                   1
                   1
                   1
                   1
                   1
                   1
                   1
                   1
                   1
                   1
                   1
                   1
                   1
                   1
                   1
                   1
                   1
                   1
                   1
                   1
                   1
                   1
                   1
                   1
                   1
                   1
                   1
                   1
                   1
                   1
                   1
                   1
                   1
                   1
                   1
                   1
                   1
                   1
                   1
                   1
                   1
                   1
                   1
                   1
                   1
                   1
                   1
                   1
                   1
                   1
                   1
                   1
                   1
                   1
                   1
                   1
                   1
                   1
                   1
                   1
                   1
                   1
                   1
                   1
                   1
                   1
                   1
                   1
                   1
                   1
                   1
                   1
                   1
                   1
                   1
                   1
                   1
                   1
                   1
                   1
                   1
                   1
                   1
                   1
                   1
                   1
                   1
                   1
                   1
                   1
                   1
                   1
                   1
                   1
                   1
                   1
                   1
                   1
                   1
                   1
                   1
                   1
                   1
                   1
                   1
                   1
                   1
                   1
                   1
                   1
                   1
                   1
                   1
                   1
                   1
                   1
                   1
                   1
                   1
                   1
                   1
                   1
                   1
                   1
                   1
                   1
                   1
                   1
                   1
                   1
                   1
                   1
                   1
                   1
                   1
                   1
                   1
                   1
                   1
                   1
                   1
                   1
                   1
                   1
                   1
                   1
                   1
                   1
                   1
                   1
                   1
                   1
                   1
                   1
                   1
                   1
                   1
                   1
                   1
                   1
                   1
                   1
                   1
                   1
                   1
                   1
                   1
                   1
                   1
                   1
                   1
                   1
                   1
                   1
                   1
                   1
                   1
                   1
                   1
                   1
                   1
                   1
                   1
                   1
                   1
                   1
                   1
                   1
                   1
                   1
                   1
                   1
                   1
                   1
                   1
                   1
                   1
                   1
                   1
                   1
                   1
                   1
                   1
                   1
                   1
                   1
                   1
                   1
                   1
                   1
                   1
                   1
                   1
                   1
                   1
                   1
                   1
                   1
                   1
                   1
                   1
                   1
                   1
                   1
                   1
                   1
                   1
                   1
                   1
                   1
                   1
                   1
                   1
                   1
                   1
                   1
                   1
                   1
                   1
                   1
                   1
                   1
                   1
                   1
                   1
                   1
                   1
                   1
                   1
                   1
                   1
                   1
                   1
                   1
                   1
                   1
                   1
                   1
                   1
                   1
                   1
                   1
                   1
                   1
                   1
                   1
                   1
                   1
                   1
                   1
                   1
                   1
                   1
                   1
                   1
                   1
                   1
                   1
                   1
                   1
                   1
                   1
                   1
                   1
                   1
                   1
                   1
                   1
                   1
                   1
                   1
                   1
                   1
                   1
                   1
                   1
                   1
                   1
                   1
                   1
                   1
                   1
                   1
                   1
                   1
                   1
                   1
                   1
                   1
                   1
                   1
                   1
                   1
                   1
                   1
                   1
                   1
                   1
                   1
                   1
                   1
                   1
                   1
                   1
                   1
                   1
                   1
                   1
                   1
                   1
                   1
                   1
                   1
                   1
                   1
                   1
                   1
                   1
                   1
                   1
                   1
                   1
                   1
                   1
                   1
                   1
                   1
                   1
                   1
                   1
                   1
                   1
                   1
                   1
                   1
                   1
                   1
                   1
                   1
                   1
                   1
                   1
                   1
                   1
                   1
                   1
                   1
                   1
                   1
                   1
                   1
                   1
                   1
                   1
                   1
                   1
                   1
                   1
                   1
  
SCALARS                  material_type  double 1
LOOKUP_TABLE default
                   2
                   2
                   2
                   2
                   2
                   2
                   2
                   2
                   2
                   2
                   2
                   2
                   2
                   2
                   2
                   2
                   2
                   2
                   2
                   2
                   2
                   2
                   2
                   2
                   2
                   2
                   2
                   2
                   2
                   2
                   2
                   2
                   2
                   2
                   2
                   2
                   2
                   2
                   2
                   2
                   2
                   2
                   2
                   2
                   2
                   2
                   2
                   2
                   2
                   2
                   2
                   2
                   2
                   2
                   2
                   2
                   2
                   2
                   2
                   2
                   2
                   2
                   2
                   2
                   2
                   2
                   2
                   2
                   2
                   2
                   2
                   2
                   2
                   2
                   2
                   2
                   2
                   2
                   2
                   2
                   2
                   2
                   2
                   2
                   2
                   2
                   2
                   2
                   2
                   2
                   2
                   2
                   2
                   2
                   2
                   2
                   2
                   2
                   2
                   2
                   2
                   2
                   2
                   2
                   2
                   2
                   2
                   2
                   2
                   2
                   2
                   2
                   2
                   2
                   2
                   2
                   2
                   2
                   2
                   2
                   2
                   2
                   2
                   2
                   2
                   2
                   2
                   2
                   2
                   2
                   2
                   2
                   2
                   2
                   2
                   2
                   2
                   2
                   2
                   2
                   2
                   2
                   2
                   2
                   2
                   2
                   2
                   2
                   2
                   2
                   2
                   2
                   2
                   2
                   2
                   2
                   2
                   2
                   2
                   2
                   2
                   2
                   2
                   2
                   2
                   2
                   2
                   2
                   2
                   2
                   2
                   2
                   2
                   2
                   2
                   2
                   2
                   2
                   2
                   2
                   2
                   2
                   2
                   2
                   2
                   2
                   2
                   2
                   2
                   2
                   2
                   2
                   2
                   2
                   2
                   2
                   2
                   2
                   2
                   2
                   2
                   2
                   2
                   2
                   2
                   2
                   2
                   2
                   2
                   2
                   2
                   2
                   2
                   2
                   2
                   2
                   2
                   2
                   2
                   2
                   2
                   2
                   2
                   2
                   2
                   2
                   2
                   2
                   2
                   2
                   2
                   2
                   2
                   2
                   2
                   2
                   2
                   2
                   2
                   2
                   2
                   2
                   2
                   2
                   2
                   2
                   2
                   2
                   2
                   2
                   2
                   2
                   2
                   2
                   2
                   2
                   2
                   2
                   2
                   2
                   2
                   2
                   2
                   2
                   2
                   2
                   2
                   2
                   2
                   2
                   2
                   2
                   2
                   2
                   2
                   2
                   2
                   2
                   2
                   2
                   2
                   2
                   2
                   2
                   2
                   2
                   2
                   2
                   2
                   2
                   2
                   2
                   2
                   2
                   2
                   2
                   2
                   2
                   2
                   2
                   2
                   2
                   2
                   2
                   2
                   2
                   2
                   2
                   2
                   2
                   2
                   2
                   2
                   2
                   2
                   2
                   2
                   2
                   2
                   2
                   2
                   2
                   2
                   2
                   2
                   2
                   2
                   2
                   2
                   2
                   2
                   2
                   2
                   2
                   2
                   2
                   2
                   2
                   2
                   2
                   2
                   2
                   2
                   2
                   2
                   2
                   2
                   2
                   2
                   2
                   2
                   2
                   2
                   2
                   2
                   2
                   2
                   2
                   2
                   2
                   2
                   2
                   2
                   2
                   2
                   2
                   2
                   2
                   2
                   2
                   2
                   2
                   2
                   2
                   2
                   2
                   2
                   2
                   2
                   2
                   2
                   2
                   2
                   2
                   2
                   2
                   2
                   2
                   2
                   2
                   2
                   2
                   2
                   2
                   2
                   2
                   2
                   2
                   2
                   2
                   2
                   2
                   2
                   2
                   2
                   2
                   2
                   2
                   2
                   2
                   2
                   2
                   2
                   2
                   2
                   2
                   2
                   2
                   2
                   2
                   2
                   2
                   2
                   2
                   2
                   2
                   2
                   2
                   2
                   2
                   2
                   2
                   2
                   2
                   2
                   2
                   2
                   2
                   2
                   2
                   2
                   2
                   2
                   2
                   2
                   2
                   2
                   2
                   2
                   2
                   2
                   2
                   2
                   2
                   2
                   2
                   2
                   2
                   2
                   2
                   2
                   2
                   2
                   2
                   2
                   2
                   2
                   2
                   2
                   2
                   2
                   2
                   2
                   2
                   2
                   2
                   2
                   2
                   2
                   2
                   2
                   2
                   2
                   2
                   2
                   2
                   2
                   2
                   2
                   2
                   2
                   2
                   2
                   2
                   2
                   2
                   2
                   2
                   2
                   2
                   2
                   2
                   2
                   2
                   2
                   2
                   2
                   2
                   2
                   2
                   2
                   2
                   2
                   2
                   2
                   2
                   2
                   2
                   2
                   2
                   2
                   2
                   2
                   2
                   2
                   2
                   2
                   2
                   2
                   2
                   2
                   2
                   2
                   2
                   2
                   2
                   2
                   2
                   2
                   2
                   2
                   2
                   2
                   2
                   2
                   2
                   2
                   2
                   2
                   2
                   2
                   2
                   2
                   2
                   2
                   2
                   2
                   2
                   2
                   2
                   2
                   2
                   2
                   2
                   2
                   2
                   2
                   2
                   2
                   2
                   2
                   2
                   2
                   2
                   2
                   2
                   2
                   2
                   2
                   2
                   2
                   2
                   2
                   2
                   2
                   2
                   2
                   2
                   2
                   2
                   2
                   2
                   2
                   2
                   2
                   2
                   2
                   2
                   2
                   2
                   2
                   2
                   2
                   2
                   2
                   2
                   2
                   2
                   2
                   2
                   2
                   2
                   2
                   2
                   2
                   2
                   2
                   2
                   2
                   2
                   2
                   2
                   2
                   2
                   2
                   2
                   2
                   2
                   2
                   2
                   2
                   2
                   2
                   2
                   2
                   2
                   2
                   2
                   2
                   2
                   2
                   2
                   2
                   2
                   2
                   2
                   2
                   2
                   2
                   2
                   2
                   2
                   2
                   2
                   2
                   2
                   2
                   2
                   2
                   2
                   2
                   2
                   2
                   2
                   2
                   2
                   2
                   2
                   2
                   2
                   2
                   2
                   2
                   2
                   2
                   2
                   2
                   2
                   2
                   2
                   2
                   2
                   2
                   2
                   2
                   2
                   2
                   2
                   2
                   2
                   2
                   2
                   2
                   2
                   2
                   2
                   2
                   2
                   2
                   2
                   2
                   2
                   2
                   2
                   2
                   2
                   2
                   2
                   2
                   2
                   2
                   2
                   2
                   2
                   2
                   2
                   2
                   2
                   2
                   2
                   2
                   2
                   2
                   2
                   2
                   2
                   2
                   2
                   2
                   2
                   2
                   2
                   2
                   2
                   2
                   2
                   2
                   2
                   2
                   2
                   2
                   2
                   2
                   2
                   2
                   2
                   2
                   2
                   2
                   2
                   2
                   2
                   2
                   2
                   2
                   2
                   2
                   2
                   2
                   2
                   2
                   2
                   2
                   2
                   2
                   2
                   2
                   2
                   2
                   2
                   2
                   2
                   2
                   2
                   2
                   2
                   2
                   2
                   2
                   2
                   2
                   2
                   2
                   2
                   2
                   2
                   2
                   2
                   2
                   2
                   2
                   2
                   2
                   2
                   2
                   2
                   2
                   2
                   2
                   2
                   2
                   2
                   2
                   2
                   2
                   2
                   2
                   2
                   2
                   2
                   2
                   2
                   2
                   2
                   2
                   2
                   2
                   2
                   2
                   2
                   2
                   2
                   2
                   2
                   2
                   2
                   2
                   2
                   2
                   2
                   2
                   2
                   2
                   2
                   2
                   2
                   2
                   2
                   2
                   2
                   2
                   2
                   2
                   2
                   2
                   2
                   2
                   2
                   2
                   2
                   2
                   2
                   2
                   2
                   2
                   2
                   2
                   2
                   2
                   2
                   2
                   2
                   2
                   2
                   2
                   2
                   2
                   2
                   2
                   2
                   2
                   2
                   2
                   2
                   2
                   2
                   2
                   2
                   2
                   2
                   2
                   2
                   2
                   2
                   2
                   2
                   2
                   2
                   2
                   2
                   2
                   2
                   2
                   2
                   2
                   2
                   2
                   2
                   2
                   2
                   2
                   2
                   2
                   2
                   2
                   2
                   2
                   2
                   2
                   2
                   2
                   2
                   2
                   2
                   2
                   2
                   2
                   2
                   2
                   2
                   2
                   2
                   2
                   2
                   2
                   2
                   2
                   2
                   2
                   2
                   2
                   2
                   2
                   2
                   2
                   2
                   2
                   2
                   2
                   2
                   2
                   2
                   2
                   2
                   2
                   2
                   2
                   2
                   2
                   2
                   2
                   2
                   2
                   2
                   2
                   2
                   2
                   2
                   2
                   2
                   2
                   2
                   2
                   2
                   2
                   2
                   2
                   2
                   2
                   2
                   2
                   2
                   2
                   2
                   2
                   2
                   2
                   2
                   2
                   2
                   2
                   2
                   2
                   2
                   2
                   2
                   2
                   2
                   2
                   2
                   2
                   2
                   2
                   2
                   2
                   2
                   2
                   2
                   2
                   2
                   2
                   2
                   2
                   2
                   2
                   2
                   2
                   2
                   2
                   2
                   2
                   2
                   2
                   2
                   2
                   2
                   2
                   2
                   2
                   2
                   2
                   2
                   2
                   2
                   2
                   2
                   2
                   2
                   2
                   2
                   2
                   2
                   2
                   2
                   2
                   2
                   2
                   2
                   2
                   2
                   2
                   2
                   2
                   2
                   2
                   2
                   2
                   2
                   2
                   2
                   2
                   2
                   2
                   2
                   2
                   2
                   2
                   2
                   2
                   2
                   2
                   2
                   2
                   2
                   2
                   2
                   2
                   2
                   2
                   2
                   2
                   2
                   2
                   2
                   2
                   2
                   2
                   2
                   2
                   2
                   2
                   2
                   2
                   2
                   2
                   2
                   2
                   2
                   2
                   2
                   2
                   2
                   2
                   2
                   2
                   2
                   2
                   2
                   2
                   2
                   2
                   2
                   2
                   2
                   2
                   2
                   2
                   2
                   2
                   2
                   2
                   2
                   2
                   2
                   2
                   2
                   2
                   2
                   2
                   2
                   2
                   2
                   2
                   2
                   2
                   2
                   2
                   2
                   2
                   2
                   2
                   2
                   2
                   2
                   2
                   2
                   2
                   2
                   2
                   2
                   2
                   2
                   2
                   2
                   2
                   2
                   2
                   2
                   2
                   2
                   2
                   2
                   2
                   2
                   2
                   2
                   2
                   2
                   2
                   2
                   2
                   2
                   2
                   2
                   2
                   2
                   2
                   2
                   2
                   2
                   2
                   2
                   2
                   2
                   2
                   2
                   2
                   2
                   2
                   2
                   2
                   2
                   2
                   2
                   2
                   2
                   2
                   2
                   2
                   2
                   2
                   2
                   2
                   2
                   2
                   2
                   2
                   2
                   2
                   2
                   2
                   2
                   2
                   2
                   2
                   2
                   2
                   2
                   2
                   2
                   2
                   2
                   2
                   2
                   2
                   2
                   2
                   2
                   2
                   2
                   2
                   2
                   2
                   2
                   2
                   2
                   2
                   2
                   2
                   2
                   2
                   2
                   2
                   2
                   2
                   2
                   2
                   2
                   2
                   2
                   2
                   2
                   2
                   2
                   2
                   2
                   2
                   2
                   2
                   2
                   2
                   2
                   2
                   2
                   2
                   2
                   2
                   2
                   2
                   2
                   2
                   2
                   2
                   2
                   2
                   2
                   2
                   2
                   2
                   2
                   2
                   2
                   2
                   2
                   2
                   2
                   2
                   2
                   2
                   2
                   2
                   2
                   2
                   2
                   2
                   2
                   2
                   2
                   2
                   2
                   2
                   2
                   2
                   2
                   2
                   2
                   2
                   2
                   2
                   2
                   2
                   2
                   2
                   2
                   2
                   2
                   2
                   2
                   2
                   2
                   2
                   2
                   2
                   2
                   2
                   2
                   2
                   2
                   2
                   2
                   2
                   2
                   2
                   2
                   2
                   2
                   2
                   2
                   2
                   2
                   2
                   2
                   2
                   2
                   2
                   2
                   2
                   2
                   2
                   2
                   2
                   2
                   2
                   2
                   2
                   2
                   2
                   2
                   2
                   2
                   2
                   2
                   2
                   2
                   2
                   2
                   2
                   2
                   2
                   2
                   2
                   2
                   2
                   2
                   2
                   2
                   2
                   2
                   2
                   2
                   2
                   2
                   2
                   2
                   2
                   2
                   2
                   2
                   2
                   2
                   2
                   2
                   2
                   2
                   2
                   2
                   2
                   2
                   2
                   2
                   2
                   2
                   2
                   2
                   2
                   2
                   2
                   2
                   2
                   2
                   2
                   2
                   2
                   2
                   2
                   2
                   2
                   2
                   2
                   2
                   2
                   2
                   2
                   2
                   2
                   2
                   2
                   2
                   2
                   2
                   2
                   2
                   2
                   2
                   2
                   2
                   2
                   2
                   2
                   2
                   2
                   2
                   2
                   2
                   2
                   2
                   2
                   2
                   2
                   2
                   2
                   2
                   2
                   2
                   2
                   2
                   2
                   2
                   2
                   2
                   2
                   2
                   2
                   2
                   2
                   2
                   2
                   2
                   2
                   2
                   2
                   2
                   2
                   2
                   2
                   2
                   2
                   2
                   2
                   2
                   2
                   2
                   2
                   2
                   2
                   2
                   2
                   2
                   2
                   2
                   2
                   2
                   2
                   2
                   2
                   2
                   2
                   2
                   2
                   2
                   2
                   2
                   2
                   2
                   2
                   2
                   2
                   2
                   2
                   2
                   2
                   2
                   2
                   2
                   2
                   2
                   2
                   2
                   2
                   2
                   2
                   2
                   2
                   2
                   2
                   2
                   2
                   2
                   2
                   2
                   2
                   2
                   2
                   2
                   2
                   2
                   2
                   2
                   2
                   2
                   2
                   2
                   2
                   2
                   2
                   2
                   2
                   2
                   2
                   2
                   2
                   2
                   2
                   2
                   2
                   2
                   2
                   2
                   2
                   2
                   2
                   2
                   2
                   2
                   2
                   2
                   2
                   2
                   2
                   2
                   2
                   2
                   2
                   2
                   2
                   2
                   2
                   2
                   2
                   2
                   2
                   2
                   2
                   2
                   2
                   2
                   2
                   2
                   2
                   2
                   2
                   2
                   2
                   2
                   2
                   2
                   2
                   2
                   2
                   2
                   2
                   2
                   2
                   2
                   2
                   2
                   2
                   2
                   2
                   2
                   2
                   2
                   2
                   2
                   2
                   2
                   2
                   2
                   2
                   2
                   2
                   2
                   2
                   2
                   2
                   2
                   2
                   2
                   2
                   2
                   2
                   2
                   2
                   2
                   2
                   2
                   2
                   2
                   2
                   2
                   2
                   2
                   2
                   2
                   2
                   2
                   2
                   2
                   2
                   2
                   2
                   2
                   2
                   2
                   2
                   2
                   2
                   2
                   2
                   2
                   2
                   2
                   2
                   2
                   2
                   2
                   2
                   2
                   2
                   2
                   2
                   2
                   2
                   2
                   2
                   2
                   2
                   2
                   2
                   2
                   2
                   2
                   2
                   2
                   2
                   2
                   2
                   2
                   2
                   2
                   2
                   2
                   2
                   2
                   2
                   2
                   2
                   2
                   2
                   2
                   2
                   2
                   2
                   2
                   2
                   2
                   2
                   2
                   2
                   2
                   2
                   2
                   2
                   2
                   2
                   2
                   2
                   2
                   2
                   2
                   2
                   2
                   2
                   2
                   2
                   2
                   2
                   2
                   2
                   2
                   2
                   2
                   2
                   2
                   2
                   2
                   2
                   2
                   2
                   2
                   2
                   2
                   2
                   2
                   2
                   2
                   2
                   2
                   2
                   2
                   2
                   2
                   2
                   2
                   2
                   2
                   2
                   2
                   2
                   2
                   2
                   2
                   2
                   2
                   2
                   2
                   2
                   2
                   2
                   2
                   2
                   2
                   2
                   2
                   2
                   2
                   2
                   2
                   2
                   2
                   2
                   2
                   2
                   2
                   2
                   2
                   2
                   2
                   2
                   2
                   2
                   2
                   2
                   2
                   2
                   2
                   2
                   2
                   2
                   2
                   2
                   2
                   2
                   2
                   2
                   2
                   2
                   2
                   2
                   2
                   2
                   2
                   2
                   2
                   2
                   2
                   2
                   2
                   2
                   2
                   2
                   2
                   2
                   2
                   2
                   2
                   2
                   2
                   2
                   2
                   2
                   2
                   2
                   2
                   2
                   2
                   2
                   2
                   2
                   2
                   2
                   2
                   2
                   2
                   2
                   2
                   2
                   2
                   2
                   2
                   2
                   2
                   2
                   2
                   2
                   2
                   2
                   2
                   2
                   2
                   2
                   2
                   2
                   2
                   2
                   2
                   2
                   2
                   2
                   2
                   2
                   2
                   2
                   2
                   2
                   2
                   2
                   2
                   2
                   2
                   2
                   2
                   2
                   2
                   2
                   2
                   2
                   2
                   2
                   2
                   2
                   2
                   2
                   2
                   2
                   2
                   2
                   2
                   2
                   2
                   2
                   2
                   2
                   2
                   2
                   2
                   2
                   2
                   2
                   2
                   2
                   2
                   2
                   2
                   2
                   2
                   2
                   2
                   2
                   2
                   2
                   2
                   2
                   2
                   2
                   2
                   2
                   2
                   2
                   2
                   2
                   2
                   2
                   2
                   2
                   2
                   2
                   2
                   2
                   2
                   2
                   2
                   2
                   2
                   2
                   2
                   2
                   2
                   2
                   2
                   2
                   2
                   2
                   2
                   2
                   2
                   2
                   2
                   2
                   2
  
SCALARS                       fixity_x  double 1
LOOKUP_TABLE default
                   0
                   0
                   0
                   0
                   0
                   0
                   0
                   0
                   0
                   0
                   0
                   0
                   0
                   0
                   0
                   0
                   0
                   0
                   0
                   0
                   0
                   0
                   0
                   0
                   0
                   0
                   0
                   0
                   0
                   0
                   0
                   0
                   0
                   0
                   0
                   0
                   0
                   0
                   0
                   0
                   0
                   0
                   0
                   0
                   0
                   0
                   0
                   0
                   0
                   0
                   0
                   0
                   0
                   0
                   0
                   0
                   0
                   0
                   0
                   0
                   0
                   0
                   0
                   0
                   0
                   0
                   0
                   0
                   0
                   0
                   0
                   0
                   0
                   0
                   0
                   0
                   0
                   0
                   0
                   0
                   0
                   0
                   0
                   0
                   0
                   0
                   0
                   0
                   0
                   0
                   0
                   0
                   0
                   0
                   0
                   0
                   0
                   0
                   0
                   0
                   0
                   0
                   0
                   0
                   0
                   0
                   0
                   0
                   0
                   0
                   0
                   0
                   0
                   0
                   0
                   0
                   0
                   0
                   0
                   0
                   0
                   0
                   0
                   0
                   0
                   0
                   0
                   0
                   0
                   0
                   0
                   0
                   0
                   0
                   0
                   0
                   0
                   0
                   0
                   0
                   0
                   0
                   0
                   0
                   0
                   0
                   0
                   0
                   0
                   0
                   0
                   0
                   0
                   0
                   0
                   0
                   0
                   0
                   0
                   0
                   0
                   0
                   0
                   0
                   0
                   0
                   0
                   0
                   0
                   0
                   0
                   0
                   0
                   0
                   0
                   0
                   0
                   0
                   0
                   0
                   0
                   0
                   0
                   0
                   0
                   0
                   0
                   0
                   0
                   0
                   0
                   0
                   0
                   0
                   0
                   0
                   0
                   0
                   0
                   0
                   0
                   0
                   0
                   0
                   0
                   0
                   0
                   0
                   0
                   0
                   0
                   0
                   0
                   0
                   0
                   0
                   0
                   0
                   0
                   0
                   0
                   0
                   0
                   0
                   0
                   0
                   0
                   0
                   0
                   0
                   0
                   0
                   0
                   0
                   0
                   0
                   0
                   0
                   0
                   0
                   0
                   0
                   0
                   0
                   0
                   0
                   0
                   0
                   0
                   0
                   0
                   0
                   0
                   0
                   0
                   0
                   0
                   0
                   0
                   0
                   0
                   0
                   0
                   0
                   0
                   0
                   0
                   0
                   0
                   0
                   0
                   0
                   0
                   0
                   0
                   0
                   0
                   0
                   0
                   0
                   0
                   0
                   0
                   0
                   0
                   0
                   0
                   0
                   0
                   0
                   0
                   0
                   0
                   0
                   0
                   0
                   0
                   0
                   0
                   0
                   0
                   0
                   0
                   0
                   0
                   0
                   0
                   0
                   0
                   0
                   0
                   0
                   0
                   0
                   0
                   0
                   0
                   0
                   0
                   0
                   0
                   0
                   0
                   0
                   0
                   0
                   0
                   0
                   0
                   0
                   0
                   0
                   0
                   0
                   0
                   0
                   0
                   0
                   0
                   0
                   0
                   0
                   0
                   0
                   0
                   0
                   0
                   0
                   0
                   0
                   0
                   0
                   0
                   0
                   0
                   0
                   0
                   0
                   0
                   0
                   0
                   0
                   0
                   0
                   0
                   0
                   0
                   0
                   0
                   0
                   0
                   0
                   0
                   0
                   0
                   0
                   0
                   0
                   0
                   0
                   0
                   0
                   0
                   0
                   0
                   0
                   0
                   0
                   0
                   0
                   0
                   0
                   0
                   0
                   0
                   0
                   0
                   0
                   0
                   0
                   0
                   0
                   0
                   0
                   0
                   0
                   0
                   0
                   0
                   0
                   0
                   0
                   0
                   0
                   0
                   0
                   0
                   0
                   0
                   0
                   0
                   0
                   0
                   0
                   0
                   0
                   0
                   0
                   0
                   0
                   0
                   0
                   0
                   0
                   0
                   0
                   0
                   0
                   0
                   0
                   0
                   0
                   0
                   0
                   0
                   0
                   0
                   0
                   0
                   0
                   0
                   0
                   0
                   0
                   0
                   0
                   0
                   0
                   0
                   0
                   0
                   0
                   0
                   0
                   0
                   0
                   0
                   0
                   0
                   0
                   0
                   0
                   0
                   0
                   0
                   0
                   0
                   0
                   0
                   0
                   0
                   0
                   0
                   0
                   0
                   0
                   0
                   0
                   0
                   0
                   0
                   0
                   0
                   0
                   0
                   0
                   0
                   0
                   0
                   0
                   0
                   0
                   0
                   0
                   0
                   0
                   0
                   0
                   0
                   0
                   0
                   0
                   0
                   0
                   0
                   0
                   0
                   0
                   0
                   0
                   0
                   0
                   0
                   0
                   0
                   0
                   0
                   0
                   0
                   0
                   0
                   0
                   0
                   0
                   0
                   0
                   0
                   0
                   0
                   0
                   0
                   0
                   0
                   0
                   0
                   0
                   0
                   0
                   0
                   0
                   0
                   0
                   0
                   0
                   0
                   0
                   0
                   0
                   0
                   0
                   0
                   0
                   0
                   0
                   0
                   0
                   0
                   0
                   0
                   0
                   0
                   0
                   0
                   0
                   0
                   0
                   0
                   0
                   0
                   0
                   0
                   0
                   0
                   0
                   0
                   0
                   0
                   0
                   0
                   0
                   0
                   0
                   0
                   0
                   0
                   0
                   0
                   0
                   0
                   0
                   0
                   0
                   0
                   0
                   0
                   0
                   0
                   0
                   0
                   0
                   0
                   0
                   0
                   0
                   0
                   0
                   0
                   0
                   0
                   0
                   0
                   0
                   0
                   0
                   0
                   0
                   0
                   0
                   0
                   0
                   0
                   0
                   0
                   0
                   0
                   0
                   0
                   0
                   0
                   0
                   0
                   0
                   0
                   0
                   0
                   0
                   0
                   0
                   0
                   0
                   0
                   0
                   0
                   0
                   0
                   0
                   0
                   0
                   0
                   0
                   0
                   0
                   0
                   0
                   0
                   0
                   0
                   0
                   0
                   0
                   0
                   0
                   0
                   0
                   0
                   0
                   0
                   0
                   0
                   0
                   0
                   0
                   0
                   0
                   0
                   0
                   0
                   0
                   0
                   0
                   0
                   0
                   0
                   0
                   0
                   0
                   0
                   0
                   0
                   0
                   0
                   0
                   0
                   0
                   0
                   0
                   0
                   0
                   0
                   0
                   0
                   0
                   0
                   0
                   0
                   0
                   0
                   0
                   0
                   0
                   0
                   0
                   0
                   0
                   0
                   0
                   0
                   0
                   0
                   0
                   0
                   0
                   0
                   0
                   0
                   0
                   0
                   0
                   0
                   0
                   0
                   0
                   0
                   0
                   0
                   0
                   0
                   0
                   0
                   0
                   0
                   0
                   0
                   0
                   0
                   0
                   0
                   0
                   0
                   0
                   0
                   0
                   0
                   0
                   0
                   0
                   0
                   0
                   0
                   0
                   0
                   0
                   0
                   0
                   0
                   0
                   0
                   0
                   0
                   0
                   0
                   0
                   0
                   0
                   0
                   0
                   0
                   0
                   0
                   0
                   0
                   0
                   0
                   0
                   0
                   0
                   0
                   0
                   0
                   0
                   0
                   0
                   0
                   0
                   0
                   0
                   0
                   0
                   0
                   0
                   0
                   0
                   0
                   0
                   0
                   0
                   0
                   0
                   0
                   0
                   0
                   0
                   0
                   0
                   0
                   0
                   0
                   0
                   0
                   0
                   0
                   0
                   0
                   0
                   0
                   0
                   0
                   0
                   0
                   0
                   0
                   0
                   0
                   0
                   0
                   0
                   0
                   0
                   0
                   0
                   0
                   0
                   0
                   0
                   0
                   0
                   0
                   0
                   0
                   0
                   0
                   0
                   0
                   0
                   0
                   0
                   0
                   0
                   0
                   0
                   0
                   0
                   0
                   0
                   0
                   0
                   0
                   0
                   0
                   0
                   0
                   0
                   0
                   0
                   0
                   0
                   0
                   0
                   0
                   0
                   0
                   0
                   0
                   0
                   0
                   0
                   0
                   0
                   0
                   0
                   0
                   0
                   0
                   0
                   0
                   0
                   0
                   0
                   0
                   0
                   0
                   0
                   0
                   0
                   0
                   0
                   0
                   0
                   0
                   0
                   0
                   0
                   0
                   0
                   0
                   0
                   0
                   0
                   0
                   0
                   0
                   0
                   0
                   0
                   0
                   0
                   0
                   0
                   0
                   0
                   0
                   0
                   0
                   0
                   0
                   0
                   0
                   0
                   0
                   0
                   0
                   0
                   0
                   0
                   0
                   0
                   0
                   0
                   0
                   0
                   0
                   0
                   0
                   0
                   0
                   0
                   0
                   0
                   0
                   0
                   0
                   0
                   0
                   0
                   0
                   0
                   0
                   0
                   0
                   0
                   0
                   0
                   0
                   0
                   0
                   0
                   0
                   0
                   0
                   0
                   0
                   0
                   0
                   0
                   0
                   0
                   0
                   0
                   0
                   0
                   0
                   0
                   0
                   0
                   0
                   0
                   0
                   0
                   0
                   0
                   0
                   0
                   0
                   0
                   0
                   0
                   0
                   0
                   0
                   0
                   0
                   0
                   0
                   0
                   0
                   0
                   0
                   0
                   0
                   0
                   0
                   0
                   0
                   0
                   0
                   0
                   0
                   0
                   0
                   0
                   0
                   0
                   0
                   0
                   0
                   0
                   0
                   0
                   0
                   0
                   0
                   0
                   0
                   0
                   0
                   0
                   0
                   0
                   0
                   0
                   0
                   0
                   0
                   0
                   0
                   0
                   0
                   0
                   0
                   0
                   0
                   0
                   0
                   0
                   0
                   0
                   0
                   0
                   0
                   0
                   0
                   0
                   0
                   0
                   0
                   0
                   0
                   0
                   0
                   0
                   0
                   0
                   0
                   0
                   0
                   0
                   0
                   0
                   0
                   0
                   0
                   0
                   0
                   0
                   0
                   0
                   0
                   0
                   0
                   0
                   0
                   0
                   0
                   0
                   0
                   0
                   0
                   0
                   0
                   0
                   0
                   0
                   0
                   0
                   0
                   0
                   0
                   0
                   0
                   0
                   0
                   0
                   0
                   0
                   0
                   0
                   0
                   0
                   0
                   0
                   0
                   0
                   0
                   0
                   0
                   0
                   0
                   0
                   0
                   0
                   0
                   0
                   0
                   0
                   0
                   0
                   0
                   0
                   0
                   0
                   0
                   0
                   0
                   0
                   0
                   0
                   0
                   0
                   0
                   0
                   0
                   0
                   0
                   0
                   0
                   0
                   0
                   0
                   0
                   0
                   0
                   0
                   0
                   0
                   0
                   0
                   0
                   0
                   0
                   0
                   0
                   0
                   0
                   0
                   0
                   0
                   0
                   0
                   0
                   0
                   0
                   0
                   0
                   0
                   0
                   0
                   0
                   0
                   0
                   0
                   0
                   0
                   0
                   0
                   0
                   0
                   0
                   0
                   0
                   0
                   0
                   0
                   0
                   0
                   0
                   0
                   0
                   0
                   0
                   0
                   0
                   0
                   0
                   0
                   0
                   0
                   0
                   0
                   0
                   0
                   0
                   0
                   0
                   0
                   0
                   0
                   0
                   0
                   0
                   0
                   0
                   0
                   0
                   0
                   0
                   0
                   0
                   0
                   0
                   0
                   0
                   0
                   0
                   0
                   0
                   0
                   0
                   0
                   0
                   0
                   0
                   0
                   0
                   0
                   0
                   0
                   0
                   0
                   0
                   0
                   0
                   0
                   0
                   0
                   0
                   0
                   0
                   0
                   0
                   0
                   0
                   0
                   0
                   0
                   0
                   0
                   0
                   0
                   0
                   0
                   0
                   0
                   0
                   0
                   0
                   0
                   0
                   0
                   0
                   0
                   0
                   0
                   0
                   0
                   0
                   0
                   0
                   0
                   0
                   0
                   0
                   0
                   0
                   0
                   0
                   0
                   0
                   0
                   0
                   0
                   0
                   0
                   0
                   0
                   0
                   0
                   0
                   0
                   0
                   0
                   0
                   0
                   0
                   0
                   0
                   0
                   0
                   0
                   0
                   0
                   0
                   0
                   0
                   0
                   0
                   0
                   0
                   0
                   0
                   0
                   0
                   0
                   0
                   0
                   0
                   0
                   0
                   0
                   0
                   0
                   0
                   0
                   0
                   0
                   0
                   0
                   0
                   0
                   0
                   0
                   0
                   0
                   0
                   0
                   0
                   0
                   0
                   0
                   0
                   0
                   0
                   0
                   0
                   0
                   0
                   0
                   0
                   0
                   0
                   0
                   0
                   0
                   0
                   0
                   0
                   0
                   0
                   0
                   0
                   0
                   0
                   0
                   0
                   0
                   0
                   0
                   0
                   0
                   0
                   0
                   0
                   0
                   0
                   0
                   0
                   0
                   0
                   0
                   0
                   0
                   0
                   0
                   0
                   0
                   0
                   0
                   0
                   0
                   0
                   0
                   0
                   0
                   0
                   0
                   0
                   0
                   0
                   0
                   0
                   0
                   0
                   0
                   0
                   0
                   0
                   0
                   0
                   0
                   0
                   0
                   0
                   0
                   0
                   0
                   0
                   0
                   0
                   0
                   0
                   0
                   0
                   0
                   0
                   0
                   0
                   0
                   0
                   0
                   0
                   0
                   0
                   0
                   0
                   0
                   0
                   0
                   0
                   0
                   0
                   0
                   0
                   0
                   0
                   0
                   0
                   0
                   0
                   0
                   0
                   0
                   0
                   0
                   0
                   0
                   0
                   0
                   0
                   0
                   0
                   0
                   0
                   0
                   0
                   0
                   0
                   0
                   0
                   0
                   0
                   0
                   0
                   0
                   0
                   0
                   0
                   0
                   0
                   0
                   0
                   0
                   0
                   0
                   0
                   0
                   0
                   0
                   0
                   0
                   0
                   0
                   0
                   0
                   0
                   0
                   0
                   0
                   0
                   0
                   0
                   0
                   0
                   0
                   0
                   0
                   0
                   0
                   0
                   0
                   0
                   0
                   0
                   0
                   0
                   0
                   0
                   0
                   0
                   0
                   0
                   0
                   0
                   0
                   0
                   0
                   0
                   0
                   0
                   0
                   0
                   0
                   0
                   0
                   0
                   0
                   0
                   0
                   0
                   0
                   0
                   0
                   0
                   0
                   0
                   0
                   0
                   0
                   0
                   0
                   0
                   0
                   0
                   0
                   0
                   0
                   0
                   0
                   0
                   0
                   0
                   0
                   0
                   0
                   0
                   0
                   0
                   0
                   0
                   0
                   0
                   0
                   0
                   0
                   0
                   0
                   0
                   0
                   0
                   0
                   0
                   0
                   0
                   0
                   0
                   0
                   0
                   0
                   0
                   0
                   0
                   0
                   0
                   0
                   0
                   0
                   0
                   0
                   0
                   0
                   0
                   0
                   0
                   0
                   0
                   0
                   0
                   0
                   0
                   0
                   0
                   0
                   0
                   0
                   0
                   0
                   0
                   0
                   0
                   0
                   0
                   0
                   0
                   0
                   0
                   0
                   0
                   0
                   0
                   0
                   0
                   0
                   0
                   0
                   0
                   0
                   0
                   0
                   0
                   0
                   0
                   0
                   0
                   0
                   0
                   0
                   0
                   0
                   0
                   0
                   0
                   0
                   0
                   0
                   0
                   0
                   0
                   0
                   0
                   0
                   0
                   0
                   0
                   0
                   0
                   0
                   0
                   0
                   0
                   0
                   0
                   0
                   0
                   0
                   0
                   0
                   0
                   0
                   0
                   0
                   0
                   0
                   0
                   0
                   0
                   0
                   0
                   0
                   0
                   0
                   0
                   0
                   0
                   0
                   0
                   0
                   0
                   0
                   0
                   0
                   0
                   0
                   0
                   0
                   0
                   0
                   0
                   0
                   0
                   0
                   0
                   0
                   0
                   0
                   0
                   0
                   0
                   0
                   0
                   0
                   0
                   0
                   0
                   0
                   0
                   0
                   0
                   0
                   0
                   0
                   0
                   0
                   0
                   0
                   0
                   0
                   0
                   0
                   0
                   0
                   0
                   0
                   0
                   0
                   0
                   0
                   0
                   0
                   0
                   0
                   0
                   0
                   0
                   0
                   0
                   0
                   0
                   0
                   0
                   0
                   0
                   0
                   0
                   0
                   0
                   0
                   0
                   0
                   0
                   0
                   0
                   0
                   0
                   0
                   0
                   0
                   0
                   0
                   0
                   0
                   0
                   0
                   0
                   0
                   0
                   0
                   0
                   0
                   0
                   0
                   0
                   0
                   0
                   0
                   0
                   0
                   0
                   0
                   0
                   0
                   0
                   0
                   0
                   0
                   0
                   0
                   0
                   0
                   0
                   0
                   0
                   0
                   0
                   0
                   0
                   0
                   0
                   0
                   0
                   0
                   0
                   0
                   0
                   0
                   0
                   0
                   0
                   0
                   0
                   0
                   0
                   0
                   0
                   0
                   0
                   0
                   0
                   0
                   0
                   0
                   0
                   0
                   0
                   0
                   0
                   0
                   0
                   0
                   0
                   0
                   0
                   0
                   0
                   0
                   0
                   0
                   0
                   0
                   0
                   0
                   0
                   0
                   0
                   0
                   0
                   0
                   0
                   0
                   0
                   0
                   0
                   0
                   0
                   0
                   0
                   0
                   0
                   0
                   0
                   0
                   0
                   0
                   0
                   0
                   0
                   0
                   0
                   0
                   0
                   0
                   0
                   0
                   0
                   0
                   0
                   0
                   0
                   0
                   0
                   0
                   0
                   0
  
SCALARS                       fixity_y  double 1
LOOKUP_TABLE default
                   0
                   0
                   0
                   0
                   0
                   0
                   0
                   0
                   0
                   0
                   0
                   0
                   0
                   0
                   0
                   0
                   0
                   0
                   0
                   0
                   0
                   0
                   0
                   0
                   0
                   0
                   0
                   0
                   0
                   0
                   0
                   0
                   0
                   0
                   0
                   0
                   0
                   0
                   0
                   0
                   0
                   0
                   0
                   0
                   0
                   0
                   0
                   0
                   0
                   0
                   0
                   0
                   0
                   0
                   0
                   0
                   0
                   0
                   0
                   0
                   0
                   0
                   0
                   0
                   0
                   0
                   0
                   0
                   0
                   0
                   0
                   0
                   0
                   0
                   0
                   0
                   0
                   0
                   0
                   0
                   0
                   0
                   0
                   0
                   0
                   0
                   0
                   0
                   0
                   0
                   0
                   0
                   0
                   0
                   0
                   0
                   0
                   0
                   0
                   0
                   0
                   0
                   0
                   0
                   0
                   0
                   0
                   0
                   0
                   0
                   0
                   0
                   0
                   0
                   0
                   0
                   0
                   0
                   0
                   0
                   0
                   0
                   0
                   0
                   0
                   0
                   0
                   0
                   0
                   0
                   0
                   0
                   0
                   0
                   0
                   0
                   0
                   0
                   0
                   0
                   0
                   0
                   0
                   0
                   0
                   0
                   0
                   0
                   0
                   0
                   0
                   0
                   0
                   0
                   0
                   0
                   0
                   0
                   0
                   0
                   0
                   0
                   0
                   0
                   0
                   0
                   0
                   0
                   0
                   0
                   0
                   0
                   0
                   0
                   0
                   0
                   0
                   0
                   0
                   0
                   0
                   0
                   0
                   0
                   0
                   0
                   0
                   0
                   0
                   0
                   0
                   0
                   0
                   0
                   0
                   0
                   0
                   0
                   0
                   0
                   0
                   0
                   0
                   0
                   0
                   0
                   0
                   0
                   0
                   0
                   0
                   0
                   0
                   0
                   0
                   0
                   0
                   0
                   0
                   0
                   0
                   0
                   0
                   0
                   0
                   0
                   0
                   0
                   0
                   0
                   0
                   0
                   0
                   0
                   0
                   0
                   0
                   0
                   0
                   0
                   0
                   0
                   0
                   0
                   0
                   0
                   0
                   0
                   0
                   0
                   0
                   0
                   0
                   0
                   0
                   0
                   0
                   0
                   0
                   0
                   0
                   0
                   0
                   0
                   0
                   0
                   0
                   0
                   0
                   0
                   0
                   0
                   0
                   0
                   0
                   0
                   0
                   0
                   0
                   0
                   0
                   0
                   0
                   0
                   0
                   0
                   0
                   0
                   0
                   0
                   0
                   0
                   0
                   0
                   0
                   0
                   0
                   0
                   0
                   0
                   0
                   0
                   0
                   0
                   0
                   0
                   0
                   0
                   0
                   0
                   0
                   0
                   0
                   0
                   0
                   0
                   0
                   0
                   0
                   0
                   0
                   0
                   0
                   0
                   0
                   0
                   0
                   0
                   0
                   0
                   0
                   0
                   0
                   0
                   0
                   0
                   0
                   0
                   0
                   0
                   0
                   0
                   0
                   0
                   0
                   0
                   0
                   0
                   0
                   0
                   0
                   0
                   0
                   0
                   0
                   0
                   0
                   0
                   0
                   0
                   0
                   0
                   0
                   0
                   0
                   0
                   0
                   0
                   0
                   0
                   0
                   0
                   0
                   0
                   0
                   0
                   0
                   0
                   0
                   0
                   0
                   0
                   0
                   0
                   0
                   0
                   0
                   0
                   0
                   0
                   0
                   0
                   0
                   0
                   0
                   0
                   0
                   0
                   0
                   0
                   0
                   0
                   0
                   0
                   0
                   0
                   0
                   0
                   0
                   0
                   0
                   0
                   0
                   0
                   0
                   0
                   0
                   0
                   0
                   0
                   0
                   0
                   0
                   0
                   0
                   0
                   0
                   0
                   0
                   0
                   0
                   0
                   0
                   0
                   0
                   0
                   0
                   0
                   0
                   0
                   0
                   0
                   0
                   0
                   0
                   0
                   0
                   0
                   0
                   0
                   0
                   0
                   0
                   0
                   0
                   0
                   0
                   0
                   0
                   0
                   0
                   0
                   0
                   0
                   0
                   0
                   0
                   0
                   0
                   0
                   0
                   0
                   0
                   0
                   0
                   0
                   0
                   0
                   0
                   0
                   0
                   0
                   0
                   0
                   0
                   0
                   0
                   0
                   0
                   0
                   0
                   0
                   0
                   0
                   0
                   0
                   0
                   0
                   0
                   0
                   0
                   0
                   0
                   0
                   0
                   0
                   0
                   0
                   0
                   0
                   0
                   0
                   0
                   0
                   0
                   0
                   0
                   0
                   0
                   0
                   0
                   0
                   0
                   0
                   0
                   0
                   0
                   0
                   0
                   0
                   0
                   0
                   0
                   0
                   0
                   0
                   0
                   0
                   0
                   0
                   0
                   0
                   0
                   0
                   0
                   0
                   0
                   0
                   0
                   0
                   0
                   0
                   0
                   0
                   0
                   0
                   0
                   0
                   0
                   0
                   0
                   0
                   0
                   0
                   0
                   0
                   0
                   0
                   0
                   0
                   0
                   0
                   0
                   0
                   0
                   0
                   0
                   0
                   0
                   0
                   0
                   0
                   0
                   0
                   0
                   0
                   0
                   0
                   0
                   0
                   0
                   0
                   0
                   0
                   0
                   0
                   0
                   0
                   0
                   0
                   0
                   0
                   0
                   0
                   0
                   0
                   0
                   0
                   0
                   0
                   0
                   0
                   0
                   0
                   0
                   0
                   0
                   0
                   0
                   0
                   0
                   0
                   0
                   0
                   0
                   0
                   0
                   0
                   0
                   0
                   0
                   0
                   0
                   0
                   0
                   0
                   0
                   0
                   0
                   0
                   0
                   0
                   0
                   0
                   0
                   0
                   0
                   0
                   0
                   0
                   0
                   0
                   0
                   0
                   0
                   0
                   0
                   0
                   0
                   0
                   0
                   0
                   0
                   0
                   0
                   0
                   0
                   0
                   0
                   0
                   0
                   0
                   0
                   0
                   0
                   0
                   0
                   0
                   0
                   0
                   0
                   0
                   0
                   0
                   0
                   0
                   0
                   0
                   0
                   0
                   0
                   0
                   0
                   0
                   0
                   0
                   0
                   0
                   0
                   0
                   0
                   0
                   0
                   0
                   0
                   0
                   0
                   0
                   0
                   0
                   0
                   0
                   0
                   0
                   0
                   0
                   0
                   0
                   0
                   0
                   0
                   0
                   0
                   0
                   0
                   0
                   0
                   0
                   0
                   0
                   0
                   0
                   0
                   0
                   0
                   0
                   0
                   0
                   0
                   0
                   0
                   0
                   0
                   0
                   0
                   0
                   0
                   0
                   0
                   0
                   0
                   0
                   0
                   0
                   0
                   0
                   0
                   0
                   0
                   0
                   0
                   0
                   0
                   0
                   0
                   0
                   0
                   0
                   0
                   0
                   0
                   0
                   0
                   0
                   0
                   0
                   0
                   0
                   0
                   0
                   0
                   0
                   0
                   0
                   0
                   0
                   0
                   0
                   0
                   0
                   0
                   0
                   0
                   0
                   0
                   0
                   0
                   0
                   0
                   0
                   0
                   0
                   0
                   0
                   0
                   0
                   0
                   0
                   0
                   0
                   0
                   0
                   0
                   0
                   0
                   0
                   0
                   0
                   0
                   0
                   0
                   0
                   0
                   0
                   0
                   0
                   0
                   0
                   0
                   0
                   0
                   0
                   0
                   0
                   0
                   0
                   0
                   0
                   0
                   0
                   0
                   0
                   0
                   0
                   0
                   0
                   0
                   0
                   0
                   0
                   0
                   0
                   0
                   0
                   0
                   0
                   0
                   0
                   0
                   0
                   0
                   0
                   0
                   0
                   0
                   0
                   0
                   0
                   0
                   0
                   0
                   0
                   0
                   0
                   0
                   0
                   0
                   0
                   0
                   0
                   0
                   0
                   0
                   0
                   0
                   0
                   0
                   0
                   0
                   0
                   0
                   0
                   0
                   0
                   0
                   0
                   0
                   0
                   0
                   0
                   0
                   0
                   0
                   0
                   0
                   0
                   0
                   0
                   0
                   0
                   0
                   0
                   0
                   0
                   0
                   0
                   0
                   0
                   0
                   0
                   0
                   0
                   0
                   0
                   0
                   0
                   0
                   0
                   0
                   0
                   0
                   0
                   0
                   0
                   0
                   0
                   0
                   0
                   0
                   0
                   0
                   0
                   0
                   0
                   0
                   0
                   0
                   0
                   0
                   0
                   0
                   0
                   0
                   0
                   0
                   0
                   0
                   0
                   0
                   0
                   0
                   0
                   0
                   0
                   0
                   0
                   0
                   0
                   0
                   0
                   0
                   0
                   0
                   0
                   0
                   0
                   0
                   0
                   0
                   0
                   0
                   0
                   0
                   0
                   0
                   0
                   0
                   0
                   0
                   0
                   0
                   0
                   0
                   0
                   0
                   0
                   0
                   0
                   0
                   0
                   0
                   0
                   0
                   0
                   0
                   0
                   0
                   0
                   0
                   0
                   0
                   0
                   0
                   0
                   0
                   0
                   0
                   0
                   0
                   0
                   0
                   0
                   0
                   0
                   0
                   0
                   0
                   0
                   0
                   0
                   0
                   0
                   0
                   0
                   0
                   0
                   0
                   0
                   0
                   0
                   0
                   0
                   0
                   0
                   0
                   0
                   0
                   0
                   0
                   0
                   0
                   0
                   0
                   0
                   0
                   0
                   0
                   0
                   0
                   0
                   0
                   0
                   0
                   0
                   0
                   0
                   0
                   0
                   0
                   0
                   0
                   0
                   0
                   0
                   0
                   0
                   0
                   0
                   0
                   0
                   0
                   0
                   0
                   0
                   0
                   0
                   0
                   0
                   0
                   0
                   0
                   0
                   0
                   0
                   0
                   0
                   0
                   0
                   0
                   0
                   0
                   0
                   0
                   0
                   0
                   0
                   0
                   0
                   0
                   0
                   0
                   0
                   0
                   0
                   0
                   0
                   0
                   0
                   0
                   0
                   0
                   0
                   0
                   0
                   0
                   0
                   0
                   0
                   0
                   0
                   0
                   0
                   0
                   0
                   0
                   0
                   0
                   0
                   0
                   0
                   0
                   0
                   0
                   0
                   0
                   0
                   0
                   0
                   0
                   0
                   0
                   0
                   0
                   0
                   0
                   0
                   0
                   0
                   0
                   0
                   0
                   0
                   0
                   0
                   0
                   0
                   0
                   0
                   0
                   0
                   0
                   0
                   0
                   0
                   0
                   0
                   0
                   0
                   0
                   0
                   0
                   0
                   0
                   0
                   0
                   0
                   0
                   0
                   0
                   0
                   0
                   0
                   0
                   0
                   0
                   0
                   0
                   0
                   0
                   0
                   0
                   0
                   0
                   0
                   0
                   0
                   0
                   0
                   0
                   0
                   0
                   0
                   0
                   0
                   0
                   0
                   0
                   0
                   0
                   0
                   0
                   0
                   0
                   0
                   0
                   0
                   0
                   0
                   0
                   0
                   0
                   0
                   0
                   0
                   0
                   0
                   0
                   0
                   0
                   0
                   0
                   0
                   0
                   0
                   0
                   0
                   0
                   0
                   0
                   0
                   0
                   0
                   0
                   0
                   0
                   0
                   0
                   0
                   0
                   0
                   0
                   0
                   0
                   0
                   0
                   0
                   0
                   0
                   0
                   0
                   0
                   0
                   0
                   0
                   0
                   0
                   0
                   0
                   0
                   0
                   0
                   0
                   0
                   0
                   0
                   0
                   0
                   0
                   0
                   0
                   0
                   0
                   0
                   0
                   0
                   0
                   0
                   0
                   0
                   0
                   0
                   0
                   0
                   0
                   0
                   0
                   0
                   0
                   0
                   0
                   0
                   0
                   0
                   0
                   0
                   0
                   0
                   0
                   0
                   0
                   0
                   0
                   0
                   0
                   0
                   0
                   0
                   0
                   0
                   0
                   0
                   0
                   0
                   0
                   0
                   0
                   0
                   0
                   0
                   0
                   0
                   0
                   0
                   0
                   0
                   0
                   0
                   0
                   0
                   0
                   0
                   0
                   0
                   0
                   0
                   0
                   0
                   0
                   0
                   0
                   0
                   0
                   0
                   0
                   0
                   0
                   0
                   0
                   0
                   0
                   0
                   0
                   0
                   0
                   0
                   0
                   0
                   0
                   0
                   0
                   0
                   0
                   0
                   0
                   0
                   0
                   0
                   0
                   0
                   0
                   0
                   0
                   0
                   0
                   0
                   0
                   0
                   0
                   0
                   0
                   0
                   0
                   0
                   0
                   0
                   0
                   0
                   0
                   0
                   0
                   0
                   0
                   0
                   0
                   0
                   0
                   0
                   0
                   0
                   0
                   0
                   0
                   0
                   0
                   0
                   0
                   0
                   0
                   0
                   0
                   0
                   0
                   0
                   0
                   0
                   0
                   0
                   0
                   0
                   0
                   0
                   0
                   0
                   0
                   0
                   0
                   0
                   0
                   0
                   0
                   0
                   0
                   0
                   0
                   0
                   0
                   0
                   0
                   0
                   0
                   0
                   0
                   0
                   0
                   0
                   0
                   0
                   0
                   0
                   0
                   0
                   0
                   0
                   0
                   0
                   0
                   0
                   0
                   0
                   0
                   0
                   0
                   0
                   0
                   0
                   0
                   0
                   0
                   0
                   0
                   0
                   0
                   0
                   0
                   0
                   0
                   0
                   0
                   0
                   0
                   0
                   0
                   0
                   0
                   0
                   0
                   0
                   0
                   0
                   0
                   0
                   0
                   0
                   0
                   0
                   0
                   0
                   0
                   0
                   0
                   0
                   0
                   0
                   0
                   0
                   0
                   0
                   0
                   0
                   0
                   0
                   0
                   0
                   0
                   0
                   0
                   0
                   0
                   0
                   0
                   0
                   0
                   0
                   0
                   0
                   0
                   0
                   0
                   0
                   0
                   0
                   0
                   0
                   0
                   0
                   0
                   0
                   0
                   0
                   0
                   0
                   0
                   0
                   0
                   0
                   0
                   0
                   0
                   0
                   0
                   0
                   0
                   0
                   0
                   0
                   0
                   0
                   0
                   0
                   0
                   0
                   0
                   0
                   0
                   0
                   0
                   0
                   0
                   0
                   0
                   0
                   0
                   0
                   0
                   0
                   0
                   0
                   0
                   0
                   0
                   0
                   0
                   0
                   0
                   0
                   0
                   0
                   0
                   0
                   0
                   0
                   0
                   0
                   0
                   0
                   0
                   0
                   0
                   0
                   0
                   0
                   0
                   0
                   0
                   0
                   0
                   0
                   0
                   0
                   0
                   0
                   0
                   0
                   0
                   0
                   0
                   0
                   0
                   0
                   0
                   0
                   0
                   0
                   0
                   0
                   0
                   0
                   0
                   0
                   0
                   0
                   0
                   0
                   0
                   0
                   0
                   0
                   0
                   0
                   0
                   0
                   0
                   0
                   0
                   0
                   0
                   0
                   0
                   0
                   0
                   0
                   0
                   0
                   0
                   0
                   0
                   0
                   0
                   0
                   0
                   0
                   0
                   0
                   0
                   0
                   0
                   0
                   0
                   0
                   0
                   0
                   0
                   0
                   0
                   0
                   0
                   0
                   0
                   0
                   0
                   0
                   0
                   0
                   0
                   0
                   0
                   0
                   0
                   0
                   0
                   0
                   0
                   0
                   0
                   0
                   0
                   0
                   0
                   0
                   0
                   0
                   0
                   0
                   0
                   0
                   0
                   0
                   0
                   0
                   0
                   0
                   0
                   0
                   0
                   0
                   0
                   0
                   0
                   0
                   0
                   0
                   0
                   0
                   0
                   0
                   0
                   0
                   0
                   0
                   0
                   0
                   0
                   0
                   0
                   0
                   0
                   0
                   0
                   0
                   0
                   0
                   0
                   0
                   0
                   0
                   0
                   0
                   0
                   0
                   0
                   0
                   0
                   0
                   0
                   0
                   0
                   0
                   0
                   0
                   0
                   0
                   0
                   0
                   0
                   0
                   0
                   0
                   0
                   0
                   0
                   0
                   0
                   0
                   0
                   0
                   0
                   0
                   0
                   0
                   0
                   0
                   0
                   0
                   0
                   0
                   0
                   0
                   0
                   0
                   0
                   0
                   0
                   0
                   0
                   0
                   0
                   0
                   0
                   0
                   0
                   0
                   0
                   0
                   0
                   0
                   0
                   0
                   0
                   0
                   0
                   0
                   0
                   0
                   0
                   0
                   0
                   0
                   0
                   0
                   0
                   0
                   0
                   0
                   0
                   0
                   0
                   0
                   0
                   0
                   0
                   0
                   0
                   0
                   0
                   0
                   0
                   0
                   0
                   0
                   0
                   0
                   0
                   0
                   0
                   0
                   0
                   0
                   0
                   0
                   0
                   0
                   0
                   0
                   0
                   0
                   0
                   0
                   0
                   0
                   0
                   0
                   0
                   0
                   0
                   0
                   0
                   0
                   0
                   0
                   0
                   0
                   0
                   0
                   0
                   0
                   0
                   0
                   0
                   0
                   0
                   0
                   0
                   0
                   0
                   0
                   0
                   0
                   0
                   0
                   0
                   0
                   0
                   0
                   0
                   0
                   0
                   0
                   0
                   0
                   0
                   0
                   0
                   0
                   0
                   0
                   0
                   0
                   0
                   0
                   0
                   0
                   0
                   0
                   0
                   0
                   0
                   0
                   0
                   0
                   0
                   0
                   0
                   0
                   0
                   0
                   0
                   0
                   0
                   0
                   0
  
SCALARS                       fixity_z  double 1
LOOKUP_TABLE default
                   0
                   0
                   0
                   0
                   1
                   1
                   1
                   1
                   0
                   0
                   1
                   1
                   0
                   0
                   1
                   1
                   0
                   0
                   1
                   1
                   0
                   0
                   0
                   1
                   1
                   1
                   0
                   0
                   1
                   1
                   0
                   0
                   0
                   1
                   1
                   1
                   0
                   0
                   1
                   1
                   0
                   0
                   1
                   1
                   0
                   0
                   1
                   1
                   0
                   1
                   0
                   1
                   0
                   1
                   0
                   1
                   0
                   0
                   1
                   1
                   0
                   0
                   1
                   1
                   0
                   1
                   0
                   1
                   0
                   0
                   1
                   1
                   0
                   1
                   0
                   1
                   0
                   1
                   0
                   1
                   0
                   0
                   1
                   1
                   0
                   1
                   0
                   1
                   0
                   1
                   0
                   0
                   1
                   1
                   0
                   1
                   0
                   1
                   0
                   1
                   0
                   0
                   1
                   1
                   0
                   0
                   1
                   1
                   0
                   1
                   0
                   1
                   0
                   1
                   0
                   1
                   0
                   1
                   0
                   1
                   0
                   1
                   0
                   1
                   0
                   1
                   0
                   1
                   0
                   1
                   0
                   1
                   0
                   1
                   0
                   1
                   0
                   1
                   0
                   1
                   0
                   1
                   0
                   1
                   0
                   1
                   0
                   1
                   0
                   1
                   0
                   1
                   0
                   1
                   0
                   1
                   0
                   0
                   0
                   0
                   0
                   0
                   0
                   0
                   0
                   0
                   0
                   0
                   0
                   0
                   0
                   0
                   0
                   0
                   0
                   0
                   0
                   0
                   0
                   0
                   0
                   0
                   0
                   0
                   0
                   0
                   0
                   0
                   0
                   0
                   0
                   0
                   0
                   0
                   0
                   0
                   0
                   0
                   0
                   0
                   0
                   0
                   0
                   0
                   0
                   0
                   0
                   0
                   0
                   0
                   0
                   0
                   0
                   0
                   0
                   0
                   0
                   0
                   0
                   0
                   0
                   0
                   0
                   0
                   0
                   0
                   0
                   0
                   0
                   0
                   0
                   0
                   0
                   0
                   0
                   0
                   0
                   0
                   0
                   0
                   0
                   0
                   0
                   0
                   0
                   0
                   0
                   0
                   0
                   0
                   0
                   0
                   0
                   0
                   0
                   0
                   0
                   0
                   0
                   0
                   0
                   0
                   0
                   0
                   0
                   0
                   0
                   0
                   0
                   0
                   0
                   0
                   0
                   0
                   0
                   0
                   0
                   0
                   0
                   0
                   0
                   0
                   0
                   0
                   0
                   0
                   0
                   0
                   0
                   0
                   0
                   0
                   0
                   0
                   0
                   0
                   0
                   0
                   0
                   0
                   0
                   0
                   0
                   0
                   0
                   0
                   0
                   0
                   0
                   0
                   0
                   0
                   0
                   0
                   0
                   0
                   0
                   0
                   0
                   0
                   0
                   0
                   0
                   0
                   0
                   0
                   0
                   0
                   0
                   0
                   0
                   0
                   0
                   0
                   0
                   0
                   0
                   0
                   0
                   0
                   0
                   0
                   0
                   0
                   0
                   0
                   0
                   0
                   0
                   0
                   0
                   0
                   0
                   0
                   0
                   0
                   0
                   0
                   0
                   0
                   0
                   0
                   0
                   0
                   0
                   0
                   0
                   0
                   0
                   0
                   0
                   0
                   0
                   0
                   0
                   0
                   0
                   0
                   0
                   0
                   0
                   0
                   0
                   0
                   0
                   0
                   0
                   0
                   0
                   0
                   0
                   0
                   0
                   0
                   0
                   0
                   0
                   0
                   0
                   0
                   0
                   0
                   0
                   0
                   0
                   0
                   0
                   0
                   0
                   0
                   0
                   0
                   0
                   0
                   0
                   0
                   0
                   0
                   0
                   0
                   0
                   0
                   0
                   0
                   0
                   0
                   0
                   0
                   0
                   0
                   0
                   0
                   0
                   0
                   0
                   0
                   0
                   0
                   0
                   0
                   0
                   0
                   0
                   0
                   0
                   0
                   0
                   0
                   0
                   0
                   0
                   0
                   0
                   0
                   0
                   0
                   0
                   0
                   0
                   0
                   0
                   0
                   0
                   0
                   0
                   0
                   0
                   0
                   0
                   0
                   0
                   0
                   0
                   0
                   0
                   0
                   0
                   0
                   0
                   0
                   0
                   0
                   0
                   0
                   0
                   0
                   0
                   0
                   0
                   0
                   0
                   0
                   0
                   0
                   0
                   0
                   0
                   0
                   0
                   0
                   0
                   0
                   0
                   0
                   0
                   0
                   0
                   0
                   0
                   0
                   0
                   0
                   0
                   0
                   0
                   0
                   0
                   0
                   0
                   0
                   0
                   0
                   0
                   0
                   0
                   0
                   0
                   0
                   0
                   0
                   0
                   0
                   0
                   0
                   0
                   0
                   0
                   0
                   0
                   0
                   0
                   0
                   0
                   0
                   0
                   0
                   0
                   0
                   0
                   0
                   0
                   0
                   0
                   0
                   0
                   0
                   0
                   0
                   0
                   0
                   0
                   0
                   0
                   0
                   0
                   0
                   0
                   0
                   0
                   0
                   0
                   0
                   0
                   0
                   0
                   0
                   0
                   0
                   0
                   0
                   0
                   0
                   0
                   0
                   0
                   0
                   0
                   0
                   0
                   0
                   0
                   0
                   0
                   0
                   0
                   0
                   0
                   0
                   0
                   0
                   0
                   0
                   0
                   0
                   0
                   0
                   0
                   0
                   0
                   0
                   0
                   0
                   0
                   0
                   0
                   0
                   0
                   0
                   0
                   0
                   0
                   0
                   0
                   0
                   0
                   0
                   0
                   0
                   0
                   0
                   0
                   0
                   0
                   0
                   0
                   0
                   0
                   0
                   0
                   0
                   0
                   0
                   0
                   0
                   0
                   0
                   0
                   0
                   0
                   0
                   0
                   0
                   0
                   0
                   0
                   0
                   0
                   0
                   0
                   0
                   0
                   0
                   0
                   0
                   0
                   0
                   0
                   0
                   0
                   0
                   0
                   0
                   0
                   0
                   0
                   0
                   0
                   0
                   0
                   0
                   0
                   0
                   0
                   0
                   0
                   0
                   0
                   0
                   0
                   0
                   0
                   0
                   0
                   0
                   0
                   0
                   0
                   0
                   0
                   0
                   0
                   0
                   0
                   0
                   0
                   0
                   0
                   0
                   0
                   0
                   0
                   0
                   0
                   0
                   0
                   0
                   0
                   0
                   0
                   0
                   0
                   0
                   0
                   0
                   0
                   0
                   0
                   0
                   0
                   0
                   0
                   0
                   0
                   0
                   0
                   0
                   0
                   0
                   0
                   0
                   0
                   0
                   0
                   0
                   0
                   0
                   0
                   0
                   0
                   0
                   0
                   0
                   0
                   0
                   0
                   0
                   0
                   0
                   0
                   0
                   0
                   0
                   0
                   0
                   0
                   0
                   0
                   0
                   0
                   0
                   0
                   0
                   0
                   0
                   0
                   0
                   0
                   0
                   0
                   0
                   0
                   0
                   0
                   0
                   0
                   0
                   0
                   0
                   0
                   0
                   0
                   0
                   0
                   0
                   0
                   0
                   0
                   0
                   0
                   0
                   0
                   0
                   0
                   0
                   0
                   0
                   0
                   0
                   0
                   0
                   0
                   0
                   0
                   0
                   0
                   0
                   0
                   0
                   0
                   0
                   0
                   0
                   0
                   0
                   0
                   0
                   0
                   0
                   0
                   0
                   0
                   0
                   0
                   0
                   0
                   0
                   0
                   0
                   0
                   0
                   0
                   0
                   0
                   0
                   0
                   0
                   0
                   0
                   0
                   0
                   0
                   0
                   0
                   0
                   0
                   0
                   0
                   0
                   0
                   0
                   0
                   0
                   0
                   0
                   0
                   0
                   0
                   0
                   0
                   0
                   0
                   0
                   0
                   0
                   0
                   0
                   0
                   0
                   0
                   0
                   0
                   0
                   0
                   0
                   0
                   0
                   0
                   0
                   0
                   0
                   0
                   0
                   0
                   0
                   0
                   0
                   0
                   0
                   0
                   0
                   0
                   0
                   0
                   0
                   0
                   0
                   0
                   0
                   0
                   0
                   0
                   0
                   0
                   0
                   0
                   0
                   0
                   0
                   0
                   0
                   0
                   0
                   0
                   0
                   0
                   0
                   0
                   0
                   0
                   0
                   0
                   0
                   0
                   0
                   0
                   0
                   0
                   0
                   0
                   0
                   0
                   0
                   0
                   0
                   0
                   0
                   0
                   0
                   0
                   0
                   0
                   0
                   0
                   0
                   0
                   0
                   0
                   0
                   0
                   0
                   0
                   0
                   0
                   0
                   0
                   0
                   0
                   0
                   0
                   0
                   0
                   0
                   0
                   0
                   0
                   0
                   0
                   0
                   0
                   0
                   0
                   0
                   0
                   0
                   0
                   0
                   0
                   0
                   0
                   0
                   0
                   0
                   0
                   0
                   0
                   0
                   0
                   0
                   0
                   0
                   0
                   0
                   0
                   0
                   0
                   0
                   0
                   0
                   0
                   0
                   0
                   0
                   0
                   0
                   0
                   0
                   0
                   0
                   0
                   0
                   0
                   0
                   0
                   0
                   0
                   0
                   0
                   0
                   0
                   0
                   0
                   0
                   0
                   0
                   0
                   0
                   0
                   0
                   0
                   0
                   0
                   0
                   0
                   0
                   0
                   0
                   0
                   0
                   0
                   0
                   0
                   0
                   0
                   0
                   0
                   0
                   0
                   0
                   0
                   0
                   0
                   0
                   0
                   0
                   0
                   0
                   0
                   0
                   0
                   0
                   0
                   0
                   0
                   0
                   0
                   0
                   0
                   0
                   0
                   0
                   0
                   0
                   0
                   0
                   0
                   0
                   0
                   0
                   0
                   0
                   0
                   0
                   0
                   0
                   0
                   0
                   0
                   0
                   0
                   0
                   0
                   0
                   0
                   0
                   0
                   0
                   0
                   0
                   0
                   0
                   0
                   0
                   0
                   0
                   0
                   0
                   0
                   0
                   0
                   0
                   0
                   0
                   0
                   0
                   0
                   0
                   0
                   0
                   0
                   0
                   0
                   0
                   0
                   0
                   0
                   0
                   0
                   0
                   0
                   0
                   0
                   0
                   0
                   0
                   0
                   0
                   0
                   0
                   0
                   0
                   0
                   0
                   0
                   0
                   0
                   0
                   0
                   0
                   0
                   0
                   0
                   0
                   0
                   0
                   0
                   0
                   0
                   0
                   0
                   0
                   0
                   0
                   0
                   0
                   0
                   0
                   0
                   0
                   0
                   0
                   0
                   0
                   0
                   0
                   0
                   0
                   0
                   0
                   0
                   0
                   0
                   0
                   0
                   0
                   0
                   0
                   0
                   0
                   0
                   0
                   0
                   0
                   0
                   0
                   0
                   0
                   0
                   0
                   0
                   0
                   0
                   0
                   0
                   0
                   0
                   0
                   0
                   0
                   0
                   0
                   0
                   0
                   0
                   0
                   0
                   0
                   0
                   0
                   0
                   0
                   0
                   0
                   0
                   0
                   0
                   0
                   0
                   0
                   0
                   0
                   0
                   0
                   0
                   0
                   0
                   0
                   0
                   0
                   0
                   0
                   0
                   0
                   0
                   0
                   0
                   0
                   0
                   0
                   0
                   0
                   0
                   0
                   0
                   0
                   0
                   0
                   0
                   0
                   0
                   0
                   0
                   0
                   0
                   0
                   0
                   0
                   0
                   0
                   0
                   0
                   0
                   0
                   0
                   0
                   0
                   0
                   0
                   0
                   0
                   0
                   0
                   0
                   0
                   0
                   0
                   0
                   0
                   0
                   0
                   0
                   0
                   0
                   0
                   0
                   0
                   0
                   0
                   0
                   0
                   0
                   0
                   0
                   0
                   0
                   0
                   0
                   0
                   0
                   0
                   0
                   0
                   0
                   0
                   0
                   0
                   0
                   0
                   0
                   0
                   0
                   0
                   0
                   0
                   0
                   0
                   0
                   0
                   0
                   0
                   0
                   0
                   0
                   0
                   0
                   0
                   0
                   0
                   0
                   0
                   0
                   0
                   0
                   0
                   0
                   0
                   0
                   0
                   0
                   0
                   0
                   0
                   0
                   0
                   0
                   0
                   0
                   0
                   0
                   0
                   0
                   0
                   0
                   0
                   0
                   0
                   0
                   0
                   0
                   0
                   0
                   0
                   0
                   0
                   0
                   0
                   0
                   0
                   0
                   0
                   0
                   0
                   0
                   0
                   0
                   0
                   0
                   0
                   0
                   0
                   0
                   0
                   0
                   0
                   0
                   0
                   0
                   0
                   0
                   0
                   0
                   0
                   0
                   0
                   0
                   0
                   0
                   0
                   0
                   0
                   0
                   0
                   0
                   0
                   0
                   0
                   0
                   0
                   0
                   0
                   0
                   0
                   0
                   0
                   0
                   0
                   0
                   0
                   0
                   0
                   0
                   0
                   0
                   0
                   0
                   0
                   0
                   0
                   0
                   0
                   0
                   0
                   0
                   0
                   0
                   0
                   0
                   0
                   0
                   0
                   0
                   0
                   0
                   0
                   0
                   0
                   0
                   0
                   0
                   0
                   0
                   0
                   0
                   0
                   0
                   0
                   0
                   0
                   0
                   0
                   0
                   0
                   0
                   0
                   0
                   0
                   0
                   0
                   0
                   0
                   0
                   0
                   0
                   0
                   0
                   0
                   0
                   0
                   0
                   0
                   0
                   0
                   0
                   0
                   0
                   0
                   0
                   0
                   0
                   0
                   0
                   0
                   0
                   0
                   0
                   0
                   0
                   0
                   0
                   0
                   0
                   0
                   0
                   0
                   0
                   0
                   0
                   0
                   0
                   0
                   0
                   0
                   0
                   0
                   0
                   0
                   0
                   0
                   0
                   0
                   0
                   0
                   0
                   0
                   0
                   0
                   0
                   0
                   0
                   0
                   0
                   0
                   0
                   0
                   0
                   0
                   0
                   0
                   0
                   0
                   0
                   0
                   0
                   0
                   0
                   0
                   0
                   0
                   0
                   0
                   0
                   0
                   0
                   0
                   0
                   0
                   0
                   0
                   0
                   0
                   0
                   0
                   0
                   0
                   0
                   0
                   0
                   0
                   0
                   0
                   0
                   0
                   0
                   0
                   0
                   0
                   0
                   0
                   0
                   0
                   0
                   0
                   0
                   0
                   0
                   0
                   0
                   0
                   0
                   0
                   0
                   0
                   0
                   0
                   0
                   0
                   0
                   0
                   0
                   0
                   0
                   0
                   0
                   0
                   0
                   0
                   0
                   0
                   0
                   0
                   0
                   0
                   0
                   0
                   0
                   0
                   0
                   0
                   0
                   0
                   0
                   0
                   0
                   0
                   0
                   0
                   0
                   0
                   0
                   0
                   0
                   0
                   0
                   0
                   0
                   0
                   0
                   0
                   0
                   0
                   0
                   0
                   0
                   0
                   0
                   0
                   0
                   0
                   0
                   0
                   0
                   0
                   0
                   0
                   0
                   0
                   0
                   0
                   0
                   0
                   0
                   0
                   0
                   0
                   0
                   0
                   0
                   0
                   0
                   0
                   0
                   0
                   0
                   0
                   0
                   0
                   0
                   0
                   0
                   0
                   0
                   0
                   0
                   0
                   0
                   0
                   0
                   0
                   0
                   0
                   0
                   0
                   0
                   0
                   0
                   0
                   0
                   0
                   0
                   0
                   0
                   0
                   0
                   0
                   0
                   0
                   0
                   0
                   0
                   0
                   0
                   0
                   0
                   0
                   0
                   0
                   0
                   0
                   0
                   0
                   0
                   0
                   0
                   0
                   0
                   0
                   0
                   0
                   0
                   0
                   0
                   0
                   0
                   0
                   0
                   0
                   0
                   0
                   0
                   0
                   0
                   0
                   0
                   0
                   0
                   0
                   0
                   0
                   0
                   0
                   0
                   0
                   0
                   0
                   0
                   0
                   0
                   0
                   0
                   0
                   0
                   0
                   0
                   0
                   0
                   0
                   0
                   0
                   0
                   0
                   0
                   0
                   0
                   0
                   0
                   0
                   0
                   0
                   0
                   0
                   0
                   0
                   0
                   0
                   0
                   0
                   0
                   0
                   0
                   0
                   0
                   0
                   0
                   0
                   0
                   0
                   0
                   0
                   0
                   0
                   0
                   0
                   0
                   0
                   0
                   0
                   0
                   0
                   0
                   0
                   0
                   0
                   0
                   0
                   0
                   0
                   0
                   0
                   0
                   0
                   0
                   0
                   0
                   0
                   0
                   0
                   0
                   0
                   0
                   0
                   0
                   0
                   0
                   0
                   0
                   0
                   0
                   0
                   0
                   0
                   0
                   0
                   0
                   0
                   0
                   0
                   0
                   0
                   0
                   0
                   0
                   0
                   0
                   0
                   0
                   0
                   0
                   0
                   0
                   0
                   0
                   0
                   0
                   0
                   0
                   0
                   0
                   0
                   0
                   0
                   0
                   0
                   0
                   0
                   0
                   0
                   0
                   0
                   0
                   0
                   0
                   0
                   0
                   0
                   0
                   0
                   0
                   0
                   0
                   0
                   0
                   0
                   0
                   0
                   0
                   0
                   0
                   0
                   0
                   0
                   0
                   0
                   0
                   0
                   0
                   0
                   0
                   0
                   0
                   0
                   0
                   0
                   0
                   0
                   0
                   0
                   0
                   0
                   0
                   0
                   0
                   0
                   0
                   0
                   0
                   0
                   0
                   0
                   0
                   0
                   0
  
SCALARS                         Ispace  double 1
LOOKUP_TABLE default
                  12
                  12
                  12
                  12
                  12
                  12
                  12
                  12
                  12
                  12
                  12
                  12
                  12
                  11
                  12
                  11
                  11
                  11
                  11
                  11
                  11
                  12
                  12
                  11
                  12
                  12
                  11
                  11
                  11
                  11
                  11
                  11
                  11
                  11
                  11
                  11
                  11
                  11
                  11
                  11
                  11
                  11
                  11
                  11
                  11
                  11
                  11
                  11
                  11
                  11
                  11
                  11
                  11
                  11
                  11
                  11
                  11
                  11
                  11
                  11
                  11
                  11
                  11
                  11
                  11
                  11
                  12
                  12
                  12
                  12
                  12
                  12
                  12
                  12
                  11
                  11
                  11
                  11
                  11
                  11
                  11
                  11
                  11
                  11
                  11
                  11
                  11
                  11
                  11
                  11
                  11
                  11
                  11
                  11
                  11
                  11
                  12
                  12
                  12
                  12
                  12
                  12
                  12
                  12
                  12
                  12
                  12
                  12
                  12
                  12
                  12
                  12
                  12
                  12
                  12
                  12
                  11
                  11
                  11
                  11
                  11
                  11
                  11
                  11
                  11
                  11
                  11
                  11
                  11
                  11
                  11
                  11
                  11
                  11
                  11
                  11
                  11
                  11
                  11
                  11
                  11
                  11
                  11
                  11
                  11
                  11
                  12
                  12
                  12
                  12
                  12
                  12
                  12
                  12
                  12
                  12
                  12
                  12
                  12
                  12
                  12
                  12
                  12
                  11
                  11
                  11
                  11
                  12
                  12
                  11
                  11
                  11
                  11
                  11
                  11
                  11
                  11
                  11
                  11
                  11
                  11
                  11
                  11
                  11
                  11
                  11
                  11
                  11
                  11
                  12
                  12
                  12
                  12
                  11
                  11
                  11
                  11
                  11
                  11
                  11
                  11
                  11
                  11
                  11
                  12
                  12
                  12
                  12
                  12
                  12
                  12
                  12
                  12
                  12
                  11
                  11
                  11
                  11
                  11
                  11
                  11
                  11
                  11
                  11
                  11
                  11
                  11
                  11
                  11
                  12
                  12
                  12
                  12
                  12
                  12
                  12
                  12
                  12
                  12
                  12
                  12
                  11
                  11
                  11
                  11
                  12
                  12
                  11
                  11
                  11
                  11
                  11
                  11
                  11
                  11
                  11
                  11
                  11
                  11
                  11
                  11
                  11
                  11
                  11
                  11
                  11
                  11
                  12
                  12
                  12
                  12
                  11
                  11
                  11
                  11
                  11
                  11
                  11
                  11
                  11
                  11
                  11
                  12
                  12
                  12
                  12
                  12
                  12
                  12
                  12
                  12
                  12
                  11
                  11
                  11
                  11
                  11
                  11
                  11
                  11
                  11
                  11
                  11
                  11
                  11
                  11
                  11
                  12
                  12
                  12
                  12
                  12
                  12
                  12
                  12
                  12
                  12
                  12
                  12
                  11
                  11
                  11
                  11
                  12
                  12
                  11
                  11
                  11
                  11
                  11
                  11
                  11
                  11
                  11
                  11
                  11
                  11
                  11
                  11
                  11
                  11
                  11
                  11
                  11
                  11
                  12
                  12
                  12
                  12
                  11
                  11
                  11
                  11
                  11
                  11
                  11
                  11
                  11
                  11
                  11
                  12
                  12
                  12
                  12
                  12
                  12
                  12
                  12
                  12
                  12
                  11
                  11
                  11
                  11
                  11
                  11
                  11
                  11
                  11
                  11
                  11
                  11
                  11
                  11
                  11
                  12
                  12
                  12
                  12
                  12
                  12
                  12
                  12
                  12
                  12
                  12
                  12
                  11
                  11
                  11
                  11
                  12
                  12
                  11
                  11
                  11
                  11
                  11
                  11
                  11
                  11
                  11
                  11
                  11
                  11
                  11
                  11
                  11
                  11
                  11
                  11
                  11
                  11
                  12
                  12
                  12
                  12
                  11
                  11
                  11
                  11
                  11
                  11
                  11
                  11
                  11
                  11
                  11
                  12
                  12
                  12
                  12
                  12
                  12
                  12
                  12
                  12
                  12
                  11
                  11
                  11
                  11
                  11
                  11
                  11
                  11
                  11
                  11
                  11
                  11
                  11
                  11
                  11
                  12
                  12
                  12
                  12
                  12
                  12
                  12
                  12
                  12
                  12
                  12
                  12
                  11
                  11
                  11
                  11
                  12
                  12
                  11
                  11
                  11
                  11
                  11
                  11
                  11
                  11
                  11
                  11
                  11
                  11
                  11
                  11
                  11
                  11
                  11
                  11
                  11
                  11
                  12
                  12
                  12
                  12
                  11
                  11
                  11
                  11
                  11
                  11
                  11
                  11
                  11
                  11
                  11
                  12
                  12
                  12
                  12
                  12
                  12
                  12
                  12
                  12
                  12
                  11
                  11
                  11
                  11
                  11
                  11
                  11
                  11
                  11
                  11
                  11
                  11
                  11
                  11
                  11
                  12
                  12
                  12
                  12
                  12
                  12
                  12
                  12
                  12
                  12
                  12
                  12
                  11
                  11
                  11
                  11
                  12
                  12
                  11
                  11
                  11
                  11
                  11
                  11
                  11
                  11
                  11
                  11
                  11
                  11
                  11
                  11
                  11
                  11
                  11
                  11
                  11
                  11
                  12
                  12
                  12
                  12
                  11
                  11
                  11
                  11
                  11
                  11
                  11
                  11
                  11
                  11
                  11
                  12
                  12
                  12
                  12
                  12
                  12
                  12
                  12
                  12
                  12
                  11
                  11
                  11
                  11
                  11
                  11
                  11
                  11
                  11
                  11
                  11
                  11
                  11
                  11
                  11
                  12
                  12
                  12
                  12
                  12
                  12
                  12
                  12
                  12
                  12
                  12
                  12
                  11
                  11
                  11
                  11
                  12
                  12
                  11
                  11
                  11
                  11
                  11
                  11
                  11
                  11
                  11
                  11
                  11
                  11
                  11
                  11
                  11
                  11
                  11
                  11
                  11
                  11
                  12
                  12
                  12
                  12
                  11
                  11
                  11
                  11
                  11
                  11
                  11
                  11
                  11
                  11
                  11
                  12
                  12
                  12
                  12
                  12
                  12
                  12
                  12
                  12
                  12
                  11
                  11
                  11
                  11
                  11
                  11
                  11
                  11
                  11
                  11
                  11
                  11
                  11
                  11
                  11
                  12
                  12
                  12
                  12
                  12
                  12
                  12
                  12
                  12
                  12
                  12
                  12
                  11
                  11
                  11
                  11
                  12
                  12
                  11
                  11
                  11
                  11
                  11
                  11
                  11
                  11
                  11
                  11
                  11
                  11
                  11
                  11
                  11
                  11
                  11
                  11
                  11
                  11
                  12
                  12
                  12
                  12
                  11
                  11
                  11
                  11
                  11
                  11
                  11
                  11
                  11
                  11
                  11
                  12
                  12
                  12
                  12
                  12
                  12
                  12
                  12
                  12
                  12
                  11
                  11
                  11
                  11
                  11
                  11
                  11
                  11
                  11
                  11
                  11
                  11
                  11
                  11
                  11
                  12
                  12
                  12
                  12
                  12
                  12
                  12
                  12
                  12
                  12
                  12
                  12
                  11
                  11
                  11
                  11
                  12
                  12
                  11
                  11
                  11
                  11
                  11
                  11
                  11
                  11
                  11
                  11
                  11
                  11
                  11
                  11
                  11
                  11
                  11
                  11
                  11
                  11
                  12
                  12
                  12
                  12
                  11
                  11
                  11
                  11
                  11
                  11
                  11
                  11
                  11
                  11
                  11
                  12
                  12
                  12
                  12
                  12
                  12
                  12
                  12
                  12
                  12
                  11
                  11
                  11
                  11
                  11
                  11
                  11
                  11
                  11
                  11
                  11
                  11
                  11
                  11
                  11
                  12
                  12
                  12
                  12
                  12
                  12
                  12
                  12
                  12
                  12
                  12
                  12
                  11
                  11
                  11
                  11
                  12
                  12
                  11
                  11
                  11
                  11
                  11
                  11
                  11
                  11
                  11
                  11
                  11
                  11
                  11
                  11
                  11
                  11
                  11
                  11
                  11
                  11
                  12
                  12
                  12
                  12
                  11
                  11
                  11
                  11
                  11
                  11
                  11
                  11
                  11
                  11
                  11
                  12
                  12
                  12
                  12
                  12
                  12
                  12
                  12
                  12
                  12
                  11
                  11
                  11
                  11
                  11
                  11
                  11
                  11
                  11
                  11
                  11
                  11
                  11
                  11
                  11
                  12
                  12
                  12
                  12
                  12
                  12
                  12
                  12
                  12
                  12
                  12
                  12
                  11
                  11
                  11
                  11
                  12
                  12
                  11
                  11
                  11
                  11
                  11
                  11
                  11
                  11
                  11
                  11
                  11
                  11
                  11
                  11
                  11
                  11
                  11
                  11
                  11
                  11
                  12
                  12
                  12
                  12
                  11
                  11
                  11
                  11
                  11
                  11
                  11
                  11
                  11
                  11
                  11
                  12
                  12
                  12
                  12
                  12
                  12
                  12
                  12
                  12
                  12
                  11
                  11
                  11
                  11
                  11
                  11
                  11
                  11
                  11
                  11
                  11
                  11
                  11
                  11
                  11
                  12
                  12
                  12
                  12
                  12
                  12
                  12
                  12
                  12
                  12
                  12
                  12
                  11
                  11
                  11
                  11
                  12
                  12
                  11
                  11
                  11
                  11
                  11
                  11
                  11
                  11
                  11
                  11
                  11
                  11
                  11
                  11
                  11
                  11
                  11
                  11
                  11
                  11
                  12
                  12
                  12
                  12
                  11
                  11
                  11
                  11
                  11
                  11
                  11
                  11
                  11
                  11
                  11
                  12
                  12
                  12
                  12
                  12
                  12
                  12
                  12
                  12
                  12
                  11
                  11
                  11
                  11
                  11
                  11
                  11
                  11
                  11
                  11
                  11
                  11
                  11
                  11
                  11
                  12
                  12
                  12
                  12
                  12
                  12
                  12
                  12
                  12
                  12
                  12
                  12
                  11
                  11
                  11
                  11
                  12
                  12
                  11
                  11
                  11
                  11
                  11
                  11
                  11
                  11
                  11
                  11
                  11
                  11
                  11
                  11
                  11
                  11
                  11
                  11
                  11
                  11
                  12
                  12
                  12
                  12
                  11
                  11
                  11
                  11
                  11
                  11
                  11
                  11
                  11
                  11
                  11
                  12
                  12
                  12
                  12
                  12
                  12
                  12
                  12
                  12
                  12
                  11
                  11
                  11
                  11
                  11
                  11
                  11
                  11
                  11
                  11
                  11
                  11
                  11
                  11
                  11
                  12
                  12
                  12
                  12
                  12
                  12
                  12
                  12
                  12
                  12
                  12
                  12
                  11
                  11
                  11
                  11
                  12
                  12
                  11
                  11
                  11
                  11
                  11
                  11
                  11
                  11
                  11
                  11
                  11
                  11
                  11
                  11
                  11
                  11
                  11
                  11
                  11
                  11
                  12
                  12
                  12
                  12
                  11
                  11
                  11
                  11
                  11
                  11
                  11
                  11
                  11
                  11
                  11
                  12
                  12
                  12
                  12
                  12
                  12
                  12
                  12
                  12
                  12
                  11
                  11
                  11
                  11
                  11
                  11
                  11
                  11
                  11
                  11
                  11
                  11
                  11
                  11
                  11
                  12
                  12
                  12
                  12
                  12
                  12
                  12
                  12
                  12
                  12
                  12
                  12
                  11
                  11
                  11
                  11
                  12
                  12
                  11
                  11
                  11
                  11
                  11
                  11
                  11
                  11
                  11
                  11
                  11
                  11
                  11
                  11
                  11
                  11
                  11
                  11
                  11
                  11
                  12
                  12
                  12
                  12
                  11
                  11
                  11
                  11
                  11
                  11
                  11
                  11
                  11
                  11
                  11
                  12
                  12
                  12
                  12
                  12
                  12
                  12
                  12
                  12
                  12
                  11
                  11
                  11
                  11
                  11
                  11
                  11
                  11
                  11
                  11
                  11
                  11
                  11
                  11
                  11
                  12
                  12
                  12
                  12
                  12
                  12
                  12
                  12
                  12
                  12
                  12
                  12
                  11
                  11
                  11
                  11
                  12
                  12
                  11
                  11
                  11
                  11
                  11
                  11
                  11
                  11
                  11
                  11
                  11
                  11
                  11
                  11
                  11
                  11
                  11
                  11
                  11
                  11
                  12
                  12
                  12
                  12
                  11
                  11
                  11
                  11
                  11
                  11
                  11
                  11
                  11
                  11
                  11
                  12
                  12
                  12
                  12
                  12
                  12
                  12
                  12
                  12
                  12
                  11
                  11
                  11
                  11
                  11
                  11
                  11
                  11
                  11
                  11
                  11
                  11
                  11
                  11
                  11
                  12
                  12
                  12
                  12
                  12
                  12
                  12
                  12
                  12
                  12
                  12
                  12
                  11
                  11
                  11
                  11
                  12
                  12
                  11
                  11
                  11
                  11
                  11
                  11
                  11
                  11
                  11
                  11
                  11
                  11
                  11
                  11
                  11
                  11
                  11
                  11
                  11
                  11
                  12
                  12
                  12
                  12
                  11
                  11
                  11
                  11
                  11
                  11
                  11
                  11
                  11
                  11
                  11
                  12
                  12
                  12
                  12
                  12
                  12
                  12
                  12
                  12
                  12
                  11
                  11
                  11
                  11
                  11
                  11
                  11
                  11
                  11
                  11
                  11
                  11
                  11
                  11
                  11
                  12
                  12
                  12
                  12
                  12
                  12
                  12
                  12
                  12
                  12
                  12
                  12
                  11
                  11
                  11
                  11
                  12
                  12
                  11
                  11
                  11
                  11
                  11
                  11
                  11
                  11
                  11
                  11
                  11
                  11
                  11
                  11
                  11
                  11
                  11
                  11
                  11
                  11
                  12
                  12
                  12
                  12
                  11
                  11
                  11
                  11
                  11
                  11
                  11
                  11
                  11
                  11
                  11
                  12
                  12
                  12
                  12
                  12
                  12
                  12
                  12
                  12
                  12
                  11
                  11
                  11
                  11
                  11
                  11
                  11
                  11
                  11
                  11
                  11
                  11
                  11
                  11
                  11
                  12
                  12
                  12
                  12
                  12
                  12
                  12
                  12
                  12
                  12
                  12
                  12
                  11
                  11
                  11
                  11
                  12
                  12
                  11
                  11
                  11
                  11
                  11
                  11
                  11
                  11
                  11
                  11
                  11
                  11
                  11
                  11
                  11
                  11
                  11
                  11
                  11
                  11
                  12
                  12
                  12
                  12
                  11
                  11
                  11
                  11
                  11
                  11
                  11
                  11
                  11
                  11
                  11
                  12
                  12
                  12
                  12
                  12
                  12
                  12
                  12
                  12
                  12
                  11
                  11
                  11
                  11
                  11
                  11
                  11
                  11
                  11
                  11
                  11
                  11
                  11
                  11
                  11
                  12
                  12
                  12
                  12
                  12
                  12
                  12
                  12
                  12
                  12
                  12
                  12
                  11
                  11
                  11
                  11
                  12
                  12
                  11
                  11
                  11
                  11
                  11
                  11
                  11
                  11
                  11
                  11
                  11
                  11
                  11
                  11
                  11
                  11
                  11
                  11
                  11
                  11
                  12
                  12
                  12
                  12
                  11
                  11
                  11
                  11
                  11
                  11
                  11
                  11
                  11
                  11
                  11
                  12
                  12
                  12
                  12
                  12
                  12
                  12
                  12
                  12
                  12
                  11
                  11
                  11
                  11
                  11
                  11
                  11
                  11
                  11
                  11
                  11
                  11
                  11
                  11
                  11
                  12
                  12
                  12
                  12
                  12
                  12
                  12
                  12
                  12
                  12
                  12
                  12
                  11
                  11
                  11
                  11
                  12
                  12
                  11
                  11
                  11
                  11
                  11
                  11
                  11
                  11
                  11
                  11
                  11
                  11
                  11
                  11
                  11
                  11
                  11
                  11
                  11
                  11
                  12
                  12
                  12
                  12
                  11
                  11
                  11
                  11
                  11
                  11
                  11
                  11
                  11
                  11
                  11
                  12
                  12
                  12
                  12
                  12
                  12
                  12
                  12
                  12
                  12
                  11
                  11
                  11
                  11
                  11
                  11
                  11
                  11
                  11
                  11
                  11
                  11
                  11
                  11
                  11
                  12
                  12
                  12
                  12
                  12
                  12
                  12
                  12
                  12
                  12
                  12
                  12
                  11
                  11
                  11
                  11
                  12
                  12
                  11
                  11
                  11
                  11
                  11
                  11
                  11
                  11
                  11
                  11
                  11
                  11
                  11
                  11
                  11
                  11
                  11
                  11
                  11
                  11
                  12
                  12
                  12
                  12
                  11
                  11
                  11
                  11
                  11
                  11
                  11
                  11
                  11
                  11
                  11
                  12
                  12
                  12
                  12
                  12
                  12
                  12
                  12
                  12
                  12
                  11
                  11
                  11
                  11
                  11
                  11
                  11
                  11
                  11
                  11
                  11
                  11
                  11
                  11
                  11
                  12
                  12
                  12
                  12
                  12
                  12
                  12
                  12
                  12
                  12
                  12
                  12
                  11
                  11
                  11
                  11
                  12
                  12
                  11
                  11
                  11
                  11
                  11
                  11
                  11
                  11
                  11
                  11
                  11
                  11
                  11
                  11
                  11
                  11
                  11
                  11
                  11
                  11
                  12
                  12
                  12
                  12
                  11
                  11
                  11
                  11
                  11
                  11
                  11
                  11
                  11
                  11
                  11
                  12
                  12
                  12
                  12
                  12
                  12
                  12
                  12
                  12
                  12
                  11
                  11
                  11
                  11
                  11
                  11
                  11
                  11
                  11
                  11
                  11
                  11
                  11
                  11
                  11
                  12
                  12
                  12
                  12
                  12
  
SCALARS                         Jspace  double 1
LOOKUP_TABLE default
                  11
                  12
                  11
                  11
                  11
                  12
                  11
                  11
                  11
                  11
                  11
                  11
                  12
                  12
                  12
                  12
                  11
                  12
                  11
                  12
                  12
                  12
                  12
                  12
                  12
                  12
                  12
                  12
                  12
                  12
                  11
                  11
                  11
                  11
                  11
                  11
                  11
                  11
                  11
                  11
                  11
                  11
                  11
                  11
                  11
                  11
                  11
                  11
                  11
                  11
                  11
                  11
                  12
                  12
                  12
                  12
                  12
                  11
                  12
                  11
                  11
                  11
                  11
                  11
                  11
                  11
                  11
                  11
                  11
                  12
                  11
                  12
                  12
                  12
                  12
                  12
                  12
                  12
                  12
                  12
                  12
                  12
                  12
                  12
                  11
                  11
                  11
                  11
                  11
                  11
                  11
                  11
                  11
                  11
                  11
                  11
                  11
                  11
                  11
                  11
                  11
                  11
                  11
                  11
                  11
                  11
                  11
                  11
                  12
                  12
                  12
                  12
                  12
                  12
                  12
                  12
                  12
                  12
                  12
                  12
                  12
                  12
                  12
                  12
                  12
                  12
                  12
                  12
                  11
                  11
                  11
                  11
                  11
                  11
                  11
                  11
                  11
                  11
                  11
                  11
                  11
                  11
                  11
                  11
                  11
                  11
                  11
                  11
                  11
                  11
                  11
                  11
                  11
                  11
                  11
                  11
                  11
                  12
                  11
                  11
                  11
                  11
                  12
                  12
                  11
                  12
                  12
                  12
                  12
                  12
                  12
                  11
                  11
                  11
                  11
                  11
                  11
                  11
                  11
                  11
                  11
                  11
                  12
                  12
                  12
                  11
                  11
                  11
                  11
                  11
                  11
                  12
                  12
                  12
                  12
                  12
                  12
                  12
                  11
                  11
                  11
                  11
                  11
                  11
                  11
                  11
                  11
                  11
                  11
                  11
                  12
                  12
                  12
                  12
                  12
                  12
                  12
                  12
                  12
                  12
                  11
                  11
                  11
                  11
                  11
                  11
                  11
                  11
                  11
                  11
                  11
                  11
                  11
                  11
                  11
                  12
                  11
                  11
                  11
                  11
                  12
                  12
                  11
                  12
                  12
                  12
                  12
                  12
                  12
                  11
                  11
                  11
                  11
                  11
                  11
                  11
                  11
                  11
                  11
                  11
                  12
                  12
                  12
                  11
                  11
                  11
                  11
                  11
                  11
                  12
                  12
                  12
                  12
                  12
                  12
                  12
                  11
                  11
                  11
                  11
                  11
                  11
                  11
                  11
                  11
                  11
                  11
                  11
                  12
                  12
                  12
                  12
                  12
                  12
                  12
                  12
                  12
                  12
                  11
                  11
                  11
                  11
                  11
                  11
                  11
                  11
                  11
                  11
                  11
                  11
                  11
                  11
                  11
                  12
                  11
                  11
                  11
                  11
                  12
                  12
                  11
                  12
                  12
                  12
                  12
                  12
                  12
                  11
                  11
                  11
                  11
                  11
                  11
                  11
                  11
                  11
                  11
                  11
                  12
                  12
                  12
                  11
                  11
                  11
                  11
                  11
                  11
                  12
                  12
                  12
                  12
                  12
                  12
                  12
                  11
                  11
                  11
                  11
                  11
                  11
                  11
                  11
                  11
                  11
                  11
                  11
                  12
                  12
                  12
                  12
                  12
                  12
                  12
                  12
                  12
                  12
                  11
                  11
                  11
                  11
                  11
                  11
                  11
                  11
                  11
                  11
                  11
                  11
                  11
                  11
                  11
                  12
                  11
                  11
                  11
                  11
                  12
                  12
                  11
                  12
                  12
                  12
                  12
                  12
                  12
                  11
                  11
                  11
                  11
                  11
                  11
                  11
                  11
                  11
                  11
                  11
                  12
                  12
                  12
                  11
                  11
                  11
                  11
                  11
                  11
                  12
                  12
                  12
                  12
                  12
                  12
                  12
                  11
                  11
                  11
                  11
                  11
                  11
                  11
                  11
                  11
                  11
                  11
                  11
                  12
                  12
                  12
                  12
                  12
                  12
                  12
                  12
                  12
                  12
                  11
                  11
                  11
                  11
                  11
                  11
                  11
                  11
                  11
                  11
                  11
                  11
                  11
                  11
                  11
                  12
                  11
                  11
                  11
                  11
                  12
                  12
                  11
                  12
                  12
                  12
                  12
                  12
                  12
                  11
                  11
                  11
                  11
                  11
                  11
                  11
                  11
                  11
                  11
                  11
                  12
                  12
                  12
                  11
                  11
                  11
                  11
                  11
                  11
                  12
                  12
                  12
                  12
                  12
                  12
                  12
                  11
                  11
                  11
                  11
                  11
                  11
                  11
                  11
                  11
                  11
                  11
                  11
                  12
                  12
                  12
                  12
                  12
                  12
                  12
                  12
                  12
                  12
                  11
                  11
                  11
                  11
                  11
                  11
                  11
                  11
                  11
                  11
                  11
                  11
                  11
                  11
                  11
                  12
                  11
                  11
                  11
                  11
                  12
                  12
                  11
                  12
                  12
                  12
                  12
                  12
                  12
                  11
                  11
                  11
                  11
                  11
                  11
                  11
                  11
                  11
                  11
                  11
                  12
                  12
                  12
                  11
                  11
                  11
                  11
                  11
                  11
                  12
                  12
                  12
                  12
                  12
                  12
                  12
                  11
                  11
                  11
                  11
                  11
                  11
                  11
                  11
                  11
                  11
                  11
                  11
                  12
                  12
                  12
                  12
                  12
                  12
                  12
                  12
                  12
                  12
                  11
                  11
                  11
                  11
                  11
                  11
                  11
                  11
                  11
                  11
                  11
                  11
                  11
                  11
                  11
                  12
                  11
                  11
                  11
                  11
                  12
                  12
                  11
                  12
                  12
                  12
                  12
                  12
                  12
                  11
                  11
                  11
                  11
                  11
                  11
                  11
                  11
                  11
                  11
                  11
                  12
                  12
                  12
                  11
                  11
                  11
                  11
                  11
                  11
                  12
                  12
                  12
                  12
                  12
                  12
                  12
                  11
                  11
                  11
                  11
                  11
                  11
                  11
                  11
                  11
                  11
                  11
                  11
                  12
                  12
                  12
                  12
                  12
                  12
                  12
                  12
                  12
                  12
                  11
                  11
                  11
                  11
                  11
                  11
                  11
                  11
                  11
                  11
                  11
                  11
                  11
                  11
                  11
                  12
                  11
                  11
                  11
                  11
                  12
                  12
                  11
                  12
                  12
                  12
                  12
                  12
                  12
                  11
                  11
                  11
                  11
                  11
                  11
                  11
                  11
                  11
                  11
                  11
                  12
                  12
                  12
                  11
                  11
                  11
                  11
                  11
                  11
                  12
                  12
                  12
                  12
                  12
                  12
                  12
                  11
                  11
                  11
                  11
                  11
                  11
                  11
                  11
                  11
                  11
                  11
                  11
                  12
                  12
                  12
                  12
                  12
                  12
                  12
                  12
                  12
                  12
                  11
                  11
                  11
                  11
                  11
                  11
                  11
                  11
                  11
                  11
                  11
                  11
                  11
                  11
                  11
                  12
                  11
                  11
                  11
                  11
                  12
                  12
                  11
                  12
                  12
                  12
                  12
                  12
                  12
                  11
                  11
                  11
                  11
                  11
                  11
                  11
                  11
                  11
                  11
                  11
                  12
                  12
                  12
                  11
                  11
                  11
                  11
                  11
                  11
                  12
                  12
                  12
                  12
                  12
                  12
                  12
                  11
                  11
                  11
                  11
                  11
                  11
                  11
                  11
                  11
                  11
                  11
                  11
                  12
                  12
                  12
                  12
                  12
                  12
                  12
                  12
                  12
                  12
                  11
                  11
                  11
                  11
                  11
                  11
                  11
                  11
                  11
                  11
                  11
                  11
                  11
                  11
                  11
                  12
                  11
                  11
                  11
                  11
                  12
                  12
                  11
                  12
                  12
                  12
                  12
                  12
                  12
                  11
                  11
                  11
                  11
                  11
                  11
                  11
                  11
                  11
                  11
                  11
                  12
                  12
                  12
                  11
                  11
                  11
                  11
                  11
                  11
                  12
                  12
                  12
                  12
                  12
                  12
                  12
                  11
                  11
                  11
                  11
                  11
                  11
                  11
                  11
                  11
                  11
                  11
                  11
                  12
                  12
                  12
                  12
                  12
                  12
                  12
                  12
                  12
                  12
                  11
                  11
                  11
                  11
                  11
                  11
                  11
                  11
                  11
                  11
                  11
                  11
                  11
                  11
                  11
                  12
                  11
                  11
                  11
                  11
                  12
                  12
                  11
                  12
                  12
                  12
                  12
                  12
                  12
                  11
                  11
                  11
                  11
                  11
                  11
                  11
                  11
                  11
                  11
                  11
                  12
                  12
                  12
                  11
                  11
                  11
                  11
                  11
                  11
                  12
                  12
                  12
                  12
                  12
                  12
                  12
                  11
                  11
                  11
                  11
                  11
                  11
                  11
                  11
                  11
                  11
                  11
                  11
                  12
                  12
                  12
                  12
                  12
                  12
                  12
                  12
                  12
                  12
                  11
                  11
                  11
                  11
                  11
                  11
                  11
                  11
                  11
                  11
                  11
                  11
                  11
                  11
                  11
                  12
                  11
                  11
                  11
                  11
                  12
                  12
                  11
                  12
                  12
                  12
                  12
                  12
                  12
                  11
                  11
                  11
                  11
                  11
                  11
                  11
                  11
                  11
                  11
                  11
                  12
                  12
                  12
                  11
                  11
                  11
                  11
                  11
                  11
                  12
                  12
                  12
                  12
                  12
                  12
                  12
                  11
                  11
                  11
                  11
                  11
                  11
                  11
                  11
                  11
                  11
                  11
                  11
                  12
                  12
                  12
                  12
                  12
                  12
                  12
                  12
                  12
                  12
                  11
                  11
                  11
                  11
                  11
                  11
                  11
                  11
                  11
                  11
                  11
                  11
                  11
                  11
                  11
                  12
                  11
                  11
                  11
                  11
                  12
                  12
                  11
                  12
                  12
                  12
                  12
                  12
                  12
                  11
                  11
                  11
                  11
                  11
                  11
                  11
                  11
                  11
                  11
                  11
                  12
                  12
                  12
                  11
                  11
                  11
                  11
                  11
                  11
                  12
                  12
                  12
                  12
                  12
                  12
                  12
                  11
                  11
                  11
                  11
                  11
                  11
                  11
                  11
                  11
                  11
                  11
                  11
                  12
                  12
                  12
                  12
                  12
                  12
                  12
                  12
                  12
                  12
                  11
                  11
                  11
                  11
                  11
                  11
                  11
                  11
                  11
                  11
                  11
                  11
                  11
                  11
                  11
                  12
                  11
                  11
                  11
                  11
                  12
                  12
                  11
                  12
                  12
                  12
                  12
                  12
                  12
                  11
                  11
                  11
                  11
                  11
                  11
                  11
                  11
                  11
                  11
                  11
                  12
                  12
                  12
                  11
                  11
                  11
                  11
                  11
                  11
                  12
                  12
                  12
                  12
                  12
                  12
                  12
                  11
                  11
                  11
                  11
                  11
                  11
                  11
                  11
                  11
                  11
                  11
                  11
                  12
                  12
                  12
                  12
                  12
                  12
                  12
                  12
                  12
                  12
                  11
                  11
                  11
                  11
                  11
                  11
                  11
                  11
                  11
                  11
                  11
                  11
                  11
                  11
                  11
                  12
                  11
                  11
                  11
                  11
                  12
                  12
                  11
                  12
                  12
                  12
                  12
                  12
                  12
                  11
                  11
                  11
                  11
                  11
                  11
                  11
                  11
                  11
                  11
                  11
                  12
                  12
                  12
                  11
                  11
                  11
                  11
                  11
                  11
                  12
                  12
                  12
                  12
                  12
                  12
                  12
                  11
                  11
                  11
                  11
                  11
                  11
                  11
                  11
                  11
                  11
                  11
                  11
                  12
                  12
                  12
                  12
                  12
                  12
                  12
                  12
                  12
                  12
                  11
                  11
                  11
                  11
                  11
                  11
                  11
                  11
                  11
                  11
                  11
                  11
                  11
                  11
                  11
                  12
                  11
                  11
                  11
                  11
                  12
                  12
                  11
                  12
                  12
                  12
                  12
                  12
                  12
                  11
                  11
                  11
                  11
                  11
                  11
                  11
                  11
                  11
                  11
                  11
                  12
                  12
                  12
                  11
                  11
                  11
                  11
                  11
                  11
                  12
                  12
                  12
                  12
                  12
                  12
                  12
                  11
                  11
                  11
                  11
                  11
                  11
                  11
                  11
                  11
                  11
                  11
                  11
                  12
                  12
                  12
                  12
                  12
                  12
                  12
                  12
                  12
                  12
                  11
                  11
                  11
                  11
                  11
                  11
                  11
                  11
                  11
                  11
                  11
                  11
                  11
                  11
                  11
                  12
                  11
                  11
                  11
                  11
                  12
                  12
                  11
                  12
                  12
                  12
                  12
                  12
                  12
                  11
                  11
                  11
                  11
                  11
                  11
                  11
                  11
                  11
                  11
                  11
                  12
                  12
                  12
                  11
                  11
                  11
                  11
                  11
                  11
                  12
                  12
                  12
                  12
                  12
                  12
                  12
                  11
                  11
                  11
                  11
                  11
                  11
                  11
                  11
                  11
                  11
                  11
                  11
                  12
                  12
                  12
                  12
                  12
                  12
                  12
                  12
                  12
                  12
                  11
                  11
                  11
                  11
                  11
                  11
                  11
                  11
                  11
                  11
                  11
                  11
                  11
                  11
                  11
                  12
                  11
                  11
                  11
                  11
                  12
                  12
                  11
                  12
                  12
                  12
                  12
                  12
                  12
                  11
                  11
                  11
                  11
                  11
                  11
                  11
                  11
                  11
                  11
                  11
                  12
                  12
                  12
                  11
                  11
                  11
                  11
                  11
                  11
                  12
                  12
                  12
                  12
                  12
                  12
                  12
                  11
                  11
                  11
                  11
                  11
                  11
                  11
                  11
                  11
                  11
                  11
                  11
                  12
                  12
                  12
                  12
                  12
                  12
                  12
                  12
                  12
                  12
                  11
                  11
                  11
                  11
                  11
                  11
                  11
                  11
                  11
                  11
                  11
                  11
                  11
                  11
                  11
                  12
                  11
                  11
                  11
                  11
                  12
                  12
                  11
                  12
                  12
                  12
                  12
                  12
                  12
                  11
                  11
                  11
                  11
                  11
                  11
                  11
                  11
                  11
                  11
                  11
                  12
                  12
                  12
                  11
                  11
                  11
                  11
                  11
                  11
                  12
                  12
                  12
                  12
                  12
                  12
                  12
                  11
                  11
                  11
                  11
                  11
                  11
                  11
                  11
                  11
                  11
                  11
                  11
                  12
                  12
                  12
                  12
                  12
                  12
                  12
                  12
                  12
                  12
                  11
                  11
                  11
                  11
                  11
                  11
                  11
                  11
                  11
                  11
                  11
                  11
                  11
                  11
                  11
                  12
                  11
                  11
                  11
                  11
                  12
                  12
                  11
                  12
                  12
                  12
                  12
                  12
                  12
                  11
                  11
                  11
                  11
                  11
                  11
                  11
                  11
                  11
                  11
                  11
                  12
                  12
                  12
                  11
                  11
                  11
                  11
                  11
                  11
                  12
                  12
                  12
                  12
                  12
                  12
                  12
                  11
                  11
                  11
                  11
                  11
                  11
                  11
                  11
                  11
                  11
                  11
                  11
                  12
                  12
                  12
                  12
                  12
                  12
                  12
                  12
                  12
                  12
                  11
                  11
                  11
                  11
                  11
                  11
                  11
                  11
                  11
                  11
                  11
                  11
                  11
                  11
                  11
                  12
                  11
                  11
                  11
                  11
                  12
                  12
                  11
                  12
                  12
                  12
                  12
                  12
                  12
                  11
                  11
                  11
                  11
                  11
                  11
                  11
                  11
                  11
                  11
                  11
                  12
                  12
                  12
                  11
                  11
                  11
                  11
                  11
                  11
                  12
                  12
                  12
                  12
                  12
                  12
                  12
                  11
                  11
                  11
                  11
                  11
                  11
                  11
                  11
                  11
                  11
                  11
                  11
                  12
                  12
                  12
                  12
                  12
                  12
                  12
                  12
                  12
                  12
                  11
                  11
                  11
                  11
                  11
                  11
                  11
                  11
                  11
                  11
                  11
                  11
                  11
                  11
                  11
                  12
                  11
                  11
                  11
                  11
                  12
                  12
                  11
                  12
                  12
                  12
                  12
                  12
                  12
                  11
                  11
                  11
                  11
                  11
                  11
                  11
                  11
                  11
                  11
                  11
                  12
                  12
                  12
                  11
                  11
                  11
                  11
                  11
                  11
                  12
                  12
                  12
                  12
                  12
                  12
                  12
                  11
                  11
                  11
                  11
                  11
                  11
                  11
                  11
                  11
                  11
                  11
                  11
                  12
                  12
                  12
                  12
                  12
                  12
                  12
                  12
                  12
                  12
                  11
                  11
                  11
                  11
                  11
                  11
                  11
                  11
                  11
                  11
                  11
                  11
                  11
                  11
                  11
                  12
                  11
                  11
                  11
                  11
                  12
                  12
                  11
                  12
                  12
                  12
                  12
                  12
                  12
                  11
                  11
                  11
                  11
                  11
                  11
                  11
                  11
                  11
                  11
                  11
                  12
                  12
                  12
                  11
                  11
                  11
                  11
                  11
                  11
                  12
                  12
                  12
                  12
                  12
                  12
                  12
                  11
                  11
                  11
                  11
                  11
                  11
                  11
                  11
                  11
                  11
                  11
                  11
                  12
                  12
                  12
                  12
                  12
                  12
                  12
                  12
                  12
                  12
                  11
                  11
                  11
                  11
                  11
                  11
                  11
                  11
                  11
                  11
                  11
                  11
                  11
                  11
  
SCALARS                         Kspace  double 1
LOOKUP_TABLE default
                  11
                  11
                  11
                  11
                  11
                  11
                  11
                  11
                  11
                  11
                  11
                  11
                  11
                  11
                  11
                  11
                  11
                  11
                  11
                  11
                  11
                  11
                  11
                  11
                  11
                  11
                  11
                  11
                  11
                  11
                  11
                  11
                  11
                  11
                  11
                  11
                  11
                  11
                  11
                  11
                  11
                  11
                  11
                  11
                  11
                  11
                  11
                  11
                  11
                  11
                  11
                  11
                  11
                  11
                  11
                  11
                  11
                  11
                  11
                  11
                  11
                  11
                  11
                  11
                  11
                  11
                  11
                  11
                  11
                  11
                  11
                  11
                  11
                  11
                  11
                  11
                  11
                  11
                  11
                  11
                  11
                  11
                  11
                  11
                  11
                  11
                  11
                  11
                  11
                  11
                  11
                  11
                  11
                  11
                  11
                  11
                  11
                  11
                  11
                  11
                  11
                  11
                  11
                  11
                  11
                  11
                  11
                  11
                  11
                  11
                  11
                  11
                  11
                  11
                  11
                  11
                  11
                  11
                  11
                  11
                  11
                  11
                  11
                  11
                  11
                  11
                  11
                  11
                  11
                  11
                  11
                  11
                  11
                  11
                  11
                  11
                  11
                  11
                  11
                  11
                  11
                  11
                  11
                  11
                  11
                  11
                  11
                  11
                  11
                  11
                  11
                  11
                  11
                  11
                  11
                  11
                  11
                  11
                  11
                  11
                  11
                  11
                  11
                  11
                  11
                  11
                  11
                  11
                  11
                  11
                  11
                  11
                  11
                  11
                  11
                  11
                  11
                  11
                  11
                  11
                  11
                  11
                  11
                  11
                  11
                  11
                  11
                  11
                  11
                  11
                  11
                  11
                  11
                  11
                  11
                  11
                  11
                  11
                  11
                  11
                  11
                  11
                  11
                  11
                  11
                  11
                  11
                  11
                  11
                  11
                  11
                  11
                  11
                  11
                  11
                  11
                  11
                  11
                  11
                  11
                  11
                  11
                  11
                  11
                  11
                  11
                  11
                  11
                  11
                  11
                  11
                  11
                  11
                  11
                  11
                  11
                  11
                  11
                  11
                  11
                  11
                  11
                  11
                  11
                  11
                  11
                  11
                  11
                  11
                  11
                  11
                  11
                  11
                  11
                  11
                  11
                  11
                  11
                  11
                  11
                  11
                  11
                  11
                  11
                  11
                  11
                  11
                  11
                  11
                  11
                  11
                  11
                  11
                  11
                  11
                  11
                  11
                  11
                  11
                  11
                  11
                  11
                  11
                  11
                  11
                  11
                  11
                  11
                  11
                  11
                  11
                  11
                  11
                  11
                  11
                  11
                  11
                  11
                  11
                  11
                  11
                  11
                  11
                  11
                  11
                  11
                  11
                  11
                  11
                  11
                  11
                  11
                  12
                  12
                  12
                  12
                  12
                  12
                  12
                  12
                  12
                  12
                  12
                  12
                  12
                  12
                  12
                  12
                  12
                  12
                  12
                  12
                  12
                  12
                  12
                  12
                  12
                  12
                  12
                  12
                  12
                  12
                  12
                  12
                  12
                  12
                  12
                  12
                  12
                  12
                  12
                  12
                  12
                  12
                  12
                  12
                  12
                  12
                  12
                  12
                  12
                  12
                  12
                  12
                  12
                  12
                  12
                  12
                  12
                  12
                  12
                  12
                  12
                  12
                  12
                  12
                  12
                  12
                  12
                  12
                  12
                  12
                  12
                  12
                  12
                  12
                  12
                  12
                  12
                  12
                  12
                  12
                  12
                  12
                  12
                  12
                  12
                  12
                  12
                  12
                  12
                  12
                  12
                  12
                  12
                  12
                  12
                  12
                  12
                  12
                  12
                  12
                  12
                  12
                  12
                  12
                  12
                  12
                  12
                  12
                  12
                  12
                  12
                  12
                  12
                  12
                  12
                  12
                  12
                  12
                  12
                  12
                  12
                  12
                  12
                  12
                  12
                  12
                  12
                  12
                  12
                  12
                  12
                  12
                  12
                  12
                  12
                  12
                  12
                  12
                  12
                  12
                  12
                  12
                  12
                  12
                  12
                  12
                  12
                  12
                  12
                  12
                  12
                  12
                  12
                  12
                  12
                  12
                  12
                  12
                  12
                  12
                  12
                  12
                  12
                  12
                  12
                  12
                  12
                  12
                  12
                  12
                  12
                  12
                  12
                  12
                  12
                  12
                  12
                  12
                  12
                  12
                  12
                  12
                  12
                  12
                  12
                  12
                  12
                  12
                  12
                  12
                  12
                  12
                  12
                  12
                  12
                  12
                  12
                  12
                  12
                  12
                  12
                  12
                  12
                  12
                  12
                  12
                  12
                  12
                  12
                  12
                  12
                  12
                  12
                  12
                  12
                  12
                  12
                  12
                  12
                  12
                  12
                  12
                  12
                  12
                  12
                  12
                  12
                  12
                  12
                  12
                  12
                  12
                  12
                  12
                  13
                  13
                  13
                  13
                  13
                  13
                  13
                  13
                  13
                  13
                  13
                  13
                  13
                  13
                  13
                  13
                  13
                  13
                  13
                  13
                  13
                  13
                  13
                  13
                  13
                  13
                  13
                  13
                  13
                  13
                  13
                  13
                  13
                  13
                  13
                  13
                  13
                  13
                  13
                  13
                  13
                  13
                  13
                  13
                  13
                  13
                  13
                  13
                  13
                  13
                  13
                  13
                  13
                  13
                  13
                  13
                  13
                  13
                  13
                  13
                  13
                  13
                  13
                  13
                  13
                  13
                  13
                  13
                  13
                  13
                  13
                  13
                  13
                  13
                  13
                  13
                  13
                  13
                  13
                  13
                  13
                  13
                  13
                  13
                  13
                  13
                  13
                  13
                  13
                  13
                  13
                  13
                  13
                  13
                  13
                  13
                  13
                  13
                  13
                  13
                  13
                  13
                  13
                  13
                  13
                  13
                  13
                  13
                  13
                  13
                  13
                  13
                  13
                  13
                  13
                  13
                  13
                  13
                  13
                  13
                  13
                  13
                  13
                  13
                  13
                  13
                  13
                  13
                  13
                  13
                  13
                  13
                  13
                  13
                  13
                  13
                  13
                  13
                  13
                  13
                  13
                  13
                  13
                  13
                  13
                  13
                  13
                  13
                  13
                  13
                  13
                  13
                  13
                  13
                  13
                  13
                  13
                  13
                  13
                  13
                  13
                  13
                  13
                  13
                  13
                  13
                  13
                  13
                  13
                  13
                  13
                  13
                  13
                  13
                  13
                  13
                  13
                  13
                  13
                  13
                  13
                  13
                  13
                  13
                  13
                  13
                  13
                  13
                  13
                  13
                  13
                  13
                  13
                  13
                  13
                  13
                  13
                  13
                  13
                  13
                  13
                  13
                  13
                  13
                  13
                  13
                  13
                  13
                  13
                  13
                  13
                  13
                  13
                  13
                  13
                  13
                  13
                  13
                  13
                  13
                  13
                  13
                  13
                  13
                  13
                  13
                  13
                  13
                  13
                  13
                  13
                  13
                  13
                  13
                  14
                  14
                  14
                  14
                  14
                  14
                  14
                  14
                  14
                  14
                  14
                  14
                  14
                  14
                  14
                  14
                  14
                  14
                  14
                  14
                  14
                  14
                  14
                  14
                  14
                  14
                  14
                  14
                  14
                  14
                  14
                  14
                  14
                  14
                  14
                  14
                  14
                  14
                  14
                  14
                  14
                  14
                  14
                  14
                  14
                  14
                  14
                  14
                  14
                  14
                  14
                  14
                  14
                  14
                  14
                  14
                  14
                  14
                  14
                  14
                  14
                  14
                  14
                  14
                  14
                  14
                  14
                  14
                  14
                  14
                  14
                  14
                  14
                  14
                  14
                  14
                  14
                  14
                  14
                  14
                  14
                  14
                  14
                  14
                  14
                  14
                  14
                  14
                  14
                  14
                  14
                  14
                  14
                  14
                  14
                  14
                  14
                  14
                  14
                  14
                  14
                  14
                  14
                  14
                  14
                  14
                  14
                  14
                  14
                  14
                  14
                  14
                  14
                  14
                  14
                  14
                  14
                  14
                  14
                  14
                  14
                  14
                  14
                  14
                  14
                  14
                  14
                  14
                  14
                  14
                  14
                  14
                  14
                  14
                  14
                  14
                  14
                  14
                  14
                  14
                  14
                  14
                  14
                  14
                  14
                  14
                  14
                  14
                  14
                  14
                  14
                  14
                  14
                  14
                  14
                  14
                  14
                  14
                  14
                  14
                  14
                  14
                  14
                  14
                  14
                  14
                  14
                  14
                  14
                  14
                  14
                  14
                  14
                  14
                  14
                  14
                  14
                  14
                  14
                  14
                  14
                  14
                  14
                  14
                  14
                  14
                  14
                  14
                  14
                  14
                  14
                  14
                  14
                  14
                  14
                  14
                  14
                  14
                  14
                  14
                  14
                  14
                  14
                  14
                  14
                  14
                  14
                  14
                  14
                  14
                  14
                  14
                  14
                  14
                  14
                  14
                  14
                  14
                  14
                  14
                  14
                  14
                  14
                  14
                  14
                  14
                  14
                  14
                  14
                  14
                  14
                  14
                  14
                  14
                  15
                  15
                  15
                  15
                  15
                  15
                  15
                  15
                  15
                  15
                  15
                  15
                  15
                  15
                  15
                  15
                  15
                  15
                  15
                  15
                  15
                  15
                  15
                  15
                  15
                  15
                  15
                  15
                  15
                  15
                  15
                  15
                  15
                  15
                  15
                  15
                  15
                  15
                  15
                  15
                  15
                  15
                  15
                  15
                  15
                  15
                  15
                  15
                  15
                  15
                  15
                  15
                  15
                  15
                  15
                  15
                  15
                  15
                  15
                  15
                  15
                  15
                  15
                  15
                  15
                  15
                  15
                  15
                  15
                  15
                  15
                  15
                  15
                  15
                  15
                  15
                  15
                  15
                  15
                  15
                  15
                  15
                  15
                  15
                  15
                  15
                  15
                  15
                  15
                  15
                  15
                  15
                  15
                  15
                  15
                  15
                  15
                  15
                  15
                  15
                  15
                  15
                  15
                  15
                  15
                  15
                  15
                  15
                  15
                  15
                  15
                  15
                  15
                  15
                  15
                  15
                  15
                  15
                  15
                  15
                  15
                  15
                  15
                  15
                  15
                  15
                  15
                  15
                  15
                  15
                  15
                  15
                  15
                  15
                  15
                  15
                  15
                  15
                  15
                  15
                  15
                  15
                  15
                  15
                  15
                  15
                  15
                  15
                  15
                  15
                  15
                  15
                  15
                  15
                  15
                  15
                  15
                  15
                  15
                  15
                  15
                  15
                  15
                  15
                  15
                  15
                  15
                  15
                  15
                  15
                  15
                  15
                  15
                  15
                  15
                  15
                  15
                  15
                  15
                  15
                  15
                  15
                  15
                  15
                  15
                  15
                  15
                  15
                  15
                  15
                  15
                  15
                  15
                  15
                  15
                  15
                  15
                  15
                  15
                  15
                  15
                  15
                  15
                  15
                  15
                  15
                  15
                  15
                  15
                  15
                  15
                  15
                  15
                  15
                  15
                  15
                  15
                  15
                  15
                  15
                  15
                  15
                  15
                  15
                  15
                  15
                  15
                  15
                  15
                  15
                  15
                  15
                  15
                  15
                  15
                  15
                  15
                  15
                  15
                  15
                  15
                  15
                  15
                  15
                  15
                  15
                  15
                  15
                  15
                  15
                  15
                  15
                  15
                  15
                  15
                  15
                  15
                  15
                  15
                  15
                  15
                  15
                  15
                  15
                  15
                  15
                  15
                  15
                  15
                  15
                  15
                  15
                  15
                  15
                  15
                  15
                  15
                  15
                  15
                  15
                  15
                  15
                  15
                  15
                  15
                  15
                  15
                  15
                  15
                  15
                  15
                  15
                  15
                  15
                  15
                  15
                  15
                  15
                  15
                  15
                  15
                  15
                  15
                  15
                  15
                  15
                  15
                  15
                  15
                  15
                  15
                  15
                  16
                  16
                  16
                  16
                  16
                  16
                  16
                  16
                  16
                  16
                  16
                  16
                  16
                  16
                  16
                  16
                  16
                  16
                  16
                  16
                  16
                  16
                  16
                  16
                  16
                  16
                  16
                  16
                  16
                  16
                  16
                  16
                  16
                  16
                  16
                  16
                  16
                  16
                  16
                  16
                  16
                  16
                  16
                  16
                  16
                  16
                  16
                  16
                  16
                  16
                  16
                  16
                  16
                  16
                  16
                  16
                  16
                  16
                  16
                  16
                  16
                  16
                  16
                  16
                  16
                  16
                  16
                  16
                  16
                  16
                  16
                  16
                  16
                  16
                  16
                  16
                  16
                  16
                  16
                  16
                  16
                  16
                  16
                  16
                  16
                  16
                  16
                  16
                  16
                  16
                  16
                  16
                  16
                  16
                  16
                  16
                  16
                  16
                  16
                  16
                  16
                  16
                  16
                  16
                  16
                  16
                  16
                  16
                  16
                  16
                  16
                  16
                  16
                  16
                  16
                  16
                  16
                  16
                  16
                  16
                  16
                  16
                  16
                  16
                  16
                  16
                  16
                  16
                  16
                  16
                  16
                  16
                  16
                  16
                  16
                  16
                  16
                  16
                  16
                  16
                  16
                  16
                  16
                  16
                  16
                  16
                  16
                  16
                  16
                  16
                  16
                  16
                  16
                  16
                  16
                  16
                  16
                  16
                  16
                  16
                  16
                  16
                  16
                  16
                  16
                  16
                  16
                  16
                  16
                  16
                  16
                  16
                  16
                  16
                  16
                  16
                  16
                  16
                  16
                  16
                  16
                  16
                  16
                  16
                  16
                  16
                  16
                  16
                  16
                  16
                  16
                  16
                  16
                  16
                  16
                  16
                  16
                  16
                  16
                  16
                  16
                  16
                  16
                  16
                  16
                  16
                  16
                  16
                  16
                  16
                  16
                  16
                  16
                  16
                  16
                  16
                  16
                  16
                  16
                  16
                  16
                  16
                  16
                  16
                  16
                  16
                  16
                  16
                  16
                  16
                  16
                  16
                  16
                  16
                  17
                  17
                  17
                  17
                  17
                  17
                  17
                  17
                  17
                  17
                  17
                  17
                  17
                  17
                  17
                  17
                  17
                  17
                  17
                  17
                  17
                  17
                  17
                  17
                  17
                  17
                  17
                  17
                  17
                  17
                  17
                  17
                  17
                  17
                  17
                  17
                  17
                  17
                  17
                  17
                  17
                  17
                  17
                  17
                  17
                  17
                  17
                  17
                  17
                  17
                  17
                  17
                  17
                  17
                  17
                  17
                  17
                  17
                  17
                  17
                  17
                  17
                  17
                  17
                  17
                  17
                  17
                  17
                  17
                  17
                  17
                  17
                  17
                  17
                  17
                  17
                  17
                  17
                  17
                  17
                  17
                  17
                  17
                  17
                  17
                  17
                  17
                  17
                  17
                  17
                  17
                  17
                  17
                  17
                  17
                  17
                  17
                  17
                  17
                  17
                  17
                  17
                  17
                  17
                  17
                  17
                  17
                  17
                  17
                  17
                  17
                  17
                  17
                  17
                  17
                  17
                  17
                  17
                  17
                  17
                  17
                  17
                  17
                  17
                  17
                  17
                  17
                  17
                  17
                  17
                  17
                  17
                  17
                  17
                  17
                  17
                  17
                  17
                  17
                  17
                  17
                  17
                  17
                  17
                  17
                  17
                  17
                  17
                  17
                  17
                  17
                  17
                  17
                  17
                  17
                  17
                  17
                  17
                  17
                  17
                  17
                  17
                  17
                  17
                  17
                  17
                  17
                  17
                  17
                  17
                  17
                  17
                  17
                  17
                  17
                  17
                  17
                  17
                  17
                  17
                  17
                  17
                  17
                  17
                  17
                  17
                  17
                  17
                  17
                  17
                  17
                  17
                  17
                  17
                  17
                  17
                  17
                  17
                  17
                  17
                  17
                  17
                  17
                  17
                  17
                  17
                  17
                  17
                  17
                  17
                  17
                  17
                  17
                  17
                  17
                  17
                  17
                  17
                  17
                  17
                  17
                  17
                  17
                  17
                  17
                  17
                  17
                  17
                  17
                  17
                  17
                  17
                  17
                  17
                  18
                  18
                  18
                  18
                  18
                  18
                  18
                  18
                  18
                  18
                  18
                  18
                  18
                  18
                  18
                  18
                  18
                  18
                  18
                  18
                  18
                  18
                  18
                  18
                  18
                  18
                  18
                  18
                  18
                  18
                  18
                  18
                  18
                  18
                  18
                  18
                  18
                  18
                  18
                  18
                  18
                  18
                  18
                  18
                  18
                  18
                  18
                  18
                  18
                  18
                  18
                  18
                  18
                  18
                  18
                  18
                  18
                  18
                  18
                  18
                  18
                  18
                  18
                  18
                  18
                  18
                  18
                  18
                  18
                  18
                  18
                  18
                  18
                  18
                  18
                  18
                  18
                  18
                  18
                  18
                  18
                  18
                  18
                  18
                  18
                  18
                  18
                  18
                  18
                  18
                  18
                  18
                  18
                  18
                  18
                  18
                  18
                  18
                  18
                  18
                  18
                  18
                  18
                  18
                  18
                  18
                  18
                  18
                  18
                  18
                  18
                  18
                  18
                  18
                  18
                  18
                  18
                  18
                  18
                  18
                  18
                  18
                  18
                  18
                  18
                  18
                  18
                  18
                  18
                  18
                  18
                  18
                  18
                  18
                  18
                  18
                  18
                  18
                  18
                  18
                  18
                  18
                  18
                  18
                  18
                  18
                  18
                  18
                  18
                  18
                  18
                  18
                  18
                  18
                  18
                  18
  
SCALARS                 displacement_x  double 1
LOOKUP_TABLE default
         0.00000E+00
         0.00000E+00
         0.00000E+00
         0.00000E+00
         0.00000E+00
         0.00000E+00
         0.00000E+00
         0.00000E+00
         0.00000E+00
         0.00000E+00
         0.00000E+00
         0.00000E+00
         0.00000E+00
         0.00000E+00
         0.00000E+00
         0.00000E+00
         0.00000E+00
         0.00000E+00
         0.00000E+00
         0.00000E+00
         0.00000E+00
         0.00000E+00
         0.00000E+00
         0.00000E+00
         0.00000E+00
         0.00000E+00
         0.00000E+00
         0.00000E+00
         0.00000E+00
         0.00000E+00
         0.00000E+00
         0.00000E+00
         0.00000E+00
         0.00000E+00
         0.00000E+00
         0.00000E+00
         0.00000E+00
         0.00000E+00
         0.00000E+00
         0.00000E+00
         0.00000E+00
         0.00000E+00
         0.00000E+00
         0.00000E+00
         0.00000E+00
         0.00000E+00
         0.00000E+00
         0.00000E+00
         0.00000E+00
         0.00000E+00
         0.00000E+00
         0.00000E+00
         0.00000E+00
         0.00000E+00
         0.00000E+00
         0.00000E+00
         0.00000E+00
         0.00000E+00
         0.00000E+00
         0.00000E+00
         0.00000E+00
         0.00000E+00
         0.00000E+00
         0.00000E+00
         0.00000E+00
         0.00000E+00
         0.00000E+00
         0.00000E+00
         0.00000E+00
         0.00000E+00
         0.00000E+00
         0.00000E+00
         0.00000E+00
         0.00000E+00
         0.00000E+00
         0.00000E+00
         0.00000E+00
         0.00000E+00
         0.00000E+00
         0.00000E+00
         0.00000E+00
         0.00000E+00
         0.00000E+00
         0.00000E+00
         0.00000E+00
         0.00000E+00
         0.00000E+00
         0.00000E+00
         0.00000E+00
         0.00000E+00
         0.00000E+00
         0.00000E+00
         0.00000E+00
         0.00000E+00
         0.00000E+00
         0.00000E+00
         0.00000E+00
         0.00000E+00
         0.00000E+00
         0.00000E+00
         0.00000E+00
         0.00000E+00
         0.00000E+00
         0.00000E+00
         0.00000E+00
         0.00000E+00
         0.00000E+00
         0.00000E+00
         0.00000E+00
         0.00000E+00
         0.00000E+00
         0.00000E+00
         0.00000E+00
         0.00000E+00
         0.00000E+00
         0.00000E+00
         0.00000E+00
         0.00000E+00
         0.00000E+00
         0.00000E+00
         0.00000E+00
         0.00000E+00
         0.00000E+00
         0.00000E+00
         0.00000E+00
         0.00000E+00
         0.00000E+00
         0.00000E+00
         0.00000E+00
         0.00000E+00
         0.00000E+00
         0.00000E+00
         0.00000E+00
         0.00000E+00
         0.00000E+00
         0.00000E+00
         0.00000E+00
         0.00000E+00
         0.00000E+00
         0.00000E+00
         0.00000E+00
         0.00000E+00
         0.00000E+00
         0.00000E+00
         0.00000E+00
         0.00000E+00
         0.00000E+00
         0.00000E+00
         0.00000E+00
         0.00000E+00
         0.00000E+00
         0.00000E+00
         0.00000E+00
         0.00000E+00
         0.00000E+00
         0.00000E+00
         0.00000E+00
         0.00000E+00
         0.00000E+00
         0.00000E+00
         0.00000E+00
         0.00000E+00
         0.00000E+00
         0.00000E+00
         0.00000E+00
         0.00000E+00
         0.00000E+00
         0.00000E+00
         0.00000E+00
         0.00000E+00
         0.00000E+00
         0.00000E+00
         0.00000E+00
         0.00000E+00
         0.00000E+00
         0.00000E+00
         0.00000E+00
         0.00000E+00
         0.00000E+00
         0.00000E+00
         0.00000E+00
         0.00000E+00
         0.00000E+00
         0.00000E+00
         0.00000E+00
         0.00000E+00
         0.00000E+00
         0.00000E+00
         0.00000E+00
         0.00000E+00
         0.00000E+00
         0.00000E+00
         0.00000E+00
         0.00000E+00
         0.00000E+00
         0.00000E+00
         0.00000E+00
         0.00000E+00
         0.00000E+00
         0.00000E+00
         0.00000E+00
         0.00000E+00
         0.00000E+00
         0.00000E+00
         0.00000E+00
         0.00000E+00
         0.00000E+00
         0.00000E+00
         0.00000E+00
         0.00000E+00
         0.00000E+00
         0.00000E+00
         0.00000E+00
         0.00000E+00
         0.00000E+00
         0.00000E+00
         0.00000E+00
         0.00000E+00
         0.00000E+00
         0.00000E+00
         0.00000E+00
         0.00000E+00
         0.00000E+00
         0.00000E+00
         0.00000E+00
         0.00000E+00
         0.00000E+00
         0.00000E+00
         0.00000E+00
         0.00000E+00
         0.00000E+00
         0.00000E+00
         0.00000E+00
         0.00000E+00
         0.00000E+00
         0.00000E+00
         0.00000E+00
         0.00000E+00
         0.00000E+00
         0.00000E+00
         0.00000E+00
         0.00000E+00
         0.00000E+00
         0.00000E+00
         0.00000E+00
         0.00000E+00
         0.00000E+00
         0.00000E+00
         0.00000E+00
         0.00000E+00
         0.00000E+00
         0.00000E+00
         0.00000E+00
         0.00000E+00
         0.00000E+00
         0.00000E+00
         0.00000E+00
         0.00000E+00
         0.00000E+00
         0.00000E+00
         0.00000E+00
         0.00000E+00
         0.00000E+00
         0.00000E+00
         0.00000E+00
         0.00000E+00
         0.00000E+00
         0.00000E+00
         0.00000E+00
         0.00000E+00
         0.00000E+00
         0.00000E+00
         0.00000E+00
         0.00000E+00
         0.00000E+00
         0.00000E+00
         0.00000E+00
         0.00000E+00
         0.00000E+00
         0.00000E+00
         0.00000E+00
         0.00000E+00
         0.00000E+00
         0.00000E+00
         0.00000E+00
         0.00000E+00
         0.00000E+00
         0.00000E+00
         0.00000E+00
         0.00000E+00
         0.00000E+00
         0.00000E+00
         0.00000E+00
         0.00000E+00
         0.00000E+00
         0.00000E+00
         0.00000E+00
         0.00000E+00
         0.00000E+00
         0.00000E+00
         0.00000E+00
         0.00000E+00
         0.00000E+00
         0.00000E+00
         0.00000E+00
         0.00000E+00
         0.00000E+00
         0.00000E+00
         0.00000E+00
         0.00000E+00
         0.00000E+00
         0.00000E+00
         0.00000E+00
         0.00000E+00
         0.00000E+00
         0.00000E+00
         0.00000E+00
         0.00000E+00
         0.00000E+00
         0.00000E+00
         0.00000E+00
         0.00000E+00
         0.00000E+00
         0.00000E+00
         0.00000E+00
         0.00000E+00
         0.00000E+00
         0.00000E+00
         0.00000E+00
         0.00000E+00
         0.00000E+00
         0.00000E+00
         0.00000E+00
         0.00000E+00
         0.00000E+00
         0.00000E+00
         0.00000E+00
         0.00000E+00
         0.00000E+00
         0.00000E+00
         0.00000E+00
         0.00000E+00
         0.00000E+00
         0.00000E+00
         0.00000E+00
         0.00000E+00
         0.00000E+00
         0.00000E+00
         0.00000E+00
         0.00000E+00
         0.00000E+00
         0.00000E+00
         0.00000E+00
         0.00000E+00
         0.00000E+00
         0.00000E+00
         0.00000E+00
         0.00000E+00
         0.00000E+00
         0.00000E+00
         0.00000E+00
         0.00000E+00
         0.00000E+00
         0.00000E+00
         0.00000E+00
         0.00000E+00
         0.00000E+00
         0.00000E+00
         0.00000E+00
         0.00000E+00
         0.00000E+00
         0.00000E+00
         0.00000E+00
         0.00000E+00
         0.00000E+00
         0.00000E+00
         0.00000E+00
         0.00000E+00
         0.00000E+00
         0.00000E+00
         0.00000E+00
         0.00000E+00
         0.00000E+00
         0.00000E+00
         0.00000E+00
         0.00000E+00
         0.00000E+00
         0.00000E+00
         0.00000E+00
         0.00000E+00
         0.00000E+00
         0.00000E+00
         0.00000E+00
         0.00000E+00
         0.00000E+00
         0.00000E+00
         0.00000E+00
         0.00000E+00
         0.00000E+00
         0.00000E+00
         0.00000E+00
         0.00000E+00
         0.00000E+00
         0.00000E+00
         0.00000E+00
         0.00000E+00
         0.00000E+00
         0.00000E+00
         0.00000E+00
         0.00000E+00
         0.00000E+00
         0.00000E+00
         0.00000E+00
         0.00000E+00
         0.00000E+00
         0.00000E+00
         0.00000E+00
         0.00000E+00
         0.00000E+00
         0.00000E+00
         0.00000E+00
         0.00000E+00
         0.00000E+00
         0.00000E+00
         0.00000E+00
         0.00000E+00
         0.00000E+00
         0.00000E+00
         0.00000E+00
         0.00000E+00
         0.00000E+00
         0.00000E+00
         0.00000E+00
         0.00000E+00
         0.00000E+00
         0.00000E+00
         0.00000E+00
         0.00000E+00
         0.00000E+00
         0.00000E+00
         0.00000E+00
         0.00000E+00
         0.00000E+00
         0.00000E+00
         0.00000E+00
         0.00000E+00
         0.00000E+00
         0.00000E+00
         0.00000E+00
         0.00000E+00
         0.00000E+00
         0.00000E+00
         0.00000E+00
         0.00000E+00
         0.00000E+00
         0.00000E+00
         0.00000E+00
         0.00000E+00
         0.00000E+00
         0.00000E+00
         0.00000E+00
         0.00000E+00
         0.00000E+00
         0.00000E+00
         0.00000E+00
         0.00000E+00
         0.00000E+00
         0.00000E+00
         0.00000E+00
         0.00000E+00
         0.00000E+00
         0.00000E+00
         0.00000E+00
         0.00000E+00
         0.00000E+00
         0.00000E+00
         0.00000E+00
         0.00000E+00
         0.00000E+00
         0.00000E+00
         0.00000E+00
         0.00000E+00
         0.00000E+00
         0.00000E+00
         0.00000E+00
         0.00000E+00
         0.00000E+00
         0.00000E+00
         0.00000E+00
         0.00000E+00
         0.00000E+00
         0.00000E+00
         0.00000E+00
         0.00000E+00
         0.00000E+00
         0.00000E+00
         0.00000E+00
         0.00000E+00
         0.00000E+00
         0.00000E+00
         0.00000E+00
         0.00000E+00
         0.00000E+00
         0.00000E+00
         0.00000E+00
         0.00000E+00
         0.00000E+00
         0.00000E+00
         0.00000E+00
         0.00000E+00
         0.00000E+00
         0.00000E+00
         0.00000E+00
         0.00000E+00
         0.00000E+00
         0.00000E+00
         0.00000E+00
         0.00000E+00
         0.00000E+00
         0.00000E+00
         0.00000E+00
         0.00000E+00
         0.00000E+00
         0.00000E+00
         0.00000E+00
         0.00000E+00
         0.00000E+00
         0.00000E+00
         0.00000E+00
         0.00000E+00
         0.00000E+00
         0.00000E+00
         0.00000E+00
         0.00000E+00
         0.00000E+00
         0.00000E+00
         0.00000E+00
         0.00000E+00
         0.00000E+00
         0.00000E+00
         0.00000E+00
         0.00000E+00
         0.00000E+00
         0.00000E+00
         0.00000E+00
         0.00000E+00
         0.00000E+00
         0.00000E+00
         0.00000E+00
         0.00000E+00
         0.00000E+00
         0.00000E+00
         0.00000E+00
         0.00000E+00
         0.00000E+00
         0.00000E+00
         0.00000E+00
         0.00000E+00
         0.00000E+00
         0.00000E+00
         0.00000E+00
         0.00000E+00
         0.00000E+00
         0.00000E+00
         0.00000E+00
         0.00000E+00
         0.00000E+00
         0.00000E+00
         0.00000E+00
         0.00000E+00
         0.00000E+00
         0.00000E+00
         0.00000E+00
         0.00000E+00
         0.00000E+00
         0.00000E+00
         0.00000E+00
         0.00000E+00
         0.00000E+00
         0.00000E+00
         0.00000E+00
         0.00000E+00
         0.00000E+00
         0.00000E+00
         0.00000E+00
         0.00000E+00
         0.00000E+00
         0.00000E+00
         0.00000E+00
         0.00000E+00
         0.00000E+00
         0.00000E+00
         0.00000E+00
         0.00000E+00
         0.00000E+00
         0.00000E+00
         0.00000E+00
         0.00000E+00
         0.00000E+00
         0.00000E+00
         0.00000E+00
         0.00000E+00
         0.00000E+00
         0.00000E+00
         0.00000E+00
         0.00000E+00
         0.00000E+00
         0.00000E+00
         0.00000E+00
         0.00000E+00
         0.00000E+00
         0.00000E+00
         0.00000E+00
         0.00000E+00
         0.00000E+00
         0.00000E+00
         0.00000E+00
         0.00000E+00
         0.00000E+00
         0.00000E+00
         0.00000E+00
         0.00000E+00
         0.00000E+00
         0.00000E+00
         0.00000E+00
         0.00000E+00
         0.00000E+00
         0.00000E+00
         0.00000E+00
         0.00000E+00
         0.00000E+00
         0.00000E+00
         0.00000E+00
         0.00000E+00
         0.00000E+00
         0.00000E+00
         0.00000E+00
         0.00000E+00
         0.00000E+00
         0.00000E+00
         0.00000E+00
         0.00000E+00
         0.00000E+00
         0.00000E+00
         0.00000E+00
         0.00000E+00
         0.00000E+00
         0.00000E+00
         0.00000E+00
         0.00000E+00
         0.00000E+00
         0.00000E+00
         0.00000E+00
         0.00000E+00
         0.00000E+00
         0.00000E+00
         0.00000E+00
         0.00000E+00
         0.00000E+00
         0.00000E+00
         0.00000E+00
         0.00000E+00
         0.00000E+00
         0.00000E+00
         0.00000E+00
         0.00000E+00
         0.00000E+00
         0.00000E+00
         0.00000E+00
         0.00000E+00
         0.00000E+00
         0.00000E+00
         0.00000E+00
         0.00000E+00
         0.00000E+00
         0.00000E+00
         0.00000E+00
         0.00000E+00
         0.00000E+00
         0.00000E+00
         0.00000E+00
         0.00000E+00
         0.00000E+00
         0.00000E+00
         0.00000E+00
         0.00000E+00
         0.00000E+00
         0.00000E+00
         0.00000E+00
         0.00000E+00
         0.00000E+00
         0.00000E+00
         0.00000E+00
         0.00000E+00
         0.00000E+00
         0.00000E+00
         0.00000E+00
         0.00000E+00
         0.00000E+00
         0.00000E+00
         0.00000E+00
         0.00000E+00
         0.00000E+00
         0.00000E+00
         0.00000E+00
         0.00000E+00
         0.00000E+00
         0.00000E+00
         0.00000E+00
         0.00000E+00
         0.00000E+00
         0.00000E+00
         0.00000E+00
         0.00000E+00
         0.00000E+00
         0.00000E+00
         0.00000E+00
         0.00000E+00
         0.00000E+00
         0.00000E+00
         0.00000E+00
         0.00000E+00
         0.00000E+00
         0.00000E+00
         0.00000E+00
         0.00000E+00
         0.00000E+00
         0.00000E+00
         0.00000E+00
         0.00000E+00
         0.00000E+00
         0.00000E+00
         0.00000E+00
         0.00000E+00
         0.00000E+00
         0.00000E+00
         0.00000E+00
         0.00000E+00
         0.00000E+00
         0.00000E+00
         0.00000E+00
         0.00000E+00
         0.00000E+00
         0.00000E+00
         0.00000E+00
         0.00000E+00
         0.00000E+00
         0.00000E+00
         0.00000E+00
         0.00000E+00
         0.00000E+00
         0.00000E+00
         0.00000E+00
         0.00000E+00
         0.00000E+00
         0.00000E+00
         0.00000E+00
         0.00000E+00
         0.00000E+00
         0.00000E+00
         0.00000E+00
         0.00000E+00
         0.00000E+00
         0.00000E+00
         0.00000E+00
         0.00000E+00
         0.00000E+00
         0.00000E+00
         0.00000E+00
         0.00000E+00
         0.00000E+00
         0.00000E+00
         0.00000E+00
         0.00000E+00
         0.00000E+00
         0.00000E+00
         0.00000E+00
         0.00000E+00
         0.00000E+00
         0.00000E+00
         0.00000E+00
         0.00000E+00
         0.00000E+00
         0.00000E+00
         0.00000E+00
         0.00000E+00
         0.00000E+00
         0.00000E+00
         0.00000E+00
         0.00000E+00
         0.00000E+00
         0.00000E+00
         0.00000E+00
         0.00000E+00
         0.00000E+00
         0.00000E+00
         0.00000E+00
         0.00000E+00
         0.00000E+00
         0.00000E+00
         0.00000E+00
         0.00000E+00
         0.00000E+00
         0.00000E+00
         0.00000E+00
         0.00000E+00
         0.00000E+00
         0.00000E+00
         0.00000E+00
         0.00000E+00
         0.00000E+00
         0.00000E+00
         0.00000E+00
         0.00000E+00
         0.00000E+00
         0.00000E+00
         0.00000E+00
         0.00000E+00
         0.00000E+00
         0.00000E+00
         0.00000E+00
         0.00000E+00
         0.00000E+00
         0.00000E+00
         0.00000E+00
         0.00000E+00
         0.00000E+00
         0.00000E+00
         0.00000E+00
         0.00000E+00
         0.00000E+00
         0.00000E+00
         0.00000E+00
         0.00000E+00
         0.00000E+00
         0.00000E+00
         0.00000E+00
         0.00000E+00
         0.00000E+00
         0.00000E+00
         0.00000E+00
         0.00000E+00
         0.00000E+00
         0.00000E+00
         0.00000E+00
         0.00000E+00
         0.00000E+00
         0.00000E+00
         0.00000E+00
         0.00000E+00
         0.00000E+00
         0.00000E+00
         0.00000E+00
         0.00000E+00
         0.00000E+00
         0.00000E+00
         0.00000E+00
         0.00000E+00
         0.00000E+00
         0.00000E+00
         0.00000E+00
         0.00000E+00
         0.00000E+00
         0.00000E+00
         0.00000E+00
         0.00000E+00
         0.00000E+00
         0.00000E+00
         0.00000E+00
         0.00000E+00
         0.00000E+00
         0.00000E+00
         0.00000E+00
         0.00000E+00
         0.00000E+00
         0.00000E+00
         0.00000E+00
         0.00000E+00
         0.00000E+00
         0.00000E+00
         0.00000E+00
         0.00000E+00
         0.00000E+00
         0.00000E+00
         0.00000E+00
         0.00000E+00
         0.00000E+00
         0.00000E+00
         0.00000E+00
         0.00000E+00
         0.00000E+00
         0.00000E+00
         0.00000E+00
         0.00000E+00
         0.00000E+00
         0.00000E+00
         0.00000E+00
         0.00000E+00
         0.00000E+00
         0.00000E+00
         0.00000E+00
         0.00000E+00
         0.00000E+00
         0.00000E+00
         0.00000E+00
         0.00000E+00
         0.00000E+00
         0.00000E+00
         0.00000E+00
         0.00000E+00
         0.00000E+00
         0.00000E+00
         0.00000E+00
         0.00000E+00
         0.00000E+00
         0.00000E+00
         0.00000E+00
         0.00000E+00
         0.00000E+00
         0.00000E+00
         0.00000E+00
         0.00000E+00
         0.00000E+00
         0.00000E+00
         0.00000E+00
         0.00000E+00
         0.00000E+00
         0.00000E+00
         0.00000E+00
         0.00000E+00
         0.00000E+00
         0.00000E+00
         0.00000E+00
         0.00000E+00
         0.00000E+00
         0.00000E+00
         0.00000E+00
         0.00000E+00
         0.00000E+00
         0.00000E+00
         0.00000E+00
         0.00000E+00
         0.00000E+00
         0.00000E+00
         0.00000E+00
         0.00000E+00
         0.00000E+00
         0.00000E+00
         0.00000E+00
         0.00000E+00
         0.00000E+00
         0.00000E+00
         0.00000E+00
         0.00000E+00
         0.00000E+00
         0.00000E+00
         0.00000E+00
         0.00000E+00
         0.00000E+00
         0.00000E+00
         0.00000E+00
         0.00000E+00
         0.00000E+00
         0.00000E+00
         0.00000E+00
         0.00000E+00
         0.00000E+00
         0.00000E+00
         0.00000E+00
         0.00000E+00
         0.00000E+00
         0.00000E+00
         0.00000E+00
         0.00000E+00
         0.00000E+00
         0.00000E+00
         0.00000E+00
         0.00000E+00
         0.00000E+00
         0.00000E+00
         0.00000E+00
         0.00000E+00
         0.00000E+00
         0.00000E+00
         0.00000E+00
         0.00000E+00
         0.00000E+00
         0.00000E+00
         0.00000E+00
         0.00000E+00
         0.00000E+00
         0.00000E+00
         0.00000E+00
         0.00000E+00
         0.00000E+00
         0.00000E+00
         0.00000E+00
         0.00000E+00
         0.00000E+00
         0.00000E+00
         0.00000E+00
         0.00000E+00
         0.00000E+00
         0.00000E+00
         0.00000E+00
         0.00000E+00
         0.00000E+00
         0.00000E+00
         0.00000E+00
         0.00000E+00
         0.00000E+00
         0.00000E+00
         0.00000E+00
         0.00000E+00
         0.00000E+00
         0.00000E+00
         0.00000E+00
         0.00000E+00
         0.00000E+00
         0.00000E+00
         0.00000E+00
         0.00000E+00
         0.00000E+00
         0.00000E+00
         0.00000E+00
         0.00000E+00
         0.00000E+00
         0.00000E+00
         0.00000E+00
         0.00000E+00
         0.00000E+00
         0.00000E+00
         0.00000E+00
         0.00000E+00
         0.00000E+00
         0.00000E+00
         0.00000E+00
         0.00000E+00
         0.00000E+00
         0.00000E+00
         0.00000E+00
         0.00000E+00
         0.00000E+00
         0.00000E+00
         0.00000E+00
         0.00000E+00
         0.00000E+00
         0.00000E+00
         0.00000E+00
         0.00000E+00
         0.00000E+00
         0.00000E+00
         0.00000E+00
         0.00000E+00
         0.00000E+00
         0.00000E+00
         0.00000E+00
         0.00000E+00
         0.00000E+00
         0.00000E+00
         0.00000E+00
         0.00000E+00
         0.00000E+00
         0.00000E+00
         0.00000E+00
         0.00000E+00
         0.00000E+00
         0.00000E+00
         0.00000E+00
         0.00000E+00
         0.00000E+00
         0.00000E+00
         0.00000E+00
         0.00000E+00
         0.00000E+00
         0.00000E+00
         0.00000E+00
         0.00000E+00
         0.00000E+00
         0.00000E+00
         0.00000E+00
         0.00000E+00
         0.00000E+00
         0.00000E+00
         0.00000E+00
         0.00000E+00
         0.00000E+00
         0.00000E+00
         0.00000E+00
         0.00000E+00
         0.00000E+00
         0.00000E+00
         0.00000E+00
         0.00000E+00
         0.00000E+00
         0.00000E+00
         0.00000E+00
         0.00000E+00
         0.00000E+00
         0.00000E+00
         0.00000E+00
         0.00000E+00
         0.00000E+00
         0.00000E+00
         0.00000E+00
         0.00000E+00
         0.00000E+00
         0.00000E+00
         0.00000E+00
         0.00000E+00
         0.00000E+00
         0.00000E+00
         0.00000E+00
         0.00000E+00
         0.00000E+00
         0.00000E+00
         0.00000E+00
         0.00000E+00
         0.00000E+00
         0.00000E+00
         0.00000E+00
         0.00000E+00
         0.00000E+00
         0.00000E+00
         0.00000E+00
         0.00000E+00
         0.00000E+00
         0.00000E+00
         0.00000E+00
         0.00000E+00
         0.00000E+00
         0.00000E+00
         0.00000E+00
         0.00000E+00
         0.00000E+00
         0.00000E+00
         0.00000E+00
         0.00000E+00
         0.00000E+00
         0.00000E+00
         0.00000E+00
         0.00000E+00
         0.00000E+00
         0.00000E+00
         0.00000E+00
         0.00000E+00
         0.00000E+00
         0.00000E+00
         0.00000E+00
         0.00000E+00
         0.00000E+00
         0.00000E+00
         0.00000E+00
         0.00000E+00
         0.00000E+00
         0.00000E+00
         0.00000E+00
         0.00000E+00
         0.00000E+00
         0.00000E+00
         0.00000E+00
         0.00000E+00
         0.00000E+00
         0.00000E+00
         0.00000E+00
         0.00000E+00
         0.00000E+00
         0.00000E+00
         0.00000E+00
         0.00000E+00
         0.00000E+00
         0.00000E+00
         0.00000E+00
         0.00000E+00
         0.00000E+00
         0.00000E+00
         0.00000E+00
         0.00000E+00
         0.00000E+00
         0.00000E+00
         0.00000E+00
         0.00000E+00
         0.00000E+00
         0.00000E+00
         0.00000E+00
         0.00000E+00
         0.00000E+00
         0.00000E+00
         0.00000E+00
         0.00000E+00
         0.00000E+00
         0.00000E+00
         0.00000E+00
         0.00000E+00
         0.00000E+00
         0.00000E+00
         0.00000E+00
         0.00000E+00
         0.00000E+00
         0.00000E+00
         0.00000E+00
         0.00000E+00
         0.00000E+00
         0.00000E+00
         0.00000E+00
         0.00000E+00
         0.00000E+00
         0.00000E+00
         0.00000E+00
         0.00000E+00
         0.00000E+00
         0.00000E+00
         0.00000E+00
         0.00000E+00
         0.00000E+00
         0.00000E+00
         0.00000E+00
         0.00000E+00
         0.00000E+00
         0.00000E+00
         0.00000E+00
         0.00000E+00
         0.00000E+00
         0.00000E+00
         0.00000E+00
         0.00000E+00
         0.00000E+00
         0.00000E+00
         0.00000E+00
         0.00000E+00
         0.00000E+00
         0.00000E+00
         0.00000E+00
         0.00000E+00
         0.00000E+00
         0.00000E+00
         0.00000E+00
         0.00000E+00
         0.00000E+00
         0.00000E+00
         0.00000E+00
         0.00000E+00
         0.00000E+00
         0.00000E+00
         0.00000E+00
         0.00000E+00
         0.00000E+00
         0.00000E+00
         0.00000E+00
         0.00000E+00
         0.00000E+00
         0.00000E+00
         0.00000E+00
         0.00000E+00
         0.00000E+00
         0.00000E+00
         0.00000E+00
         0.00000E+00
         0.00000E+00
         0.00000E+00
         0.00000E+00
         0.00000E+00
         0.00000E+00
         0.00000E+00
         0.00000E+00
         0.00000E+00
         0.00000E+00
         0.00000E+00
         0.00000E+00
         0.00000E+00
         0.00000E+00
         0.00000E+00
         0.00000E+00
         0.00000E+00
         0.00000E+00
         0.00000E+00
         0.00000E+00
         0.00000E+00
         0.00000E+00
         0.00000E+00
         0.00000E+00
         0.00000E+00
         0.00000E+00
         0.00000E+00
         0.00000E+00
         0.00000E+00
         0.00000E+00
         0.00000E+00
         0.00000E+00
         0.00000E+00
         0.00000E+00
         0.00000E+00
         0.00000E+00
         0.00000E+00
         0.00000E+00
         0.00000E+00
         0.00000E+00
         0.00000E+00
         0.00000E+00
         0.00000E+00
         0.00000E+00
         0.00000E+00
         0.00000E+00
         0.00000E+00
         0.00000E+00
         0.00000E+00
         0.00000E+00
         0.00000E+00
         0.00000E+00
         0.00000E+00
         0.00000E+00
         0.00000E+00
         0.00000E+00
         0.00000E+00
         0.00000E+00
         0.00000E+00
         0.00000E+00
         0.00000E+00
         0.00000E+00
         0.00000E+00
         0.00000E+00
         0.00000E+00
         0.00000E+00
         0.00000E+00
         0.00000E+00
         0.00000E+00
         0.00000E+00
         0.00000E+00
         0.00000E+00
         0.00000E+00
         0.00000E+00
         0.00000E+00
         0.00000E+00
         0.00000E+00
         0.00000E+00
         0.00000E+00
         0.00000E+00
         0.00000E+00
         0.00000E+00
         0.00000E+00
         0.00000E+00
         0.00000E+00
         0.00000E+00
         0.00000E+00
         0.00000E+00
         0.00000E+00
         0.00000E+00
         0.00000E+00
         0.00000E+00
         0.00000E+00
         0.00000E+00
         0.00000E+00
         0.00000E+00
         0.00000E+00
         0.00000E+00
         0.00000E+00
         0.00000E+00
         0.00000E+00
         0.00000E+00
         0.00000E+00
         0.00000E+00
         0.00000E+00
         0.00000E+00
         0.00000E+00
         0.00000E+00
         0.00000E+00
         0.00000E+00
         0.00000E+00
         0.00000E+00
         0.00000E+00
         0.00000E+00
         0.00000E+00
         0.00000E+00
         0.00000E+00
         0.00000E+00
         0.00000E+00
         0.00000E+00
         0.00000E+00
         0.00000E+00
         0.00000E+00
         0.00000E+00
         0.00000E+00
         0.00000E+00
         0.00000E+00
         0.00000E+00
         0.00000E+00
         0.00000E+00
         0.00000E+00
         0.00000E+00
         0.00000E+00
         0.00000E+00
         0.00000E+00
         0.00000E+00
         0.00000E+00
         0.00000E+00
         0.00000E+00
         0.00000E+00
         0.00000E+00
         0.00000E+00
         0.00000E+00
         0.00000E+00
         0.00000E+00
         0.00000E+00
         0.00000E+00
         0.00000E+00
         0.00000E+00
         0.00000E+00
         0.00000E+00
         0.00000E+00
         0.00000E+00
         0.00000E+00
         0.00000E+00
         0.00000E+00
         0.00000E+00
         0.00000E+00
         0.00000E+00
         0.00000E+00
         0.00000E+00
         0.00000E+00
         0.00000E+00
         0.00000E+00
         0.00000E+00
         0.00000E+00
         0.00000E+00
         0.00000E+00
         0.00000E+00
         0.00000E+00
         0.00000E+00
         0.00000E+00
         0.00000E+00
         0.00000E+00
         0.00000E+00
         0.00000E+00
         0.00000E+00
         0.00000E+00
         0.00000E+00
         0.00000E+00
         0.00000E+00
         0.00000E+00
         0.00000E+00
         0.00000E+00
         0.00000E+00
         0.00000E+00
         0.00000E+00
         0.00000E+00
         0.00000E+00
         0.00000E+00
         0.00000E+00
         0.00000E+00
         0.00000E+00
         0.00000E+00
         0.00000E+00
         0.00000E+00
         0.00000E+00
         0.00000E+00
         0.00000E+00
         0.00000E+00
         0.00000E+00
         0.00000E+00
         0.00000E+00
         0.00000E+00
         0.00000E+00
         0.00000E+00
         0.00000E+00
         0.00000E+00
         0.00000E+00
         0.00000E+00
         0.00000E+00
         0.00000E+00
         0.00000E+00
         0.00000E+00
         0.00000E+00
         0.00000E+00
         0.00000E+00
         0.00000E+00
         0.00000E+00
         0.00000E+00
         0.00000E+00
         0.00000E+00
         0.00000E+00
         0.00000E+00
         0.00000E+00
         0.00000E+00
         0.00000E+00
         0.00000E+00
         0.00000E+00
         0.00000E+00
         0.00000E+00
         0.00000E+00
         0.00000E+00
         0.00000E+00
         0.00000E+00
         0.00000E+00
         0.00000E+00
         0.00000E+00
         0.00000E+00
         0.00000E+00
         0.00000E+00
         0.00000E+00
         0.00000E+00
         0.00000E+00
         0.00000E+00
         0.00000E+00
         0.00000E+00
         0.00000E+00
         0.00000E+00
         0.00000E+00
         0.00000E+00
         0.00000E+00
         0.00000E+00
         0.00000E+00
         0.00000E+00
         0.00000E+00
         0.00000E+00
         0.00000E+00
         0.00000E+00
         0.00000E+00
         0.00000E+00
         0.00000E+00
         0.00000E+00
         0.00000E+00
         0.00000E+00
         0.00000E+00
         0.00000E+00
         0.00000E+00
         0.00000E+00
         0.00000E+00
         0.00000E+00
         0.00000E+00
         0.00000E+00
         0.00000E+00
         0.00000E+00
         0.00000E+00
         0.00000E+00
         0.00000E+00
         0.00000E+00
         0.00000E+00
         0.00000E+00
         0.00000E+00
         0.00000E+00
         0.00000E+00
         0.00000E+00
         0.00000E+00
         0.00000E+00
         0.00000E+00
         0.00000E+00
         0.00000E+00
         0.00000E+00
         0.00000E+00
         0.00000E+00
         0.00000E+00
         0.00000E+00
         0.00000E+00
         0.00000E+00
         0.00000E+00
         0.00000E+00
         0.00000E+00
         0.00000E+00
         0.00000E+00
         0.00000E+00
         0.00000E+00
         0.00000E+00
         0.00000E+00
         0.00000E+00
         0.00000E+00
         0.00000E+00
         0.00000E+00
         0.00000E+00
         0.00000E+00
         0.00000E+00
         0.00000E+00
         0.00000E+00
         0.00000E+00
         0.00000E+00
         0.00000E+00
         0.00000E+00
         0.00000E+00
         0.00000E+00
         0.00000E+00
         0.00000E+00
         0.00000E+00
         0.00000E+00
         0.00000E+00
         0.00000E+00
         0.00000E+00
         0.00000E+00
         0.00000E+00
         0.00000E+00
         0.00000E+00
         0.00000E+00
         0.00000E+00
         0.00000E+00
         0.00000E+00
         0.00000E+00
         0.00000E+00
         0.00000E+00
         0.00000E+00
         0.00000E+00
         0.00000E+00
         0.00000E+00
         0.00000E+00
         0.00000E+00
         0.00000E+00
         0.00000E+00
         0.00000E+00
         0.00000E+00
         0.00000E+00
         0.00000E+00
         0.00000E+00
         0.00000E+00
         0.00000E+00
         0.00000E+00
         0.00000E+00
         0.00000E+00
         0.00000E+00
         0.00000E+00
         0.00000E+00
         0.00000E+00
         0.00000E+00
         0.00000E+00
         0.00000E+00
         0.00000E+00
         0.00000E+00
         0.00000E+00
         0.00000E+00
         0.00000E+00
         0.00000E+00
         0.00000E+00
         0.00000E+00
         0.00000E+00
         0.00000E+00
         0.00000E+00
         0.00000E+00
         0.00000E+00
         0.00000E+00
         0.00000E+00
         0.00000E+00
         0.00000E+00
         0.00000E+00
         0.00000E+00
         0.00000E+00
         0.00000E+00
         0.00000E+00
         0.00000E+00
         0.00000E+00
         0.00000E+00
         0.00000E+00
         0.00000E+00
         0.00000E+00
         0.00000E+00
         0.00000E+00
         0.00000E+00
         0.00000E+00
         0.00000E+00
         0.00000E+00
         0.00000E+00
         0.00000E+00
         0.00000E+00
         0.00000E+00
         0.00000E+00
         0.00000E+00
         0.00000E+00
         0.00000E+00
         0.00000E+00
         0.00000E+00
         0.00000E+00
         0.00000E+00
         0.00000E+00
         0.00000E+00
         0.00000E+00
         0.00000E+00
         0.00000E+00
         0.00000E+00
         0.00000E+00
         0.00000E+00
         0.00000E+00
         0.00000E+00
         0.00000E+00
         0.00000E+00
         0.00000E+00
         0.00000E+00
         0.00000E+00
         0.00000E+00
         0.00000E+00
         0.00000E+00
         0.00000E+00
         0.00000E+00
         0.00000E+00
         0.00000E+00
         0.00000E+00
         0.00000E+00
         0.00000E+00
         0.00000E+00
         0.00000E+00
         0.00000E+00
         0.00000E+00
         0.00000E+00
         0.00000E+00
         0.00000E+00
         0.00000E+00
         0.00000E+00
         0.00000E+00
         0.00000E+00
         0.00000E+00
         0.00000E+00
         0.00000E+00
         0.00000E+00
         0.00000E+00
         0.00000E+00
         0.00000E+00
         0.00000E+00
         0.00000E+00
         0.00000E+00
         0.00000E+00
         0.00000E+00
         0.00000E+00
         0.00000E+00
         0.00000E+00
         0.00000E+00
         0.00000E+00
         0.00000E+00
         0.00000E+00
         0.00000E+00
         0.00000E+00
         0.00000E+00
         0.00000E+00
         0.00000E+00
         0.00000E+00
         0.00000E+00
         0.00000E+00
         0.00000E+00
         0.00000E+00
         0.00000E+00
         0.00000E+00
         0.00000E+00
         0.00000E+00
         0.00000E+00
         0.00000E+00
         0.00000E+00
         0.00000E+00
         0.00000E+00
         0.00000E+00
         0.00000E+00
         0.00000E+00
         0.00000E+00
         0.00000E+00
         0.00000E+00
         0.00000E+00
         0.00000E+00
         0.00000E+00
         0.00000E+00
         0.00000E+00
         0.00000E+00
         0.00000E+00
         0.00000E+00
         0.00000E+00
         0.00000E+00
         0.00000E+00
         0.00000E+00
         0.00000E+00
         0.00000E+00
         0.00000E+00
         0.00000E+00
         0.00000E+00
         0.00000E+00
         0.00000E+00
         0.00000E+00
         0.00000E+00
         0.00000E+00
         0.00000E+00
         0.00000E+00
         0.00000E+00
         0.00000E+00
         0.00000E+00
         0.00000E+00
         0.00000E+00
         0.00000E+00
         0.00000E+00
         0.00000E+00
         0.00000E+00
         0.00000E+00
         0.00000E+00
         0.00000E+00
         0.00000E+00
         0.00000E+00
         0.00000E+00
         0.00000E+00
         0.00000E+00
         0.00000E+00
         0.00000E+00
         0.00000E+00
         0.00000E+00
         0.00000E+00
         0.00000E+00
         0.00000E+00
         0.00000E+00
         0.00000E+00
         0.00000E+00
         0.00000E+00
         0.00000E+00
         0.00000E+00
         0.00000E+00
         0.00000E+00
         0.00000E+00
         0.00000E+00
         0.00000E+00
         0.00000E+00
         0.00000E+00
         0.00000E+00
         0.00000E+00
         0.00000E+00
         0.00000E+00
         0.00000E+00
         0.00000E+00
         0.00000E+00
         0.00000E+00
         0.00000E+00
         0.00000E+00
         0.00000E+00
         0.00000E+00
         0.00000E+00
         0.00000E+00
         0.00000E+00
         0.00000E+00
         0.00000E+00
         0.00000E+00
         0.00000E+00
         0.00000E+00
         0.00000E+00
         0.00000E+00
         0.00000E+00
         0.00000E+00
         0.00000E+00
         0.00000E+00
         0.00000E+00
         0.00000E+00
         0.00000E+00
         0.00000E+00
         0.00000E+00
         0.00000E+00
         0.00000E+00
         0.00000E+00
         0.00000E+00
         0.00000E+00
         0.00000E+00
         0.00000E+00
         0.00000E+00
         0.00000E+00
         0.00000E+00
         0.00000E+00
         0.00000E+00
         0.00000E+00
         0.00000E+00
         0.00000E+00
         0.00000E+00
         0.00000E+00
         0.00000E+00
         0.00000E+00
         0.00000E+00
         0.00000E+00
         0.00000E+00
         0.00000E+00
         0.00000E+00
         0.00000E+00
         0.00000E+00
         0.00000E+00
         0.00000E+00
         0.00000E+00
         0.00000E+00
         0.00000E+00
         0.00000E+00
         0.00000E+00
         0.00000E+00
         0.00000E+00
         0.00000E+00
         0.00000E+00
         0.00000E+00
         0.00000E+00
         0.00000E+00
         0.00000E+00
         0.00000E+00
         0.00000E+00
         0.00000E+00
         0.00000E+00
         0.00000E+00
         0.00000E+00
         0.00000E+00
         0.00000E+00
         0.00000E+00
         0.00000E+00
         0.00000E+00
         0.00000E+00
         0.00000E+00
         0.00000E+00
         0.00000E+00
         0.00000E+00
         0.00000E+00
         0.00000E+00
         0.00000E+00
         0.00000E+00
         0.00000E+00
         0.00000E+00
         0.00000E+00
         0.00000E+00
         0.00000E+00
         0.00000E+00
         0.00000E+00
         0.00000E+00
         0.00000E+00
         0.00000E+00
         0.00000E+00
         0.00000E+00
         0.00000E+00
         0.00000E+00
         0.00000E+00
         0.00000E+00
         0.00000E+00
         0.00000E+00
         0.00000E+00
         0.00000E+00
         0.00000E+00
         0.00000E+00
         0.00000E+00
         0.00000E+00
         0.00000E+00
         0.00000E+00
         0.00000E+00
         0.00000E+00
         0.00000E+00
         0.00000E+00
         0.00000E+00
         0.00000E+00
         0.00000E+00
         0.00000E+00
         0.00000E+00
         0.00000E+00
         0.00000E+00
         0.00000E+00
         0.00000E+00
         0.00000E+00
         0.00000E+00
         0.00000E+00
         0.00000E+00
         0.00000E+00
         0.00000E+00
         0.00000E+00
         0.00000E+00
         0.00000E+00
         0.00000E+00
         0.00000E+00
  
SCALARS                 displacement_y  double 1
LOOKUP_TABLE default
         0.00000E+00
         0.00000E+00
         0.00000E+00
         0.00000E+00
         0.00000E+00
         0.00000E+00
         0.00000E+00
         0.00000E+00
         0.00000E+00
         0.00000E+00
         0.00000E+00
         0.00000E+00
         0.00000E+00
         0.00000E+00
         0.00000E+00
         0.00000E+00
         0.00000E+00
         0.00000E+00
         0.00000E+00
         0.00000E+00
         0.00000E+00
         0.00000E+00
         0.00000E+00
         0.00000E+00
         0.00000E+00
         0.00000E+00
         0.00000E+00
         0.00000E+00
         0.00000E+00
         0.00000E+00
         0.00000E+00
         0.00000E+00
         0.00000E+00
         0.00000E+00
         0.00000E+00
         0.00000E+00
         0.00000E+00
         0.00000E+00
         0.00000E+00
         0.00000E+00
         0.00000E+00
         0.00000E+00
         0.00000E+00
         0.00000E+00
         0.00000E+00
         0.00000E+00
         0.00000E+00
         0.00000E+00
         0.00000E+00
         0.00000E+00
         0.00000E+00
         0.00000E+00
         0.00000E+00
         0.00000E+00
         0.00000E+00
         0.00000E+00
         0.00000E+00
         0.00000E+00
         0.00000E+00
         0.00000E+00
         0.00000E+00
         0.00000E+00
         0.00000E+00
         0.00000E+00
         0.00000E+00
         0.00000E+00
         0.00000E+00
         0.00000E+00
         0.00000E+00
         0.00000E+00
         0.00000E+00
         0.00000E+00
         0.00000E+00
         0.00000E+00
         0.00000E+00
         0.00000E+00
         0.00000E+00
         0.00000E+00
         0.00000E+00
         0.00000E+00
         0.00000E+00
         0.00000E+00
         0.00000E+00
         0.00000E+00
         0.00000E+00
         0.00000E+00
         0.00000E+00
         0.00000E+00
         0.00000E+00
         0.00000E+00
         0.00000E+00
         0.00000E+00
         0.00000E+00
         0.00000E+00
         0.00000E+00
         0.00000E+00
         0.00000E+00
         0.00000E+00
         0.00000E+00
         0.00000E+00
         0.00000E+00
         0.00000E+00
         0.00000E+00
         0.00000E+00
         0.00000E+00
         0.00000E+00
         0.00000E+00
         0.00000E+00
         0.00000E+00
         0.00000E+00
         0.00000E+00
         0.00000E+00
         0.00000E+00
         0.00000E+00
         0.00000E+00
         0.00000E+00
         0.00000E+00
         0.00000E+00
         0.00000E+00
         0.00000E+00
         0.00000E+00
         0.00000E+00
         0.00000E+00
         0.00000E+00
         0.00000E+00
         0.00000E+00
         0.00000E+00
         0.00000E+00
         0.00000E+00
         0.00000E+00
         0.00000E+00
         0.00000E+00
         0.00000E+00
         0.00000E+00
         0.00000E+00
         0.00000E+00
         0.00000E+00
         0.00000E+00
         0.00000E+00
         0.00000E+00
         0.00000E+00
         0.00000E+00
         0.00000E+00
         0.00000E+00
         0.00000E+00
         0.00000E+00
         0.00000E+00
         0.00000E+00
         0.00000E+00
         0.00000E+00
         0.00000E+00
         0.00000E+00
         0.00000E+00
         0.00000E+00
         0.00000E+00
         0.00000E+00
         0.00000E+00
         0.00000E+00
         0.00000E+00
         0.00000E+00
         0.00000E+00
         0.00000E+00
         0.00000E+00
         0.00000E+00
         0.00000E+00
         0.00000E+00
         0.00000E+00
         0.00000E+00
         0.00000E+00
         0.00000E+00
         0.00000E+00
         0.00000E+00
         0.00000E+00
         0.00000E+00
         0.00000E+00
         0.00000E+00
         0.00000E+00
         0.00000E+00
         0.00000E+00
         0.00000E+00
         0.00000E+00
         0.00000E+00
         0.00000E+00
         0.00000E+00
         0.00000E+00
         0.00000E+00
         0.00000E+00
         0.00000E+00
         0.00000E+00
         0.00000E+00
         0.00000E+00
         0.00000E+00
         0.00000E+00
         0.00000E+00
         0.00000E+00
         0.00000E+00
         0.00000E+00
         0.00000E+00
         0.00000E+00
         0.00000E+00
         0.00000E+00
         0.00000E+00
         0.00000E+00
         0.00000E+00
         0.00000E+00
         0.00000E+00
         0.00000E+00
         0.00000E+00
         0.00000E+00
         0.00000E+00
         0.00000E+00
         0.00000E+00
         0.00000E+00
         0.00000E+00
         0.00000E+00
         0.00000E+00
         0.00000E+00
         0.00000E+00
         0.00000E+00
         0.00000E+00
         0.00000E+00
         0.00000E+00
         0.00000E+00
         0.00000E+00
         0.00000E+00
         0.00000E+00
         0.00000E+00
         0.00000E+00
         0.00000E+00
         0.00000E+00
         0.00000E+00
         0.00000E+00
         0.00000E+00
         0.00000E+00
         0.00000E+00
         0.00000E+00
         0.00000E+00
         0.00000E+00
         0.00000E+00
         0.00000E+00
         0.00000E+00
         0.00000E+00
         0.00000E+00
         0.00000E+00
         0.00000E+00
         0.00000E+00
         0.00000E+00
         0.00000E+00
         0.00000E+00
         0.00000E+00
         0.00000E+00
         0.00000E+00
         0.00000E+00
         0.00000E+00
         0.00000E+00
         0.00000E+00
         0.00000E+00
         0.00000E+00
         0.00000E+00
         0.00000E+00
         0.00000E+00
         0.00000E+00
         0.00000E+00
         0.00000E+00
         0.00000E+00
         0.00000E+00
         0.00000E+00
         0.00000E+00
         0.00000E+00
         0.00000E+00
         0.00000E+00
         0.00000E+00
         0.00000E+00
         0.00000E+00
         0.00000E+00
         0.00000E+00
         0.00000E+00
         0.00000E+00
         0.00000E+00
         0.00000E+00
         0.00000E+00
         0.00000E+00
         0.00000E+00
         0.00000E+00
         0.00000E+00
         0.00000E+00
         0.00000E+00
         0.00000E+00
         0.00000E+00
         0.00000E+00
         0.00000E+00
         0.00000E+00
         0.00000E+00
         0.00000E+00
         0.00000E+00
         0.00000E+00
         0.00000E+00
         0.00000E+00
         0.00000E+00
         0.00000E+00
         0.00000E+00
         0.00000E+00
         0.00000E+00
         0.00000E+00
         0.00000E+00
         0.00000E+00
         0.00000E+00
         0.00000E+00
         0.00000E+00
         0.00000E+00
         0.00000E+00
         0.00000E+00
         0.00000E+00
         0.00000E+00
         0.00000E+00
         0.00000E+00
         0.00000E+00
         0.00000E+00
         0.00000E+00
         0.00000E+00
         0.00000E+00
         0.00000E+00
         0.00000E+00
         0.00000E+00
         0.00000E+00
         0.00000E+00
         0.00000E+00
         0.00000E+00
         0.00000E+00
         0.00000E+00
         0.00000E+00
         0.00000E+00
         0.00000E+00
         0.00000E+00
         0.00000E+00
         0.00000E+00
         0.00000E+00
         0.00000E+00
         0.00000E+00
         0.00000E+00
         0.00000E+00
         0.00000E+00
         0.00000E+00
         0.00000E+00
         0.00000E+00
         0.00000E+00
         0.00000E+00
         0.00000E+00
         0.00000E+00
         0.00000E+00
         0.00000E+00
         0.00000E+00
         0.00000E+00
         0.00000E+00
         0.00000E+00
         0.00000E+00
         0.00000E+00
         0.00000E+00
         0.00000E+00
         0.00000E+00
         0.00000E+00
         0.00000E+00
         0.00000E+00
         0.00000E+00
         0.00000E+00
         0.00000E+00
         0.00000E+00
         0.00000E+00
         0.00000E+00
         0.00000E+00
         0.00000E+00
         0.00000E+00
         0.00000E+00
         0.00000E+00
         0.00000E+00
         0.00000E+00
         0.00000E+00
         0.00000E+00
         0.00000E+00
         0.00000E+00
         0.00000E+00
         0.00000E+00
         0.00000E+00
         0.00000E+00
         0.00000E+00
         0.00000E+00
         0.00000E+00
         0.00000E+00
         0.00000E+00
         0.00000E+00
         0.00000E+00
         0.00000E+00
         0.00000E+00
         0.00000E+00
         0.00000E+00
         0.00000E+00
         0.00000E+00
         0.00000E+00
         0.00000E+00
         0.00000E+00
         0.00000E+00
         0.00000E+00
         0.00000E+00
         0.00000E+00
         0.00000E+00
         0.00000E+00
         0.00000E+00
         0.00000E+00
         0.00000E+00
         0.00000E+00
         0.00000E+00
         0.00000E+00
         0.00000E+00
         0.00000E+00
         0.00000E+00
         0.00000E+00
         0.00000E+00
         0.00000E+00
         0.00000E+00
         0.00000E+00
         0.00000E+00
         0.00000E+00
         0.00000E+00
         0.00000E+00
         0.00000E+00
         0.00000E+00
         0.00000E+00
         0.00000E+00
         0.00000E+00
         0.00000E+00
         0.00000E+00
         0.00000E+00
         0.00000E+00
         0.00000E+00
         0.00000E+00
         0.00000E+00
         0.00000E+00
         0.00000E+00
         0.00000E+00
         0.00000E+00
         0.00000E+00
         0.00000E+00
         0.00000E+00
         0.00000E+00
         0.00000E+00
         0.00000E+00
         0.00000E+00
         0.00000E+00
         0.00000E+00
         0.00000E+00
         0.00000E+00
         0.00000E+00
         0.00000E+00
         0.00000E+00
         0.00000E+00
         0.00000E+00
         0.00000E+00
         0.00000E+00
         0.00000E+00
         0.00000E+00
         0.00000E+00
         0.00000E+00
         0.00000E+00
         0.00000E+00
         0.00000E+00
         0.00000E+00
         0.00000E+00
         0.00000E+00
         0.00000E+00
         0.00000E+00
         0.00000E+00
         0.00000E+00
         0.00000E+00
         0.00000E+00
         0.00000E+00
         0.00000E+00
         0.00000E+00
         0.00000E+00
         0.00000E+00
         0.00000E+00
         0.00000E+00
         0.00000E+00
         0.00000E+00
         0.00000E+00
         0.00000E+00
         0.00000E+00
         0.00000E+00
         0.00000E+00
         0.00000E+00
         0.00000E+00
         0.00000E+00
         0.00000E+00
         0.00000E+00
         0.00000E+00
         0.00000E+00
         0.00000E+00
         0.00000E+00
         0.00000E+00
         0.00000E+00
         0.00000E+00
         0.00000E+00
         0.00000E+00
         0.00000E+00
         0.00000E+00
         0.00000E+00
         0.00000E+00
         0.00000E+00
         0.00000E+00
         0.00000E+00
         0.00000E+00
         0.00000E+00
         0.00000E+00
         0.00000E+00
         0.00000E+00
         0.00000E+00
         0.00000E+00
         0.00000E+00
         0.00000E+00
         0.00000E+00
         0.00000E+00
         0.00000E+00
         0.00000E+00
         0.00000E+00
         0.00000E+00
         0.00000E+00
         0.00000E+00
         0.00000E+00
         0.00000E+00
         0.00000E+00
         0.00000E+00
         0.00000E+00
         0.00000E+00
         0.00000E+00
         0.00000E+00
         0.00000E+00
         0.00000E+00
         0.00000E+00
         0.00000E+00
         0.00000E+00
         0.00000E+00
         0.00000E+00
         0.00000E+00
         0.00000E+00
         0.00000E+00
         0.00000E+00
         0.00000E+00
         0.00000E+00
         0.00000E+00
         0.00000E+00
         0.00000E+00
         0.00000E+00
         0.00000E+00
         0.00000E+00
         0.00000E+00
         0.00000E+00
         0.00000E+00
         0.00000E+00
         0.00000E+00
         0.00000E+00
         0.00000E+00
         0.00000E+00
         0.00000E+00
         0.00000E+00
         0.00000E+00
         0.00000E+00
         0.00000E+00
         0.00000E+00
         0.00000E+00
         0.00000E+00
         0.00000E+00
         0.00000E+00
         0.00000E+00
         0.00000E+00
         0.00000E+00
         0.00000E+00
         0.00000E+00
         0.00000E+00
         0.00000E+00
         0.00000E+00
         0.00000E+00
         0.00000E+00
         0.00000E+00
         0.00000E+00
         0.00000E+00
         0.00000E+00
         0.00000E+00
         0.00000E+00
         0.00000E+00
         0.00000E+00
         0.00000E+00
         0.00000E+00
         0.00000E+00
         0.00000E+00
         0.00000E+00
         0.00000E+00
         0.00000E+00
         0.00000E+00
         0.00000E+00
         0.00000E+00
         0.00000E+00
         0.00000E+00
         0.00000E+00
         0.00000E+00
         0.00000E+00
         0.00000E+00
         0.00000E+00
         0.00000E+00
         0.00000E+00
         0.00000E+00
         0.00000E+00
         0.00000E+00
         0.00000E+00
         0.00000E+00
         0.00000E+00
         0.00000E+00
         0.00000E+00
         0.00000E+00
         0.00000E+00
         0.00000E+00
         0.00000E+00
         0.00000E+00
         0.00000E+00
         0.00000E+00
         0.00000E+00
         0.00000E+00
         0.00000E+00
         0.00000E+00
         0.00000E+00
         0.00000E+00
         0.00000E+00
         0.00000E+00
         0.00000E+00
         0.00000E+00
         0.00000E+00
         0.00000E+00
         0.00000E+00
         0.00000E+00
         0.00000E+00
         0.00000E+00
         0.00000E+00
         0.00000E+00
         0.00000E+00
         0.00000E+00
         0.00000E+00
         0.00000E+00
         0.00000E+00
         0.00000E+00
         0.00000E+00
         0.00000E+00
         0.00000E+00
         0.00000E+00
         0.00000E+00
         0.00000E+00
         0.00000E+00
         0.00000E+00
         0.00000E+00
         0.00000E+00
         0.00000E+00
         0.00000E+00
         0.00000E+00
         0.00000E+00
         0.00000E+00
         0.00000E+00
         0.00000E+00
         0.00000E+00
         0.00000E+00
         0.00000E+00
         0.00000E+00
         0.00000E+00
         0.00000E+00
         0.00000E+00
         0.00000E+00
         0.00000E+00
         0.00000E+00
         0.00000E+00
         0.00000E+00
         0.00000E+00
         0.00000E+00
         0.00000E+00
         0.00000E+00
         0.00000E+00
         0.00000E+00
         0.00000E+00
         0.00000E+00
         0.00000E+00
         0.00000E+00
         0.00000E+00
         0.00000E+00
         0.00000E+00
         0.00000E+00
         0.00000E+00
         0.00000E+00
         0.00000E+00
         0.00000E+00
         0.00000E+00
         0.00000E+00
         0.00000E+00
         0.00000E+00
         0.00000E+00
         0.00000E+00
         0.00000E+00
         0.00000E+00
         0.00000E+00
         0.00000E+00
         0.00000E+00
         0.00000E+00
         0.00000E+00
         0.00000E+00
         0.00000E+00
         0.00000E+00
         0.00000E+00
         0.00000E+00
         0.00000E+00
         0.00000E+00
         0.00000E+00
         0.00000E+00
         0.00000E+00
         0.00000E+00
         0.00000E+00
         0.00000E+00
         0.00000E+00
         0.00000E+00
         0.00000E+00
         0.00000E+00
         0.00000E+00
         0.00000E+00
         0.00000E+00
         0.00000E+00
         0.00000E+00
         0.00000E+00
         0.00000E+00
         0.00000E+00
         0.00000E+00
         0.00000E+00
         0.00000E+00
         0.00000E+00
         0.00000E+00
         0.00000E+00
         0.00000E+00
         0.00000E+00
         0.00000E+00
         0.00000E+00
         0.00000E+00
         0.00000E+00
         0.00000E+00
         0.00000E+00
         0.00000E+00
         0.00000E+00
         0.00000E+00
         0.00000E+00
         0.00000E+00
         0.00000E+00
         0.00000E+00
         0.00000E+00
         0.00000E+00
         0.00000E+00
         0.00000E+00
         0.00000E+00
         0.00000E+00
         0.00000E+00
         0.00000E+00
         0.00000E+00
         0.00000E+00
         0.00000E+00
         0.00000E+00
         0.00000E+00
         0.00000E+00
         0.00000E+00
         0.00000E+00
         0.00000E+00
         0.00000E+00
         0.00000E+00
         0.00000E+00
         0.00000E+00
         0.00000E+00
         0.00000E+00
         0.00000E+00
         0.00000E+00
         0.00000E+00
         0.00000E+00
         0.00000E+00
         0.00000E+00
         0.00000E+00
         0.00000E+00
         0.00000E+00
         0.00000E+00
         0.00000E+00
         0.00000E+00
         0.00000E+00
         0.00000E+00
         0.00000E+00
         0.00000E+00
         0.00000E+00
         0.00000E+00
         0.00000E+00
         0.00000E+00
         0.00000E+00
         0.00000E+00
         0.00000E+00
         0.00000E+00
         0.00000E+00
         0.00000E+00
         0.00000E+00
         0.00000E+00
         0.00000E+00
         0.00000E+00
         0.00000E+00
         0.00000E+00
         0.00000E+00
         0.00000E+00
         0.00000E+00
         0.00000E+00
         0.00000E+00
         0.00000E+00
         0.00000E+00
         0.00000E+00
         0.00000E+00
         0.00000E+00
         0.00000E+00
         0.00000E+00
         0.00000E+00
         0.00000E+00
         0.00000E+00
         0.00000E+00
         0.00000E+00
         0.00000E+00
         0.00000E+00
         0.00000E+00
         0.00000E+00
         0.00000E+00
         0.00000E+00
         0.00000E+00
         0.00000E+00
         0.00000E+00
         0.00000E+00
         0.00000E+00
         0.00000E+00
         0.00000E+00
         0.00000E+00
         0.00000E+00
         0.00000E+00
         0.00000E+00
         0.00000E+00
         0.00000E+00
         0.00000E+00
         0.00000E+00
         0.00000E+00
         0.00000E+00
         0.00000E+00
         0.00000E+00
         0.00000E+00
         0.00000E+00
         0.00000E+00
         0.00000E+00
         0.00000E+00
         0.00000E+00
         0.00000E+00
         0.00000E+00
         0.00000E+00
         0.00000E+00
         0.00000E+00
         0.00000E+00
         0.00000E+00
         0.00000E+00
         0.00000E+00
         0.00000E+00
         0.00000E+00
         0.00000E+00
         0.00000E+00
         0.00000E+00
         0.00000E+00
         0.00000E+00
         0.00000E+00
         0.00000E+00
         0.00000E+00
         0.00000E+00
         0.00000E+00
         0.00000E+00
         0.00000E+00
         0.00000E+00
         0.00000E+00
         0.00000E+00
         0.00000E+00
         0.00000E+00
         0.00000E+00
         0.00000E+00
         0.00000E+00
         0.00000E+00
         0.00000E+00
         0.00000E+00
         0.00000E+00
         0.00000E+00
         0.00000E+00
         0.00000E+00
         0.00000E+00
         0.00000E+00
         0.00000E+00
         0.00000E+00
         0.00000E+00
         0.00000E+00
         0.00000E+00
         0.00000E+00
         0.00000E+00
         0.00000E+00
         0.00000E+00
         0.00000E+00
         0.00000E+00
         0.00000E+00
         0.00000E+00
         0.00000E+00
         0.00000E+00
         0.00000E+00
         0.00000E+00
         0.00000E+00
         0.00000E+00
         0.00000E+00
         0.00000E+00
         0.00000E+00
         0.00000E+00
         0.00000E+00
         0.00000E+00
         0.00000E+00
         0.00000E+00
         0.00000E+00
         0.00000E+00
         0.00000E+00
         0.00000E+00
         0.00000E+00
         0.00000E+00
         0.00000E+00
         0.00000E+00
         0.00000E+00
         0.00000E+00
         0.00000E+00
         0.00000E+00
         0.00000E+00
         0.00000E+00
         0.00000E+00
         0.00000E+00
         0.00000E+00
         0.00000E+00
         0.00000E+00
         0.00000E+00
         0.00000E+00
         0.00000E+00
         0.00000E+00
         0.00000E+00
         0.00000E+00
         0.00000E+00
         0.00000E+00
         0.00000E+00
         0.00000E+00
         0.00000E+00
         0.00000E+00
         0.00000E+00
         0.00000E+00
         0.00000E+00
         0.00000E+00
         0.00000E+00
         0.00000E+00
         0.00000E+00
         0.00000E+00
         0.00000E+00
         0.00000E+00
         0.00000E+00
         0.00000E+00
         0.00000E+00
         0.00000E+00
         0.00000E+00
         0.00000E+00
         0.00000E+00
         0.00000E+00
         0.00000E+00
         0.00000E+00
         0.00000E+00
         0.00000E+00
         0.00000E+00
         0.00000E+00
         0.00000E+00
         0.00000E+00
         0.00000E+00
         0.00000E+00
         0.00000E+00
         0.00000E+00
         0.00000E+00
         0.00000E+00
         0.00000E+00
         0.00000E+00
         0.00000E+00
         0.00000E+00
         0.00000E+00
         0.00000E+00
         0.00000E+00
         0.00000E+00
         0.00000E+00
         0.00000E+00
         0.00000E+00
         0.00000E+00
         0.00000E+00
         0.00000E+00
         0.00000E+00
         0.00000E+00
         0.00000E+00
         0.00000E+00
         0.00000E+00
         0.00000E+00
         0.00000E+00
         0.00000E+00
         0.00000E+00
         0.00000E+00
         0.00000E+00
         0.00000E+00
         0.00000E+00
         0.00000E+00
         0.00000E+00
         0.00000E+00
         0.00000E+00
         0.00000E+00
         0.00000E+00
         0.00000E+00
         0.00000E+00
         0.00000E+00
         0.00000E+00
         0.00000E+00
         0.00000E+00
         0.00000E+00
         0.00000E+00
         0.00000E+00
         0.00000E+00
         0.00000E+00
         0.00000E+00
         0.00000E+00
         0.00000E+00
         0.00000E+00
         0.00000E+00
         0.00000E+00
         0.00000E+00
         0.00000E+00
         0.00000E+00
         0.00000E+00
         0.00000E+00
         0.00000E+00
         0.00000E+00
         0.00000E+00
         0.00000E+00
         0.00000E+00
         0.00000E+00
         0.00000E+00
         0.00000E+00
         0.00000E+00
         0.00000E+00
         0.00000E+00
         0.00000E+00
         0.00000E+00
         0.00000E+00
         0.00000E+00
         0.00000E+00
         0.00000E+00
         0.00000E+00
         0.00000E+00
         0.00000E+00
         0.00000E+00
         0.00000E+00
         0.00000E+00
         0.00000E+00
         0.00000E+00
         0.00000E+00
         0.00000E+00
         0.00000E+00
         0.00000E+00
         0.00000E+00
         0.00000E+00
         0.00000E+00
         0.00000E+00
         0.00000E+00
         0.00000E+00
         0.00000E+00
         0.00000E+00
         0.00000E+00
         0.00000E+00
         0.00000E+00
         0.00000E+00
         0.00000E+00
         0.00000E+00
         0.00000E+00
         0.00000E+00
         0.00000E+00
         0.00000E+00
         0.00000E+00
         0.00000E+00
         0.00000E+00
         0.00000E+00
         0.00000E+00
         0.00000E+00
         0.00000E+00
         0.00000E+00
         0.00000E+00
         0.00000E+00
         0.00000E+00
         0.00000E+00
         0.00000E+00
         0.00000E+00
         0.00000E+00
         0.00000E+00
         0.00000E+00
         0.00000E+00
         0.00000E+00
         0.00000E+00
         0.00000E+00
         0.00000E+00
         0.00000E+00
         0.00000E+00
         0.00000E+00
         0.00000E+00
         0.00000E+00
         0.00000E+00
         0.00000E+00
         0.00000E+00
         0.00000E+00
         0.00000E+00
         0.00000E+00
         0.00000E+00
         0.00000E+00
         0.00000E+00
         0.00000E+00
         0.00000E+00
         0.00000E+00
         0.00000E+00
         0.00000E+00
         0.00000E+00
         0.00000E+00
         0.00000E+00
         0.00000E+00
         0.00000E+00
         0.00000E+00
         0.00000E+00
         0.00000E+00
         0.00000E+00
         0.00000E+00
         0.00000E+00
         0.00000E+00
         0.00000E+00
         0.00000E+00
         0.00000E+00
         0.00000E+00
         0.00000E+00
         0.00000E+00
         0.00000E+00
         0.00000E+00
         0.00000E+00
         0.00000E+00
         0.00000E+00
         0.00000E+00
         0.00000E+00
         0.00000E+00
         0.00000E+00
         0.00000E+00
         0.00000E+00
         0.00000E+00
         0.00000E+00
         0.00000E+00
         0.00000E+00
         0.00000E+00
         0.00000E+00
         0.00000E+00
         0.00000E+00
         0.00000E+00
         0.00000E+00
         0.00000E+00
         0.00000E+00
         0.00000E+00
         0.00000E+00
         0.00000E+00
         0.00000E+00
         0.00000E+00
         0.00000E+00
         0.00000E+00
         0.00000E+00
         0.00000E+00
         0.00000E+00
         0.00000E+00
         0.00000E+00
         0.00000E+00
         0.00000E+00
         0.00000E+00
         0.00000E+00
         0.00000E+00
         0.00000E+00
         0.00000E+00
         0.00000E+00
         0.00000E+00
         0.00000E+00
         0.00000E+00
         0.00000E+00
         0.00000E+00
         0.00000E+00
         0.00000E+00
         0.00000E+00
         0.00000E+00
         0.00000E+00
         0.00000E+00
         0.00000E+00
         0.00000E+00
         0.00000E+00
         0.00000E+00
         0.00000E+00
         0.00000E+00
         0.00000E+00
         0.00000E+00
         0.00000E+00
         0.00000E+00
         0.00000E+00
         0.00000E+00
         0.00000E+00
         0.00000E+00
         0.00000E+00
         0.00000E+00
         0.00000E+00
         0.00000E+00
         0.00000E+00
         0.00000E+00
         0.00000E+00
         0.00000E+00
         0.00000E+00
         0.00000E+00
         0.00000E+00
         0.00000E+00
         0.00000E+00
         0.00000E+00
         0.00000E+00
         0.00000E+00
         0.00000E+00
         0.00000E+00
         0.00000E+00
         0.00000E+00
         0.00000E+00
         0.00000E+00
         0.00000E+00
         0.00000E+00
         0.00000E+00
         0.00000E+00
         0.00000E+00
         0.00000E+00
         0.00000E+00
         0.00000E+00
         0.00000E+00
         0.00000E+00
         0.00000E+00
         0.00000E+00
         0.00000E+00
         0.00000E+00
         0.00000E+00
         0.00000E+00
         0.00000E+00
         0.00000E+00
         0.00000E+00
         0.00000E+00
         0.00000E+00
         0.00000E+00
         0.00000E+00
         0.00000E+00
         0.00000E+00
         0.00000E+00
         0.00000E+00
         0.00000E+00
         0.00000E+00
         0.00000E+00
         0.00000E+00
         0.00000E+00
         0.00000E+00
         0.00000E+00
         0.00000E+00
         0.00000E+00
         0.00000E+00
         0.00000E+00
         0.00000E+00
         0.00000E+00
         0.00000E+00
         0.00000E+00
         0.00000E+00
         0.00000E+00
         0.00000E+00
         0.00000E+00
         0.00000E+00
         0.00000E+00
         0.00000E+00
         0.00000E+00
         0.00000E+00
         0.00000E+00
         0.00000E+00
         0.00000E+00
         0.00000E+00
         0.00000E+00
         0.00000E+00
         0.00000E+00
         0.00000E+00
         0.00000E+00
         0.00000E+00
         0.00000E+00
         0.00000E+00
         0.00000E+00
         0.00000E+00
         0.00000E+00
         0.00000E+00
         0.00000E+00
         0.00000E+00
         0.00000E+00
         0.00000E+00
         0.00000E+00
         0.00000E+00
         0.00000E+00
         0.00000E+00
         0.00000E+00
         0.00000E+00
         0.00000E+00
         0.00000E+00
         0.00000E+00
         0.00000E+00
         0.00000E+00
         0.00000E+00
         0.00000E+00
         0.00000E+00
         0.00000E+00
         0.00000E+00
         0.00000E+00
         0.00000E+00
         0.00000E+00
         0.00000E+00
         0.00000E+00
         0.00000E+00
         0.00000E+00
         0.00000E+00
         0.00000E+00
         0.00000E+00
         0.00000E+00
         0.00000E+00
         0.00000E+00
         0.00000E+00
         0.00000E+00
         0.00000E+00
         0.00000E+00
         0.00000E+00
         0.00000E+00
         0.00000E+00
         0.00000E+00
         0.00000E+00
         0.00000E+00
         0.00000E+00
         0.00000E+00
         0.00000E+00
         0.00000E+00
         0.00000E+00
         0.00000E+00
         0.00000E+00
         0.00000E+00
         0.00000E+00
         0.00000E+00
         0.00000E+00
         0.00000E+00
         0.00000E+00
         0.00000E+00
         0.00000E+00
         0.00000E+00
         0.00000E+00
         0.00000E+00
         0.00000E+00
         0.00000E+00
         0.00000E+00
         0.00000E+00
         0.00000E+00
         0.00000E+00
         0.00000E+00
         0.00000E+00
         0.00000E+00
         0.00000E+00
         0.00000E+00
         0.00000E+00
         0.00000E+00
         0.00000E+00
         0.00000E+00
         0.00000E+00
         0.00000E+00
         0.00000E+00
         0.00000E+00
         0.00000E+00
         0.00000E+00
         0.00000E+00
         0.00000E+00
         0.00000E+00
         0.00000E+00
         0.00000E+00
         0.00000E+00
         0.00000E+00
         0.00000E+00
         0.00000E+00
         0.00000E+00
         0.00000E+00
         0.00000E+00
         0.00000E+00
         0.00000E+00
         0.00000E+00
         0.00000E+00
         0.00000E+00
         0.00000E+00
         0.00000E+00
         0.00000E+00
         0.00000E+00
         0.00000E+00
         0.00000E+00
         0.00000E+00
         0.00000E+00
         0.00000E+00
         0.00000E+00
         0.00000E+00
         0.00000E+00
         0.00000E+00
         0.00000E+00
         0.00000E+00
         0.00000E+00
         0.00000E+00
         0.00000E+00
         0.00000E+00
         0.00000E+00
         0.00000E+00
         0.00000E+00
         0.00000E+00
         0.00000E+00
         0.00000E+00
         0.00000E+00
         0.00000E+00
         0.00000E+00
         0.00000E+00
         0.00000E+00
         0.00000E+00
         0.00000E+00
         0.00000E+00
         0.00000E+00
         0.00000E+00
         0.00000E+00
         0.00000E+00
         0.00000E+00
         0.00000E+00
         0.00000E+00
         0.00000E+00
         0.00000E+00
         0.00000E+00
         0.00000E+00
         0.00000E+00
         0.00000E+00
         0.00000E+00
         0.00000E+00
         0.00000E+00
         0.00000E+00
         0.00000E+00
         0.00000E+00
         0.00000E+00
         0.00000E+00
         0.00000E+00
         0.00000E+00
         0.00000E+00
         0.00000E+00
         0.00000E+00
         0.00000E+00
         0.00000E+00
         0.00000E+00
         0.00000E+00
         0.00000E+00
         0.00000E+00
         0.00000E+00
         0.00000E+00
         0.00000E+00
         0.00000E+00
         0.00000E+00
         0.00000E+00
         0.00000E+00
         0.00000E+00
         0.00000E+00
         0.00000E+00
         0.00000E+00
         0.00000E+00
         0.00000E+00
         0.00000E+00
         0.00000E+00
         0.00000E+00
         0.00000E+00
         0.00000E+00
         0.00000E+00
         0.00000E+00
         0.00000E+00
         0.00000E+00
         0.00000E+00
         0.00000E+00
         0.00000E+00
         0.00000E+00
         0.00000E+00
         0.00000E+00
         0.00000E+00
         0.00000E+00
         0.00000E+00
         0.00000E+00
         0.00000E+00
         0.00000E+00
         0.00000E+00
         0.00000E+00
         0.00000E+00
         0.00000E+00
         0.00000E+00
         0.00000E+00
         0.00000E+00
         0.00000E+00
         0.00000E+00
         0.00000E+00
         0.00000E+00
         0.00000E+00
         0.00000E+00
         0.00000E+00
         0.00000E+00
         0.00000E+00
         0.00000E+00
         0.00000E+00
         0.00000E+00
         0.00000E+00
         0.00000E+00
         0.00000E+00
         0.00000E+00
         0.00000E+00
         0.00000E+00
         0.00000E+00
         0.00000E+00
         0.00000E+00
         0.00000E+00
         0.00000E+00
         0.00000E+00
         0.00000E+00
         0.00000E+00
         0.00000E+00
         0.00000E+00
         0.00000E+00
         0.00000E+00
         0.00000E+00
         0.00000E+00
         0.00000E+00
         0.00000E+00
         0.00000E+00
         0.00000E+00
         0.00000E+00
         0.00000E+00
         0.00000E+00
         0.00000E+00
         0.00000E+00
         0.00000E+00
         0.00000E+00
         0.00000E+00
         0.00000E+00
         0.00000E+00
         0.00000E+00
         0.00000E+00
         0.00000E+00
         0.00000E+00
         0.00000E+00
         0.00000E+00
         0.00000E+00
         0.00000E+00
         0.00000E+00
         0.00000E+00
         0.00000E+00
         0.00000E+00
         0.00000E+00
         0.00000E+00
         0.00000E+00
         0.00000E+00
         0.00000E+00
         0.00000E+00
         0.00000E+00
         0.00000E+00
         0.00000E+00
         0.00000E+00
         0.00000E+00
         0.00000E+00
         0.00000E+00
         0.00000E+00
         0.00000E+00
         0.00000E+00
         0.00000E+00
         0.00000E+00
         0.00000E+00
         0.00000E+00
         0.00000E+00
         0.00000E+00
         0.00000E+00
         0.00000E+00
         0.00000E+00
         0.00000E+00
         0.00000E+00
         0.00000E+00
         0.00000E+00
         0.00000E+00
         0.00000E+00
         0.00000E+00
         0.00000E+00
         0.00000E+00
         0.00000E+00
         0.00000E+00
         0.00000E+00
         0.00000E+00
         0.00000E+00
         0.00000E+00
         0.00000E+00
         0.00000E+00
         0.00000E+00
         0.00000E+00
         0.00000E+00
         0.00000E+00
         0.00000E+00
         0.00000E+00
         0.00000E+00
         0.00000E+00
         0.00000E+00
         0.00000E+00
         0.00000E+00
         0.00000E+00
         0.00000E+00
         0.00000E+00
         0.00000E+00
         0.00000E+00
         0.00000E+00
         0.00000E+00
         0.00000E+00
         0.00000E+00
         0.00000E+00
         0.00000E+00
         0.00000E+00
         0.00000E+00
         0.00000E+00
         0.00000E+00
         0.00000E+00
         0.00000E+00
         0.00000E+00
         0.00000E+00
         0.00000E+00
         0.00000E+00
         0.00000E+00
         0.00000E+00
         0.00000E+00
         0.00000E+00
         0.00000E+00
         0.00000E+00
         0.00000E+00
         0.00000E+00
         0.00000E+00
         0.00000E+00
         0.00000E+00
         0.00000E+00
         0.00000E+00
         0.00000E+00
         0.00000E+00
         0.00000E+00
         0.00000E+00
         0.00000E+00
         0.00000E+00
         0.00000E+00
         0.00000E+00
         0.00000E+00
         0.00000E+00
         0.00000E+00
         0.00000E+00
         0.00000E+00
         0.00000E+00
         0.00000E+00
         0.00000E+00
         0.00000E+00
         0.00000E+00
         0.00000E+00
         0.00000E+00
         0.00000E+00
         0.00000E+00
         0.00000E+00
         0.00000E+00
         0.00000E+00
         0.00000E+00
         0.00000E+00
         0.00000E+00
         0.00000E+00
         0.00000E+00
         0.00000E+00
         0.00000E+00
         0.00000E+00
         0.00000E+00
         0.00000E+00
         0.00000E+00
         0.00000E+00
         0.00000E+00
         0.00000E+00
         0.00000E+00
         0.00000E+00
         0.00000E+00
         0.00000E+00
         0.00000E+00
         0.00000E+00
         0.00000E+00
         0.00000E+00
         0.00000E+00
         0.00000E+00
         0.00000E+00
         0.00000E+00
         0.00000E+00
         0.00000E+00
         0.00000E+00
         0.00000E+00
         0.00000E+00
         0.00000E+00
         0.00000E+00
         0.00000E+00
         0.00000E+00
         0.00000E+00
         0.00000E+00
         0.00000E+00
         0.00000E+00
         0.00000E+00
         0.00000E+00
         0.00000E+00
         0.00000E+00
         0.00000E+00
         0.00000E+00
         0.00000E+00
         0.00000E+00
         0.00000E+00
         0.00000E+00
         0.00000E+00
         0.00000E+00
         0.00000E+00
         0.00000E+00
         0.00000E+00
         0.00000E+00
         0.00000E+00
         0.00000E+00
         0.00000E+00
         0.00000E+00
         0.00000E+00
         0.00000E+00
         0.00000E+00
         0.00000E+00
         0.00000E+00
         0.00000E+00
         0.00000E+00
         0.00000E+00
         0.00000E+00
         0.00000E+00
         0.00000E+00
         0.00000E+00
         0.00000E+00
         0.00000E+00
         0.00000E+00
         0.00000E+00
         0.00000E+00
         0.00000E+00
         0.00000E+00
         0.00000E+00
         0.00000E+00
         0.00000E+00
         0.00000E+00
         0.00000E+00
         0.00000E+00
         0.00000E+00
         0.00000E+00
         0.00000E+00
         0.00000E+00
         0.00000E+00
         0.00000E+00
         0.00000E+00
         0.00000E+00
         0.00000E+00
         0.00000E+00
         0.00000E+00
         0.00000E+00
         0.00000E+00
         0.00000E+00
         0.00000E+00
         0.00000E+00
         0.00000E+00
         0.00000E+00
         0.00000E+00
         0.00000E+00
         0.00000E+00
         0.00000E+00
         0.00000E+00
         0.00000E+00
         0.00000E+00
         0.00000E+00
         0.00000E+00
         0.00000E+00
         0.00000E+00
         0.00000E+00
         0.00000E+00
         0.00000E+00
         0.00000E+00
         0.00000E+00
         0.00000E+00
         0.00000E+00
         0.00000E+00
         0.00000E+00
         0.00000E+00
         0.00000E+00
         0.00000E+00
         0.00000E+00
         0.00000E+00
         0.00000E+00
         0.00000E+00
         0.00000E+00
         0.00000E+00
         0.00000E+00
         0.00000E+00
         0.00000E+00
         0.00000E+00
         0.00000E+00
         0.00000E+00
         0.00000E+00
         0.00000E+00
         0.00000E+00
         0.00000E+00
         0.00000E+00
         0.00000E+00
         0.00000E+00
         0.00000E+00
         0.00000E+00
         0.00000E+00
         0.00000E+00
         0.00000E+00
         0.00000E+00
         0.00000E+00
         0.00000E+00
         0.00000E+00
         0.00000E+00
         0.00000E+00
         0.00000E+00
         0.00000E+00
         0.00000E+00
         0.00000E+00
         0.00000E+00
         0.00000E+00
         0.00000E+00
         0.00000E+00
         0.00000E+00
         0.00000E+00
         0.00000E+00
         0.00000E+00
         0.00000E+00
         0.00000E+00
         0.00000E+00
         0.00000E+00
         0.00000E+00
         0.00000E+00
         0.00000E+00
         0.00000E+00
         0.00000E+00
         0.00000E+00
         0.00000E+00
         0.00000E+00
         0.00000E+00
         0.00000E+00
         0.00000E+00
         0.00000E+00
         0.00000E+00
         0.00000E+00
         0.00000E+00
         0.00000E+00
         0.00000E+00
         0.00000E+00
         0.00000E+00
         0.00000E+00
         0.00000E+00
         0.00000E+00
         0.00000E+00
         0.00000E+00
         0.00000E+00
         0.00000E+00
         0.00000E+00
         0.00000E+00
         0.00000E+00
         0.00000E+00
         0.00000E+00
         0.00000E+00
         0.00000E+00
         0.00000E+00
         0.00000E+00
         0.00000E+00
         0.00000E+00
         0.00000E+00
         0.00000E+00
         0.00000E+00
         0.00000E+00
         0.00000E+00
         0.00000E+00
         0.00000E+00
         0.00000E+00
         0.00000E+00
         0.00000E+00
         0.00000E+00
         0.00000E+00
         0.00000E+00
         0.00000E+00
         0.00000E+00
         0.00000E+00
         0.00000E+00
         0.00000E+00
         0.00000E+00
         0.00000E+00
         0.00000E+00
         0.00000E+00
         0.00000E+00
         0.00000E+00
         0.00000E+00
         0.00000E+00
         0.00000E+00
         0.00000E+00
         0.00000E+00
         0.00000E+00
         0.00000E+00
         0.00000E+00
         0.00000E+00
         0.00000E+00
         0.00000E+00
         0.00000E+00
         0.00000E+00
         0.00000E+00
         0.00000E+00
         0.00000E+00
         0.00000E+00
         0.00000E+00
         0.00000E+00
         0.00000E+00
         0.00000E+00
         0.00000E+00
         0.00000E+00
         0.00000E+00
         0.00000E+00
         0.00000E+00
         0.00000E+00
         0.00000E+00
         0.00000E+00
         0.00000E+00
         0.00000E+00
         0.00000E+00
         0.00000E+00
         0.00000E+00
         0.00000E+00
         0.00000E+00
         0.00000E+00
         0.00000E+00
         0.00000E+00
  
SCALARS                 displacement_z  double 1
LOOKUP_TABLE default
        -0.10391E-01
        -0.10375E-01
        -0.10372E-01
        -0.10403E-01
        -0.63856E-16
        -0.71603E-16
        -0.68563E-16
        -0.62288E-16
        -0.10341E-01
        -0.10378E-01
        -0.64390E-16
        -0.62314E-16
        -0.10357E-01
        -0.10380E-01
        -0.76507E-16
        -0.71936E-16
        -0.10393E-01
        -0.10397E-01
        -0.56533E-16
        -0.62702E-16
        -0.10344E-01
        -0.10330E-01
        -0.10337E-01
        -0.75826E-16
        -0.66221E-16
        -0.68381E-16
        -0.10373E-01
        -0.10364E-01
        -0.72743E-16
        -0.61348E-16
        -0.10406E-01
        -0.10414E-01
        -0.10400E-01
        -0.62080E-16
        -0.57713E-16
        -0.56112E-16
        -0.10373E-01
        -0.10406E-01
        -0.65677E-16
        -0.59931E-16
        -0.10363E-01
        -0.10391E-01
        -0.56763E-16
        -0.50252E-16
        -0.10337E-01
        -0.10350E-01
        -0.62204E-16
        -0.69505E-16
        -0.10416E-01
        -0.60768E-16
        -0.10368E-01
        -0.71406E-16
        -0.10404E-01
        -0.64170E-16
        -0.10414E-01
        -0.61553E-16
        -0.10386E-01
        -0.10408E-01
        -0.62716E-16
        -0.61080E-16
        -0.10398E-01
        -0.10368E-01
        -0.62891E-16
        -0.71097E-16
        -0.10396E-01
        -0.60686E-16
        -0.10384E-01
        -0.66232E-16
        -0.10295E-01
        -0.10331E-01
        -0.63753E-16
        -0.66801E-16
        -0.10344E-01
        -0.67361E-16
        -0.10383E-01
        -0.53220E-16
        -0.10379E-01
        -0.51658E-16
        -0.10345E-01
        -0.54469E-16
        -0.10307E-01
        -0.10355E-01
        -0.51896E-16
        -0.54105E-16
        -0.10395E-01
        -0.50392E-16
        -0.10340E-01
        -0.66081E-16
        -0.10326E-01
        -0.67633E-16
        -0.10291E-01
        -0.10339E-01
        -0.64950E-16
        -0.65708E-16
        -0.10371E-01
        -0.59682E-16
        -0.10367E-01
        -0.58831E-16
        -0.10341E-01
        -0.62980E-16
        -0.10304E-01
        -0.10347E-01
        -0.61761E-16
        -0.63574E-16
        -0.10196E-01
        -0.10213E-01
        -0.47950E-16
        -0.45100E-16
        -0.10211E-01
        -0.45786E-16
        -0.10199E-01
        -0.43901E-16
        -0.10200E-01
        -0.43290E-16
        -0.10198E-01
        -0.40910E-16
        -0.10208E-01
        -0.36344E-16
        -0.10212E-01
        -0.32726E-16
        -0.10210E-01
        -0.32498E-16
        -0.10208E-01
        -0.35243E-16
        -0.10193E-01
        -0.37039E-16
        -0.10212E-01
        -0.33820E-16
        -0.10219E-01
        -0.30485E-16
        -0.10217E-01
        -0.30451E-16
        -0.10209E-01
        -0.34036E-16
        -0.10201E-01
        -0.38809E-16
        -0.10197E-01
        -0.41693E-16
        -0.10209E-01
        -0.45028E-16
        -0.10198E-01
        -0.48240E-16
        -0.10215E-01
        -0.44192E-16
        -0.10209E-01
        -0.38768E-16
        -0.10204E-01
        -0.38648E-16
        -0.10214E-01
        -0.42285E-16
        -0.10200E-01
        -0.45080E-16
        -0.10214E-01
        -0.42781E-16
        -0.10214E-01
        -0.41359E-16
        -0.14646E-01
        -0.14643E-01
        -0.14643E-01
        -0.14647E-01
        -0.14638E-01
        -0.14644E-01
        -0.14640E-01
        -0.14644E-01
        -0.14647E-01
        -0.14647E-01
        -0.14639E-01
        -0.14637E-01
        -0.14637E-01
        -0.14643E-01
        -0.14642E-01
        -0.14647E-01
        -0.14650E-01
        -0.14647E-01
        -0.14643E-01
        -0.14648E-01
        -0.14642E-01
        -0.14646E-01
        -0.14638E-01
        -0.14640E-01
        -0.14650E-01
        -0.14642E-01
        -0.14648E-01
        -0.14649E-01
        -0.14645E-01
        -0.14648E-01
        -0.14647E-01
        -0.14642E-01
        -0.14647E-01
        -0.14644E-01
        -0.14632E-01
        -0.14636E-01
        -0.14638E-01
        -0.14645E-01
        -0.14644E-01
        -0.14639E-01
        -0.14633E-01
        -0.14640E-01
        -0.14647E-01
        -0.14638E-01
        -0.14636E-01
        -0.14631E-01
        -0.14637E-01
        -0.14643E-01
        -0.14642E-01
        -0.14638E-01
        -0.14633E-01
        -0.14639E-01
        -0.14621E-01
        -0.14624E-01
        -0.14624E-01
        -0.14622E-01
        -0.14622E-01
        -0.14623E-01
        -0.14624E-01
        -0.14624E-01
        -0.14623E-01
        -0.14623E-01
        -0.14620E-01
        -0.14624E-01
        -0.14625E-01
        -0.14625E-01
        -0.14624E-01
        -0.14623E-01
        -0.14622E-01
        -0.14624E-01
        -0.14622E-01
        -0.14625E-01
        -0.14625E-01
        -0.14623E-01
        -0.14624E-01
        -0.14622E-01
        -0.14624E-01
        -0.14625E-01
        -0.14995E-01
        -0.14995E-01
        -0.14995E-01
        -0.14995E-01
        -0.14995E-01
        -0.14995E-01
        -0.14995E-01
        -0.14995E-01
        -0.14995E-01
        -0.14995E-01
        -0.14995E-01
        -0.14995E-01
        -0.14995E-01
        -0.14995E-01
        -0.14995E-01
        -0.14995E-01
        -0.14995E-01
        -0.14995E-01
        -0.14995E-01
        -0.14995E-01
        -0.14995E-01
        -0.14995E-01
        -0.14995E-01
        -0.14995E-01
        -0.14995E-01
        -0.14995E-01
        -0.14995E-01
        -0.14995E-01
        -0.14995E-01
        -0.14995E-01
        -0.14995E-01
        -0.14995E-01
        -0.14995E-01
        -0.14995E-01
        -0.14995E-01
        -0.14995E-01
        -0.14995E-01
        -0.14995E-01
        -0.14995E-01
        -0.14995E-01
        -0.14995E-01
        -0.14995E-01
        -0.14995E-01
        -0.14995E-01
        -0.14995E-01
        -0.14995E-01
        -0.14995E-01
        -0.14995E-01
        -0.14995E-01
        -0.14995E-01
        -0.14995E-01
        -0.14995E-01
        -0.14995E-01
        -0.14995E-01
        -0.14995E-01
        -0.14995E-01
        -0.14995E-01
        -0.14995E-01
        -0.14995E-01
        -0.14995E-01
        -0.14995E-01
        -0.14995E-01
        -0.14995E-01
        -0.14995E-01
        -0.14995E-01
        -0.14995E-01
        -0.14995E-01
        -0.14995E-01
        -0.14995E-01
        -0.14995E-01
        -0.14995E-01
        -0.14995E-01
        -0.14995E-01
        -0.14995E-01
        -0.14995E-01
        -0.14995E-01
        -0.14995E-01
        -0.14995E-01
        -0.14995E-01
        -0.14995E-01
        -0.14995E-01
        -0.14995E-01
        -0.14995E-01
        -0.14995E-01
        -0.14995E-01
        -0.14995E-01
        -0.14995E-01
        -0.14995E-01
        -0.14995E-01
        -0.14995E-01
        -0.14995E-01
        -0.14995E-01
        -0.14995E-01
        -0.14995E-01
        -0.14995E-01
        -0.14995E-01
        -0.14995E-01
        -0.14995E-01
        -0.14995E-01
        -0.14995E-01
        -0.14995E-01
        -0.14995E-01
        -0.14995E-01
        -0.14995E-01
        -0.14995E-01
        -0.14995E-01
        -0.14995E-01
        -0.14995E-01
        -0.14995E-01
        -0.14995E-01
        -0.14995E-01
        -0.14995E-01
        -0.14995E-01
        -0.14995E-01
        -0.14995E-01
        -0.14995E-01
        -0.14995E-01
        -0.14995E-01
        -0.14995E-01
        -0.14995E-01
        -0.14995E-01
        -0.14995E-01
        -0.14995E-01
        -0.14995E-01
        -0.14995E-01
        -0.14995E-01
        -0.14995E-01
        -0.14995E-01
        -0.14995E-01
        -0.14995E-01
        -0.14995E-01
        -0.14995E-01
        -0.14995E-01
        -0.14995E-01
        -0.14995E-01
        -0.14995E-01
        -0.14995E-01
        -0.14995E-01
        -0.14995E-01
        -0.14995E-01
        -0.14995E-01
        -0.14995E-01
        -0.14995E-01
        -0.14995E-01
        -0.14995E-01
        -0.14995E-01
        -0.14995E-01
        -0.14995E-01
        -0.14995E-01
        -0.14995E-01
        -0.14995E-01
        -0.14995E-01
        -0.14995E-01
        -0.14995E-01
        -0.14995E-01
        -0.14995E-01
        -0.14995E-01
        -0.14995E-01
        -0.14995E-01
        -0.14995E-01
        -0.14995E-01
        -0.14995E-01
        -0.14995E-01
        -0.14995E-01
        -0.14995E-01
        -0.14995E-01
        -0.14995E-01
        -0.14995E-01
        -0.14995E-01
        -0.14995E-01
        -0.14995E-01
        -0.14995E-01
        -0.14995E-01
        -0.14995E-01
        -0.14995E-01
        -0.14995E-01
        -0.14995E-01
        -0.14995E-01
        -0.14995E-01
        -0.14995E-01
        -0.14995E-01
        -0.14995E-01
        -0.14995E-01
        -0.14995E-01
        -0.14995E-01
        -0.14995E-01
        -0.14995E-01
        -0.14995E-01
        -0.14995E-01
        -0.14995E-01
        -0.14995E-01
        -0.14995E-01
        -0.14995E-01
        -0.14995E-01
        -0.14995E-01
        -0.14995E-01
        -0.14995E-01
        -0.14995E-01
        -0.14995E-01
        -0.14995E-01
        -0.14995E-01
        -0.14995E-01
        -0.14995E-01
        -0.14995E-01
        -0.14995E-01
        -0.14995E-01
        -0.14995E-01
        -0.14995E-01
        -0.14995E-01
        -0.14995E-01
        -0.14995E-01
        -0.14995E-01
        -0.14995E-01
        -0.14995E-01
        -0.14995E-01
        -0.14995E-01
        -0.14995E-01
        -0.14995E-01
        -0.14995E-01
        -0.14995E-01
        -0.14995E-01
        -0.14995E-01
        -0.14995E-01
        -0.14995E-01
        -0.14995E-01
        -0.14995E-01
        -0.14995E-01
        -0.14995E-01
        -0.14995E-01
        -0.14995E-01
        -0.14995E-01
        -0.14995E-01
        -0.14995E-01
        -0.14995E-01
        -0.14995E-01
        -0.14995E-01
        -0.14995E-01
        -0.14995E-01
        -0.14995E-01
        -0.14995E-01
        -0.14995E-01
        -0.14995E-01
        -0.14995E-01
        -0.14995E-01
        -0.14995E-01
        -0.14995E-01
        -0.14995E-01
        -0.14995E-01
        -0.14995E-01
        -0.14995E-01
        -0.14995E-01
        -0.14995E-01
        -0.14995E-01
        -0.14995E-01
        -0.14995E-01
        -0.14995E-01
        -0.14995E-01
        -0.14995E-01
        -0.14995E-01
        -0.14995E-01
        -0.14995E-01
        -0.14995E-01
        -0.14995E-01
        -0.14995E-01
        -0.14995E-01
        -0.14995E-01
        -0.14995E-01
        -0.14995E-01
        -0.14995E-01
        -0.14995E-01
        -0.14995E-01
        -0.14995E-01
        -0.14995E-01
        -0.14995E-01
        -0.14995E-01
        -0.14995E-01
        -0.14995E-01
        -0.14995E-01
        -0.14995E-01
        -0.14995E-01
        -0.14995E-01
        -0.14995E-01
        -0.14995E-01
        -0.14995E-01
        -0.14995E-01
        -0.14995E-01
        -0.14995E-01
        -0.14995E-01
        -0.14995E-01
        -0.14995E-01
        -0.14995E-01
        -0.14995E-01
        -0.14995E-01
        -0.14995E-01
        -0.14995E-01
        -0.14995E-01
        -0.14995E-01
        -0.14995E-01
        -0.14995E-01
        -0.14995E-01
        -0.14995E-01
        -0.14995E-01
        -0.14995E-01
        -0.14995E-01
        -0.14995E-01
        -0.14995E-01
        -0.14995E-01
        -0.14995E-01
        -0.14995E-01
        -0.14995E-01
        -0.14995E-01
        -0.14995E-01
        -0.14995E-01
        -0.14995E-01
        -0.14995E-01
        -0.14995E-01
        -0.14995E-01
        -0.14995E-01
        -0.14995E-01
        -0.14995E-01
        -0.14995E-01
        -0.14995E-01
        -0.14995E-01
        -0.14995E-01
        -0.14995E-01
        -0.14995E-01
        -0.14995E-01
        -0.14995E-01
        -0.14995E-01
        -0.14995E-01
        -0.14995E-01
        -0.14995E-01
        -0.14995E-01
        -0.14995E-01
        -0.14995E-01
        -0.14995E-01
        -0.14995E-01
        -0.14995E-01
        -0.14995E-01
        -0.14995E-01
        -0.14995E-01
        -0.14995E-01
        -0.14995E-01
        -0.14995E-01
        -0.14995E-01
        -0.14995E-01
        -0.14995E-01
        -0.14995E-01
        -0.14995E-01
        -0.14995E-01
        -0.14995E-01
        -0.14995E-01
        -0.14995E-01
        -0.14995E-01
        -0.14995E-01
        -0.14995E-01
        -0.14995E-01
        -0.14995E-01
        -0.14995E-01
        -0.14995E-01
        -0.14995E-01
        -0.14995E-01
        -0.14995E-01
        -0.14995E-01
        -0.14995E-01
        -0.14995E-01
        -0.14995E-01
        -0.14995E-01
        -0.14995E-01
        -0.14995E-01
        -0.14995E-01
        -0.14995E-01
        -0.14995E-01
        -0.14995E-01
        -0.14995E-01
        -0.14995E-01
        -0.14995E-01
        -0.14995E-01
        -0.14995E-01
        -0.14995E-01
        -0.14995E-01
        -0.14995E-01
        -0.14995E-01
        -0.14995E-01
        -0.14995E-01
        -0.14995E-01
        -0.14995E-01
        -0.14995E-01
        -0.14995E-01
        -0.14995E-01
        -0.14995E-01
        -0.14995E-01
        -0.14995E-01
        -0.14995E-01
        -0.14995E-01
        -0.14995E-01
        -0.14995E-01
        -0.14995E-01
        -0.14995E-01
        -0.14995E-01
        -0.14995E-01
        -0.14995E-01
        -0.14995E-01
        -0.14995E-01
        -0.14995E-01
        -0.14995E-01
        -0.14995E-01
        -0.14995E-01
        -0.14995E-01
        -0.14995E-01
        -0.14995E-01
        -0.14995E-01
        -0.14995E-01
        -0.14995E-01
        -0.14995E-01
        -0.14995E-01
        -0.14995E-01
        -0.14995E-01
        -0.14995E-01
        -0.14995E-01
        -0.14995E-01
        -0.14995E-01
        -0.14995E-01
        -0.14995E-01
        -0.14995E-01
        -0.14995E-01
        -0.14995E-01
        -0.14995E-01
        -0.14995E-01
        -0.14995E-01
        -0.14995E-01
        -0.14995E-01
        -0.14995E-01
        -0.14995E-01
        -0.14995E-01
        -0.14995E-01
        -0.14995E-01
        -0.14995E-01
        -0.14995E-01
        -0.14995E-01
        -0.14995E-01
        -0.14995E-01
        -0.14995E-01
        -0.14995E-01
        -0.14995E-01
        -0.14995E-01
        -0.14995E-01
        -0.14995E-01
        -0.14995E-01
        -0.14995E-01
        -0.14995E-01
        -0.14995E-01
        -0.14995E-01
        -0.14995E-01
        -0.14995E-01
        -0.14995E-01
        -0.14995E-01
        -0.14995E-01
        -0.14995E-01
        -0.14995E-01
        -0.14995E-01
        -0.14995E-01
        -0.14995E-01
        -0.14995E-01
        -0.14995E-01
        -0.14995E-01
        -0.14995E-01
        -0.14995E-01
        -0.14995E-01
        -0.14995E-01
        -0.14995E-01
        -0.14995E-01
        -0.14995E-01
        -0.14995E-01
        -0.14995E-01
        -0.14995E-01
        -0.14995E-01
        -0.14995E-01
        -0.14995E-01
        -0.14995E-01
        -0.14995E-01
        -0.14995E-01
        -0.14995E-01
        -0.14995E-01
        -0.14995E-01
        -0.14995E-01
        -0.14995E-01
        -0.14995E-01
        -0.14995E-01
        -0.14995E-01
        -0.14995E-01
        -0.14995E-01
        -0.14995E-01
        -0.14995E-01
        -0.14995E-01
        -0.14995E-01
        -0.14995E-01
        -0.14995E-01
        -0.14995E-01
        -0.14995E-01
        -0.14995E-01
        -0.14995E-01
        -0.14995E-01
        -0.14995E-01
        -0.14995E-01
        -0.14995E-01
        -0.14995E-01
        -0.14995E-01
        -0.14995E-01
        -0.14995E-01
        -0.14995E-01
        -0.14995E-01
        -0.14995E-01
        -0.14995E-01
        -0.14995E-01
        -0.14995E-01
        -0.14995E-01
        -0.14995E-01
        -0.14995E-01
        -0.14995E-01
        -0.14995E-01
        -0.14995E-01
        -0.14995E-01
        -0.14995E-01
        -0.14995E-01
        -0.14995E-01
        -0.14995E-01
        -0.14995E-01
        -0.14995E-01
        -0.14995E-01
        -0.14995E-01
        -0.14995E-01
        -0.14995E-01
        -0.14995E-01
        -0.14995E-01
        -0.14995E-01
        -0.14995E-01
        -0.14995E-01
        -0.14995E-01
        -0.14995E-01
        -0.14995E-01
        -0.14995E-01
        -0.14995E-01
        -0.14995E-01
        -0.14995E-01
        -0.14995E-01
        -0.14995E-01
        -0.14995E-01
        -0.14995E-01
        -0.14995E-01
        -0.14995E-01
        -0.14995E-01
        -0.14995E-01
        -0.14995E-01
        -0.14995E-01
        -0.14995E-01
        -0.14995E-01
        -0.14995E-01
        -0.14995E-01
        -0.14995E-01
        -0.14995E-01
        -0.14995E-01
        -0.14995E-01
        -0.14995E-01
        -0.14995E-01
        -0.14995E-01
        -0.14995E-01
        -0.14995E-01
        -0.14995E-01
        -0.14995E-01
        -0.14995E-01
        -0.14995E-01
        -0.14995E-01
        -0.14995E-01
        -0.14995E-01
        -0.14995E-01
        -0.14995E-01
        -0.14995E-01
        -0.14995E-01
        -0.14995E-01
        -0.14995E-01
        -0.14995E-01
        -0.14995E-01
        -0.14995E-01
        -0.14995E-01
        -0.14995E-01
        -0.14995E-01
        -0.14995E-01
        -0.14995E-01
        -0.14995E-01
        -0.14995E-01
        -0.14995E-01
        -0.14995E-01
        -0.14995E-01
        -0.14995E-01
        -0.14995E-01
        -0.14995E-01
        -0.14995E-01
        -0.14995E-01
        -0.14995E-01
        -0.14995E-01
        -0.14995E-01
        -0.14995E-01
        -0.14995E-01
        -0.14995E-01
        -0.14995E-01
        -0.14995E-01
        -0.14995E-01
        -0.14995E-01
        -0.14995E-01
        -0.14995E-01
        -0.14995E-01
        -0.14995E-01
        -0.14995E-01
        -0.14995E-01
        -0.14995E-01
        -0.14995E-01
        -0.14995E-01
        -0.14995E-01
        -0.14995E-01
        -0.14995E-01
        -0.14995E-01
        -0.14995E-01
        -0.14995E-01
        -0.14995E-01
        -0.14995E-01
        -0.14995E-01
        -0.14995E-01
        -0.14995E-01
        -0.14995E-01
        -0.14995E-01
        -0.14995E-01
        -0.14995E-01
        -0.14995E-01
        -0.14995E-01
        -0.14995E-01
        -0.14995E-01
        -0.14995E-01
        -0.14995E-01
        -0.14995E-01
        -0.14995E-01
        -0.14995E-01
        -0.14995E-01
        -0.14995E-01
        -0.14995E-01
        -0.14995E-01
        -0.14995E-01
        -0.14995E-01
        -0.14995E-01
        -0.14995E-01
        -0.14995E-01
        -0.14995E-01
        -0.14995E-01
        -0.14995E-01
        -0.14995E-01
        -0.14995E-01
        -0.14995E-01
        -0.14995E-01
        -0.14995E-01
        -0.14995E-01
        -0.14995E-01
        -0.14995E-01
        -0.14995E-01
        -0.14995E-01
        -0.14995E-01
        -0.14995E-01
        -0.14995E-01
        -0.14995E-01
        -0.14995E-01
        -0.14995E-01
        -0.14995E-01
        -0.14995E-01
        -0.14995E-01
        -0.14995E-01
        -0.14995E-01
        -0.14995E-01
        -0.14995E-01
        -0.14995E-01
        -0.14995E-01
        -0.14995E-01
        -0.14995E-01
        -0.14995E-01
        -0.14995E-01
        -0.14995E-01
        -0.14995E-01
        -0.14995E-01
        -0.14995E-01
        -0.14995E-01
        -0.14995E-01
        -0.14995E-01
        -0.14995E-01
        -0.14995E-01
        -0.14995E-01
        -0.14995E-01
        -0.14995E-01
        -0.14995E-01
        -0.14995E-01
        -0.14995E-01
        -0.14995E-01
        -0.14995E-01
        -0.14995E-01
        -0.14995E-01
        -0.14995E-01
        -0.14995E-01
        -0.14995E-01
        -0.14995E-01
        -0.14995E-01
        -0.14995E-01
        -0.14995E-01
        -0.14995E-01
        -0.14995E-01
        -0.14995E-01
        -0.14995E-01
        -0.14995E-01
        -0.14995E-01
        -0.14995E-01
        -0.14995E-01
        -0.14995E-01
        -0.14995E-01
        -0.14995E-01
        -0.14995E-01
        -0.14995E-01
        -0.14995E-01
        -0.14995E-01
        -0.14995E-01
        -0.14995E-01
        -0.14995E-01
        -0.14995E-01
        -0.14995E-01
        -0.14995E-01
        -0.14995E-01
        -0.14995E-01
        -0.14995E-01
        -0.14995E-01
        -0.14995E-01
        -0.14995E-01
        -0.14995E-01
        -0.14995E-01
        -0.14995E-01
        -0.14995E-01
        -0.14995E-01
        -0.14995E-01
        -0.14995E-01
        -0.14995E-01
        -0.14995E-01
        -0.14995E-01
        -0.14995E-01
        -0.14995E-01
        -0.14995E-01
        -0.14995E-01
        -0.14995E-01
        -0.14995E-01
        -0.14995E-01
        -0.14995E-01
        -0.14995E-01
        -0.14995E-01
        -0.14995E-01
        -0.14995E-01
        -0.14995E-01
        -0.14995E-01
        -0.14995E-01
        -0.14995E-01
        -0.14995E-01
        -0.14995E-01
        -0.14995E-01
        -0.14995E-01
        -0.14995E-01
        -0.14995E-01
        -0.14995E-01
        -0.14995E-01
        -0.14995E-01
        -0.14995E-01
        -0.14995E-01
        -0.14995E-01
        -0.14995E-01
        -0.14995E-01
        -0.14995E-01
        -0.14995E-01
        -0.14995E-01
        -0.14995E-01
        -0.14995E-01
        -0.14995E-01
        -0.14995E-01
        -0.14995E-01
        -0.14995E-01
        -0.14995E-01
        -0.14995E-01
        -0.14995E-01
        -0.14995E-01
        -0.14995E-01
        -0.14995E-01
        -0.14995E-01
        -0.14995E-01
        -0.14995E-01
        -0.14995E-01
        -0.14995E-01
        -0.14995E-01
        -0.14995E-01
        -0.14995E-01
        -0.14995E-01
        -0.14995E-01
        -0.14995E-01
        -0.14995E-01
        -0.14995E-01
        -0.14995E-01
        -0.14995E-01
        -0.14995E-01
        -0.14995E-01
        -0.14995E-01
        -0.14995E-01
        -0.14995E-01
        -0.14995E-01
        -0.14995E-01
        -0.14995E-01
        -0.14995E-01
        -0.14995E-01
        -0.14995E-01
        -0.14995E-01
        -0.14995E-01
        -0.14995E-01
        -0.14995E-01
        -0.14995E-01
        -0.14995E-01
        -0.14995E-01
        -0.14995E-01
        -0.14995E-01
        -0.14995E-01
        -0.14995E-01
        -0.14995E-01
        -0.14995E-01
        -0.14995E-01
        -0.14995E-01
        -0.14995E-01
        -0.14995E-01
        -0.14995E-01
        -0.14995E-01
        -0.14995E-01
        -0.14995E-01
        -0.14995E-01
        -0.14995E-01
        -0.14995E-01
        -0.14995E-01
        -0.14995E-01
        -0.14995E-01
        -0.14995E-01
        -0.14995E-01
        -0.14995E-01
        -0.14995E-01
        -0.14995E-01
        -0.14995E-01
        -0.14995E-01
        -0.14995E-01
        -0.14995E-01
        -0.14995E-01
        -0.14995E-01
        -0.14995E-01
        -0.14995E-01
        -0.14995E-01
        -0.14995E-01
        -0.14995E-01
        -0.14995E-01
        -0.14995E-01
        -0.14995E-01
        -0.14995E-01
        -0.14995E-01
        -0.14995E-01
        -0.14995E-01
        -0.14995E-01
        -0.14995E-01
        -0.14995E-01
        -0.14995E-01
        -0.14995E-01
        -0.14995E-01
        -0.14995E-01
        -0.14995E-01
        -0.14995E-01
        -0.14995E-01
        -0.14995E-01
        -0.14995E-01
        -0.14995E-01
        -0.14995E-01
        -0.14995E-01
        -0.14995E-01
        -0.14995E-01
        -0.14995E-01
        -0.14995E-01
        -0.14995E-01
        -0.14995E-01
        -0.14995E-01
        -0.14995E-01
        -0.14995E-01
        -0.14995E-01
        -0.14995E-01
        -0.14995E-01
        -0.14995E-01
        -0.14995E-01
        -0.14995E-01
        -0.14995E-01
        -0.14995E-01
        -0.14995E-01
        -0.14995E-01
        -0.14995E-01
        -0.14995E-01
        -0.14995E-01
        -0.14995E-01
        -0.14995E-01
        -0.14995E-01
        -0.14995E-01
        -0.14995E-01
        -0.14995E-01
        -0.14995E-01
        -0.14995E-01
        -0.14995E-01
        -0.14995E-01
        -0.14995E-01
        -0.14995E-01
        -0.14995E-01
        -0.14995E-01
        -0.14995E-01
        -0.14995E-01
        -0.14995E-01
        -0.14995E-01
        -0.14995E-01
        -0.14995E-01
        -0.14995E-01
        -0.14995E-01
        -0.14995E-01
        -0.14995E-01
        -0.14995E-01
        -0.14995E-01
        -0.14995E-01
        -0.14995E-01
        -0.14995E-01
        -0.14995E-01
        -0.14995E-01
        -0.14995E-01
        -0.14995E-01
        -0.14995E-01
        -0.14995E-01
        -0.14995E-01
        -0.14995E-01
        -0.14995E-01
        -0.14995E-01
        -0.14995E-01
        -0.14995E-01
        -0.14995E-01
        -0.14995E-01
        -0.14995E-01
        -0.14995E-01
        -0.14995E-01
        -0.14995E-01
        -0.14995E-01
        -0.14995E-01
        -0.14995E-01
        -0.14995E-01
        -0.14995E-01
        -0.14995E-01
        -0.14995E-01
        -0.14995E-01
        -0.14995E-01
        -0.14995E-01
        -0.14995E-01
        -0.14995E-01
        -0.14995E-01
        -0.14995E-01
        -0.14995E-01
        -0.14995E-01
        -0.14995E-01
        -0.14995E-01
        -0.14995E-01
        -0.14995E-01
        -0.14995E-01
        -0.14995E-01
        -0.14995E-01
        -0.14995E-01
        -0.14995E-01
        -0.14995E-01
        -0.14995E-01
        -0.14995E-01
        -0.14995E-01
        -0.14995E-01
        -0.14995E-01
        -0.14995E-01
        -0.14995E-01
        -0.14995E-01
        -0.14995E-01
        -0.14995E-01
        -0.14995E-01
        -0.14995E-01
        -0.14995E-01
        -0.14995E-01
        -0.14995E-01
        -0.14995E-01
        -0.14995E-01
        -0.14995E-01
        -0.14995E-01
        -0.14995E-01
        -0.14995E-01
        -0.14995E-01
        -0.14995E-01
        -0.14995E-01
        -0.14995E-01
        -0.14995E-01
        -0.14995E-01
        -0.14995E-01
        -0.14995E-01
        -0.14995E-01
        -0.14995E-01
        -0.14995E-01
        -0.14995E-01
        -0.14995E-01
        -0.14995E-01
        -0.14995E-01
        -0.14995E-01
        -0.14995E-01
        -0.14995E-01
        -0.14995E-01
        -0.14995E-01
        -0.14995E-01
        -0.14995E-01
        -0.14995E-01
        -0.14995E-01
        -0.14995E-01
        -0.14995E-01
        -0.14995E-01
        -0.14995E-01
        -0.14995E-01
        -0.14995E-01
        -0.14995E-01
        -0.14995E-01
        -0.14995E-01
        -0.14995E-01
        -0.14995E-01
        -0.14995E-01
        -0.14995E-01
        -0.14995E-01
        -0.14995E-01
        -0.14995E-01
        -0.14995E-01
        -0.14995E-01
        -0.14995E-01
        -0.14995E-01
        -0.14995E-01
        -0.14995E-01
        -0.14995E-01
        -0.14995E-01
        -0.14995E-01
        -0.14995E-01
        -0.14995E-01
        -0.14995E-01
        -0.14995E-01
        -0.14995E-01
        -0.14995E-01
        -0.14995E-01
        -0.14995E-01
        -0.14995E-01
        -0.14995E-01
        -0.14995E-01
        -0.14995E-01
        -0.14995E-01
        -0.14995E-01
        -0.14995E-01
        -0.14995E-01
        -0.14995E-01
        -0.14995E-01
        -0.14995E-01
        -0.14995E-01
        -0.14995E-01
        -0.14995E-01
        -0.14995E-01
        -0.14995E-01
        -0.14995E-01
        -0.14995E-01
        -0.14995E-01
        -0.14995E-01
        -0.14995E-01
        -0.14995E-01
        -0.14995E-01
        -0.14995E-01
        -0.14995E-01
        -0.14995E-01
        -0.14995E-01
        -0.14995E-01
        -0.14995E-01
        -0.14995E-01
        -0.14995E-01
        -0.14995E-01
        -0.14995E-01
        -0.14995E-01
        -0.14995E-01
        -0.14995E-01
        -0.14995E-01
        -0.14995E-01
        -0.14995E-01
        -0.14995E-01
        -0.14995E-01
        -0.14995E-01
        -0.14995E-01
        -0.14995E-01
        -0.14995E-01
        -0.14995E-01
        -0.14995E-01
        -0.14995E-01
        -0.14995E-01
        -0.14995E-01
        -0.14995E-01
        -0.14995E-01
        -0.14995E-01
        -0.14995E-01
        -0.14995E-01
        -0.14995E-01
        -0.14995E-01
        -0.14995E-01
        -0.14995E-01
        -0.14995E-01
        -0.14995E-01
        -0.14995E-01
        -0.14995E-01
        -0.14995E-01
        -0.14995E-01
        -0.14995E-01
        -0.14995E-01
        -0.14995E-01
        -0.14995E-01
        -0.14995E-01
        -0.14995E-01
        -0.14995E-01
        -0.14995E-01
        -0.14995E-01
        -0.14995E-01
        -0.14995E-01
        -0.14995E-01
        -0.14995E-01
        -0.14995E-01
        -0.14995E-01
        -0.14995E-01
        -0.14995E-01
        -0.14995E-01
        -0.14995E-01
        -0.14995E-01
        -0.14995E-01
        -0.14995E-01
        -0.14995E-01
        -0.14995E-01
        -0.14995E-01
        -0.14995E-01
        -0.14995E-01
        -0.14995E-01
        -0.14995E-01
        -0.14995E-01
        -0.14995E-01
        -0.14995E-01
        -0.14995E-01
        -0.14995E-01
        -0.14995E-01
        -0.14995E-01
        -0.14995E-01
        -0.14995E-01
        -0.14995E-01
        -0.14995E-01
        -0.14995E-01
        -0.14995E-01
        -0.14995E-01
        -0.14995E-01
        -0.14995E-01
        -0.14995E-01
        -0.14995E-01
        -0.14995E-01
        -0.14995E-01
        -0.14995E-01
        -0.14995E-01
        -0.14995E-01
        -0.14995E-01
        -0.14995E-01
        -0.14995E-01
        -0.14995E-01
        -0.14995E-01
        -0.14995E-01
        -0.14995E-01
        -0.14995E-01
        -0.14995E-01
        -0.14995E-01
        -0.14995E-01
        -0.14995E-01
        -0.14995E-01
        -0.14995E-01
        -0.14995E-01
        -0.14995E-01
        -0.14995E-01
        -0.14995E-01
        -0.14995E-01
        -0.14995E-01
        -0.14995E-01
        -0.14995E-01
        -0.14995E-01
        -0.14995E-01
        -0.14995E-01
        -0.14995E-01
        -0.14995E-01
        -0.14995E-01
        -0.14995E-01
        -0.14995E-01
        -0.14995E-01
        -0.14995E-01
        -0.14995E-01
        -0.14995E-01
        -0.14995E-01
        -0.14995E-01
        -0.14995E-01
        -0.14995E-01
        -0.14995E-01
        -0.14995E-01
        -0.14995E-01
        -0.14995E-01
        -0.14995E-01
        -0.14995E-01
        -0.14995E-01
        -0.14995E-01
        -0.14995E-01
        -0.14995E-01
        -0.14995E-01
        -0.14995E-01
        -0.14995E-01
        -0.14995E-01
        -0.14995E-01
        -0.14995E-01
        -0.14995E-01
        -0.14995E-01
        -0.14995E-01
        -0.14995E-01
        -0.14995E-01
        -0.14995E-01
        -0.14995E-01
        -0.14995E-01
        -0.14995E-01
        -0.14995E-01
        -0.14995E-01
        -0.14995E-01
        -0.14995E-01
        -0.14995E-01
        -0.14995E-01
        -0.14995E-01
        -0.14995E-01
        -0.14995E-01
        -0.14995E-01
        -0.14995E-01
        -0.14995E-01
        -0.14995E-01
        -0.14995E-01
        -0.14995E-01
        -0.14995E-01
        -0.14995E-01
        -0.14995E-01
        -0.14995E-01
        -0.14995E-01
        -0.14995E-01
        -0.14995E-01
        -0.14995E-01
        -0.14995E-01
        -0.14995E-01
        -0.14995E-01
        -0.14995E-01
        -0.14995E-01
        -0.14995E-01
        -0.14995E-01
        -0.14995E-01
        -0.14995E-01
        -0.14995E-01
        -0.14995E-01
        -0.14995E-01
        -0.14995E-01
        -0.14995E-01
        -0.14995E-01
        -0.14995E-01
        -0.14995E-01
        -0.14995E-01
        -0.14995E-01
        -0.14995E-01
        -0.14995E-01
        -0.14995E-01
        -0.14995E-01
        -0.14995E-01
        -0.14995E-01
        -0.14995E-01
        -0.14995E-01
        -0.14995E-01
        -0.14995E-01
        -0.14995E-01
        -0.14995E-01
        -0.14995E-01
        -0.14995E-01
        -0.14995E-01
        -0.14995E-01
        -0.14995E-01
        -0.14995E-01
        -0.14995E-01
        -0.14995E-01
        -0.14995E-01
        -0.14995E-01
        -0.14995E-01
        -0.14995E-01
        -0.14995E-01
        -0.14995E-01
        -0.14995E-01
        -0.14995E-01
        -0.14995E-01
        -0.14995E-01
        -0.14995E-01
        -0.14995E-01
        -0.14995E-01
        -0.14995E-01
        -0.14995E-01
        -0.14995E-01
        -0.14995E-01
        -0.14995E-01
        -0.14995E-01
        -0.14995E-01
        -0.14995E-01
        -0.14995E-01
        -0.14995E-01
        -0.14995E-01
        -0.14995E-01
        -0.14995E-01
        -0.14995E-01
        -0.14995E-01
        -0.14995E-01
        -0.14995E-01
        -0.14995E-01
        -0.14995E-01
        -0.14995E-01
        -0.14995E-01
        -0.14995E-01
        -0.14995E-01
        -0.14995E-01
        -0.14995E-01
        -0.14995E-01
        -0.14995E-01
        -0.14995E-01
        -0.14995E-01
        -0.14995E-01
        -0.14995E-01
        -0.14995E-01
        -0.14995E-01
        -0.14995E-01
        -0.14995E-01
        -0.14995E-01
        -0.14995E-01
        -0.14995E-01
        -0.14995E-01
        -0.14995E-01
        -0.14995E-01
        -0.14995E-01
        -0.14995E-01
        -0.14995E-01
        -0.14995E-01
        -0.14995E-01
        -0.14995E-01
        -0.14995E-01
        -0.14995E-01
        -0.14995E-01
        -0.14995E-01
        -0.14995E-01
        -0.14995E-01
        -0.14995E-01
        -0.14995E-01
        -0.14995E-01
        -0.14995E-01
        -0.14995E-01
        -0.14995E-01
        -0.14995E-01
        -0.14995E-01
        -0.14995E-01
        -0.14995E-01
        -0.14995E-01
        -0.14995E-01
        -0.14995E-01
        -0.14995E-01
        -0.14995E-01
        -0.14995E-01
        -0.14995E-01
        -0.14995E-01
        -0.14995E-01
        -0.14995E-01
        -0.14995E-01
        -0.14995E-01
        -0.14995E-01
        -0.14995E-01
        -0.14995E-01
        -0.14995E-01
        -0.14995E-01
        -0.14995E-01
        -0.14995E-01
        -0.14995E-01
        -0.14995E-01
        -0.14995E-01
        -0.14995E-01
        -0.14995E-01
        -0.14995E-01
        -0.14995E-01
        -0.14995E-01
        -0.14995E-01
        -0.14995E-01
        -0.14995E-01
        -0.14995E-01
        -0.14995E-01
        -0.14995E-01
        -0.14995E-01
        -0.14995E-01
        -0.14995E-01
        -0.14995E-01
        -0.14995E-01
        -0.14995E-01
        -0.14995E-01
        -0.14995E-01
        -0.14995E-01
        -0.14995E-01
        -0.14995E-01
        -0.14995E-01
        -0.14995E-01
        -0.14995E-01
        -0.14995E-01
        -0.14995E-01
        -0.14995E-01
        -0.14995E-01
        -0.14995E-01
        -0.14995E-01
        -0.14995E-01
        -0.14995E-01
        -0.14995E-01
        -0.14995E-01
        -0.14995E-01
        -0.14995E-01
        -0.14995E-01
        -0.14995E-01
        -0.14995E-01
        -0.14995E-01
        -0.14995E-01
        -0.14995E-01
        -0.14995E-01
        -0.14995E-01
        -0.14995E-01
        -0.14995E-01
        -0.14995E-01
        -0.14995E-01
        -0.14995E-01
        -0.14995E-01
        -0.14995E-01
        -0.14995E-01
        -0.14995E-01
        -0.14995E-01
        -0.14995E-01
        -0.14995E-01
        -0.14995E-01
        -0.14995E-01
        -0.14995E-01
        -0.14995E-01
        -0.14995E-01
        -0.14995E-01
        -0.14995E-01
        -0.14995E-01
        -0.14995E-01
        -0.14995E-01
        -0.14995E-01
        -0.14995E-01
        -0.14995E-01
        -0.14995E-01
        -0.14995E-01
        -0.14995E-01
        -0.14995E-01
        -0.14995E-01
        -0.14995E-01
        -0.14995E-01
        -0.14995E-01
        -0.14995E-01
        -0.14995E-01
        -0.14995E-01
        -0.14995E-01
        -0.14995E-01
        -0.14995E-01
        -0.14995E-01
        -0.14995E-01
        -0.14995E-01
        -0.14995E-01
        -0.14995E-01
        -0.14995E-01
        -0.14995E-01
        -0.14995E-01
        -0.14995E-01
        -0.14995E-01
        -0.14995E-01
        -0.14995E-01
        -0.14995E-01
        -0.14995E-01
        -0.14995E-01
        -0.14995E-01
        -0.14995E-01
        -0.14995E-01
        -0.14995E-01
        -0.14995E-01
        -0.14995E-01
        -0.14995E-01
        -0.14995E-01
        -0.14995E-01
        -0.14995E-01
        -0.14995E-01
        -0.14995E-01
        -0.14995E-01
        -0.14995E-01
        -0.14995E-01
        -0.14995E-01
        -0.14995E-01
        -0.14995E-01
        -0.14995E-01
        -0.14995E-01
        -0.14995E-01
        -0.14995E-01
        -0.14995E-01
        -0.14995E-01
        -0.14995E-01
        -0.14995E-01
        -0.14995E-01
        -0.14995E-01
        -0.14995E-01
        -0.14995E-01
        -0.14995E-01
        -0.14995E-01
        -0.14995E-01
        -0.14995E-01
        -0.14995E-01
        -0.14995E-01
        -0.14995E-01
        -0.14995E-01
        -0.14995E-01
        -0.14995E-01
        -0.14995E-01
        -0.14995E-01
        -0.14995E-01
        -0.14995E-01
        -0.14995E-01
        -0.14995E-01
        -0.14995E-01
        -0.14995E-01
        -0.14995E-01
        -0.14995E-01
        -0.14995E-01
        -0.14995E-01
        -0.14995E-01
        -0.14995E-01
        -0.14995E-01
        -0.14995E-01
        -0.14995E-01
        -0.14995E-01
        -0.14995E-01
        -0.14995E-01
        -0.14995E-01
        -0.14995E-01
        -0.14995E-01
        -0.14995E-01
        -0.14995E-01
        -0.14995E-01
        -0.14995E-01
        -0.14995E-01
        -0.14995E-01
        -0.14995E-01
        -0.14995E-01
        -0.14995E-01
        -0.14995E-01
        -0.14995E-01
        -0.14995E-01
        -0.14995E-01
        -0.14995E-01
        -0.14995E-01
        -0.14995E-01
        -0.14995E-01
        -0.14995E-01
        -0.14995E-01
        -0.14995E-01
        -0.14995E-01
        -0.14995E-01
        -0.14995E-01
        -0.14995E-01
        -0.14995E-01
        -0.14995E-01
        -0.14995E-01
        -0.14995E-01
        -0.14995E-01
        -0.14995E-01
        -0.14995E-01
        -0.14995E-01
        -0.14995E-01
        -0.14995E-01
        -0.14995E-01
        -0.14995E-01
        -0.14995E-01
        -0.14995E-01
        -0.14995E-01
        -0.14995E-01
        -0.14995E-01
        -0.14995E-01
        -0.14995E-01
        -0.14995E-01
        -0.14995E-01
        -0.14995E-01
        -0.14995E-01
        -0.14995E-01
        -0.14995E-01
        -0.14995E-01
        -0.14995E-01
        -0.14995E-01
        -0.14995E-01
        -0.14995E-01
        -0.14995E-01
        -0.14995E-01
        -0.14995E-01
        -0.14995E-01
        -0.14995E-01
        -0.14995E-01
        -0.14995E-01
        -0.14995E-01
        -0.14995E-01
        -0.14995E-01
        -0.14995E-01
        -0.14995E-01
        -0.14995E-01
        -0.14995E-01
        -0.14995E-01
        -0.14995E-01
        -0.14995E-01
        -0.14995E-01
        -0.14995E-01
        -0.14995E-01
        -0.14995E-01
        -0.14995E-01
        -0.14995E-01
        -0.14995E-01
        -0.14995E-01
        -0.14995E-01
        -0.14995E-01
        -0.14995E-01
        -0.14995E-01
        -0.14995E-01
        -0.14995E-01
        -0.14995E-01
        -0.14995E-01
        -0.14995E-01
        -0.14995E-01
        -0.14995E-01
        -0.14995E-01
        -0.14995E-01
        -0.14995E-01
        -0.14995E-01
        -0.14995E-01
        -0.14995E-01
        -0.14995E-01
        -0.14995E-01
        -0.14995E-01
        -0.14995E-01
        -0.14995E-01
        -0.14995E-01
        -0.14995E-01
        -0.14995E-01
        -0.14995E-01
        -0.14995E-01
        -0.14995E-01
        -0.14995E-01
        -0.14995E-01
        -0.14995E-01
        -0.14995E-01
        -0.14995E-01
        -0.14995E-01
        -0.14995E-01
        -0.14995E-01
        -0.14995E-01
        -0.14995E-01
        -0.14995E-01
        -0.14995E-01
        -0.14995E-01
        -0.14995E-01
        -0.14995E-01
        -0.14995E-01
        -0.14995E-01
        -0.14995E-01
        -0.14995E-01
        -0.14995E-01
        -0.14995E-01
        -0.14995E-01
        -0.14995E-01
        -0.14995E-01
        -0.14995E-01
        -0.14995E-01
        -0.14995E-01
        -0.14995E-01
        -0.14995E-01
        -0.14995E-01
        -0.14995E-01
        -0.14995E-01
        -0.14995E-01
        -0.14995E-01
        -0.14995E-01
        -0.14995E-01
        -0.14995E-01
        -0.14995E-01
        -0.14995E-01
        -0.14995E-01
        -0.14995E-01
        -0.14995E-01
        -0.14995E-01
        -0.14995E-01
        -0.14995E-01
        -0.14995E-01
        -0.14995E-01
        -0.14995E-01
        -0.14995E-01
        -0.14995E-01
        -0.14995E-01
        -0.14995E-01
  
SCALARS                     velocity_x  double 1
LOOKUP_TABLE default
         0.00000E+00
         0.00000E+00
         0.00000E+00
         0.00000E+00
         0.00000E+00
         0.00000E+00
         0.00000E+00
         0.00000E+00
         0.00000E+00
         0.00000E+00
         0.00000E+00
         0.00000E+00
         0.00000E+00
         0.00000E+00
         0.00000E+00
         0.00000E+00
         0.00000E+00
         0.00000E+00
         0.00000E+00
         0.00000E+00
         0.00000E+00
         0.00000E+00
         0.00000E+00
         0.00000E+00
         0.00000E+00
         0.00000E+00
         0.00000E+00
         0.00000E+00
         0.00000E+00
         0.00000E+00
         0.00000E+00
         0.00000E+00
         0.00000E+00
         0.00000E+00
         0.00000E+00
         0.00000E+00
         0.00000E+00
         0.00000E+00
         0.00000E+00
         0.00000E+00
         0.00000E+00
         0.00000E+00
         0.00000E+00
         0.00000E+00
         0.00000E+00
         0.00000E+00
         0.00000E+00
         0.00000E+00
         0.00000E+00
         0.00000E+00
         0.00000E+00
         0.00000E+00
         0.00000E+00
         0.00000E+00
         0.00000E+00
         0.00000E+00
         0.00000E+00
         0.00000E+00
         0.00000E+00
         0.00000E+00
         0.00000E+00
         0.00000E+00
         0.00000E+00
         0.00000E+00
         0.00000E+00
         0.00000E+00
         0.00000E+00
         0.00000E+00
         0.00000E+00
         0.00000E+00
         0.00000E+00
         0.00000E+00
         0.00000E+00
         0.00000E+00
         0.00000E+00
         0.00000E+00
         0.00000E+00
         0.00000E+00
         0.00000E+00
         0.00000E+00
         0.00000E+00
         0.00000E+00
         0.00000E+00
         0.00000E+00
         0.00000E+00
         0.00000E+00
         0.00000E+00
         0.00000E+00
         0.00000E+00
         0.00000E+00
         0.00000E+00
         0.00000E+00
         0.00000E+00
         0.00000E+00
         0.00000E+00
         0.00000E+00
         0.00000E+00
         0.00000E+00
         0.00000E+00
         0.00000E+00
         0.00000E+00
         0.00000E+00
         0.00000E+00
         0.00000E+00
         0.00000E+00
         0.00000E+00
         0.00000E+00
         0.00000E+00
         0.00000E+00
         0.00000E+00
         0.00000E+00
         0.00000E+00
         0.00000E+00
         0.00000E+00
         0.00000E+00
         0.00000E+00
         0.00000E+00
         0.00000E+00
         0.00000E+00
         0.00000E+00
         0.00000E+00
         0.00000E+00
         0.00000E+00
         0.00000E+00
         0.00000E+00
         0.00000E+00
         0.00000E+00
         0.00000E+00
         0.00000E+00
         0.00000E+00
         0.00000E+00
         0.00000E+00
         0.00000E+00
         0.00000E+00
         0.00000E+00
         0.00000E+00
         0.00000E+00
         0.00000E+00
         0.00000E+00
         0.00000E+00
         0.00000E+00
         0.00000E+00
         0.00000E+00
         0.00000E+00
         0.00000E+00
         0.00000E+00
         0.00000E+00
         0.00000E+00
         0.00000E+00
         0.00000E+00
         0.00000E+00
         0.00000E+00
         0.00000E+00
         0.00000E+00
         0.00000E+00
         0.00000E+00
         0.00000E+00
         0.00000E+00
         0.00000E+00
         0.00000E+00
         0.00000E+00
         0.00000E+00
         0.00000E+00
         0.00000E+00
         0.00000E+00
         0.00000E+00
         0.00000E+00
         0.00000E+00
         0.00000E+00
         0.00000E+00
         0.00000E+00
         0.00000E+00
         0.00000E+00
         0.00000E+00
         0.00000E+00
         0.00000E+00
         0.00000E+00
         0.00000E+00
         0.00000E+00
         0.00000E+00
         0.00000E+00
         0.00000E+00
         0.00000E+00
         0.00000E+00
         0.00000E+00
         0.00000E+00
         0.00000E+00
         0.00000E+00
         0.00000E+00
         0.00000E+00
         0.00000E+00
         0.00000E+00
         0.00000E+00
         0.00000E+00
         0.00000E+00
         0.00000E+00
         0.00000E+00
         0.00000E+00
         0.00000E+00
         0.00000E+00
         0.00000E+00
         0.00000E+00
         0.00000E+00
         0.00000E+00
         0.00000E+00
         0.00000E+00
         0.00000E+00
         0.00000E+00
         0.00000E+00
         0.00000E+00
         0.00000E+00
         0.00000E+00
         0.00000E+00
         0.00000E+00
         0.00000E+00
         0.00000E+00
         0.00000E+00
         0.00000E+00
         0.00000E+00
         0.00000E+00
         0.00000E+00
         0.00000E+00
         0.00000E+00
         0.00000E+00
         0.00000E+00
         0.00000E+00
         0.00000E+00
         0.00000E+00
         0.00000E+00
         0.00000E+00
         0.00000E+00
         0.00000E+00
         0.00000E+00
         0.00000E+00
         0.00000E+00
         0.00000E+00
         0.00000E+00
         0.00000E+00
         0.00000E+00
         0.00000E+00
         0.00000E+00
         0.00000E+00
         0.00000E+00
         0.00000E+00
         0.00000E+00
         0.00000E+00
         0.00000E+00
         0.00000E+00
         0.00000E+00
         0.00000E+00
         0.00000E+00
         0.00000E+00
         0.00000E+00
         0.00000E+00
         0.00000E+00
         0.00000E+00
         0.00000E+00
         0.00000E+00
         0.00000E+00
         0.00000E+00
         0.00000E+00
         0.00000E+00
         0.00000E+00
         0.00000E+00
         0.00000E+00
         0.00000E+00
         0.00000E+00
         0.00000E+00
         0.00000E+00
         0.00000E+00
         0.00000E+00
         0.00000E+00
         0.00000E+00
         0.00000E+00
         0.00000E+00
         0.00000E+00
         0.00000E+00
         0.00000E+00
         0.00000E+00
         0.00000E+00
         0.00000E+00
         0.00000E+00
         0.00000E+00
         0.00000E+00
         0.00000E+00
         0.00000E+00
         0.00000E+00
         0.00000E+00
         0.00000E+00
         0.00000E+00
         0.00000E+00
         0.00000E+00
         0.00000E+00
         0.00000E+00
         0.00000E+00
         0.00000E+00
         0.00000E+00
         0.00000E+00
         0.00000E+00
         0.00000E+00
         0.00000E+00
         0.00000E+00
         0.00000E+00
         0.00000E+00
         0.00000E+00
         0.00000E+00
         0.00000E+00
         0.00000E+00
         0.00000E+00
         0.00000E+00
         0.00000E+00
         0.00000E+00
         0.00000E+00
         0.00000E+00
         0.00000E+00
         0.00000E+00
         0.00000E+00
         0.00000E+00
         0.00000E+00
         0.00000E+00
         0.00000E+00
         0.00000E+00
         0.00000E+00
         0.00000E+00
         0.00000E+00
         0.00000E+00
         0.00000E+00
         0.00000E+00
         0.00000E+00
         0.00000E+00
         0.00000E+00
         0.00000E+00
         0.00000E+00
         0.00000E+00
         0.00000E+00
         0.00000E+00
         0.00000E+00
         0.00000E+00
         0.00000E+00
         0.00000E+00
         0.00000E+00
         0.00000E+00
         0.00000E+00
         0.00000E+00
         0.00000E+00
         0.00000E+00
         0.00000E+00
         0.00000E+00
         0.00000E+00
         0.00000E+00
         0.00000E+00
         0.00000E+00
         0.00000E+00
         0.00000E+00
         0.00000E+00
         0.00000E+00
         0.00000E+00
         0.00000E+00
         0.00000E+00
         0.00000E+00
         0.00000E+00
         0.00000E+00
         0.00000E+00
         0.00000E+00
         0.00000E+00
         0.00000E+00
         0.00000E+00
         0.00000E+00
         0.00000E+00
         0.00000E+00
         0.00000E+00
         0.00000E+00
         0.00000E+00
         0.00000E+00
         0.00000E+00
         0.00000E+00
         0.00000E+00
         0.00000E+00
         0.00000E+00
         0.00000E+00
         0.00000E+00
         0.00000E+00
         0.00000E+00
         0.00000E+00
         0.00000E+00
         0.00000E+00
         0.00000E+00
         0.00000E+00
         0.00000E+00
         0.00000E+00
         0.00000E+00
         0.00000E+00
         0.00000E+00
         0.00000E+00
         0.00000E+00
         0.00000E+00
         0.00000E+00
         0.00000E+00
         0.00000E+00
         0.00000E+00
         0.00000E+00
         0.00000E+00
         0.00000E+00
         0.00000E+00
         0.00000E+00
         0.00000E+00
         0.00000E+00
         0.00000E+00
         0.00000E+00
         0.00000E+00
         0.00000E+00
         0.00000E+00
         0.00000E+00
         0.00000E+00
         0.00000E+00
         0.00000E+00
         0.00000E+00
         0.00000E+00
         0.00000E+00
         0.00000E+00
         0.00000E+00
         0.00000E+00
         0.00000E+00
         0.00000E+00
         0.00000E+00
         0.00000E+00
         0.00000E+00
         0.00000E+00
         0.00000E+00
         0.00000E+00
         0.00000E+00
         0.00000E+00
         0.00000E+00
         0.00000E+00
         0.00000E+00
         0.00000E+00
         0.00000E+00
         0.00000E+00
         0.00000E+00
         0.00000E+00
         0.00000E+00
         0.00000E+00
         0.00000E+00
         0.00000E+00
         0.00000E+00
         0.00000E+00
         0.00000E+00
         0.00000E+00
         0.00000E+00
         0.00000E+00
         0.00000E+00
         0.00000E+00
         0.00000E+00
         0.00000E+00
         0.00000E+00
         0.00000E+00
         0.00000E+00
         0.00000E+00
         0.00000E+00
         0.00000E+00
         0.00000E+00
         0.00000E+00
         0.00000E+00
         0.00000E+00
         0.00000E+00
         0.00000E+00
         0.00000E+00
         0.00000E+00
         0.00000E+00
         0.00000E+00
         0.00000E+00
         0.00000E+00
         0.00000E+00
         0.00000E+00
         0.00000E+00
         0.00000E+00
         0.00000E+00
         0.00000E+00
         0.00000E+00
         0.00000E+00
         0.00000E+00
         0.00000E+00
         0.00000E+00
         0.00000E+00
         0.00000E+00
         0.00000E+00
         0.00000E+00
         0.00000E+00
         0.00000E+00
         0.00000E+00
         0.00000E+00
         0.00000E+00
         0.00000E+00
         0.00000E+00
         0.00000E+00
         0.00000E+00
         0.00000E+00
         0.00000E+00
         0.00000E+00
         0.00000E+00
         0.00000E+00
         0.00000E+00
         0.00000E+00
         0.00000E+00
         0.00000E+00
         0.00000E+00
         0.00000E+00
         0.00000E+00
         0.00000E+00
         0.00000E+00
         0.00000E+00
         0.00000E+00
         0.00000E+00
         0.00000E+00
         0.00000E+00
         0.00000E+00
         0.00000E+00
         0.00000E+00
         0.00000E+00
         0.00000E+00
         0.00000E+00
         0.00000E+00
         0.00000E+00
         0.00000E+00
         0.00000E+00
         0.00000E+00
         0.00000E+00
         0.00000E+00
         0.00000E+00
         0.00000E+00
         0.00000E+00
         0.00000E+00
         0.00000E+00
         0.00000E+00
         0.00000E+00
         0.00000E+00
         0.00000E+00
         0.00000E+00
         0.00000E+00
         0.00000E+00
         0.00000E+00
         0.00000E+00
         0.00000E+00
         0.00000E+00
         0.00000E+00
         0.00000E+00
         0.00000E+00
         0.00000E+00
         0.00000E+00
         0.00000E+00
         0.00000E+00
         0.00000E+00
         0.00000E+00
         0.00000E+00
         0.00000E+00
         0.00000E+00
         0.00000E+00
         0.00000E+00
         0.00000E+00
         0.00000E+00
         0.00000E+00
         0.00000E+00
         0.00000E+00
         0.00000E+00
         0.00000E+00
         0.00000E+00
         0.00000E+00
         0.00000E+00
         0.00000E+00
         0.00000E+00
         0.00000E+00
         0.00000E+00
         0.00000E+00
         0.00000E+00
         0.00000E+00
         0.00000E+00
         0.00000E+00
         0.00000E+00
         0.00000E+00
         0.00000E+00
         0.00000E+00
         0.00000E+00
         0.00000E+00
         0.00000E+00
         0.00000E+00
         0.00000E+00
         0.00000E+00
         0.00000E+00
         0.00000E+00
         0.00000E+00
         0.00000E+00
         0.00000E+00
         0.00000E+00
         0.00000E+00
         0.00000E+00
         0.00000E+00
         0.00000E+00
         0.00000E+00
         0.00000E+00
         0.00000E+00
         0.00000E+00
         0.00000E+00
         0.00000E+00
         0.00000E+00
         0.00000E+00
         0.00000E+00
         0.00000E+00
         0.00000E+00
         0.00000E+00
         0.00000E+00
         0.00000E+00
         0.00000E+00
         0.00000E+00
         0.00000E+00
         0.00000E+00
         0.00000E+00
         0.00000E+00
         0.00000E+00
         0.00000E+00
         0.00000E+00
         0.00000E+00
         0.00000E+00
         0.00000E+00
         0.00000E+00
         0.00000E+00
         0.00000E+00
         0.00000E+00
         0.00000E+00
         0.00000E+00
         0.00000E+00
         0.00000E+00
         0.00000E+00
         0.00000E+00
         0.00000E+00
         0.00000E+00
         0.00000E+00
         0.00000E+00
         0.00000E+00
         0.00000E+00
         0.00000E+00
         0.00000E+00
         0.00000E+00
         0.00000E+00
         0.00000E+00
         0.00000E+00
         0.00000E+00
         0.00000E+00
         0.00000E+00
         0.00000E+00
         0.00000E+00
         0.00000E+00
         0.00000E+00
         0.00000E+00
         0.00000E+00
         0.00000E+00
         0.00000E+00
         0.00000E+00
         0.00000E+00
         0.00000E+00
         0.00000E+00
         0.00000E+00
         0.00000E+00
         0.00000E+00
         0.00000E+00
         0.00000E+00
         0.00000E+00
         0.00000E+00
         0.00000E+00
         0.00000E+00
         0.00000E+00
         0.00000E+00
         0.00000E+00
         0.00000E+00
         0.00000E+00
         0.00000E+00
         0.00000E+00
         0.00000E+00
         0.00000E+00
         0.00000E+00
         0.00000E+00
         0.00000E+00
         0.00000E+00
         0.00000E+00
         0.00000E+00
         0.00000E+00
         0.00000E+00
         0.00000E+00
         0.00000E+00
         0.00000E+00
         0.00000E+00
         0.00000E+00
         0.00000E+00
         0.00000E+00
         0.00000E+00
         0.00000E+00
         0.00000E+00
         0.00000E+00
         0.00000E+00
         0.00000E+00
         0.00000E+00
         0.00000E+00
         0.00000E+00
         0.00000E+00
         0.00000E+00
         0.00000E+00
         0.00000E+00
         0.00000E+00
         0.00000E+00
         0.00000E+00
         0.00000E+00
         0.00000E+00
         0.00000E+00
         0.00000E+00
         0.00000E+00
         0.00000E+00
         0.00000E+00
         0.00000E+00
         0.00000E+00
         0.00000E+00
         0.00000E+00
         0.00000E+00
         0.00000E+00
         0.00000E+00
         0.00000E+00
         0.00000E+00
         0.00000E+00
         0.00000E+00
         0.00000E+00
         0.00000E+00
         0.00000E+00
         0.00000E+00
         0.00000E+00
         0.00000E+00
         0.00000E+00
         0.00000E+00
         0.00000E+00
         0.00000E+00
         0.00000E+00
         0.00000E+00
         0.00000E+00
         0.00000E+00
         0.00000E+00
         0.00000E+00
         0.00000E+00
         0.00000E+00
         0.00000E+00
         0.00000E+00
         0.00000E+00
         0.00000E+00
         0.00000E+00
         0.00000E+00
         0.00000E+00
         0.00000E+00
         0.00000E+00
         0.00000E+00
         0.00000E+00
         0.00000E+00
         0.00000E+00
         0.00000E+00
         0.00000E+00
         0.00000E+00
         0.00000E+00
         0.00000E+00
         0.00000E+00
         0.00000E+00
         0.00000E+00
         0.00000E+00
         0.00000E+00
         0.00000E+00
         0.00000E+00
         0.00000E+00
         0.00000E+00
         0.00000E+00
         0.00000E+00
         0.00000E+00
         0.00000E+00
         0.00000E+00
         0.00000E+00
         0.00000E+00
         0.00000E+00
         0.00000E+00
         0.00000E+00
         0.00000E+00
         0.00000E+00
         0.00000E+00
         0.00000E+00
         0.00000E+00
         0.00000E+00
         0.00000E+00
         0.00000E+00
         0.00000E+00
         0.00000E+00
         0.00000E+00
         0.00000E+00
         0.00000E+00
         0.00000E+00
         0.00000E+00
         0.00000E+00
         0.00000E+00
         0.00000E+00
         0.00000E+00
         0.00000E+00
         0.00000E+00
         0.00000E+00
         0.00000E+00
         0.00000E+00
         0.00000E+00
         0.00000E+00
         0.00000E+00
         0.00000E+00
         0.00000E+00
         0.00000E+00
         0.00000E+00
         0.00000E+00
         0.00000E+00
         0.00000E+00
         0.00000E+00
         0.00000E+00
         0.00000E+00
         0.00000E+00
         0.00000E+00
         0.00000E+00
         0.00000E+00
         0.00000E+00
         0.00000E+00
         0.00000E+00
         0.00000E+00
         0.00000E+00
         0.00000E+00
         0.00000E+00
         0.00000E+00
         0.00000E+00
         0.00000E+00
         0.00000E+00
         0.00000E+00
         0.00000E+00
         0.00000E+00
         0.00000E+00
         0.00000E+00
         0.00000E+00
         0.00000E+00
         0.00000E+00
         0.00000E+00
         0.00000E+00
         0.00000E+00
         0.00000E+00
         0.00000E+00
         0.00000E+00
         0.00000E+00
         0.00000E+00
         0.00000E+00
         0.00000E+00
         0.00000E+00
         0.00000E+00
         0.00000E+00
         0.00000E+00
         0.00000E+00
         0.00000E+00
         0.00000E+00
         0.00000E+00
         0.00000E+00
         0.00000E+00
         0.00000E+00
         0.00000E+00
         0.00000E+00
         0.00000E+00
         0.00000E+00
         0.00000E+00
         0.00000E+00
         0.00000E+00
         0.00000E+00
         0.00000E+00
         0.00000E+00
         0.00000E+00
         0.00000E+00
         0.00000E+00
         0.00000E+00
         0.00000E+00
         0.00000E+00
         0.00000E+00
         0.00000E+00
         0.00000E+00
         0.00000E+00
         0.00000E+00
         0.00000E+00
         0.00000E+00
         0.00000E+00
         0.00000E+00
         0.00000E+00
         0.00000E+00
         0.00000E+00
         0.00000E+00
         0.00000E+00
         0.00000E+00
         0.00000E+00
         0.00000E+00
         0.00000E+00
         0.00000E+00
         0.00000E+00
         0.00000E+00
         0.00000E+00
         0.00000E+00
         0.00000E+00
         0.00000E+00
         0.00000E+00
         0.00000E+00
         0.00000E+00
         0.00000E+00
         0.00000E+00
         0.00000E+00
         0.00000E+00
         0.00000E+00
         0.00000E+00
         0.00000E+00
         0.00000E+00
         0.00000E+00
         0.00000E+00
         0.00000E+00
         0.00000E+00
         0.00000E+00
         0.00000E+00
         0.00000E+00
         0.00000E+00
         0.00000E+00
         0.00000E+00
         0.00000E+00
         0.00000E+00
         0.00000E+00
         0.00000E+00
         0.00000E+00
         0.00000E+00
         0.00000E+00
         0.00000E+00
         0.00000E+00
         0.00000E+00
         0.00000E+00
         0.00000E+00
         0.00000E+00
         0.00000E+00
         0.00000E+00
         0.00000E+00
         0.00000E+00
         0.00000E+00
         0.00000E+00
         0.00000E+00
         0.00000E+00
         0.00000E+00
         0.00000E+00
         0.00000E+00
         0.00000E+00
         0.00000E+00
         0.00000E+00
         0.00000E+00
         0.00000E+00
         0.00000E+00
         0.00000E+00
         0.00000E+00
         0.00000E+00
         0.00000E+00
         0.00000E+00
         0.00000E+00
         0.00000E+00
         0.00000E+00
         0.00000E+00
         0.00000E+00
         0.00000E+00
         0.00000E+00
         0.00000E+00
         0.00000E+00
         0.00000E+00
         0.00000E+00
         0.00000E+00
         0.00000E+00
         0.00000E+00
         0.00000E+00
         0.00000E+00
         0.00000E+00
         0.00000E+00
         0.00000E+00
         0.00000E+00
         0.00000E+00
         0.00000E+00
         0.00000E+00
         0.00000E+00
         0.00000E+00
         0.00000E+00
         0.00000E+00
         0.00000E+00
         0.00000E+00
         0.00000E+00
         0.00000E+00
         0.00000E+00
         0.00000E+00
         0.00000E+00
         0.00000E+00
         0.00000E+00
         0.00000E+00
         0.00000E+00
         0.00000E+00
         0.00000E+00
         0.00000E+00
         0.00000E+00
         0.00000E+00
         0.00000E+00
         0.00000E+00
         0.00000E+00
         0.00000E+00
         0.00000E+00
         0.00000E+00
         0.00000E+00
         0.00000E+00
         0.00000E+00
         0.00000E+00
         0.00000E+00
         0.00000E+00
         0.00000E+00
         0.00000E+00
         0.00000E+00
         0.00000E+00
         0.00000E+00
         0.00000E+00
         0.00000E+00
         0.00000E+00
         0.00000E+00
         0.00000E+00
         0.00000E+00
         0.00000E+00
         0.00000E+00
         0.00000E+00
         0.00000E+00
         0.00000E+00
         0.00000E+00
         0.00000E+00
         0.00000E+00
         0.00000E+00
         0.00000E+00
         0.00000E+00
         0.00000E+00
         0.00000E+00
         0.00000E+00
         0.00000E+00
         0.00000E+00
         0.00000E+00
         0.00000E+00
         0.00000E+00
         0.00000E+00
         0.00000E+00
         0.00000E+00
         0.00000E+00
         0.00000E+00
         0.00000E+00
         0.00000E+00
         0.00000E+00
         0.00000E+00
         0.00000E+00
         0.00000E+00
         0.00000E+00
         0.00000E+00
         0.00000E+00
         0.00000E+00
         0.00000E+00
         0.00000E+00
         0.00000E+00
         0.00000E+00
         0.00000E+00
         0.00000E+00
         0.00000E+00
         0.00000E+00
         0.00000E+00
         0.00000E+00
         0.00000E+00
         0.00000E+00
         0.00000E+00
         0.00000E+00
         0.00000E+00
         0.00000E+00
         0.00000E+00
         0.00000E+00
         0.00000E+00
         0.00000E+00
         0.00000E+00
         0.00000E+00
         0.00000E+00
         0.00000E+00
         0.00000E+00
         0.00000E+00
         0.00000E+00
         0.00000E+00
         0.00000E+00
         0.00000E+00
         0.00000E+00
         0.00000E+00
         0.00000E+00
         0.00000E+00
         0.00000E+00
         0.00000E+00
         0.00000E+00
         0.00000E+00
         0.00000E+00
         0.00000E+00
         0.00000E+00
         0.00000E+00
         0.00000E+00
         0.00000E+00
         0.00000E+00
         0.00000E+00
         0.00000E+00
         0.00000E+00
         0.00000E+00
         0.00000E+00
         0.00000E+00
         0.00000E+00
         0.00000E+00
         0.00000E+00
         0.00000E+00
         0.00000E+00
         0.00000E+00
         0.00000E+00
         0.00000E+00
         0.00000E+00
         0.00000E+00
         0.00000E+00
         0.00000E+00
         0.00000E+00
         0.00000E+00
         0.00000E+00
         0.00000E+00
         0.00000E+00
         0.00000E+00
         0.00000E+00
         0.00000E+00
         0.00000E+00
         0.00000E+00
         0.00000E+00
         0.00000E+00
         0.00000E+00
         0.00000E+00
         0.00000E+00
         0.00000E+00
         0.00000E+00
         0.00000E+00
         0.00000E+00
         0.00000E+00
         0.00000E+00
         0.00000E+00
         0.00000E+00
         0.00000E+00
         0.00000E+00
         0.00000E+00
         0.00000E+00
         0.00000E+00
         0.00000E+00
         0.00000E+00
         0.00000E+00
         0.00000E+00
         0.00000E+00
         0.00000E+00
         0.00000E+00
         0.00000E+00
         0.00000E+00
         0.00000E+00
         0.00000E+00
         0.00000E+00
         0.00000E+00
         0.00000E+00
         0.00000E+00
         0.00000E+00
         0.00000E+00
         0.00000E+00
         0.00000E+00
         0.00000E+00
         0.00000E+00
         0.00000E+00
         0.00000E+00
         0.00000E+00
         0.00000E+00
         0.00000E+00
         0.00000E+00
         0.00000E+00
         0.00000E+00
         0.00000E+00
         0.00000E+00
         0.00000E+00
         0.00000E+00
         0.00000E+00
         0.00000E+00
         0.00000E+00
         0.00000E+00
         0.00000E+00
         0.00000E+00
         0.00000E+00
         0.00000E+00
         0.00000E+00
         0.00000E+00
         0.00000E+00
         0.00000E+00
         0.00000E+00
         0.00000E+00
         0.00000E+00
         0.00000E+00
         0.00000E+00
         0.00000E+00
         0.00000E+00
         0.00000E+00
         0.00000E+00
         0.00000E+00
         0.00000E+00
         0.00000E+00
         0.00000E+00
         0.00000E+00
         0.00000E+00
         0.00000E+00
         0.00000E+00
         0.00000E+00
         0.00000E+00
         0.00000E+00
         0.00000E+00
         0.00000E+00
         0.00000E+00
         0.00000E+00
         0.00000E+00
         0.00000E+00
         0.00000E+00
         0.00000E+00
         0.00000E+00
         0.00000E+00
         0.00000E+00
         0.00000E+00
         0.00000E+00
         0.00000E+00
         0.00000E+00
         0.00000E+00
         0.00000E+00
         0.00000E+00
         0.00000E+00
         0.00000E+00
         0.00000E+00
         0.00000E+00
         0.00000E+00
         0.00000E+00
         0.00000E+00
         0.00000E+00
         0.00000E+00
         0.00000E+00
         0.00000E+00
         0.00000E+00
         0.00000E+00
         0.00000E+00
         0.00000E+00
         0.00000E+00
         0.00000E+00
         0.00000E+00
         0.00000E+00
         0.00000E+00
         0.00000E+00
         0.00000E+00
         0.00000E+00
         0.00000E+00
         0.00000E+00
         0.00000E+00
         0.00000E+00
         0.00000E+00
         0.00000E+00
         0.00000E+00
         0.00000E+00
         0.00000E+00
         0.00000E+00
         0.00000E+00
         0.00000E+00
         0.00000E+00
         0.00000E+00
         0.00000E+00
         0.00000E+00
         0.00000E+00
         0.00000E+00
         0.00000E+00
         0.00000E+00
         0.00000E+00
         0.00000E+00
         0.00000E+00
         0.00000E+00
         0.00000E+00
         0.00000E+00
         0.00000E+00
         0.00000E+00
         0.00000E+00
         0.00000E+00
         0.00000E+00
         0.00000E+00
         0.00000E+00
         0.00000E+00
         0.00000E+00
         0.00000E+00
         0.00000E+00
         0.00000E+00
         0.00000E+00
         0.00000E+00
         0.00000E+00
         0.00000E+00
         0.00000E+00
         0.00000E+00
         0.00000E+00
         0.00000E+00
         0.00000E+00
         0.00000E+00
         0.00000E+00
         0.00000E+00
         0.00000E+00
         0.00000E+00
         0.00000E+00
         0.00000E+00
         0.00000E+00
         0.00000E+00
         0.00000E+00
         0.00000E+00
         0.00000E+00
         0.00000E+00
         0.00000E+00
         0.00000E+00
         0.00000E+00
         0.00000E+00
         0.00000E+00
         0.00000E+00
         0.00000E+00
         0.00000E+00
         0.00000E+00
         0.00000E+00
         0.00000E+00
         0.00000E+00
         0.00000E+00
         0.00000E+00
         0.00000E+00
         0.00000E+00
         0.00000E+00
         0.00000E+00
         0.00000E+00
         0.00000E+00
         0.00000E+00
         0.00000E+00
         0.00000E+00
         0.00000E+00
         0.00000E+00
         0.00000E+00
         0.00000E+00
         0.00000E+00
         0.00000E+00
         0.00000E+00
         0.00000E+00
         0.00000E+00
         0.00000E+00
         0.00000E+00
         0.00000E+00
         0.00000E+00
         0.00000E+00
         0.00000E+00
         0.00000E+00
         0.00000E+00
         0.00000E+00
         0.00000E+00
         0.00000E+00
         0.00000E+00
         0.00000E+00
         0.00000E+00
         0.00000E+00
         0.00000E+00
         0.00000E+00
         0.00000E+00
         0.00000E+00
         0.00000E+00
         0.00000E+00
         0.00000E+00
         0.00000E+00
         0.00000E+00
         0.00000E+00
         0.00000E+00
         0.00000E+00
         0.00000E+00
         0.00000E+00
         0.00000E+00
         0.00000E+00
         0.00000E+00
         0.00000E+00
         0.00000E+00
         0.00000E+00
         0.00000E+00
         0.00000E+00
         0.00000E+00
         0.00000E+00
         0.00000E+00
         0.00000E+00
         0.00000E+00
         0.00000E+00
         0.00000E+00
         0.00000E+00
         0.00000E+00
         0.00000E+00
         0.00000E+00
         0.00000E+00
         0.00000E+00
         0.00000E+00
         0.00000E+00
         0.00000E+00
         0.00000E+00
         0.00000E+00
         0.00000E+00
         0.00000E+00
         0.00000E+00
         0.00000E+00
         0.00000E+00
         0.00000E+00
         0.00000E+00
         0.00000E+00
         0.00000E+00
         0.00000E+00
         0.00000E+00
         0.00000E+00
         0.00000E+00
         0.00000E+00
         0.00000E+00
         0.00000E+00
         0.00000E+00
         0.00000E+00
         0.00000E+00
         0.00000E+00
         0.00000E+00
         0.00000E+00
         0.00000E+00
         0.00000E+00
         0.00000E+00
         0.00000E+00
         0.00000E+00
         0.00000E+00
         0.00000E+00
         0.00000E+00
         0.00000E+00
         0.00000E+00
         0.00000E+00
         0.00000E+00
         0.00000E+00
         0.00000E+00
         0.00000E+00
         0.00000E+00
         0.00000E+00
         0.00000E+00
         0.00000E+00
         0.00000E+00
         0.00000E+00
         0.00000E+00
         0.00000E+00
         0.00000E+00
         0.00000E+00
         0.00000E+00
         0.00000E+00
         0.00000E+00
         0.00000E+00
         0.00000E+00
         0.00000E+00
         0.00000E+00
         0.00000E+00
         0.00000E+00
         0.00000E+00
         0.00000E+00
         0.00000E+00
         0.00000E+00
         0.00000E+00
         0.00000E+00
         0.00000E+00
         0.00000E+00
         0.00000E+00
         0.00000E+00
         0.00000E+00
         0.00000E+00
         0.00000E+00
         0.00000E+00
         0.00000E+00
         0.00000E+00
         0.00000E+00
         0.00000E+00
         0.00000E+00
         0.00000E+00
         0.00000E+00
         0.00000E+00
         0.00000E+00
         0.00000E+00
         0.00000E+00
         0.00000E+00
         0.00000E+00
         0.00000E+00
         0.00000E+00
         0.00000E+00
         0.00000E+00
         0.00000E+00
         0.00000E+00
         0.00000E+00
         0.00000E+00
         0.00000E+00
         0.00000E+00
         0.00000E+00
         0.00000E+00
         0.00000E+00
         0.00000E+00
         0.00000E+00
         0.00000E+00
         0.00000E+00
         0.00000E+00
         0.00000E+00
         0.00000E+00
         0.00000E+00
         0.00000E+00
         0.00000E+00
         0.00000E+00
         0.00000E+00
         0.00000E+00
         0.00000E+00
         0.00000E+00
         0.00000E+00
         0.00000E+00
         0.00000E+00
         0.00000E+00
         0.00000E+00
         0.00000E+00
         0.00000E+00
         0.00000E+00
         0.00000E+00
         0.00000E+00
         0.00000E+00
         0.00000E+00
         0.00000E+00
         0.00000E+00
         0.00000E+00
         0.00000E+00
         0.00000E+00
         0.00000E+00
         0.00000E+00
         0.00000E+00
         0.00000E+00
         0.00000E+00
         0.00000E+00
         0.00000E+00
         0.00000E+00
         0.00000E+00
         0.00000E+00
         0.00000E+00
         0.00000E+00
         0.00000E+00
         0.00000E+00
         0.00000E+00
         0.00000E+00
         0.00000E+00
         0.00000E+00
         0.00000E+00
         0.00000E+00
         0.00000E+00
         0.00000E+00
         0.00000E+00
         0.00000E+00
         0.00000E+00
         0.00000E+00
         0.00000E+00
         0.00000E+00
         0.00000E+00
         0.00000E+00
         0.00000E+00
         0.00000E+00
         0.00000E+00
         0.00000E+00
         0.00000E+00
         0.00000E+00
         0.00000E+00
         0.00000E+00
         0.00000E+00
         0.00000E+00
         0.00000E+00
         0.00000E+00
         0.00000E+00
         0.00000E+00
         0.00000E+00
         0.00000E+00
         0.00000E+00
         0.00000E+00
         0.00000E+00
         0.00000E+00
         0.00000E+00
         0.00000E+00
         0.00000E+00
         0.00000E+00
         0.00000E+00
         0.00000E+00
         0.00000E+00
         0.00000E+00
         0.00000E+00
         0.00000E+00
         0.00000E+00
         0.00000E+00
         0.00000E+00
         0.00000E+00
         0.00000E+00
         0.00000E+00
         0.00000E+00
         0.00000E+00
         0.00000E+00
         0.00000E+00
         0.00000E+00
         0.00000E+00
         0.00000E+00
         0.00000E+00
         0.00000E+00
         0.00000E+00
         0.00000E+00
         0.00000E+00
         0.00000E+00
         0.00000E+00
         0.00000E+00
         0.00000E+00
         0.00000E+00
         0.00000E+00
         0.00000E+00
         0.00000E+00
         0.00000E+00
         0.00000E+00
         0.00000E+00
         0.00000E+00
         0.00000E+00
         0.00000E+00
         0.00000E+00
         0.00000E+00
         0.00000E+00
         0.00000E+00
         0.00000E+00
         0.00000E+00
         0.00000E+00
         0.00000E+00
         0.00000E+00
         0.00000E+00
         0.00000E+00
         0.00000E+00
         0.00000E+00
         0.00000E+00
         0.00000E+00
         0.00000E+00
         0.00000E+00
         0.00000E+00
         0.00000E+00
         0.00000E+00
         0.00000E+00
         0.00000E+00
         0.00000E+00
         0.00000E+00
         0.00000E+00
         0.00000E+00
         0.00000E+00
         0.00000E+00
         0.00000E+00
         0.00000E+00
         0.00000E+00
         0.00000E+00
         0.00000E+00
         0.00000E+00
         0.00000E+00
         0.00000E+00
         0.00000E+00
         0.00000E+00
         0.00000E+00
         0.00000E+00
         0.00000E+00
         0.00000E+00
         0.00000E+00
         0.00000E+00
         0.00000E+00
         0.00000E+00
         0.00000E+00
         0.00000E+00
         0.00000E+00
         0.00000E+00
         0.00000E+00
         0.00000E+00
         0.00000E+00
         0.00000E+00
         0.00000E+00
         0.00000E+00
         0.00000E+00
         0.00000E+00
         0.00000E+00
         0.00000E+00
         0.00000E+00
         0.00000E+00
         0.00000E+00
         0.00000E+00
         0.00000E+00
         0.00000E+00
         0.00000E+00
         0.00000E+00
         0.00000E+00
         0.00000E+00
         0.00000E+00
         0.00000E+00
         0.00000E+00
         0.00000E+00
         0.00000E+00
         0.00000E+00
         0.00000E+00
         0.00000E+00
         0.00000E+00
         0.00000E+00
         0.00000E+00
         0.00000E+00
         0.00000E+00
         0.00000E+00
         0.00000E+00
         0.00000E+00
         0.00000E+00
         0.00000E+00
         0.00000E+00
         0.00000E+00
         0.00000E+00
         0.00000E+00
         0.00000E+00
         0.00000E+00
         0.00000E+00
         0.00000E+00
         0.00000E+00
         0.00000E+00
         0.00000E+00
         0.00000E+00
         0.00000E+00
         0.00000E+00
         0.00000E+00
         0.00000E+00
         0.00000E+00
         0.00000E+00
         0.00000E+00
         0.00000E+00
         0.00000E+00
         0.00000E+00
         0.00000E+00
         0.00000E+00
         0.00000E+00
         0.00000E+00
         0.00000E+00
         0.00000E+00
         0.00000E+00
         0.00000E+00
         0.00000E+00
         0.00000E+00
         0.00000E+00
         0.00000E+00
         0.00000E+00
         0.00000E+00
         0.00000E+00
         0.00000E+00
         0.00000E+00
         0.00000E+00
         0.00000E+00
         0.00000E+00
         0.00000E+00
         0.00000E+00
         0.00000E+00
         0.00000E+00
         0.00000E+00
         0.00000E+00
         0.00000E+00
         0.00000E+00
         0.00000E+00
         0.00000E+00
         0.00000E+00
         0.00000E+00
         0.00000E+00
         0.00000E+00
         0.00000E+00
         0.00000E+00
         0.00000E+00
         0.00000E+00
         0.00000E+00
         0.00000E+00
         0.00000E+00
         0.00000E+00
         0.00000E+00
         0.00000E+00
         0.00000E+00
         0.00000E+00
         0.00000E+00
         0.00000E+00
         0.00000E+00
         0.00000E+00
         0.00000E+00
         0.00000E+00
         0.00000E+00
         0.00000E+00
         0.00000E+00
         0.00000E+00
         0.00000E+00
         0.00000E+00
         0.00000E+00
         0.00000E+00
         0.00000E+00
         0.00000E+00
         0.00000E+00
         0.00000E+00
         0.00000E+00
         0.00000E+00
         0.00000E+00
         0.00000E+00
         0.00000E+00
         0.00000E+00
         0.00000E+00
         0.00000E+00
         0.00000E+00
         0.00000E+00
         0.00000E+00
         0.00000E+00
         0.00000E+00
         0.00000E+00
         0.00000E+00
         0.00000E+00
         0.00000E+00
         0.00000E+00
         0.00000E+00
         0.00000E+00
         0.00000E+00
         0.00000E+00
         0.00000E+00
         0.00000E+00
         0.00000E+00
         0.00000E+00
         0.00000E+00
         0.00000E+00
         0.00000E+00
         0.00000E+00
         0.00000E+00
         0.00000E+00
         0.00000E+00
         0.00000E+00
         0.00000E+00
         0.00000E+00
         0.00000E+00
         0.00000E+00
         0.00000E+00
         0.00000E+00
         0.00000E+00
         0.00000E+00
         0.00000E+00
         0.00000E+00
         0.00000E+00
         0.00000E+00
         0.00000E+00
         0.00000E+00
         0.00000E+00
         0.00000E+00
         0.00000E+00
         0.00000E+00
         0.00000E+00
         0.00000E+00
         0.00000E+00
         0.00000E+00
         0.00000E+00
         0.00000E+00
         0.00000E+00
         0.00000E+00
         0.00000E+00
         0.00000E+00
         0.00000E+00
         0.00000E+00
         0.00000E+00
         0.00000E+00
         0.00000E+00
         0.00000E+00
         0.00000E+00
         0.00000E+00
         0.00000E+00
         0.00000E+00
         0.00000E+00
         0.00000E+00
         0.00000E+00
         0.00000E+00
         0.00000E+00
         0.00000E+00
         0.00000E+00
         0.00000E+00
         0.00000E+00
         0.00000E+00
         0.00000E+00
         0.00000E+00
         0.00000E+00
         0.00000E+00
         0.00000E+00
         0.00000E+00
         0.00000E+00
         0.00000E+00
         0.00000E+00
         0.00000E+00
         0.00000E+00
         0.00000E+00
         0.00000E+00
         0.00000E+00
         0.00000E+00
         0.00000E+00
         0.00000E+00
         0.00000E+00
         0.00000E+00
         0.00000E+00
         0.00000E+00
         0.00000E+00
         0.00000E+00
         0.00000E+00
         0.00000E+00
         0.00000E+00
         0.00000E+00
         0.00000E+00
         0.00000E+00
         0.00000E+00
         0.00000E+00
         0.00000E+00
         0.00000E+00
         0.00000E+00
         0.00000E+00
         0.00000E+00
         0.00000E+00
         0.00000E+00
         0.00000E+00
         0.00000E+00
         0.00000E+00
         0.00000E+00
         0.00000E+00
         0.00000E+00
         0.00000E+00
         0.00000E+00
         0.00000E+00
         0.00000E+00
         0.00000E+00
         0.00000E+00
         0.00000E+00
         0.00000E+00
         0.00000E+00
         0.00000E+00
         0.00000E+00
         0.00000E+00
         0.00000E+00
         0.00000E+00
         0.00000E+00
         0.00000E+00
         0.00000E+00
         0.00000E+00
         0.00000E+00
         0.00000E+00
         0.00000E+00
         0.00000E+00
         0.00000E+00
         0.00000E+00
         0.00000E+00
         0.00000E+00
  
SCALARS                     velocity_y  double 1
LOOKUP_TABLE default
         0.00000E+00
         0.00000E+00
         0.00000E+00
         0.00000E+00
         0.00000E+00
         0.00000E+00
         0.00000E+00
         0.00000E+00
         0.00000E+00
         0.00000E+00
         0.00000E+00
         0.00000E+00
         0.00000E+00
         0.00000E+00
         0.00000E+00
         0.00000E+00
         0.00000E+00
         0.00000E+00
         0.00000E+00
         0.00000E+00
         0.00000E+00
         0.00000E+00
         0.00000E+00
         0.00000E+00
         0.00000E+00
         0.00000E+00
         0.00000E+00
         0.00000E+00
         0.00000E+00
         0.00000E+00
         0.00000E+00
         0.00000E+00
         0.00000E+00
         0.00000E+00
         0.00000E+00
         0.00000E+00
         0.00000E+00
         0.00000E+00
         0.00000E+00
         0.00000E+00
         0.00000E+00
         0.00000E+00
         0.00000E+00
         0.00000E+00
         0.00000E+00
         0.00000E+00
         0.00000E+00
         0.00000E+00
         0.00000E+00
         0.00000E+00
         0.00000E+00
         0.00000E+00
         0.00000E+00
         0.00000E+00
         0.00000E+00
         0.00000E+00
         0.00000E+00
         0.00000E+00
         0.00000E+00
         0.00000E+00
         0.00000E+00
         0.00000E+00
         0.00000E+00
         0.00000E+00
         0.00000E+00
         0.00000E+00
         0.00000E+00
         0.00000E+00
         0.00000E+00
         0.00000E+00
         0.00000E+00
         0.00000E+00
         0.00000E+00
         0.00000E+00
         0.00000E+00
         0.00000E+00
         0.00000E+00
         0.00000E+00
         0.00000E+00
         0.00000E+00
         0.00000E+00
         0.00000E+00
         0.00000E+00
         0.00000E+00
         0.00000E+00
         0.00000E+00
         0.00000E+00
         0.00000E+00
         0.00000E+00
         0.00000E+00
         0.00000E+00
         0.00000E+00
         0.00000E+00
         0.00000E+00
         0.00000E+00
         0.00000E+00
         0.00000E+00
         0.00000E+00
         0.00000E+00
         0.00000E+00
         0.00000E+00
         0.00000E+00
         0.00000E+00
         0.00000E+00
         0.00000E+00
         0.00000E+00
         0.00000E+00
         0.00000E+00
         0.00000E+00
         0.00000E+00
         0.00000E+00
         0.00000E+00
         0.00000E+00
         0.00000E+00
         0.00000E+00
         0.00000E+00
         0.00000E+00
         0.00000E+00
         0.00000E+00
         0.00000E+00
         0.00000E+00
         0.00000E+00
         0.00000E+00
         0.00000E+00
         0.00000E+00
         0.00000E+00
         0.00000E+00
         0.00000E+00
         0.00000E+00
         0.00000E+00
         0.00000E+00
         0.00000E+00
         0.00000E+00
         0.00000E+00
         0.00000E+00
         0.00000E+00
         0.00000E+00
         0.00000E+00
         0.00000E+00
         0.00000E+00
         0.00000E+00
         0.00000E+00
         0.00000E+00
         0.00000E+00
         0.00000E+00
         0.00000E+00
         0.00000E+00
         0.00000E+00
         0.00000E+00
         0.00000E+00
         0.00000E+00
         0.00000E+00
         0.00000E+00
         0.00000E+00
         0.00000E+00
         0.00000E+00
         0.00000E+00
         0.00000E+00
         0.00000E+00
         0.00000E+00
         0.00000E+00
         0.00000E+00
         0.00000E+00
         0.00000E+00
         0.00000E+00
         0.00000E+00
         0.00000E+00
         0.00000E+00
         0.00000E+00
         0.00000E+00
         0.00000E+00
         0.00000E+00
         0.00000E+00
         0.00000E+00
         0.00000E+00
         0.00000E+00
         0.00000E+00
         0.00000E+00
         0.00000E+00
         0.00000E+00
         0.00000E+00
         0.00000E+00
         0.00000E+00
         0.00000E+00
         0.00000E+00
         0.00000E+00
         0.00000E+00
         0.00000E+00
         0.00000E+00
         0.00000E+00
         0.00000E+00
         0.00000E+00
         0.00000E+00
         0.00000E+00
         0.00000E+00
         0.00000E+00
         0.00000E+00
         0.00000E+00
         0.00000E+00
         0.00000E+00
         0.00000E+00
         0.00000E+00
         0.00000E+00
         0.00000E+00
         0.00000E+00
         0.00000E+00
         0.00000E+00
         0.00000E+00
         0.00000E+00
         0.00000E+00
         0.00000E+00
         0.00000E+00
         0.00000E+00
         0.00000E+00
         0.00000E+00
         0.00000E+00
         0.00000E+00
         0.00000E+00
         0.00000E+00
         0.00000E+00
         0.00000E+00
         0.00000E+00
         0.00000E+00
         0.00000E+00
         0.00000E+00
         0.00000E+00
         0.00000E+00
         0.00000E+00
         0.00000E+00
         0.00000E+00
         0.00000E+00
         0.00000E+00
         0.00000E+00
         0.00000E+00
         0.00000E+00
         0.00000E+00
         0.00000E+00
         0.00000E+00
         0.00000E+00
         0.00000E+00
         0.00000E+00
         0.00000E+00
         0.00000E+00
         0.00000E+00
         0.00000E+00
         0.00000E+00
         0.00000E+00
         0.00000E+00
         0.00000E+00
         0.00000E+00
         0.00000E+00
         0.00000E+00
         0.00000E+00
         0.00000E+00
         0.00000E+00
         0.00000E+00
         0.00000E+00
         0.00000E+00
         0.00000E+00
         0.00000E+00
         0.00000E+00
         0.00000E+00
         0.00000E+00
         0.00000E+00
         0.00000E+00
         0.00000E+00
         0.00000E+00
         0.00000E+00
         0.00000E+00
         0.00000E+00
         0.00000E+00
         0.00000E+00
         0.00000E+00
         0.00000E+00
         0.00000E+00
         0.00000E+00
         0.00000E+00
         0.00000E+00
         0.00000E+00
         0.00000E+00
         0.00000E+00
         0.00000E+00
         0.00000E+00
         0.00000E+00
         0.00000E+00
         0.00000E+00
         0.00000E+00
         0.00000E+00
         0.00000E+00
         0.00000E+00
         0.00000E+00
         0.00000E+00
         0.00000E+00
         0.00000E+00
         0.00000E+00
         0.00000E+00
         0.00000E+00
         0.00000E+00
         0.00000E+00
         0.00000E+00
         0.00000E+00
         0.00000E+00
         0.00000E+00
         0.00000E+00
         0.00000E+00
         0.00000E+00
         0.00000E+00
         0.00000E+00
         0.00000E+00
         0.00000E+00
         0.00000E+00
         0.00000E+00
         0.00000E+00
         0.00000E+00
         0.00000E+00
         0.00000E+00
         0.00000E+00
         0.00000E+00
         0.00000E+00
         0.00000E+00
         0.00000E+00
         0.00000E+00
         0.00000E+00
         0.00000E+00
         0.00000E+00
         0.00000E+00
         0.00000E+00
         0.00000E+00
         0.00000E+00
         0.00000E+00
         0.00000E+00
         0.00000E+00
         0.00000E+00
         0.00000E+00
         0.00000E+00
         0.00000E+00
         0.00000E+00
         0.00000E+00
         0.00000E+00
         0.00000E+00
         0.00000E+00
         0.00000E+00
         0.00000E+00
         0.00000E+00
         0.00000E+00
         0.00000E+00
         0.00000E+00
         0.00000E+00
         0.00000E+00
         0.00000E+00
         0.00000E+00
         0.00000E+00
         0.00000E+00
         0.00000E+00
         0.00000E+00
         0.00000E+00
         0.00000E+00
         0.00000E+00
         0.00000E+00
         0.00000E+00
         0.00000E+00
         0.00000E+00
         0.00000E+00
         0.00000E+00
         0.00000E+00
         0.00000E+00
         0.00000E+00
         0.00000E+00
         0.00000E+00
         0.00000E+00
         0.00000E+00
         0.00000E+00
         0.00000E+00
         0.00000E+00
         0.00000E+00
         0.00000E+00
         0.00000E+00
         0.00000E+00
         0.00000E+00
         0.00000E+00
         0.00000E+00
         0.00000E+00
         0.00000E+00
         0.00000E+00
         0.00000E+00
         0.00000E+00
         0.00000E+00
         0.00000E+00
         0.00000E+00
         0.00000E+00
         0.00000E+00
         0.00000E+00
         0.00000E+00
         0.00000E+00
         0.00000E+00
         0.00000E+00
         0.00000E+00
         0.00000E+00
         0.00000E+00
         0.00000E+00
         0.00000E+00
         0.00000E+00
         0.00000E+00
         0.00000E+00
         0.00000E+00
         0.00000E+00
         0.00000E+00
         0.00000E+00
         0.00000E+00
         0.00000E+00
         0.00000E+00
         0.00000E+00
         0.00000E+00
         0.00000E+00
         0.00000E+00
         0.00000E+00
         0.00000E+00
         0.00000E+00
         0.00000E+00
         0.00000E+00
         0.00000E+00
         0.00000E+00
         0.00000E+00
         0.00000E+00
         0.00000E+00
         0.00000E+00
         0.00000E+00
         0.00000E+00
         0.00000E+00
         0.00000E+00
         0.00000E+00
         0.00000E+00
         0.00000E+00
         0.00000E+00
         0.00000E+00
         0.00000E+00
         0.00000E+00
         0.00000E+00
         0.00000E+00
         0.00000E+00
         0.00000E+00
         0.00000E+00
         0.00000E+00
         0.00000E+00
         0.00000E+00
         0.00000E+00
         0.00000E+00
         0.00000E+00
         0.00000E+00
         0.00000E+00
         0.00000E+00
         0.00000E+00
         0.00000E+00
         0.00000E+00
         0.00000E+00
         0.00000E+00
         0.00000E+00
         0.00000E+00
         0.00000E+00
         0.00000E+00
         0.00000E+00
         0.00000E+00
         0.00000E+00
         0.00000E+00
         0.00000E+00
         0.00000E+00
         0.00000E+00
         0.00000E+00
         0.00000E+00
         0.00000E+00
         0.00000E+00
         0.00000E+00
         0.00000E+00
         0.00000E+00
         0.00000E+00
         0.00000E+00
         0.00000E+00
         0.00000E+00
         0.00000E+00
         0.00000E+00
         0.00000E+00
         0.00000E+00
         0.00000E+00
         0.00000E+00
         0.00000E+00
         0.00000E+00
         0.00000E+00
         0.00000E+00
         0.00000E+00
         0.00000E+00
         0.00000E+00
         0.00000E+00
         0.00000E+00
         0.00000E+00
         0.00000E+00
         0.00000E+00
         0.00000E+00
         0.00000E+00
         0.00000E+00
         0.00000E+00
         0.00000E+00
         0.00000E+00
         0.00000E+00
         0.00000E+00
         0.00000E+00
         0.00000E+00
         0.00000E+00
         0.00000E+00
         0.00000E+00
         0.00000E+00
         0.00000E+00
         0.00000E+00
         0.00000E+00
         0.00000E+00
         0.00000E+00
         0.00000E+00
         0.00000E+00
         0.00000E+00
         0.00000E+00
         0.00000E+00
         0.00000E+00
         0.00000E+00
         0.00000E+00
         0.00000E+00
         0.00000E+00
         0.00000E+00
         0.00000E+00
         0.00000E+00
         0.00000E+00
         0.00000E+00
         0.00000E+00
         0.00000E+00
         0.00000E+00
         0.00000E+00
         0.00000E+00
         0.00000E+00
         0.00000E+00
         0.00000E+00
         0.00000E+00
         0.00000E+00
         0.00000E+00
         0.00000E+00
         0.00000E+00
         0.00000E+00
         0.00000E+00
         0.00000E+00
         0.00000E+00
         0.00000E+00
         0.00000E+00
         0.00000E+00
         0.00000E+00
         0.00000E+00
         0.00000E+00
         0.00000E+00
         0.00000E+00
         0.00000E+00
         0.00000E+00
         0.00000E+00
         0.00000E+00
         0.00000E+00
         0.00000E+00
         0.00000E+00
         0.00000E+00
         0.00000E+00
         0.00000E+00
         0.00000E+00
         0.00000E+00
         0.00000E+00
         0.00000E+00
         0.00000E+00
         0.00000E+00
         0.00000E+00
         0.00000E+00
         0.00000E+00
         0.00000E+00
         0.00000E+00
         0.00000E+00
         0.00000E+00
         0.00000E+00
         0.00000E+00
         0.00000E+00
         0.00000E+00
         0.00000E+00
         0.00000E+00
         0.00000E+00
         0.00000E+00
         0.00000E+00
         0.00000E+00
         0.00000E+00
         0.00000E+00
         0.00000E+00
         0.00000E+00
         0.00000E+00
         0.00000E+00
         0.00000E+00
         0.00000E+00
         0.00000E+00
         0.00000E+00
         0.00000E+00
         0.00000E+00
         0.00000E+00
         0.00000E+00
         0.00000E+00
         0.00000E+00
         0.00000E+00
         0.00000E+00
         0.00000E+00
         0.00000E+00
         0.00000E+00
         0.00000E+00
         0.00000E+00
         0.00000E+00
         0.00000E+00
         0.00000E+00
         0.00000E+00
         0.00000E+00
         0.00000E+00
         0.00000E+00
         0.00000E+00
         0.00000E+00
         0.00000E+00
         0.00000E+00
         0.00000E+00
         0.00000E+00
         0.00000E+00
         0.00000E+00
         0.00000E+00
         0.00000E+00
         0.00000E+00
         0.00000E+00
         0.00000E+00
         0.00000E+00
         0.00000E+00
         0.00000E+00
         0.00000E+00
         0.00000E+00
         0.00000E+00
         0.00000E+00
         0.00000E+00
         0.00000E+00
         0.00000E+00
         0.00000E+00
         0.00000E+00
         0.00000E+00
         0.00000E+00
         0.00000E+00
         0.00000E+00
         0.00000E+00
         0.00000E+00
         0.00000E+00
         0.00000E+00
         0.00000E+00
         0.00000E+00
         0.00000E+00
         0.00000E+00
         0.00000E+00
         0.00000E+00
         0.00000E+00
         0.00000E+00
         0.00000E+00
         0.00000E+00
         0.00000E+00
         0.00000E+00
         0.00000E+00
         0.00000E+00
         0.00000E+00
         0.00000E+00
         0.00000E+00
         0.00000E+00
         0.00000E+00
         0.00000E+00
         0.00000E+00
         0.00000E+00
         0.00000E+00
         0.00000E+00
         0.00000E+00
         0.00000E+00
         0.00000E+00
         0.00000E+00
         0.00000E+00
         0.00000E+00
         0.00000E+00
         0.00000E+00
         0.00000E+00
         0.00000E+00
         0.00000E+00
         0.00000E+00
         0.00000E+00
         0.00000E+00
         0.00000E+00
         0.00000E+00
         0.00000E+00
         0.00000E+00
         0.00000E+00
         0.00000E+00
         0.00000E+00
         0.00000E+00
         0.00000E+00
         0.00000E+00
         0.00000E+00
         0.00000E+00
         0.00000E+00
         0.00000E+00
         0.00000E+00
         0.00000E+00
         0.00000E+00
         0.00000E+00
         0.00000E+00
         0.00000E+00
         0.00000E+00
         0.00000E+00
         0.00000E+00
         0.00000E+00
         0.00000E+00
         0.00000E+00
         0.00000E+00
         0.00000E+00
         0.00000E+00
         0.00000E+00
         0.00000E+00
         0.00000E+00
         0.00000E+00
         0.00000E+00
         0.00000E+00
         0.00000E+00
         0.00000E+00
         0.00000E+00
         0.00000E+00
         0.00000E+00
         0.00000E+00
         0.00000E+00
         0.00000E+00
         0.00000E+00
         0.00000E+00
         0.00000E+00
         0.00000E+00
         0.00000E+00
         0.00000E+00
         0.00000E+00
         0.00000E+00
         0.00000E+00
         0.00000E+00
         0.00000E+00
         0.00000E+00
         0.00000E+00
         0.00000E+00
         0.00000E+00
         0.00000E+00
         0.00000E+00
         0.00000E+00
         0.00000E+00
         0.00000E+00
         0.00000E+00
         0.00000E+00
         0.00000E+00
         0.00000E+00
         0.00000E+00
         0.00000E+00
         0.00000E+00
         0.00000E+00
         0.00000E+00
         0.00000E+00
         0.00000E+00
         0.00000E+00
         0.00000E+00
         0.00000E+00
         0.00000E+00
         0.00000E+00
         0.00000E+00
         0.00000E+00
         0.00000E+00
         0.00000E+00
         0.00000E+00
         0.00000E+00
         0.00000E+00
         0.00000E+00
         0.00000E+00
         0.00000E+00
         0.00000E+00
         0.00000E+00
         0.00000E+00
         0.00000E+00
         0.00000E+00
         0.00000E+00
         0.00000E+00
         0.00000E+00
         0.00000E+00
         0.00000E+00
         0.00000E+00
         0.00000E+00
         0.00000E+00
         0.00000E+00
         0.00000E+00
         0.00000E+00
         0.00000E+00
         0.00000E+00
         0.00000E+00
         0.00000E+00
         0.00000E+00
         0.00000E+00
         0.00000E+00
         0.00000E+00
         0.00000E+00
         0.00000E+00
         0.00000E+00
         0.00000E+00
         0.00000E+00
         0.00000E+00
         0.00000E+00
         0.00000E+00
         0.00000E+00
         0.00000E+00
         0.00000E+00
         0.00000E+00
         0.00000E+00
         0.00000E+00
         0.00000E+00
         0.00000E+00
         0.00000E+00
         0.00000E+00
         0.00000E+00
         0.00000E+00
         0.00000E+00
         0.00000E+00
         0.00000E+00
         0.00000E+00
         0.00000E+00
         0.00000E+00
         0.00000E+00
         0.00000E+00
         0.00000E+00
         0.00000E+00
         0.00000E+00
         0.00000E+00
         0.00000E+00
         0.00000E+00
         0.00000E+00
         0.00000E+00
         0.00000E+00
         0.00000E+00
         0.00000E+00
         0.00000E+00
         0.00000E+00
         0.00000E+00
         0.00000E+00
         0.00000E+00
         0.00000E+00
         0.00000E+00
         0.00000E+00
         0.00000E+00
         0.00000E+00
         0.00000E+00
         0.00000E+00
         0.00000E+00
         0.00000E+00
         0.00000E+00
         0.00000E+00
         0.00000E+00
         0.00000E+00
         0.00000E+00
         0.00000E+00
         0.00000E+00
         0.00000E+00
         0.00000E+00
         0.00000E+00
         0.00000E+00
         0.00000E+00
         0.00000E+00
         0.00000E+00
         0.00000E+00
         0.00000E+00
         0.00000E+00
         0.00000E+00
         0.00000E+00
         0.00000E+00
         0.00000E+00
         0.00000E+00
         0.00000E+00
         0.00000E+00
         0.00000E+00
         0.00000E+00
         0.00000E+00
         0.00000E+00
         0.00000E+00
         0.00000E+00
         0.00000E+00
         0.00000E+00
         0.00000E+00
         0.00000E+00
         0.00000E+00
         0.00000E+00
         0.00000E+00
         0.00000E+00
         0.00000E+00
         0.00000E+00
         0.00000E+00
         0.00000E+00
         0.00000E+00
         0.00000E+00
         0.00000E+00
         0.00000E+00
         0.00000E+00
         0.00000E+00
         0.00000E+00
         0.00000E+00
         0.00000E+00
         0.00000E+00
         0.00000E+00
         0.00000E+00
         0.00000E+00
         0.00000E+00
         0.00000E+00
         0.00000E+00
         0.00000E+00
         0.00000E+00
         0.00000E+00
         0.00000E+00
         0.00000E+00
         0.00000E+00
         0.00000E+00
         0.00000E+00
         0.00000E+00
         0.00000E+00
         0.00000E+00
         0.00000E+00
         0.00000E+00
         0.00000E+00
         0.00000E+00
         0.00000E+00
         0.00000E+00
         0.00000E+00
         0.00000E+00
         0.00000E+00
         0.00000E+00
         0.00000E+00
         0.00000E+00
         0.00000E+00
         0.00000E+00
         0.00000E+00
         0.00000E+00
         0.00000E+00
         0.00000E+00
         0.00000E+00
         0.00000E+00
         0.00000E+00
         0.00000E+00
         0.00000E+00
         0.00000E+00
         0.00000E+00
         0.00000E+00
         0.00000E+00
         0.00000E+00
         0.00000E+00
         0.00000E+00
         0.00000E+00
         0.00000E+00
         0.00000E+00
         0.00000E+00
         0.00000E+00
         0.00000E+00
         0.00000E+00
         0.00000E+00
         0.00000E+00
         0.00000E+00
         0.00000E+00
         0.00000E+00
         0.00000E+00
         0.00000E+00
         0.00000E+00
         0.00000E+00
         0.00000E+00
         0.00000E+00
         0.00000E+00
         0.00000E+00
         0.00000E+00
         0.00000E+00
         0.00000E+00
         0.00000E+00
         0.00000E+00
         0.00000E+00
         0.00000E+00
         0.00000E+00
         0.00000E+00
         0.00000E+00
         0.00000E+00
         0.00000E+00
         0.00000E+00
         0.00000E+00
         0.00000E+00
         0.00000E+00
         0.00000E+00
         0.00000E+00
         0.00000E+00
         0.00000E+00
         0.00000E+00
         0.00000E+00
         0.00000E+00
         0.00000E+00
         0.00000E+00
         0.00000E+00
         0.00000E+00
         0.00000E+00
         0.00000E+00
         0.00000E+00
         0.00000E+00
         0.00000E+00
         0.00000E+00
         0.00000E+00
         0.00000E+00
         0.00000E+00
         0.00000E+00
         0.00000E+00
         0.00000E+00
         0.00000E+00
         0.00000E+00
         0.00000E+00
         0.00000E+00
         0.00000E+00
         0.00000E+00
         0.00000E+00
         0.00000E+00
         0.00000E+00
         0.00000E+00
         0.00000E+00
         0.00000E+00
         0.00000E+00
         0.00000E+00
         0.00000E+00
         0.00000E+00
         0.00000E+00
         0.00000E+00
         0.00000E+00
         0.00000E+00
         0.00000E+00
         0.00000E+00
         0.00000E+00
         0.00000E+00
         0.00000E+00
         0.00000E+00
         0.00000E+00
         0.00000E+00
         0.00000E+00
         0.00000E+00
         0.00000E+00
         0.00000E+00
         0.00000E+00
         0.00000E+00
         0.00000E+00
         0.00000E+00
         0.00000E+00
         0.00000E+00
         0.00000E+00
         0.00000E+00
         0.00000E+00
         0.00000E+00
         0.00000E+00
         0.00000E+00
         0.00000E+00
         0.00000E+00
         0.00000E+00
         0.00000E+00
         0.00000E+00
         0.00000E+00
         0.00000E+00
         0.00000E+00
         0.00000E+00
         0.00000E+00
         0.00000E+00
         0.00000E+00
         0.00000E+00
         0.00000E+00
         0.00000E+00
         0.00000E+00
         0.00000E+00
         0.00000E+00
         0.00000E+00
         0.00000E+00
         0.00000E+00
         0.00000E+00
         0.00000E+00
         0.00000E+00
         0.00000E+00
         0.00000E+00
         0.00000E+00
         0.00000E+00
         0.00000E+00
         0.00000E+00
         0.00000E+00
         0.00000E+00
         0.00000E+00
         0.00000E+00
         0.00000E+00
         0.00000E+00
         0.00000E+00
         0.00000E+00
         0.00000E+00
         0.00000E+00
         0.00000E+00
         0.00000E+00
         0.00000E+00
         0.00000E+00
         0.00000E+00
         0.00000E+00
         0.00000E+00
         0.00000E+00
         0.00000E+00
         0.00000E+00
         0.00000E+00
         0.00000E+00
         0.00000E+00
         0.00000E+00
         0.00000E+00
         0.00000E+00
         0.00000E+00
         0.00000E+00
         0.00000E+00
         0.00000E+00
         0.00000E+00
         0.00000E+00
         0.00000E+00
         0.00000E+00
         0.00000E+00
         0.00000E+00
         0.00000E+00
         0.00000E+00
         0.00000E+00
         0.00000E+00
         0.00000E+00
         0.00000E+00
         0.00000E+00
         0.00000E+00
         0.00000E+00
         0.00000E+00
         0.00000E+00
         0.00000E+00
         0.00000E+00
         0.00000E+00
         0.00000E+00
         0.00000E+00
         0.00000E+00
         0.00000E+00
         0.00000E+00
         0.00000E+00
         0.00000E+00
         0.00000E+00
         0.00000E+00
         0.00000E+00
         0.00000E+00
         0.00000E+00
         0.00000E+00
         0.00000E+00
         0.00000E+00
         0.00000E+00
         0.00000E+00
         0.00000E+00
         0.00000E+00
         0.00000E+00
         0.00000E+00
         0.00000E+00
         0.00000E+00
         0.00000E+00
         0.00000E+00
         0.00000E+00
         0.00000E+00
         0.00000E+00
         0.00000E+00
         0.00000E+00
         0.00000E+00
         0.00000E+00
         0.00000E+00
         0.00000E+00
         0.00000E+00
         0.00000E+00
         0.00000E+00
         0.00000E+00
         0.00000E+00
         0.00000E+00
         0.00000E+00
         0.00000E+00
         0.00000E+00
         0.00000E+00
         0.00000E+00
         0.00000E+00
         0.00000E+00
         0.00000E+00
         0.00000E+00
         0.00000E+00
         0.00000E+00
         0.00000E+00
         0.00000E+00
         0.00000E+00
         0.00000E+00
         0.00000E+00
         0.00000E+00
         0.00000E+00
         0.00000E+00
         0.00000E+00
         0.00000E+00
         0.00000E+00
         0.00000E+00
         0.00000E+00
         0.00000E+00
         0.00000E+00
         0.00000E+00
         0.00000E+00
         0.00000E+00
         0.00000E+00
         0.00000E+00
         0.00000E+00
         0.00000E+00
         0.00000E+00
         0.00000E+00
         0.00000E+00
         0.00000E+00
         0.00000E+00
         0.00000E+00
         0.00000E+00
         0.00000E+00
         0.00000E+00
         0.00000E+00
         0.00000E+00
         0.00000E+00
         0.00000E+00
         0.00000E+00
         0.00000E+00
         0.00000E+00
         0.00000E+00
         0.00000E+00
         0.00000E+00
         0.00000E+00
         0.00000E+00
         0.00000E+00
         0.00000E+00
         0.00000E+00
         0.00000E+00
         0.00000E+00
         0.00000E+00
         0.00000E+00
         0.00000E+00
         0.00000E+00
         0.00000E+00
         0.00000E+00
         0.00000E+00
         0.00000E+00
         0.00000E+00
         0.00000E+00
         0.00000E+00
         0.00000E+00
         0.00000E+00
         0.00000E+00
         0.00000E+00
         0.00000E+00
         0.00000E+00
         0.00000E+00
         0.00000E+00
         0.00000E+00
         0.00000E+00
         0.00000E+00
         0.00000E+00
         0.00000E+00
         0.00000E+00
         0.00000E+00
         0.00000E+00
         0.00000E+00
         0.00000E+00
         0.00000E+00
         0.00000E+00
         0.00000E+00
         0.00000E+00
         0.00000E+00
         0.00000E+00
         0.00000E+00
         0.00000E+00
         0.00000E+00
         0.00000E+00
         0.00000E+00
         0.00000E+00
         0.00000E+00
         0.00000E+00
         0.00000E+00
         0.00000E+00
         0.00000E+00
         0.00000E+00
         0.00000E+00
         0.00000E+00
         0.00000E+00
         0.00000E+00
         0.00000E+00
         0.00000E+00
         0.00000E+00
         0.00000E+00
         0.00000E+00
         0.00000E+00
         0.00000E+00
         0.00000E+00
         0.00000E+00
         0.00000E+00
         0.00000E+00
         0.00000E+00
         0.00000E+00
         0.00000E+00
         0.00000E+00
         0.00000E+00
         0.00000E+00
         0.00000E+00
         0.00000E+00
         0.00000E+00
         0.00000E+00
         0.00000E+00
         0.00000E+00
         0.00000E+00
         0.00000E+00
         0.00000E+00
         0.00000E+00
         0.00000E+00
         0.00000E+00
         0.00000E+00
         0.00000E+00
         0.00000E+00
         0.00000E+00
         0.00000E+00
         0.00000E+00
         0.00000E+00
         0.00000E+00
         0.00000E+00
         0.00000E+00
         0.00000E+00
         0.00000E+00
         0.00000E+00
         0.00000E+00
         0.00000E+00
         0.00000E+00
         0.00000E+00
         0.00000E+00
         0.00000E+00
         0.00000E+00
         0.00000E+00
         0.00000E+00
         0.00000E+00
         0.00000E+00
         0.00000E+00
         0.00000E+00
         0.00000E+00
         0.00000E+00
         0.00000E+00
         0.00000E+00
         0.00000E+00
         0.00000E+00
         0.00000E+00
         0.00000E+00
         0.00000E+00
         0.00000E+00
         0.00000E+00
         0.00000E+00
         0.00000E+00
         0.00000E+00
         0.00000E+00
         0.00000E+00
         0.00000E+00
         0.00000E+00
         0.00000E+00
         0.00000E+00
         0.00000E+00
         0.00000E+00
         0.00000E+00
         0.00000E+00
         0.00000E+00
         0.00000E+00
         0.00000E+00
         0.00000E+00
         0.00000E+00
         0.00000E+00
         0.00000E+00
         0.00000E+00
         0.00000E+00
         0.00000E+00
         0.00000E+00
         0.00000E+00
         0.00000E+00
         0.00000E+00
         0.00000E+00
         0.00000E+00
         0.00000E+00
         0.00000E+00
         0.00000E+00
         0.00000E+00
         0.00000E+00
         0.00000E+00
         0.00000E+00
         0.00000E+00
         0.00000E+00
         0.00000E+00
         0.00000E+00
         0.00000E+00
         0.00000E+00
         0.00000E+00
         0.00000E+00
         0.00000E+00
         0.00000E+00
         0.00000E+00
         0.00000E+00
         0.00000E+00
         0.00000E+00
         0.00000E+00
         0.00000E+00
         0.00000E+00
         0.00000E+00
         0.00000E+00
         0.00000E+00
         0.00000E+00
         0.00000E+00
         0.00000E+00
         0.00000E+00
         0.00000E+00
         0.00000E+00
         0.00000E+00
         0.00000E+00
         0.00000E+00
         0.00000E+00
         0.00000E+00
         0.00000E+00
         0.00000E+00
         0.00000E+00
         0.00000E+00
         0.00000E+00
         0.00000E+00
         0.00000E+00
         0.00000E+00
         0.00000E+00
         0.00000E+00
         0.00000E+00
         0.00000E+00
         0.00000E+00
         0.00000E+00
         0.00000E+00
         0.00000E+00
         0.00000E+00
         0.00000E+00
         0.00000E+00
         0.00000E+00
         0.00000E+00
         0.00000E+00
         0.00000E+00
         0.00000E+00
         0.00000E+00
         0.00000E+00
         0.00000E+00
         0.00000E+00
         0.00000E+00
         0.00000E+00
         0.00000E+00
         0.00000E+00
         0.00000E+00
         0.00000E+00
         0.00000E+00
         0.00000E+00
         0.00000E+00
         0.00000E+00
         0.00000E+00
         0.00000E+00
         0.00000E+00
         0.00000E+00
         0.00000E+00
         0.00000E+00
         0.00000E+00
         0.00000E+00
         0.00000E+00
         0.00000E+00
         0.00000E+00
         0.00000E+00
         0.00000E+00
         0.00000E+00
         0.00000E+00
         0.00000E+00
         0.00000E+00
         0.00000E+00
         0.00000E+00
         0.00000E+00
         0.00000E+00
         0.00000E+00
         0.00000E+00
         0.00000E+00
         0.00000E+00
         0.00000E+00
         0.00000E+00
         0.00000E+00
         0.00000E+00
         0.00000E+00
         0.00000E+00
         0.00000E+00
         0.00000E+00
         0.00000E+00
         0.00000E+00
         0.00000E+00
         0.00000E+00
         0.00000E+00
         0.00000E+00
         0.00000E+00
         0.00000E+00
         0.00000E+00
         0.00000E+00
         0.00000E+00
         0.00000E+00
         0.00000E+00
         0.00000E+00
         0.00000E+00
         0.00000E+00
         0.00000E+00
         0.00000E+00
         0.00000E+00
         0.00000E+00
         0.00000E+00
         0.00000E+00
         0.00000E+00
         0.00000E+00
         0.00000E+00
         0.00000E+00
         0.00000E+00
         0.00000E+00
         0.00000E+00
         0.00000E+00
         0.00000E+00
         0.00000E+00
         0.00000E+00
         0.00000E+00
         0.00000E+00
         0.00000E+00
         0.00000E+00
         0.00000E+00
         0.00000E+00
         0.00000E+00
         0.00000E+00
         0.00000E+00
         0.00000E+00
         0.00000E+00
         0.00000E+00
         0.00000E+00
         0.00000E+00
         0.00000E+00
         0.00000E+00
         0.00000E+00
         0.00000E+00
         0.00000E+00
         0.00000E+00
         0.00000E+00
         0.00000E+00
         0.00000E+00
         0.00000E+00
         0.00000E+00
         0.00000E+00
         0.00000E+00
         0.00000E+00
         0.00000E+00
         0.00000E+00
         0.00000E+00
         0.00000E+00
         0.00000E+00
         0.00000E+00
         0.00000E+00
         0.00000E+00
         0.00000E+00
         0.00000E+00
         0.00000E+00
         0.00000E+00
         0.00000E+00
         0.00000E+00
         0.00000E+00
         0.00000E+00
         0.00000E+00
         0.00000E+00
         0.00000E+00
         0.00000E+00
         0.00000E+00
         0.00000E+00
         0.00000E+00
         0.00000E+00
         0.00000E+00
         0.00000E+00
         0.00000E+00
         0.00000E+00
         0.00000E+00
         0.00000E+00
         0.00000E+00
         0.00000E+00
         0.00000E+00
         0.00000E+00
         0.00000E+00
         0.00000E+00
         0.00000E+00
         0.00000E+00
         0.00000E+00
         0.00000E+00
         0.00000E+00
         0.00000E+00
         0.00000E+00
         0.00000E+00
         0.00000E+00
         0.00000E+00
         0.00000E+00
         0.00000E+00
         0.00000E+00
         0.00000E+00
         0.00000E+00
         0.00000E+00
         0.00000E+00
         0.00000E+00
         0.00000E+00
         0.00000E+00
         0.00000E+00
         0.00000E+00
         0.00000E+00
         0.00000E+00
         0.00000E+00
         0.00000E+00
         0.00000E+00
         0.00000E+00
         0.00000E+00
         0.00000E+00
         0.00000E+00
         0.00000E+00
         0.00000E+00
         0.00000E+00
         0.00000E+00
         0.00000E+00
         0.00000E+00
         0.00000E+00
         0.00000E+00
         0.00000E+00
         0.00000E+00
         0.00000E+00
         0.00000E+00
         0.00000E+00
         0.00000E+00
         0.00000E+00
         0.00000E+00
         0.00000E+00
         0.00000E+00
         0.00000E+00
         0.00000E+00
         0.00000E+00
         0.00000E+00
         0.00000E+00
         0.00000E+00
         0.00000E+00
         0.00000E+00
         0.00000E+00
         0.00000E+00
         0.00000E+00
         0.00000E+00
         0.00000E+00
         0.00000E+00
         0.00000E+00
         0.00000E+00
         0.00000E+00
         0.00000E+00
         0.00000E+00
         0.00000E+00
         0.00000E+00
         0.00000E+00
         0.00000E+00
         0.00000E+00
         0.00000E+00
         0.00000E+00
         0.00000E+00
         0.00000E+00
         0.00000E+00
         0.00000E+00
         0.00000E+00
         0.00000E+00
         0.00000E+00
         0.00000E+00
         0.00000E+00
         0.00000E+00
         0.00000E+00
         0.00000E+00
         0.00000E+00
         0.00000E+00
         0.00000E+00
         0.00000E+00
         0.00000E+00
         0.00000E+00
         0.00000E+00
         0.00000E+00
         0.00000E+00
         0.00000E+00
         0.00000E+00
         0.00000E+00
         0.00000E+00
         0.00000E+00
         0.00000E+00
         0.00000E+00
         0.00000E+00
         0.00000E+00
         0.00000E+00
         0.00000E+00
         0.00000E+00
         0.00000E+00
         0.00000E+00
         0.00000E+00
         0.00000E+00
         0.00000E+00
         0.00000E+00
         0.00000E+00
         0.00000E+00
         0.00000E+00
         0.00000E+00
         0.00000E+00
         0.00000E+00
         0.00000E+00
         0.00000E+00
         0.00000E+00
         0.00000E+00
         0.00000E+00
         0.00000E+00
         0.00000E+00
         0.00000E+00
         0.00000E+00
         0.00000E+00
         0.00000E+00
         0.00000E+00
         0.00000E+00
         0.00000E+00
         0.00000E+00
         0.00000E+00
         0.00000E+00
         0.00000E+00
         0.00000E+00
         0.00000E+00
         0.00000E+00
         0.00000E+00
         0.00000E+00
         0.00000E+00
         0.00000E+00
         0.00000E+00
         0.00000E+00
         0.00000E+00
         0.00000E+00
         0.00000E+00
         0.00000E+00
         0.00000E+00
         0.00000E+00
         0.00000E+00
         0.00000E+00
         0.00000E+00
         0.00000E+00
         0.00000E+00
         0.00000E+00
         0.00000E+00
         0.00000E+00
         0.00000E+00
         0.00000E+00
         0.00000E+00
         0.00000E+00
         0.00000E+00
         0.00000E+00
         0.00000E+00
         0.00000E+00
         0.00000E+00
         0.00000E+00
         0.00000E+00
         0.00000E+00
         0.00000E+00
         0.00000E+00
         0.00000E+00
         0.00000E+00
         0.00000E+00
         0.00000E+00
         0.00000E+00
         0.00000E+00
         0.00000E+00
         0.00000E+00
         0.00000E+00
         0.00000E+00
         0.00000E+00
         0.00000E+00
         0.00000E+00
         0.00000E+00
         0.00000E+00
         0.00000E+00
         0.00000E+00
         0.00000E+00
         0.00000E+00
         0.00000E+00
         0.00000E+00
         0.00000E+00
         0.00000E+00
         0.00000E+00
         0.00000E+00
         0.00000E+00
         0.00000E+00
         0.00000E+00
         0.00000E+00
         0.00000E+00
         0.00000E+00
         0.00000E+00
         0.00000E+00
         0.00000E+00
         0.00000E+00
         0.00000E+00
         0.00000E+00
         0.00000E+00
         0.00000E+00
         0.00000E+00
         0.00000E+00
         0.00000E+00
         0.00000E+00
         0.00000E+00
         0.00000E+00
         0.00000E+00
         0.00000E+00
         0.00000E+00
         0.00000E+00
         0.00000E+00
         0.00000E+00
         0.00000E+00
         0.00000E+00
         0.00000E+00
         0.00000E+00
         0.00000E+00
         0.00000E+00
         0.00000E+00
         0.00000E+00
         0.00000E+00
         0.00000E+00
         0.00000E+00
         0.00000E+00
         0.00000E+00
         0.00000E+00
         0.00000E+00
         0.00000E+00
         0.00000E+00
         0.00000E+00
         0.00000E+00
         0.00000E+00
         0.00000E+00
         0.00000E+00
         0.00000E+00
         0.00000E+00
         0.00000E+00
         0.00000E+00
         0.00000E+00
         0.00000E+00
         0.00000E+00
         0.00000E+00
         0.00000E+00
         0.00000E+00
         0.00000E+00
         0.00000E+00
         0.00000E+00
         0.00000E+00
         0.00000E+00
         0.00000E+00
         0.00000E+00
         0.00000E+00
         0.00000E+00
         0.00000E+00
         0.00000E+00
         0.00000E+00
         0.00000E+00
         0.00000E+00
         0.00000E+00
         0.00000E+00
         0.00000E+00
         0.00000E+00
         0.00000E+00
         0.00000E+00
         0.00000E+00
         0.00000E+00
         0.00000E+00
         0.00000E+00
         0.00000E+00
         0.00000E+00
         0.00000E+00
         0.00000E+00
         0.00000E+00
         0.00000E+00
         0.00000E+00
         0.00000E+00
         0.00000E+00
         0.00000E+00
         0.00000E+00
         0.00000E+00
         0.00000E+00
         0.00000E+00
         0.00000E+00
         0.00000E+00
         0.00000E+00
         0.00000E+00
         0.00000E+00
         0.00000E+00
         0.00000E+00
         0.00000E+00
         0.00000E+00
         0.00000E+00
         0.00000E+00
         0.00000E+00
         0.00000E+00
         0.00000E+00
         0.00000E+00
         0.00000E+00
         0.00000E+00
         0.00000E+00
         0.00000E+00
         0.00000E+00
         0.00000E+00
         0.00000E+00
         0.00000E+00
         0.00000E+00
         0.00000E+00
         0.00000E+00
         0.00000E+00
         0.00000E+00
         0.00000E+00
         0.00000E+00
         0.00000E+00
         0.00000E+00
         0.00000E+00
         0.00000E+00
         0.00000E+00
         0.00000E+00
         0.00000E+00
         0.00000E+00
         0.00000E+00
         0.00000E+00
         0.00000E+00
         0.00000E+00
         0.00000E+00
         0.00000E+00
         0.00000E+00
         0.00000E+00
         0.00000E+00
         0.00000E+00
         0.00000E+00
         0.00000E+00
         0.00000E+00
         0.00000E+00
         0.00000E+00
         0.00000E+00
         0.00000E+00
         0.00000E+00
         0.00000E+00
         0.00000E+00
         0.00000E+00
         0.00000E+00
         0.00000E+00
         0.00000E+00
         0.00000E+00
         0.00000E+00
         0.00000E+00
         0.00000E+00
  
SCALARS                     velocity_z  double 1
LOOKUP_TABLE default
        -0.37300E+03
        -0.37300E+03
        -0.37300E+03
        -0.37300E+03
         0.00000E+00
         0.00000E+00
         0.00000E+00
         0.00000E+00
        -0.37300E+03
        -0.37300E+03
         0.00000E+00
         0.00000E+00
        -0.37300E+03
        -0.37300E+03
         0.00000E+00
         0.00000E+00
        -0.37300E+03
        -0.37300E+03
         0.00000E+00
         0.00000E+00
        -0.37300E+03
        -0.37300E+03
        -0.37300E+03
         0.00000E+00
         0.00000E+00
         0.00000E+00
        -0.37300E+03
        -0.37300E+03
         0.00000E+00
         0.00000E+00
        -0.37300E+03
        -0.37300E+03
        -0.37300E+03
         0.00000E+00
         0.00000E+00
         0.00000E+00
        -0.37300E+03
        -0.37300E+03
         0.00000E+00
         0.00000E+00
        -0.37300E+03
        -0.37300E+03
         0.00000E+00
         0.00000E+00
        -0.37300E+03
        -0.37300E+03
         0.00000E+00
         0.00000E+00
        -0.37300E+03
         0.00000E+00
        -0.37300E+03
         0.00000E+00
        -0.37300E+03
         0.00000E+00
        -0.37300E+03
         0.00000E+00
        -0.37300E+03
        -0.37300E+03
         0.00000E+00
         0.00000E+00
        -0.37300E+03
        -0.37300E+03
         0.00000E+00
         0.00000E+00
        -0.37300E+03
         0.00000E+00
        -0.37300E+03
         0.00000E+00
        -0.37300E+03
        -0.37300E+03
         0.00000E+00
         0.00000E+00
        -0.37300E+03
         0.00000E+00
        -0.37300E+03
         0.00000E+00
        -0.37300E+03
         0.00000E+00
        -0.37300E+03
         0.00000E+00
        -0.37300E+03
        -0.37300E+03
         0.00000E+00
         0.00000E+00
        -0.37300E+03
         0.00000E+00
        -0.37300E+03
         0.00000E+00
        -0.37300E+03
         0.00000E+00
        -0.37300E+03
        -0.37300E+03
         0.00000E+00
         0.00000E+00
        -0.37300E+03
         0.00000E+00
        -0.37300E+03
         0.00000E+00
        -0.37300E+03
         0.00000E+00
        -0.37300E+03
        -0.37300E+03
         0.00000E+00
         0.00000E+00
        -0.37300E+03
        -0.37300E+03
         0.00000E+00
         0.00000E+00
        -0.37300E+03
         0.00000E+00
        -0.37300E+03
         0.00000E+00
        -0.37300E+03
         0.00000E+00
        -0.37300E+03
         0.00000E+00
        -0.37300E+03
         0.00000E+00
        -0.37300E+03
         0.00000E+00
        -0.37300E+03
         0.00000E+00
        -0.37300E+03
         0.00000E+00
        -0.37300E+03
         0.00000E+00
        -0.37300E+03
         0.00000E+00
        -0.37300E+03
         0.00000E+00
        -0.37300E+03
         0.00000E+00
        -0.37300E+03
         0.00000E+00
        -0.37300E+03
         0.00000E+00
        -0.37300E+03
         0.00000E+00
        -0.37300E+03
         0.00000E+00
        -0.37300E+03
         0.00000E+00
        -0.37300E+03
         0.00000E+00
        -0.37300E+03
         0.00000E+00
        -0.37300E+03
         0.00000E+00
        -0.37300E+03
         0.00000E+00
        -0.37300E+03
         0.00000E+00
        -0.37300E+03
         0.00000E+00
        -0.37300E+03
         0.00000E+00
        -0.37300E+03
        -0.37300E+03
        -0.37300E+03
        -0.37300E+03
        -0.37300E+03
        -0.37300E+03
        -0.37300E+03
        -0.37300E+03
        -0.37300E+03
        -0.37300E+03
        -0.37300E+03
        -0.37300E+03
        -0.37300E+03
        -0.37300E+03
        -0.37300E+03
        -0.37300E+03
        -0.37300E+03
        -0.37300E+03
        -0.37300E+03
        -0.37300E+03
        -0.37300E+03
        -0.37300E+03
        -0.37300E+03
        -0.37300E+03
        -0.37300E+03
        -0.37300E+03
        -0.37300E+03
        -0.37300E+03
        -0.37300E+03
        -0.37300E+03
        -0.37300E+03
        -0.37300E+03
        -0.37300E+03
        -0.37300E+03
        -0.37300E+03
        -0.37300E+03
        -0.37300E+03
        -0.37300E+03
        -0.37300E+03
        -0.37300E+03
        -0.37300E+03
        -0.37300E+03
        -0.37300E+03
        -0.37300E+03
        -0.37300E+03
        -0.37300E+03
        -0.37300E+03
        -0.37300E+03
        -0.37300E+03
        -0.37300E+03
        -0.37300E+03
        -0.37300E+03
        -0.37300E+03
        -0.37300E+03
        -0.37300E+03
        -0.37300E+03
        -0.37300E+03
        -0.37300E+03
        -0.37300E+03
        -0.37300E+03
        -0.37300E+03
        -0.37300E+03
        -0.37300E+03
        -0.37300E+03
        -0.37300E+03
        -0.37300E+03
        -0.37300E+03
        -0.37300E+03
        -0.37300E+03
        -0.37300E+03
        -0.37300E+03
        -0.37300E+03
        -0.37300E+03
        -0.37300E+03
        -0.37300E+03
        -0.37300E+03
        -0.37300E+03
        -0.37300E+03
        -0.37300E+03
        -0.37300E+03
        -0.37300E+03
        -0.37300E+03
        -0.37300E+03
        -0.37300E+03
        -0.37300E+03
        -0.37300E+03
        -0.37300E+03
        -0.37300E+03
        -0.37300E+03
        -0.37300E+03
        -0.37300E+03
        -0.37300E+03
        -0.37300E+03
        -0.37300E+03
        -0.37300E+03
        -0.37300E+03
        -0.37300E+03
        -0.37300E+03
        -0.37300E+03
        -0.37300E+03
        -0.37300E+03
        -0.37300E+03
        -0.37300E+03
        -0.37300E+03
        -0.37300E+03
        -0.37300E+03
        -0.37300E+03
        -0.37300E+03
        -0.37300E+03
        -0.37300E+03
        -0.37300E+03
        -0.37300E+03
        -0.37300E+03
        -0.37300E+03
        -0.37300E+03
        -0.37300E+03
        -0.37300E+03
        -0.37300E+03
        -0.37300E+03
        -0.37300E+03
        -0.37300E+03
        -0.37300E+03
        -0.37300E+03
        -0.37300E+03
        -0.37300E+03
        -0.37300E+03
        -0.37300E+03
        -0.37300E+03
        -0.37300E+03
        -0.37300E+03
        -0.37300E+03
        -0.37300E+03
        -0.37300E+03
        -0.37300E+03
        -0.37300E+03
        -0.37300E+03
        -0.37300E+03
        -0.37300E+03
        -0.37300E+03
        -0.37300E+03
        -0.37300E+03
        -0.37300E+03
        -0.37300E+03
        -0.37300E+03
        -0.37300E+03
        -0.37300E+03
        -0.37300E+03
        -0.37300E+03
        -0.37300E+03
        -0.37300E+03
        -0.37300E+03
        -0.37300E+03
        -0.37300E+03
        -0.37300E+03
        -0.37300E+03
        -0.37300E+03
        -0.37300E+03
        -0.37300E+03
        -0.37300E+03
        -0.37300E+03
        -0.37300E+03
        -0.37300E+03
        -0.37300E+03
        -0.37300E+03
        -0.37300E+03
        -0.37300E+03
        -0.37300E+03
        -0.37300E+03
        -0.37300E+03
        -0.37300E+03
        -0.37300E+03
        -0.37300E+03
        -0.37300E+03
        -0.37300E+03
        -0.37300E+03
        -0.37300E+03
        -0.37300E+03
        -0.37300E+03
        -0.37300E+03
        -0.37300E+03
        -0.37300E+03
        -0.37300E+03
        -0.37300E+03
        -0.37300E+03
        -0.37300E+03
        -0.37300E+03
        -0.37300E+03
        -0.37300E+03
        -0.37300E+03
        -0.37300E+03
        -0.37300E+03
        -0.37300E+03
        -0.37300E+03
        -0.37300E+03
        -0.37300E+03
        -0.37300E+03
        -0.37300E+03
        -0.37300E+03
        -0.37300E+03
        -0.37300E+03
        -0.37300E+03
        -0.37300E+03
        -0.37300E+03
        -0.37300E+03
        -0.37300E+03
        -0.37300E+03
        -0.37300E+03
        -0.37300E+03
        -0.37300E+03
        -0.37300E+03
        -0.37300E+03
        -0.37300E+03
        -0.37300E+03
        -0.37300E+03
        -0.37300E+03
        -0.37300E+03
        -0.37300E+03
        -0.37300E+03
        -0.37300E+03
        -0.37300E+03
        -0.37300E+03
        -0.37300E+03
        -0.37300E+03
        -0.37300E+03
        -0.37300E+03
        -0.37300E+03
        -0.37300E+03
        -0.37300E+03
        -0.37300E+03
        -0.37300E+03
        -0.37300E+03
        -0.37300E+03
        -0.37300E+03
        -0.37300E+03
        -0.37300E+03
        -0.37300E+03
        -0.37300E+03
        -0.37300E+03
        -0.37300E+03
        -0.37300E+03
        -0.37300E+03
        -0.37300E+03
        -0.37300E+03
        -0.37300E+03
        -0.37300E+03
        -0.37300E+03
        -0.37300E+03
        -0.37300E+03
        -0.37300E+03
        -0.37300E+03
        -0.37300E+03
        -0.37300E+03
        -0.37300E+03
        -0.37300E+03
        -0.37300E+03
        -0.37300E+03
        -0.37300E+03
        -0.37300E+03
        -0.37300E+03
        -0.37300E+03
        -0.37300E+03
        -0.37300E+03
        -0.37300E+03
        -0.37300E+03
        -0.37300E+03
        -0.37300E+03
        -0.37300E+03
        -0.37300E+03
        -0.37300E+03
        -0.37300E+03
        -0.37300E+03
        -0.37300E+03
        -0.37300E+03
        -0.37300E+03
        -0.37300E+03
        -0.37300E+03
        -0.37300E+03
        -0.37300E+03
        -0.37300E+03
        -0.37300E+03
        -0.37300E+03
        -0.37300E+03
        -0.37300E+03
        -0.37300E+03
        -0.37300E+03
        -0.37300E+03
        -0.37300E+03
        -0.37300E+03
        -0.37300E+03
        -0.37300E+03
        -0.37300E+03
        -0.37300E+03
        -0.37300E+03
        -0.37300E+03
        -0.37300E+03
        -0.37300E+03
        -0.37300E+03
        -0.37300E+03
        -0.37300E+03
        -0.37300E+03
        -0.37300E+03
        -0.37300E+03
        -0.37300E+03
        -0.37300E+03
        -0.37300E+03
        -0.37300E+03
        -0.37300E+03
        -0.37300E+03
        -0.37300E+03
        -0.37300E+03
        -0.37300E+03
        -0.37300E+03
        -0.37300E+03
        -0.37300E+03
        -0.37300E+03
        -0.37300E+03
        -0.37300E+03
        -0.37300E+03
        -0.37300E+03
        -0.37300E+03
        -0.37300E+03
        -0.37300E+03
        -0.37300E+03
        -0.37300E+03
        -0.37300E+03
        -0.37300E+03
        -0.37300E+03
        -0.37300E+03
        -0.37300E+03
        -0.37300E+03
        -0.37300E+03
        -0.37300E+03
        -0.37300E+03
        -0.37300E+03
        -0.37300E+03
        -0.37300E+03
        -0.37300E+03
        -0.37300E+03
        -0.37300E+03
        -0.37300E+03
        -0.37300E+03
        -0.37300E+03
        -0.37300E+03
        -0.37300E+03
        -0.37300E+03
        -0.37300E+03
        -0.37300E+03
        -0.37300E+03
        -0.37300E+03
        -0.37300E+03
        -0.37300E+03
        -0.37300E+03
        -0.37300E+03
        -0.37300E+03
        -0.37300E+03
        -0.37300E+03
        -0.37300E+03
        -0.37300E+03
        -0.37300E+03
        -0.37300E+03
        -0.37300E+03
        -0.37300E+03
        -0.37300E+03
        -0.37300E+03
        -0.37300E+03
        -0.37300E+03
        -0.37300E+03
        -0.37300E+03
        -0.37300E+03
        -0.37300E+03
        -0.37300E+03
        -0.37300E+03
        -0.37300E+03
        -0.37300E+03
        -0.37300E+03
        -0.37300E+03
        -0.37300E+03
        -0.37300E+03
        -0.37300E+03
        -0.37300E+03
        -0.37300E+03
        -0.37300E+03
        -0.37300E+03
        -0.37300E+03
        -0.37300E+03
        -0.37300E+03
        -0.37300E+03
        -0.37300E+03
        -0.37300E+03
        -0.37300E+03
        -0.37300E+03
        -0.37300E+03
        -0.37300E+03
        -0.37300E+03
        -0.37300E+03
        -0.37300E+03
        -0.37300E+03
        -0.37300E+03
        -0.37300E+03
        -0.37300E+03
        -0.37300E+03
        -0.37300E+03
        -0.37300E+03
        -0.37300E+03
        -0.37300E+03
        -0.37300E+03
        -0.37300E+03
        -0.37300E+03
        -0.37300E+03
        -0.37300E+03
        -0.37300E+03
        -0.37300E+03
        -0.37300E+03
        -0.37300E+03
        -0.37300E+03
        -0.37300E+03
        -0.37300E+03
        -0.37300E+03
        -0.37300E+03
        -0.37300E+03
        -0.37300E+03
        -0.37300E+03
        -0.37300E+03
        -0.37300E+03
        -0.37300E+03
        -0.37300E+03
        -0.37300E+03
        -0.37300E+03
        -0.37300E+03
        -0.37300E+03
        -0.37300E+03
        -0.37300E+03
        -0.37300E+03
        -0.37300E+03
        -0.37300E+03
        -0.37300E+03
        -0.37300E+03
        -0.37300E+03
        -0.37300E+03
        -0.37300E+03
        -0.37300E+03
        -0.37300E+03
        -0.37300E+03
        -0.37300E+03
        -0.37300E+03
        -0.37300E+03
        -0.37300E+03
        -0.37300E+03
        -0.37300E+03
        -0.37300E+03
        -0.37300E+03
        -0.37300E+03
        -0.37300E+03
        -0.37300E+03
        -0.37300E+03
        -0.37300E+03
        -0.37300E+03
        -0.37300E+03
        -0.37300E+03
        -0.37300E+03
        -0.37300E+03
        -0.37300E+03
        -0.37300E+03
        -0.37300E+03
        -0.37300E+03
        -0.37300E+03
        -0.37300E+03
        -0.37300E+03
        -0.37300E+03
        -0.37300E+03
        -0.37300E+03
        -0.37300E+03
        -0.37300E+03
        -0.37300E+03
        -0.37300E+03
        -0.37300E+03
        -0.37300E+03
        -0.37300E+03
        -0.37300E+03
        -0.37300E+03
        -0.37300E+03
        -0.37300E+03
        -0.37300E+03
        -0.37300E+03
        -0.37300E+03
        -0.37300E+03
        -0.37300E+03
        -0.37300E+03
        -0.37300E+03
        -0.37300E+03
        -0.37300E+03
        -0.37300E+03
        -0.37300E+03
        -0.37300E+03
        -0.37300E+03
        -0.37300E+03
        -0.37300E+03
        -0.37300E+03
        -0.37300E+03
        -0.37300E+03
        -0.37300E+03
        -0.37300E+03
        -0.37300E+03
        -0.37300E+03
        -0.37300E+03
        -0.37300E+03
        -0.37300E+03
        -0.37300E+03
        -0.37300E+03
        -0.37300E+03
        -0.37300E+03
        -0.37300E+03
        -0.37300E+03
        -0.37300E+03
        -0.37300E+03
        -0.37300E+03
        -0.37300E+03
        -0.37300E+03
        -0.37300E+03
        -0.37300E+03
        -0.37300E+03
        -0.37300E+03
        -0.37300E+03
        -0.37300E+03
        -0.37300E+03
        -0.37300E+03
        -0.37300E+03
        -0.37300E+03
        -0.37300E+03
        -0.37300E+03
        -0.37300E+03
        -0.37300E+03
        -0.37300E+03
        -0.37300E+03
        -0.37300E+03
        -0.37300E+03
        -0.37300E+03
        -0.37300E+03
        -0.37300E+03
        -0.37300E+03
        -0.37300E+03
        -0.37300E+03
        -0.37300E+03
        -0.37300E+03
        -0.37300E+03
        -0.37300E+03
        -0.37300E+03
        -0.37300E+03
        -0.37300E+03
        -0.37300E+03
        -0.37300E+03
        -0.37300E+03
        -0.37300E+03
        -0.37300E+03
        -0.37300E+03
        -0.37300E+03
        -0.37300E+03
        -0.37300E+03
        -0.37300E+03
        -0.37300E+03
        -0.37300E+03
        -0.37300E+03
        -0.37300E+03
        -0.37300E+03
        -0.37300E+03
        -0.37300E+03
        -0.37300E+03
        -0.37300E+03
        -0.37300E+03
        -0.37300E+03
        -0.37300E+03
        -0.37300E+03
        -0.37300E+03
        -0.37300E+03
        -0.37300E+03
        -0.37300E+03
        -0.37300E+03
        -0.37300E+03
        -0.37300E+03
        -0.37300E+03
        -0.37300E+03
        -0.37300E+03
        -0.37300E+03
        -0.37300E+03
        -0.37300E+03
        -0.37300E+03
        -0.37300E+03
        -0.37300E+03
        -0.37300E+03
        -0.37300E+03
        -0.37300E+03
        -0.37300E+03
        -0.37300E+03
        -0.37300E+03
        -0.37300E+03
        -0.37300E+03
        -0.37300E+03
        -0.37300E+03
        -0.37300E+03
        -0.37300E+03
        -0.37300E+03
        -0.37300E+03
        -0.37300E+03
        -0.37300E+03
        -0.37300E+03
        -0.37300E+03
        -0.37300E+03
        -0.37300E+03
        -0.37300E+03
        -0.37300E+03
        -0.37300E+03
        -0.37300E+03
        -0.37300E+03
        -0.37300E+03
        -0.37300E+03
        -0.37300E+03
        -0.37300E+03
        -0.37300E+03
        -0.37300E+03
        -0.37300E+03
        -0.37300E+03
        -0.37300E+03
        -0.37300E+03
        -0.37300E+03
        -0.37300E+03
        -0.37300E+03
        -0.37300E+03
        -0.37300E+03
        -0.37300E+03
        -0.37300E+03
        -0.37300E+03
        -0.37300E+03
        -0.37300E+03
        -0.37300E+03
        -0.37300E+03
        -0.37300E+03
        -0.37300E+03
        -0.37300E+03
        -0.37300E+03
        -0.37300E+03
        -0.37300E+03
        -0.37300E+03
        -0.37300E+03
        -0.37300E+03
        -0.37300E+03
        -0.37300E+03
        -0.37300E+03
        -0.37300E+03
        -0.37300E+03
        -0.37300E+03
        -0.37300E+03
        -0.37300E+03
        -0.37300E+03
        -0.37300E+03
        -0.37300E+03
        -0.37300E+03
        -0.37300E+03
        -0.37300E+03
        -0.37300E+03
        -0.37300E+03
        -0.37300E+03
        -0.37300E+03
        -0.37300E+03
        -0.37300E+03
        -0.37300E+03
        -0.37300E+03
        -0.37300E+03
        -0.37300E+03
        -0.37300E+03
        -0.37300E+03
        -0.37300E+03
        -0.37300E+03
        -0.37300E+03
        -0.37300E+03
        -0.37300E+03
        -0.37300E+03
        -0.37300E+03
        -0.37300E+03
        -0.37300E+03
        -0.37300E+03
        -0.37300E+03
        -0.37300E+03
        -0.37300E+03
        -0.37300E+03
        -0.37300E+03
        -0.37300E+03
        -0.37300E+03
        -0.37300E+03
        -0.37300E+03
        -0.37300E+03
        -0.37300E+03
        -0.37300E+03
        -0.37300E+03
        -0.37300E+03
        -0.37300E+03
        -0.37300E+03
        -0.37300E+03
        -0.37300E+03
        -0.37300E+03
        -0.37300E+03
        -0.37300E+03
        -0.37300E+03
        -0.37300E+03
        -0.37300E+03
        -0.37300E+03
        -0.37300E+03
        -0.37300E+03
        -0.37300E+03
        -0.37300E+03
        -0.37300E+03
        -0.37300E+03
        -0.37300E+03
        -0.37300E+03
        -0.37300E+03
        -0.37300E+03
        -0.37300E+03
        -0.37300E+03
        -0.37300E+03
        -0.37300E+03
        -0.37300E+03
        -0.37300E+03
        -0.37300E+03
        -0.37300E+03
        -0.37300E+03
        -0.37300E+03
        -0.37300E+03
        -0.37300E+03
        -0.37300E+03
        -0.37300E+03
        -0.37300E+03
        -0.37300E+03
        -0.37300E+03
        -0.37300E+03
        -0.37300E+03
        -0.37300E+03
        -0.37300E+03
        -0.37300E+03
        -0.37300E+03
        -0.37300E+03
        -0.37300E+03
        -0.37300E+03
        -0.37300E+03
        -0.37300E+03
        -0.37300E+03
        -0.37300E+03
        -0.37300E+03
        -0.37300E+03
        -0.37300E+03
        -0.37300E+03
        -0.37300E+03
        -0.37300E+03
        -0.37300E+03
        -0.37300E+03
        -0.37300E+03
        -0.37300E+03
        -0.37300E+03
        -0.37300E+03
        -0.37300E+03
        -0.37300E+03
        -0.37300E+03
        -0.37300E+03
        -0.37300E+03
        -0.37300E+03
        -0.37300E+03
        -0.37300E+03
        -0.37300E+03
        -0.37300E+03
        -0.37300E+03
        -0.37300E+03
        -0.37300E+03
        -0.37300E+03
        -0.37300E+03
        -0.37300E+03
        -0.37300E+03
        -0.37300E+03
        -0.37300E+03
        -0.37300E+03
        -0.37300E+03
        -0.37300E+03
        -0.37300E+03
        -0.37300E+03
        -0.37300E+03
        -0.37300E+03
        -0.37300E+03
        -0.37300E+03
        -0.37300E+03
        -0.37300E+03
        -0.37300E+03
        -0.37300E+03
        -0.37300E+03
        -0.37300E+03
        -0.37300E+03
        -0.37300E+03
        -0.37300E+03
        -0.37300E+03
        -0.37300E+03
        -0.37300E+03
        -0.37300E+03
        -0.37300E+03
        -0.37300E+03
        -0.37300E+03
        -0.37300E+03
        -0.37300E+03
        -0.37300E+03
        -0.37300E+03
        -0.37300E+03
        -0.37300E+03
        -0.37300E+03
        -0.37300E+03
        -0.37300E+03
        -0.37300E+03
        -0.37300E+03
        -0.37300E+03
        -0.37300E+03
        -0.37300E+03
        -0.37300E+03
        -0.37300E+03
        -0.37300E+03
        -0.37300E+03
        -0.37300E+03
        -0.37300E+03
        -0.37300E+03
        -0.37300E+03
        -0.37300E+03
        -0.37300E+03
        -0.37300E+03
        -0.37300E+03
        -0.37300E+03
        -0.37300E+03
        -0.37300E+03
        -0.37300E+03
        -0.37300E+03
        -0.37300E+03
        -0.37300E+03
        -0.37300E+03
        -0.37300E+03
        -0.37300E+03
        -0.37300E+03
        -0.37300E+03
        -0.37300E+03
        -0.37300E+03
        -0.37300E+03
        -0.37300E+03
        -0.37300E+03
        -0.37300E+03
        -0.37300E+03
        -0.37300E+03
        -0.37300E+03
        -0.37300E+03
        -0.37300E+03
        -0.37300E+03
        -0.37300E+03
        -0.37300E+03
        -0.37300E+03
        -0.37300E+03
        -0.37300E+03
        -0.37300E+03
        -0.37300E+03
        -0.37300E+03
        -0.37300E+03
        -0.37300E+03
        -0.37300E+03
        -0.37300E+03
        -0.37300E+03
        -0.37300E+03
        -0.37300E+03
        -0.37300E+03
        -0.37300E+03
        -0.37300E+03
        -0.37300E+03
        -0.37300E+03
        -0.37300E+03
        -0.37300E+03
        -0.37300E+03
        -0.37300E+03
        -0.37300E+03
        -0.37300E+03
        -0.37300E+03
        -0.37300E+03
        -0.37300E+03
        -0.37300E+03
        -0.37300E+03
        -0.37300E+03
        -0.37300E+03
        -0.37300E+03
        -0.37300E+03
        -0.37300E+03
        -0.37300E+03
        -0.37300E+03
        -0.37300E+03
        -0.37300E+03
        -0.37300E+03
        -0.37300E+03
        -0.37300E+03
        -0.37300E+03
        -0.37300E+03
        -0.37300E+03
        -0.37300E+03
        -0.37300E+03
        -0.37300E+03
        -0.37300E+03
        -0.37300E+03
        -0.37300E+03
        -0.37300E+03
        -0.37300E+03
        -0.37300E+03
        -0.37300E+03
        -0.37300E+03
        -0.37300E+03
        -0.37300E+03
        -0.37300E+03
        -0.37300E+03
        -0.37300E+03
        -0.37300E+03
        -0.37300E+03
        -0.37300E+03
        -0.37300E+03
        -0.37300E+03
        -0.37300E+03
        -0.37300E+03
        -0.37300E+03
        -0.37300E+03
        -0.37300E+03
        -0.37300E+03
        -0.37300E+03
        -0.37300E+03
        -0.37300E+03
        -0.37300E+03
        -0.37300E+03
        -0.37300E+03
        -0.37300E+03
        -0.37300E+03
        -0.37300E+03
        -0.37300E+03
        -0.37300E+03
        -0.37300E+03
        -0.37300E+03
        -0.37300E+03
        -0.37300E+03
        -0.37300E+03
        -0.37300E+03
        -0.37300E+03
        -0.37300E+03
        -0.37300E+03
        -0.37300E+03
        -0.37300E+03
        -0.37300E+03
        -0.37300E+03
        -0.37300E+03
        -0.37300E+03
        -0.37300E+03
        -0.37300E+03
        -0.37300E+03
        -0.37300E+03
        -0.37300E+03
        -0.37300E+03
        -0.37300E+03
        -0.37300E+03
        -0.37300E+03
        -0.37300E+03
        -0.37300E+03
        -0.37300E+03
        -0.37300E+03
        -0.37300E+03
        -0.37300E+03
        -0.37300E+03
        -0.37300E+03
        -0.37300E+03
        -0.37300E+03
        -0.37300E+03
        -0.37300E+03
        -0.37300E+03
        -0.37300E+03
        -0.37300E+03
        -0.37300E+03
        -0.37300E+03
        -0.37300E+03
        -0.37300E+03
        -0.37300E+03
        -0.37300E+03
        -0.37300E+03
        -0.37300E+03
        -0.37300E+03
        -0.37300E+03
        -0.37300E+03
        -0.37300E+03
        -0.37300E+03
        -0.37300E+03
        -0.37300E+03
        -0.37300E+03
        -0.37300E+03
        -0.37300E+03
        -0.37300E+03
        -0.37300E+03
        -0.37300E+03
        -0.37300E+03
        -0.37300E+03
        -0.37300E+03
        -0.37300E+03
        -0.37300E+03
        -0.37300E+03
        -0.37300E+03
        -0.37300E+03
        -0.37300E+03
        -0.37300E+03
        -0.37300E+03
        -0.37300E+03
        -0.37300E+03
        -0.37300E+03
        -0.37300E+03
        -0.37300E+03
        -0.37300E+03
        -0.37300E+03
        -0.37300E+03
        -0.37300E+03
        -0.37300E+03
        -0.37300E+03
        -0.37300E+03
        -0.37300E+03
        -0.37300E+03
        -0.37300E+03
        -0.37300E+03
        -0.37300E+03
        -0.37300E+03
        -0.37300E+03
        -0.37300E+03
        -0.37300E+03
        -0.37300E+03
        -0.37300E+03
        -0.37300E+03
        -0.37300E+03
        -0.37300E+03
        -0.37300E+03
        -0.37300E+03
        -0.37300E+03
        -0.37300E+03
        -0.37300E+03
        -0.37300E+03
        -0.37300E+03
        -0.37300E+03
        -0.37300E+03
        -0.37300E+03
        -0.37300E+03
        -0.37300E+03
        -0.37300E+03
        -0.37300E+03
        -0.37300E+03
        -0.37300E+03
        -0.37300E+03
        -0.37300E+03
        -0.37300E+03
        -0.37300E+03
        -0.37300E+03
        -0.37300E+03
        -0.37300E+03
        -0.37300E+03
        -0.37300E+03
        -0.37300E+03
        -0.37300E+03
        -0.37300E+03
        -0.37300E+03
        -0.37300E+03
        -0.37300E+03
        -0.37300E+03
        -0.37300E+03
        -0.37300E+03
        -0.37300E+03
        -0.37300E+03
        -0.37300E+03
        -0.37300E+03
        -0.37300E+03
        -0.37300E+03
        -0.37300E+03
        -0.37300E+03
        -0.37300E+03
        -0.37300E+03
        -0.37300E+03
        -0.37300E+03
        -0.37300E+03
        -0.37300E+03
        -0.37300E+03
        -0.37300E+03
        -0.37300E+03
        -0.37300E+03
        -0.37300E+03
        -0.37300E+03
        -0.37300E+03
        -0.37300E+03
        -0.37300E+03
        -0.37300E+03
        -0.37300E+03
        -0.37300E+03
        -0.37300E+03
        -0.37300E+03
        -0.37300E+03
        -0.37300E+03
        -0.37300E+03
        -0.37300E+03
        -0.37300E+03
        -0.37300E+03
        -0.37300E+03
        -0.37300E+03
        -0.37300E+03
        -0.37300E+03
        -0.37300E+03
        -0.37300E+03
        -0.37300E+03
        -0.37300E+03
        -0.37300E+03
        -0.37300E+03
        -0.37300E+03
        -0.37300E+03
        -0.37300E+03
        -0.37300E+03
        -0.37300E+03
        -0.37300E+03
        -0.37300E+03
        -0.37300E+03
        -0.37300E+03
        -0.37300E+03
        -0.37300E+03
        -0.37300E+03
        -0.37300E+03
        -0.37300E+03
        -0.37300E+03
        -0.37300E+03
        -0.37300E+03
        -0.37300E+03
        -0.37300E+03
        -0.37300E+03
        -0.37300E+03
        -0.37300E+03
        -0.37300E+03
        -0.37300E+03
        -0.37300E+03
        -0.37300E+03
        -0.37300E+03
        -0.37300E+03
        -0.37300E+03
        -0.37300E+03
        -0.37300E+03
        -0.37300E+03
        -0.37300E+03
        -0.37300E+03
        -0.37300E+03
        -0.37300E+03
        -0.37300E+03
        -0.37300E+03
        -0.37300E+03
        -0.37300E+03
        -0.37300E+03
        -0.37300E+03
        -0.37300E+03
        -0.37300E+03
        -0.37300E+03
        -0.37300E+03
        -0.37300E+03
        -0.37300E+03
        -0.37300E+03
        -0.37300E+03
        -0.37300E+03
        -0.37300E+03
        -0.37300E+03
        -0.37300E+03
        -0.37300E+03
        -0.37300E+03
        -0.37300E+03
        -0.37300E+03
        -0.37300E+03
        -0.37300E+03
        -0.37300E+03
        -0.37300E+03
        -0.37300E+03
        -0.37300E+03
        -0.37300E+03
        -0.37300E+03
        -0.37300E+03
        -0.37300E+03
        -0.37300E+03
        -0.37300E+03
        -0.37300E+03
        -0.37300E+03
        -0.37300E+03
        -0.37300E+03
        -0.37300E+03
        -0.37300E+03
        -0.37300E+03
        -0.37300E+03
        -0.37300E+03
        -0.37300E+03
        -0.37300E+03
        -0.37300E+03
        -0.37300E+03
        -0.37300E+03
        -0.37300E+03
        -0.37300E+03
        -0.37300E+03
        -0.37300E+03
        -0.37300E+03
        -0.37300E+03
        -0.37300E+03
        -0.37300E+03
        -0.37300E+03
        -0.37300E+03
        -0.37300E+03
        -0.37300E+03
        -0.37300E+03
        -0.37300E+03
        -0.37300E+03
        -0.37300E+03
        -0.37300E+03
        -0.37300E+03
        -0.37300E+03
        -0.37300E+03
        -0.37300E+03
        -0.37300E+03
        -0.37300E+03
        -0.37300E+03
        -0.37300E+03
        -0.37300E+03
        -0.37300E+03
        -0.37300E+03
        -0.37300E+03
        -0.37300E+03
        -0.37300E+03
        -0.37300E+03
        -0.37300E+03
        -0.37300E+03
        -0.37300E+03
        -0.37300E+03
        -0.37300E+03
        -0.37300E+03
        -0.37300E+03
        -0.37300E+03
        -0.37300E+03
        -0.37300E+03
        -0.37300E+03
        -0.37300E+03
        -0.37300E+03
        -0.37300E+03
        -0.37300E+03
        -0.37300E+03
        -0.37300E+03
        -0.37300E+03
        -0.37300E+03
        -0.37300E+03
        -0.37300E+03
        -0.37300E+03
        -0.37300E+03
        -0.37300E+03
        -0.37300E+03
        -0.37300E+03
        -0.37300E+03
        -0.37300E+03
        -0.37300E+03
        -0.37300E+03
        -0.37300E+03
        -0.37300E+03
        -0.37300E+03
        -0.37300E+03
        -0.37300E+03
        -0.37300E+03
        -0.37300E+03
        -0.37300E+03
        -0.37300E+03
        -0.37300E+03
        -0.37300E+03
        -0.37300E+03
        -0.37300E+03
        -0.37300E+03
        -0.37300E+03
        -0.37300E+03
        -0.37300E+03
        -0.37300E+03
        -0.37300E+03
        -0.37300E+03
        -0.37300E+03
        -0.37300E+03
        -0.37300E+03
        -0.37300E+03
        -0.37300E+03
        -0.37300E+03
        -0.37300E+03
        -0.37300E+03
        -0.37300E+03
        -0.37300E+03
        -0.37300E+03
        -0.37300E+03
        -0.37300E+03
        -0.37300E+03
        -0.37300E+03
        -0.37300E+03
        -0.37300E+03
        -0.37300E+03
        -0.37300E+03
        -0.37300E+03
        -0.37300E+03
        -0.37300E+03
        -0.37300E+03
        -0.37300E+03
        -0.37300E+03
        -0.37300E+03
        -0.37300E+03
        -0.37300E+03
        -0.37300E+03
        -0.37300E+03
        -0.37300E+03
        -0.37300E+03
        -0.37300E+03
        -0.37300E+03
        -0.37300E+03
        -0.37300E+03
        -0.37300E+03
        -0.37300E+03
        -0.37300E+03
        -0.37300E+03
        -0.37300E+03
        -0.37300E+03
        -0.37300E+03
        -0.37300E+03
        -0.37300E+03
        -0.37300E+03
        -0.37300E+03
        -0.37300E+03
        -0.37300E+03
        -0.37300E+03
        -0.37300E+03
        -0.37300E+03
        -0.37300E+03
        -0.37300E+03
        -0.37300E+03
        -0.37300E+03
        -0.37300E+03
        -0.37300E+03
        -0.37300E+03
        -0.37300E+03
        -0.37300E+03
        -0.37300E+03
        -0.37300E+03
        -0.37300E+03
        -0.37300E+03
        -0.37300E+03
        -0.37300E+03
        -0.37300E+03
        -0.37300E+03
        -0.37300E+03
        -0.37300E+03
        -0.37300E+03
        -0.37300E+03
        -0.37300E+03
        -0.37300E+03
        -0.37300E+03
        -0.37300E+03
        -0.37300E+03
        -0.37300E+03
        -0.37300E+03
        -0.37300E+03
        -0.37300E+03
        -0.37300E+03
        -0.37300E+03
        -0.37300E+03
        -0.37300E+03
        -0.37300E+03
        -0.37300E+03
        -0.37300E+03
        -0.37300E+03
        -0.37300E+03
        -0.37300E+03
        -0.37300E+03
        -0.37300E+03
        -0.37300E+03
        -0.37300E+03
        -0.37300E+03
        -0.37300E+03
        -0.37300E+03
        -0.37300E+03
        -0.37300E+03
        -0.37300E+03
        -0.37300E+03
        -0.37300E+03
        -0.37300E+03
        -0.37300E+03
        -0.37300E+03
        -0.37300E+03
        -0.37300E+03
        -0.37300E+03
        -0.37300E+03
        -0.37300E+03
        -0.37300E+03
        -0.37300E+03
        -0.37300E+03
        -0.37300E+03
        -0.37300E+03
        -0.37300E+03
        -0.37300E+03
        -0.37300E+03
        -0.37300E+03
        -0.37300E+03
        -0.37300E+03
        -0.37300E+03
        -0.37300E+03
        -0.37300E+03
        -0.37300E+03
        -0.37300E+03
        -0.37300E+03
        -0.37300E+03
        -0.37300E+03
        -0.37300E+03
        -0.37300E+03
        -0.37300E+03
        -0.37300E+03
        -0.37300E+03
        -0.37300E+03
        -0.37300E+03
        -0.37300E+03
        -0.37300E+03
        -0.37300E+03
        -0.37300E+03
        -0.37300E+03
        -0.37300E+03
        -0.37300E+03
        -0.37300E+03
        -0.37300E+03
        -0.37300E+03
        -0.37300E+03
        -0.37300E+03
        -0.37300E+03
        -0.37300E+03
        -0.37300E+03
        -0.37300E+03
        -0.37300E+03
        -0.37300E+03
        -0.37300E+03
        -0.37300E+03
        -0.37300E+03
        -0.37300E+03
        -0.37300E+03
        -0.37300E+03
        -0.37300E+03
        -0.37300E+03
        -0.37300E+03
        -0.37300E+03
        -0.37300E+03
        -0.37300E+03
        -0.37300E+03
        -0.37300E+03
        -0.37300E+03
        -0.37300E+03
        -0.37300E+03
        -0.37300E+03
        -0.37300E+03
        -0.37300E+03
        -0.37300E+03
        -0.37300E+03
        -0.37300E+03
        -0.37300E+03
        -0.37300E+03
        -0.37300E+03
        -0.37300E+03
        -0.37300E+03
        -0.37300E+03
        -0.37300E+03
        -0.37300E+03
        -0.37300E+03
        -0.37300E+03
        -0.37300E+03
        -0.37300E+03
        -0.37300E+03
        -0.37300E+03
        -0.37300E+03
        -0.37300E+03
        -0.37300E+03
        -0.37300E+03
        -0.37300E+03
        -0.37300E+03
        -0.37300E+03
        -0.37300E+03
        -0.37300E+03
        -0.37300E+03
        -0.37300E+03
        -0.37300E+03
        -0.37300E+03
        -0.37300E+03
        -0.37300E+03
        -0.37300E+03
        -0.37300E+03
        -0.37300E+03
        -0.37300E+03
        -0.37300E+03
        -0.37300E+03
        -0.37300E+03
        -0.37300E+03
        -0.37300E+03
        -0.37300E+03
        -0.37300E+03
        -0.37300E+03
        -0.37300E+03
        -0.37300E+03
        -0.37300E+03
        -0.37300E+03
        -0.37300E+03
        -0.37300E+03
        -0.37300E+03
        -0.37300E+03
        -0.37300E+03
        -0.37300E+03
        -0.37300E+03
        -0.37300E+03
        -0.37300E+03
        -0.37300E+03
        -0.37300E+03
        -0.37300E+03
        -0.37300E+03
        -0.37300E+03
        -0.37300E+03
        -0.37300E+03
        -0.37300E+03
        -0.37300E+03
        -0.37300E+03
        -0.37300E+03
        -0.37300E+03
        -0.37300E+03
        -0.37300E+03
        -0.37300E+03
        -0.37300E+03
        -0.37300E+03
        -0.37300E+03
        -0.37300E+03
        -0.37300E+03
        -0.37300E+03
        -0.37300E+03
        -0.37300E+03
        -0.37300E+03
        -0.37300E+03
        -0.37300E+03
        -0.37300E+03
        -0.37300E+03
        -0.37300E+03
        -0.37300E+03
        -0.37300E+03
        -0.37300E+03
        -0.37300E+03
        -0.37300E+03
        -0.37300E+03
        -0.37300E+03
        -0.37300E+03
        -0.37300E+03
        -0.37300E+03
        -0.37300E+03
        -0.37300E+03
        -0.37300E+03
        -0.37300E+03
        -0.37300E+03
        -0.37300E+03
        -0.37300E+03
        -0.37300E+03
        -0.37300E+03
        -0.37300E+03
        -0.37300E+03
        -0.37300E+03
        -0.37300E+03
        -0.37300E+03
        -0.37300E+03
        -0.37300E+03
        -0.37300E+03
        -0.37300E+03
        -0.37300E+03
        -0.37300E+03
        -0.37300E+03
        -0.37300E+03
        -0.37300E+03
        -0.37300E+03
        -0.37300E+03
        -0.37300E+03
        -0.37300E+03
        -0.37300E+03
        -0.37300E+03
        -0.37300E+03
        -0.37300E+03
        -0.37300E+03
        -0.37300E+03
        -0.37300E+03
        -0.37300E+03
        -0.37300E+03
        -0.37300E+03
        -0.37300E+03
        -0.37300E+03
        -0.37300E+03
        -0.37300E+03
        -0.37300E+03
        -0.37300E+03
        -0.37300E+03
        -0.37300E+03
        -0.37300E+03
        -0.37300E+03
        -0.37300E+03
        -0.37300E+03
        -0.37300E+03
        -0.37300E+03
        -0.37300E+03
        -0.37300E+03
        -0.37300E+03
        -0.37300E+03
        -0.37300E+03
        -0.37300E+03
        -0.37300E+03
        -0.37300E+03
        -0.37300E+03
        -0.37300E+03
        -0.37300E+03
        -0.37300E+03
        -0.37300E+03
        -0.37300E+03
        -0.37300E+03
        -0.37300E+03
        -0.37300E+03
        -0.37300E+03
        -0.37300E+03
        -0.37300E+03
        -0.37300E+03
        -0.37300E+03
        -0.37300E+03
        -0.37300E+03
        -0.37300E+03
        -0.37300E+03
        -0.37300E+03
        -0.37300E+03
        -0.37300E+03
        -0.37300E+03
        -0.37300E+03
        -0.37300E+03
        -0.37300E+03
        -0.37300E+03
        -0.37300E+03
        -0.37300E+03
        -0.37300E+03
        -0.37300E+03
        -0.37300E+03
        -0.37300E+03
        -0.37300E+03
        -0.37300E+03
        -0.37300E+03
        -0.37300E+03
        -0.37300E+03
        -0.37300E+03
        -0.37300E+03
        -0.37300E+03
        -0.37300E+03
        -0.37300E+03
        -0.37300E+03
        -0.37300E+03
        -0.37300E+03
        -0.37300E+03
        -0.37300E+03
        -0.37300E+03
        -0.37300E+03
        -0.37300E+03
        -0.37300E+03
        -0.37300E+03
        -0.37300E+03
        -0.37300E+03
        -0.37300E+03
        -0.37300E+03
        -0.37300E+03
        -0.37300E+03
        -0.37300E+03
        -0.37300E+03
        -0.37300E+03
        -0.37300E+03
        -0.37300E+03
        -0.37300E+03
        -0.37300E+03
        -0.37300E+03
        -0.37300E+03
        -0.37300E+03
        -0.37300E+03
        -0.37300E+03
        -0.37300E+03
        -0.37300E+03
        -0.37300E+03
        -0.37300E+03
        -0.37300E+03
        -0.37300E+03
        -0.37300E+03
        -0.37300E+03
        -0.37300E+03
        -0.37300E+03
        -0.37300E+03
        -0.37300E+03
        -0.37300E+03
        -0.37300E+03
        -0.37300E+03
        -0.37300E+03
        -0.37300E+03
        -0.37300E+03
        -0.37300E+03
        -0.37300E+03
        -0.37300E+03
        -0.37300E+03
        -0.37300E+03
        -0.37300E+03
        -0.37300E+03
        -0.37300E+03
        -0.37300E+03
        -0.37300E+03
        -0.37300E+03
        -0.37300E+03
        -0.37300E+03
        -0.37300E+03
        -0.37300E+03
        -0.37300E+03
        -0.37300E+03
        -0.37300E+03
        -0.37300E+03
        -0.37300E+03
        -0.37300E+03
        -0.37300E+03
        -0.37300E+03
        -0.37300E+03
        -0.37300E+03
        -0.37300E+03
        -0.37300E+03
        -0.37300E+03
        -0.37300E+03
        -0.37300E+03
        -0.37300E+03
        -0.37300E+03
        -0.37300E+03
        -0.37300E+03
        -0.37300E+03
        -0.37300E+03
        -0.37300E+03
        -0.37300E+03
        -0.37300E+03
        -0.37300E+03
        -0.37300E+03
        -0.37300E+03
        -0.37300E+03
        -0.37300E+03
        -0.37300E+03
        -0.37300E+03
        -0.37300E+03
        -0.37300E+03
        -0.37300E+03
        -0.37300E+03
        -0.37300E+03
        -0.37300E+03
        -0.37300E+03
        -0.37300E+03
        -0.37300E+03
        -0.37300E+03
        -0.37300E+03
        -0.37300E+03
        -0.37300E+03
        -0.37300E+03
        -0.37300E+03
        -0.37300E+03
        -0.37300E+03
        -0.37300E+03
        -0.37300E+03
        -0.37300E+03
        -0.37300E+03
        -0.37300E+03
        -0.37300E+03
        -0.37300E+03
        -0.37300E+03
        -0.37300E+03
        -0.37300E+03
        -0.37300E+03
        -0.37300E+03
        -0.37300E+03
        -0.37300E+03
        -0.37300E+03
        -0.37300E+03
        -0.37300E+03
        -0.37300E+03
        -0.37300E+03
        -0.37300E+03
        -0.37300E+03
        -0.37300E+03
        -0.37300E+03
        -0.37300E+03
        -0.37300E+03
        -0.37300E+03
        -0.37300E+03
        -0.37300E+03
        -0.37300E+03
        -0.37300E+03
        -0.37300E+03
        -0.37300E+03
        -0.37300E+03
        -0.37300E+03
        -0.37300E+03
        -0.37300E+03
  
SCALARS                 acceleration_x  double 1
LOOKUP_TABLE default
         0.00000E+00
         0.00000E+00
         0.00000E+00
         0.00000E+00
         0.00000E+00
         0.00000E+00
         0.00000E+00
         0.00000E+00
         0.00000E+00
         0.00000E+00
         0.00000E+00
         0.00000E+00
         0.00000E+00
         0.00000E+00
         0.00000E+00
         0.00000E+00
         0.00000E+00
         0.00000E+00
         0.00000E+00
         0.00000E+00
         0.00000E+00
         0.00000E+00
         0.00000E+00
         0.00000E+00
         0.00000E+00
         0.00000E+00
         0.00000E+00
         0.00000E+00
         0.00000E+00
         0.00000E+00
         0.00000E+00
         0.00000E+00
         0.00000E+00
         0.00000E+00
         0.00000E+00
         0.00000E+00
         0.00000E+00
         0.00000E+00
         0.00000E+00
         0.00000E+00
         0.00000E+00
         0.00000E+00
         0.00000E+00
         0.00000E+00
         0.00000E+00
         0.00000E+00
         0.00000E+00
         0.00000E+00
         0.00000E+00
         0.00000E+00
         0.00000E+00
         0.00000E+00
         0.00000E+00
         0.00000E+00
         0.00000E+00
         0.00000E+00
         0.00000E+00
         0.00000E+00
         0.00000E+00
         0.00000E+00
         0.00000E+00
         0.00000E+00
         0.00000E+00
         0.00000E+00
         0.00000E+00
         0.00000E+00
         0.00000E+00
         0.00000E+00
         0.00000E+00
         0.00000E+00
         0.00000E+00
         0.00000E+00
         0.00000E+00
         0.00000E+00
         0.00000E+00
         0.00000E+00
         0.00000E+00
         0.00000E+00
         0.00000E+00
         0.00000E+00
         0.00000E+00
         0.00000E+00
         0.00000E+00
         0.00000E+00
         0.00000E+00
         0.00000E+00
         0.00000E+00
         0.00000E+00
         0.00000E+00
         0.00000E+00
         0.00000E+00
         0.00000E+00
         0.00000E+00
         0.00000E+00
         0.00000E+00
         0.00000E+00
         0.00000E+00
         0.00000E+00
         0.00000E+00
         0.00000E+00
         0.00000E+00
         0.00000E+00
         0.00000E+00
         0.00000E+00
         0.00000E+00
         0.00000E+00
         0.00000E+00
         0.00000E+00
         0.00000E+00
         0.00000E+00
         0.00000E+00
         0.00000E+00
         0.00000E+00
         0.00000E+00
         0.00000E+00
         0.00000E+00
         0.00000E+00
         0.00000E+00
         0.00000E+00
         0.00000E+00
         0.00000E+00
         0.00000E+00
         0.00000E+00
         0.00000E+00
         0.00000E+00
         0.00000E+00
         0.00000E+00
         0.00000E+00
         0.00000E+00
         0.00000E+00
         0.00000E+00
         0.00000E+00
         0.00000E+00
         0.00000E+00
         0.00000E+00
         0.00000E+00
         0.00000E+00
         0.00000E+00
         0.00000E+00
         0.00000E+00
         0.00000E+00
         0.00000E+00
         0.00000E+00
         0.00000E+00
         0.00000E+00
         0.00000E+00
         0.00000E+00
         0.00000E+00
         0.00000E+00
         0.00000E+00
         0.00000E+00
         0.00000E+00
         0.00000E+00
         0.00000E+00
         0.00000E+00
         0.00000E+00
         0.00000E+00
         0.00000E+00
         0.00000E+00
         0.00000E+00
         0.00000E+00
         0.00000E+00
         0.00000E+00
         0.00000E+00
         0.00000E+00
         0.00000E+00
         0.00000E+00
         0.00000E+00
         0.00000E+00
         0.00000E+00
         0.00000E+00
         0.00000E+00
         0.00000E+00
         0.00000E+00
         0.00000E+00
         0.00000E+00
         0.00000E+00
         0.00000E+00
         0.00000E+00
         0.00000E+00
         0.00000E+00
         0.00000E+00
         0.00000E+00
         0.00000E+00
         0.00000E+00
         0.00000E+00
         0.00000E+00
         0.00000E+00
         0.00000E+00
         0.00000E+00
         0.00000E+00
         0.00000E+00
         0.00000E+00
         0.00000E+00
         0.00000E+00
         0.00000E+00
         0.00000E+00
         0.00000E+00
         0.00000E+00
         0.00000E+00
         0.00000E+00
         0.00000E+00
         0.00000E+00
         0.00000E+00
         0.00000E+00
         0.00000E+00
         0.00000E+00
         0.00000E+00
         0.00000E+00
         0.00000E+00
         0.00000E+00
         0.00000E+00
         0.00000E+00
         0.00000E+00
         0.00000E+00
         0.00000E+00
         0.00000E+00
         0.00000E+00
         0.00000E+00
         0.00000E+00
         0.00000E+00
         0.00000E+00
         0.00000E+00
         0.00000E+00
         0.00000E+00
         0.00000E+00
         0.00000E+00
         0.00000E+00
         0.00000E+00
         0.00000E+00
         0.00000E+00
         0.00000E+00
         0.00000E+00
         0.00000E+00
         0.00000E+00
         0.00000E+00
         0.00000E+00
         0.00000E+00
         0.00000E+00
         0.00000E+00
         0.00000E+00
         0.00000E+00
         0.00000E+00
         0.00000E+00
         0.00000E+00
         0.00000E+00
         0.00000E+00
         0.00000E+00
         0.00000E+00
         0.00000E+00
         0.00000E+00
         0.00000E+00
         0.00000E+00
         0.00000E+00
         0.00000E+00
         0.00000E+00
         0.00000E+00
         0.00000E+00
         0.00000E+00
         0.00000E+00
         0.00000E+00
         0.00000E+00
         0.00000E+00
         0.00000E+00
         0.00000E+00
         0.00000E+00
         0.00000E+00
         0.00000E+00
         0.00000E+00
         0.00000E+00
         0.00000E+00
         0.00000E+00
         0.00000E+00
         0.00000E+00
         0.00000E+00
         0.00000E+00
         0.00000E+00
         0.00000E+00
         0.00000E+00
         0.00000E+00
         0.00000E+00
         0.00000E+00
         0.00000E+00
         0.00000E+00
         0.00000E+00
         0.00000E+00
         0.00000E+00
         0.00000E+00
         0.00000E+00
         0.00000E+00
         0.00000E+00
         0.00000E+00
         0.00000E+00
         0.00000E+00
         0.00000E+00
         0.00000E+00
         0.00000E+00
         0.00000E+00
         0.00000E+00
         0.00000E+00
         0.00000E+00
         0.00000E+00
         0.00000E+00
         0.00000E+00
         0.00000E+00
         0.00000E+00
         0.00000E+00
         0.00000E+00
         0.00000E+00
         0.00000E+00
         0.00000E+00
         0.00000E+00
         0.00000E+00
         0.00000E+00
         0.00000E+00
         0.00000E+00
         0.00000E+00
         0.00000E+00
         0.00000E+00
         0.00000E+00
         0.00000E+00
         0.00000E+00
         0.00000E+00
         0.00000E+00
         0.00000E+00
         0.00000E+00
         0.00000E+00
         0.00000E+00
         0.00000E+00
         0.00000E+00
         0.00000E+00
         0.00000E+00
         0.00000E+00
         0.00000E+00
         0.00000E+00
         0.00000E+00
         0.00000E+00
         0.00000E+00
         0.00000E+00
         0.00000E+00
         0.00000E+00
         0.00000E+00
         0.00000E+00
         0.00000E+00
         0.00000E+00
         0.00000E+00
         0.00000E+00
         0.00000E+00
         0.00000E+00
         0.00000E+00
         0.00000E+00
         0.00000E+00
         0.00000E+00
         0.00000E+00
         0.00000E+00
         0.00000E+00
         0.00000E+00
         0.00000E+00
         0.00000E+00
         0.00000E+00
         0.00000E+00
         0.00000E+00
         0.00000E+00
         0.00000E+00
         0.00000E+00
         0.00000E+00
         0.00000E+00
         0.00000E+00
         0.00000E+00
         0.00000E+00
         0.00000E+00
         0.00000E+00
         0.00000E+00
         0.00000E+00
         0.00000E+00
         0.00000E+00
         0.00000E+00
         0.00000E+00
         0.00000E+00
         0.00000E+00
         0.00000E+00
         0.00000E+00
         0.00000E+00
         0.00000E+00
         0.00000E+00
         0.00000E+00
         0.00000E+00
         0.00000E+00
         0.00000E+00
         0.00000E+00
         0.00000E+00
         0.00000E+00
         0.00000E+00
         0.00000E+00
         0.00000E+00
         0.00000E+00
         0.00000E+00
         0.00000E+00
         0.00000E+00
         0.00000E+00
         0.00000E+00
         0.00000E+00
         0.00000E+00
         0.00000E+00
         0.00000E+00
         0.00000E+00
         0.00000E+00
         0.00000E+00
         0.00000E+00
         0.00000E+00
         0.00000E+00
         0.00000E+00
         0.00000E+00
         0.00000E+00
         0.00000E+00
         0.00000E+00
         0.00000E+00
         0.00000E+00
         0.00000E+00
         0.00000E+00
         0.00000E+00
         0.00000E+00
         0.00000E+00
         0.00000E+00
         0.00000E+00
         0.00000E+00
         0.00000E+00
         0.00000E+00
         0.00000E+00
         0.00000E+00
         0.00000E+00
         0.00000E+00
         0.00000E+00
         0.00000E+00
         0.00000E+00
         0.00000E+00
         0.00000E+00
         0.00000E+00
         0.00000E+00
         0.00000E+00
         0.00000E+00
         0.00000E+00
         0.00000E+00
         0.00000E+00
         0.00000E+00
         0.00000E+00
         0.00000E+00
         0.00000E+00
         0.00000E+00
         0.00000E+00
         0.00000E+00
         0.00000E+00
         0.00000E+00
         0.00000E+00
         0.00000E+00
         0.00000E+00
         0.00000E+00
         0.00000E+00
         0.00000E+00
         0.00000E+00
         0.00000E+00
         0.00000E+00
         0.00000E+00
         0.00000E+00
         0.00000E+00
         0.00000E+00
         0.00000E+00
         0.00000E+00
         0.00000E+00
         0.00000E+00
         0.00000E+00
         0.00000E+00
         0.00000E+00
         0.00000E+00
         0.00000E+00
         0.00000E+00
         0.00000E+00
         0.00000E+00
         0.00000E+00
         0.00000E+00
         0.00000E+00
         0.00000E+00
         0.00000E+00
         0.00000E+00
         0.00000E+00
         0.00000E+00
         0.00000E+00
         0.00000E+00
         0.00000E+00
         0.00000E+00
         0.00000E+00
         0.00000E+00
         0.00000E+00
         0.00000E+00
         0.00000E+00
         0.00000E+00
         0.00000E+00
         0.00000E+00
         0.00000E+00
         0.00000E+00
         0.00000E+00
         0.00000E+00
         0.00000E+00
         0.00000E+00
         0.00000E+00
         0.00000E+00
         0.00000E+00
         0.00000E+00
         0.00000E+00
         0.00000E+00
         0.00000E+00
         0.00000E+00
         0.00000E+00
         0.00000E+00
         0.00000E+00
         0.00000E+00
         0.00000E+00
         0.00000E+00
         0.00000E+00
         0.00000E+00
         0.00000E+00
         0.00000E+00
         0.00000E+00
         0.00000E+00
         0.00000E+00
         0.00000E+00
         0.00000E+00
         0.00000E+00
         0.00000E+00
         0.00000E+00
         0.00000E+00
         0.00000E+00
         0.00000E+00
         0.00000E+00
         0.00000E+00
         0.00000E+00
         0.00000E+00
         0.00000E+00
         0.00000E+00
         0.00000E+00
         0.00000E+00
         0.00000E+00
         0.00000E+00
         0.00000E+00
         0.00000E+00
         0.00000E+00
         0.00000E+00
         0.00000E+00
         0.00000E+00
         0.00000E+00
         0.00000E+00
         0.00000E+00
         0.00000E+00
         0.00000E+00
         0.00000E+00
         0.00000E+00
         0.00000E+00
         0.00000E+00
         0.00000E+00
         0.00000E+00
         0.00000E+00
         0.00000E+00
         0.00000E+00
         0.00000E+00
         0.00000E+00
         0.00000E+00
         0.00000E+00
         0.00000E+00
         0.00000E+00
         0.00000E+00
         0.00000E+00
         0.00000E+00
         0.00000E+00
         0.00000E+00
         0.00000E+00
         0.00000E+00
         0.00000E+00
         0.00000E+00
         0.00000E+00
         0.00000E+00
         0.00000E+00
         0.00000E+00
         0.00000E+00
         0.00000E+00
         0.00000E+00
         0.00000E+00
         0.00000E+00
         0.00000E+00
         0.00000E+00
         0.00000E+00
         0.00000E+00
         0.00000E+00
         0.00000E+00
         0.00000E+00
         0.00000E+00
         0.00000E+00
         0.00000E+00
         0.00000E+00
         0.00000E+00
         0.00000E+00
         0.00000E+00
         0.00000E+00
         0.00000E+00
         0.00000E+00
         0.00000E+00
         0.00000E+00
         0.00000E+00
         0.00000E+00
         0.00000E+00
         0.00000E+00
         0.00000E+00
         0.00000E+00
         0.00000E+00
         0.00000E+00
         0.00000E+00
         0.00000E+00
         0.00000E+00
         0.00000E+00
         0.00000E+00
         0.00000E+00
         0.00000E+00
         0.00000E+00
         0.00000E+00
         0.00000E+00
         0.00000E+00
         0.00000E+00
         0.00000E+00
         0.00000E+00
         0.00000E+00
         0.00000E+00
         0.00000E+00
         0.00000E+00
         0.00000E+00
         0.00000E+00
         0.00000E+00
         0.00000E+00
         0.00000E+00
         0.00000E+00
         0.00000E+00
         0.00000E+00
         0.00000E+00
         0.00000E+00
         0.00000E+00
         0.00000E+00
         0.00000E+00
         0.00000E+00
         0.00000E+00
         0.00000E+00
         0.00000E+00
         0.00000E+00
         0.00000E+00
         0.00000E+00
         0.00000E+00
         0.00000E+00
         0.00000E+00
         0.00000E+00
         0.00000E+00
         0.00000E+00
         0.00000E+00
         0.00000E+00
         0.00000E+00
         0.00000E+00
         0.00000E+00
         0.00000E+00
         0.00000E+00
         0.00000E+00
         0.00000E+00
         0.00000E+00
         0.00000E+00
         0.00000E+00
         0.00000E+00
         0.00000E+00
         0.00000E+00
         0.00000E+00
         0.00000E+00
         0.00000E+00
         0.00000E+00
         0.00000E+00
         0.00000E+00
         0.00000E+00
         0.00000E+00
         0.00000E+00
         0.00000E+00
         0.00000E+00
         0.00000E+00
         0.00000E+00
         0.00000E+00
         0.00000E+00
         0.00000E+00
         0.00000E+00
         0.00000E+00
         0.00000E+00
         0.00000E+00
         0.00000E+00
         0.00000E+00
         0.00000E+00
         0.00000E+00
         0.00000E+00
         0.00000E+00
         0.00000E+00
         0.00000E+00
         0.00000E+00
         0.00000E+00
         0.00000E+00
         0.00000E+00
         0.00000E+00
         0.00000E+00
         0.00000E+00
         0.00000E+00
         0.00000E+00
         0.00000E+00
         0.00000E+00
         0.00000E+00
         0.00000E+00
         0.00000E+00
         0.00000E+00
         0.00000E+00
         0.00000E+00
         0.00000E+00
         0.00000E+00
         0.00000E+00
         0.00000E+00
         0.00000E+00
         0.00000E+00
         0.00000E+00
         0.00000E+00
         0.00000E+00
         0.00000E+00
         0.00000E+00
         0.00000E+00
         0.00000E+00
         0.00000E+00
         0.00000E+00
         0.00000E+00
         0.00000E+00
         0.00000E+00
         0.00000E+00
         0.00000E+00
         0.00000E+00
         0.00000E+00
         0.00000E+00
         0.00000E+00
         0.00000E+00
         0.00000E+00
         0.00000E+00
         0.00000E+00
         0.00000E+00
         0.00000E+00
         0.00000E+00
         0.00000E+00
         0.00000E+00
         0.00000E+00
         0.00000E+00
         0.00000E+00
         0.00000E+00
         0.00000E+00
         0.00000E+00
         0.00000E+00
         0.00000E+00
         0.00000E+00
         0.00000E+00
         0.00000E+00
         0.00000E+00
         0.00000E+00
         0.00000E+00
         0.00000E+00
         0.00000E+00
         0.00000E+00
         0.00000E+00
         0.00000E+00
         0.00000E+00
         0.00000E+00
         0.00000E+00
         0.00000E+00
         0.00000E+00
         0.00000E+00
         0.00000E+00
         0.00000E+00
         0.00000E+00
         0.00000E+00
         0.00000E+00
         0.00000E+00
         0.00000E+00
         0.00000E+00
         0.00000E+00
         0.00000E+00
         0.00000E+00
         0.00000E+00
         0.00000E+00
         0.00000E+00
         0.00000E+00
         0.00000E+00
         0.00000E+00
         0.00000E+00
         0.00000E+00
         0.00000E+00
         0.00000E+00
         0.00000E+00
         0.00000E+00
         0.00000E+00
         0.00000E+00
         0.00000E+00
         0.00000E+00
         0.00000E+00
         0.00000E+00
         0.00000E+00
         0.00000E+00
         0.00000E+00
         0.00000E+00
         0.00000E+00
         0.00000E+00
         0.00000E+00
         0.00000E+00
         0.00000E+00
         0.00000E+00
         0.00000E+00
         0.00000E+00
         0.00000E+00
         0.00000E+00
         0.00000E+00
         0.00000E+00
         0.00000E+00
         0.00000E+00
         0.00000E+00
         0.00000E+00
         0.00000E+00
         0.00000E+00
         0.00000E+00
         0.00000E+00
         0.00000E+00
         0.00000E+00
         0.00000E+00
         0.00000E+00
         0.00000E+00
         0.00000E+00
         0.00000E+00
         0.00000E+00
         0.00000E+00
         0.00000E+00
         0.00000E+00
         0.00000E+00
         0.00000E+00
         0.00000E+00
         0.00000E+00
         0.00000E+00
         0.00000E+00
         0.00000E+00
         0.00000E+00
         0.00000E+00
         0.00000E+00
         0.00000E+00
         0.00000E+00
         0.00000E+00
         0.00000E+00
         0.00000E+00
         0.00000E+00
         0.00000E+00
         0.00000E+00
         0.00000E+00
         0.00000E+00
         0.00000E+00
         0.00000E+00
         0.00000E+00
         0.00000E+00
         0.00000E+00
         0.00000E+00
         0.00000E+00
         0.00000E+00
         0.00000E+00
         0.00000E+00
         0.00000E+00
         0.00000E+00
         0.00000E+00
         0.00000E+00
         0.00000E+00
         0.00000E+00
         0.00000E+00
         0.00000E+00
         0.00000E+00
         0.00000E+00
         0.00000E+00
         0.00000E+00
         0.00000E+00
         0.00000E+00
         0.00000E+00
         0.00000E+00
         0.00000E+00
         0.00000E+00
         0.00000E+00
         0.00000E+00
         0.00000E+00
         0.00000E+00
         0.00000E+00
         0.00000E+00
         0.00000E+00
         0.00000E+00
         0.00000E+00
         0.00000E+00
         0.00000E+00
         0.00000E+00
         0.00000E+00
         0.00000E+00
         0.00000E+00
         0.00000E+00
         0.00000E+00
         0.00000E+00
         0.00000E+00
         0.00000E+00
         0.00000E+00
         0.00000E+00
         0.00000E+00
         0.00000E+00
         0.00000E+00
         0.00000E+00
         0.00000E+00
         0.00000E+00
         0.00000E+00
         0.00000E+00
         0.00000E+00
         0.00000E+00
         0.00000E+00
         0.00000E+00
         0.00000E+00
         0.00000E+00
         0.00000E+00
         0.00000E+00
         0.00000E+00
         0.00000E+00
         0.00000E+00
         0.00000E+00
         0.00000E+00
         0.00000E+00
         0.00000E+00
         0.00000E+00
         0.00000E+00
         0.00000E+00
         0.00000E+00
         0.00000E+00
         0.00000E+00
         0.00000E+00
         0.00000E+00
         0.00000E+00
         0.00000E+00
         0.00000E+00
         0.00000E+00
         0.00000E+00
         0.00000E+00
         0.00000E+00
         0.00000E+00
         0.00000E+00
         0.00000E+00
         0.00000E+00
         0.00000E+00
         0.00000E+00
         0.00000E+00
         0.00000E+00
         0.00000E+00
         0.00000E+00
         0.00000E+00
         0.00000E+00
         0.00000E+00
         0.00000E+00
         0.00000E+00
         0.00000E+00
         0.00000E+00
         0.00000E+00
         0.00000E+00
         0.00000E+00
         0.00000E+00
         0.00000E+00
         0.00000E+00
         0.00000E+00
         0.00000E+00
         0.00000E+00
         0.00000E+00
         0.00000E+00
         0.00000E+00
         0.00000E+00
         0.00000E+00
         0.00000E+00
         0.00000E+00
         0.00000E+00
         0.00000E+00
         0.00000E+00
         0.00000E+00
         0.00000E+00
         0.00000E+00
         0.00000E+00
         0.00000E+00
         0.00000E+00
         0.00000E+00
         0.00000E+00
         0.00000E+00
         0.00000E+00
         0.00000E+00
         0.00000E+00
         0.00000E+00
         0.00000E+00
         0.00000E+00
         0.00000E+00
         0.00000E+00
         0.00000E+00
         0.00000E+00
         0.00000E+00
         0.00000E+00
         0.00000E+00
         0.00000E+00
         0.00000E+00
         0.00000E+00
         0.00000E+00
         0.00000E+00
         0.00000E+00
         0.00000E+00
         0.00000E+00
         0.00000E+00
         0.00000E+00
         0.00000E+00
         0.00000E+00
         0.00000E+00
         0.00000E+00
         0.00000E+00
         0.00000E+00
         0.00000E+00
         0.00000E+00
         0.00000E+00
         0.00000E+00
         0.00000E+00
         0.00000E+00
         0.00000E+00
         0.00000E+00
         0.00000E+00
         0.00000E+00
         0.00000E+00
         0.00000E+00
         0.00000E+00
         0.00000E+00
         0.00000E+00
         0.00000E+00
         0.00000E+00
         0.00000E+00
         0.00000E+00
         0.00000E+00
         0.00000E+00
         0.00000E+00
         0.00000E+00
         0.00000E+00
         0.00000E+00
         0.00000E+00
         0.00000E+00
         0.00000E+00
         0.00000E+00
         0.00000E+00
         0.00000E+00
         0.00000E+00
         0.00000E+00
         0.00000E+00
         0.00000E+00
         0.00000E+00
         0.00000E+00
         0.00000E+00
         0.00000E+00
         0.00000E+00
         0.00000E+00
         0.00000E+00
         0.00000E+00
         0.00000E+00
         0.00000E+00
         0.00000E+00
         0.00000E+00
         0.00000E+00
         0.00000E+00
         0.00000E+00
         0.00000E+00
         0.00000E+00
         0.00000E+00
         0.00000E+00
         0.00000E+00
         0.00000E+00
         0.00000E+00
         0.00000E+00
         0.00000E+00
         0.00000E+00
         0.00000E+00
         0.00000E+00
         0.00000E+00
         0.00000E+00
         0.00000E+00
         0.00000E+00
         0.00000E+00
         0.00000E+00
         0.00000E+00
         0.00000E+00
         0.00000E+00
         0.00000E+00
         0.00000E+00
         0.00000E+00
         0.00000E+00
         0.00000E+00
         0.00000E+00
         0.00000E+00
         0.00000E+00
         0.00000E+00
         0.00000E+00
         0.00000E+00
         0.00000E+00
         0.00000E+00
         0.00000E+00
         0.00000E+00
         0.00000E+00
         0.00000E+00
         0.00000E+00
         0.00000E+00
         0.00000E+00
         0.00000E+00
         0.00000E+00
         0.00000E+00
         0.00000E+00
         0.00000E+00
         0.00000E+00
         0.00000E+00
         0.00000E+00
         0.00000E+00
         0.00000E+00
         0.00000E+00
         0.00000E+00
         0.00000E+00
         0.00000E+00
         0.00000E+00
         0.00000E+00
         0.00000E+00
         0.00000E+00
         0.00000E+00
         0.00000E+00
         0.00000E+00
         0.00000E+00
         0.00000E+00
         0.00000E+00
         0.00000E+00
         0.00000E+00
         0.00000E+00
         0.00000E+00
         0.00000E+00
         0.00000E+00
         0.00000E+00
         0.00000E+00
         0.00000E+00
         0.00000E+00
         0.00000E+00
         0.00000E+00
         0.00000E+00
         0.00000E+00
         0.00000E+00
         0.00000E+00
         0.00000E+00
         0.00000E+00
         0.00000E+00
         0.00000E+00
         0.00000E+00
         0.00000E+00
         0.00000E+00
         0.00000E+00
         0.00000E+00
         0.00000E+00
         0.00000E+00
         0.00000E+00
         0.00000E+00
         0.00000E+00
         0.00000E+00
         0.00000E+00
         0.00000E+00
         0.00000E+00
         0.00000E+00
         0.00000E+00
         0.00000E+00
         0.00000E+00
         0.00000E+00
         0.00000E+00
         0.00000E+00
         0.00000E+00
         0.00000E+00
         0.00000E+00
         0.00000E+00
         0.00000E+00
         0.00000E+00
         0.00000E+00
         0.00000E+00
         0.00000E+00
         0.00000E+00
         0.00000E+00
         0.00000E+00
         0.00000E+00
         0.00000E+00
         0.00000E+00
         0.00000E+00
         0.00000E+00
         0.00000E+00
         0.00000E+00
         0.00000E+00
         0.00000E+00
         0.00000E+00
         0.00000E+00
         0.00000E+00
         0.00000E+00
         0.00000E+00
         0.00000E+00
         0.00000E+00
         0.00000E+00
         0.00000E+00
         0.00000E+00
         0.00000E+00
         0.00000E+00
         0.00000E+00
         0.00000E+00
         0.00000E+00
         0.00000E+00
         0.00000E+00
         0.00000E+00
         0.00000E+00
         0.00000E+00
         0.00000E+00
         0.00000E+00
         0.00000E+00
         0.00000E+00
         0.00000E+00
         0.00000E+00
         0.00000E+00
         0.00000E+00
         0.00000E+00
         0.00000E+00
         0.00000E+00
         0.00000E+00
         0.00000E+00
         0.00000E+00
         0.00000E+00
         0.00000E+00
         0.00000E+00
         0.00000E+00
         0.00000E+00
         0.00000E+00
         0.00000E+00
         0.00000E+00
         0.00000E+00
         0.00000E+00
         0.00000E+00
         0.00000E+00
         0.00000E+00
         0.00000E+00
         0.00000E+00
         0.00000E+00
         0.00000E+00
         0.00000E+00
         0.00000E+00
         0.00000E+00
         0.00000E+00
         0.00000E+00
         0.00000E+00
         0.00000E+00
         0.00000E+00
         0.00000E+00
         0.00000E+00
         0.00000E+00
         0.00000E+00
         0.00000E+00
         0.00000E+00
         0.00000E+00
         0.00000E+00
         0.00000E+00
         0.00000E+00
         0.00000E+00
         0.00000E+00
         0.00000E+00
         0.00000E+00
         0.00000E+00
         0.00000E+00
         0.00000E+00
         0.00000E+00
         0.00000E+00
         0.00000E+00
         0.00000E+00
         0.00000E+00
         0.00000E+00
         0.00000E+00
         0.00000E+00
         0.00000E+00
         0.00000E+00
         0.00000E+00
         0.00000E+00
         0.00000E+00
         0.00000E+00
         0.00000E+00
         0.00000E+00
         0.00000E+00
         0.00000E+00
         0.00000E+00
         0.00000E+00
         0.00000E+00
         0.00000E+00
         0.00000E+00
         0.00000E+00
         0.00000E+00
         0.00000E+00
         0.00000E+00
         0.00000E+00
         0.00000E+00
         0.00000E+00
         0.00000E+00
         0.00000E+00
         0.00000E+00
         0.00000E+00
         0.00000E+00
         0.00000E+00
         0.00000E+00
         0.00000E+00
         0.00000E+00
         0.00000E+00
         0.00000E+00
         0.00000E+00
         0.00000E+00
         0.00000E+00
         0.00000E+00
         0.00000E+00
         0.00000E+00
         0.00000E+00
         0.00000E+00
         0.00000E+00
         0.00000E+00
         0.00000E+00
         0.00000E+00
         0.00000E+00
         0.00000E+00
         0.00000E+00
         0.00000E+00
         0.00000E+00
         0.00000E+00
         0.00000E+00
         0.00000E+00
         0.00000E+00
         0.00000E+00
         0.00000E+00
         0.00000E+00
         0.00000E+00
         0.00000E+00
         0.00000E+00
         0.00000E+00
         0.00000E+00
         0.00000E+00
         0.00000E+00
         0.00000E+00
         0.00000E+00
         0.00000E+00
         0.00000E+00
         0.00000E+00
         0.00000E+00
         0.00000E+00
         0.00000E+00
         0.00000E+00
         0.00000E+00
         0.00000E+00
         0.00000E+00
         0.00000E+00
         0.00000E+00
         0.00000E+00
         0.00000E+00
         0.00000E+00
         0.00000E+00
         0.00000E+00
         0.00000E+00
         0.00000E+00
         0.00000E+00
         0.00000E+00
         0.00000E+00
         0.00000E+00
         0.00000E+00
         0.00000E+00
         0.00000E+00
         0.00000E+00
         0.00000E+00
         0.00000E+00
         0.00000E+00
         0.00000E+00
         0.00000E+00
         0.00000E+00
         0.00000E+00
         0.00000E+00
         0.00000E+00
         0.00000E+00
         0.00000E+00
         0.00000E+00
         0.00000E+00
         0.00000E+00
         0.00000E+00
         0.00000E+00
         0.00000E+00
         0.00000E+00
         0.00000E+00
         0.00000E+00
         0.00000E+00
         0.00000E+00
         0.00000E+00
         0.00000E+00
         0.00000E+00
         0.00000E+00
         0.00000E+00
         0.00000E+00
         0.00000E+00
         0.00000E+00
         0.00000E+00
         0.00000E+00
         0.00000E+00
         0.00000E+00
         0.00000E+00
         0.00000E+00
         0.00000E+00
         0.00000E+00
         0.00000E+00
         0.00000E+00
         0.00000E+00
         0.00000E+00
         0.00000E+00
         0.00000E+00
         0.00000E+00
         0.00000E+00
         0.00000E+00
         0.00000E+00
         0.00000E+00
         0.00000E+00
         0.00000E+00
         0.00000E+00
         0.00000E+00
         0.00000E+00
         0.00000E+00
         0.00000E+00
         0.00000E+00
         0.00000E+00
         0.00000E+00
         0.00000E+00
         0.00000E+00
         0.00000E+00
         0.00000E+00
         0.00000E+00
         0.00000E+00
         0.00000E+00
         0.00000E+00
         0.00000E+00
         0.00000E+00
         0.00000E+00
         0.00000E+00
         0.00000E+00
         0.00000E+00
         0.00000E+00
         0.00000E+00
         0.00000E+00
         0.00000E+00
         0.00000E+00
         0.00000E+00
         0.00000E+00
         0.00000E+00
         0.00000E+00
         0.00000E+00
         0.00000E+00
         0.00000E+00
         0.00000E+00
         0.00000E+00
         0.00000E+00
         0.00000E+00
         0.00000E+00
         0.00000E+00
         0.00000E+00
         0.00000E+00
         0.00000E+00
         0.00000E+00
         0.00000E+00
         0.00000E+00
         0.00000E+00
         0.00000E+00
         0.00000E+00
         0.00000E+00
         0.00000E+00
         0.00000E+00
         0.00000E+00
         0.00000E+00
         0.00000E+00
         0.00000E+00
         0.00000E+00
         0.00000E+00
         0.00000E+00
         0.00000E+00
         0.00000E+00
         0.00000E+00
         0.00000E+00
         0.00000E+00
         0.00000E+00
         0.00000E+00
         0.00000E+00
         0.00000E+00
         0.00000E+00
         0.00000E+00
         0.00000E+00
         0.00000E+00
         0.00000E+00
         0.00000E+00
         0.00000E+00
         0.00000E+00
         0.00000E+00
         0.00000E+00
         0.00000E+00
         0.00000E+00
         0.00000E+00
         0.00000E+00
         0.00000E+00
         0.00000E+00
         0.00000E+00
         0.00000E+00
         0.00000E+00
         0.00000E+00
         0.00000E+00
         0.00000E+00
         0.00000E+00
         0.00000E+00
         0.00000E+00
         0.00000E+00
         0.00000E+00
         0.00000E+00
         0.00000E+00
         0.00000E+00
         0.00000E+00
         0.00000E+00
         0.00000E+00
         0.00000E+00
         0.00000E+00
         0.00000E+00
         0.00000E+00
         0.00000E+00
         0.00000E+00
         0.00000E+00
         0.00000E+00
         0.00000E+00
         0.00000E+00
         0.00000E+00
         0.00000E+00
         0.00000E+00
         0.00000E+00
         0.00000E+00
         0.00000E+00
         0.00000E+00
         0.00000E+00
         0.00000E+00
         0.00000E+00
         0.00000E+00
         0.00000E+00
         0.00000E+00
         0.00000E+00
         0.00000E+00
         0.00000E+00
         0.00000E+00
         0.00000E+00
         0.00000E+00
         0.00000E+00
         0.00000E+00
         0.00000E+00
         0.00000E+00
         0.00000E+00
         0.00000E+00
         0.00000E+00
         0.00000E+00
         0.00000E+00
         0.00000E+00
         0.00000E+00
         0.00000E+00
         0.00000E+00
         0.00000E+00
         0.00000E+00
         0.00000E+00
         0.00000E+00
         0.00000E+00
         0.00000E+00
         0.00000E+00
         0.00000E+00
         0.00000E+00
         0.00000E+00
         0.00000E+00
         0.00000E+00
         0.00000E+00
         0.00000E+00
         0.00000E+00
         0.00000E+00
         0.00000E+00
         0.00000E+00
         0.00000E+00
         0.00000E+00
         0.00000E+00
         0.00000E+00
         0.00000E+00
         0.00000E+00
         0.00000E+00
         0.00000E+00
         0.00000E+00
         0.00000E+00
         0.00000E+00
         0.00000E+00
         0.00000E+00
         0.00000E+00
         0.00000E+00
         0.00000E+00
         0.00000E+00
         0.00000E+00
         0.00000E+00
         0.00000E+00
         0.00000E+00
         0.00000E+00
         0.00000E+00
         0.00000E+00
         0.00000E+00
         0.00000E+00
         0.00000E+00
         0.00000E+00
         0.00000E+00
         0.00000E+00
         0.00000E+00
         0.00000E+00
         0.00000E+00
         0.00000E+00
         0.00000E+00
         0.00000E+00
         0.00000E+00
         0.00000E+00
         0.00000E+00
         0.00000E+00
         0.00000E+00
         0.00000E+00
         0.00000E+00
         0.00000E+00
         0.00000E+00
         0.00000E+00
         0.00000E+00
         0.00000E+00
         0.00000E+00
         0.00000E+00
         0.00000E+00
         0.00000E+00
         0.00000E+00
         0.00000E+00
         0.00000E+00
         0.00000E+00
         0.00000E+00
         0.00000E+00
         0.00000E+00
         0.00000E+00
         0.00000E+00
         0.00000E+00
         0.00000E+00
         0.00000E+00
         0.00000E+00
         0.00000E+00
         0.00000E+00
         0.00000E+00
         0.00000E+00
         0.00000E+00
         0.00000E+00
         0.00000E+00
         0.00000E+00
         0.00000E+00
         0.00000E+00
         0.00000E+00
         0.00000E+00
         0.00000E+00
         0.00000E+00
         0.00000E+00
         0.00000E+00
         0.00000E+00
         0.00000E+00
         0.00000E+00
         0.00000E+00
         0.00000E+00
         0.00000E+00
         0.00000E+00
         0.00000E+00
         0.00000E+00
         0.00000E+00
         0.00000E+00
         0.00000E+00
         0.00000E+00
         0.00000E+00
         0.00000E+00
         0.00000E+00
         0.00000E+00
         0.00000E+00
         0.00000E+00
         0.00000E+00
         0.00000E+00
         0.00000E+00
         0.00000E+00
         0.00000E+00
         0.00000E+00
         0.00000E+00
         0.00000E+00
         0.00000E+00
         0.00000E+00
         0.00000E+00
         0.00000E+00
         0.00000E+00
         0.00000E+00
         0.00000E+00
         0.00000E+00
         0.00000E+00
         0.00000E+00
         0.00000E+00
         0.00000E+00
         0.00000E+00
         0.00000E+00
         0.00000E+00
         0.00000E+00
         0.00000E+00
         0.00000E+00
         0.00000E+00
         0.00000E+00
         0.00000E+00
         0.00000E+00
         0.00000E+00
         0.00000E+00
         0.00000E+00
         0.00000E+00
         0.00000E+00
         0.00000E+00
         0.00000E+00
         0.00000E+00
         0.00000E+00
         0.00000E+00
         0.00000E+00
         0.00000E+00
         0.00000E+00
         0.00000E+00
         0.00000E+00
         0.00000E+00
         0.00000E+00
         0.00000E+00
         0.00000E+00
         0.00000E+00
         0.00000E+00
         0.00000E+00
         0.00000E+00
         0.00000E+00
         0.00000E+00
         0.00000E+00
         0.00000E+00
         0.00000E+00
         0.00000E+00
         0.00000E+00
         0.00000E+00
         0.00000E+00
         0.00000E+00
         0.00000E+00
         0.00000E+00
         0.00000E+00
         0.00000E+00
         0.00000E+00
         0.00000E+00
         0.00000E+00
         0.00000E+00
         0.00000E+00
         0.00000E+00
         0.00000E+00
         0.00000E+00
         0.00000E+00
         0.00000E+00
         0.00000E+00
         0.00000E+00
         0.00000E+00
         0.00000E+00
         0.00000E+00
         0.00000E+00
         0.00000E+00
         0.00000E+00
         0.00000E+00
         0.00000E+00
         0.00000E+00
         0.00000E+00
         0.00000E+00
         0.00000E+00
         0.00000E+00
         0.00000E+00
         0.00000E+00
         0.00000E+00
         0.00000E+00
         0.00000E+00
         0.00000E+00
         0.00000E+00
         0.00000E+00
         0.00000E+00
         0.00000E+00
         0.00000E+00
         0.00000E+00
         0.00000E+00
         0.00000E+00
         0.00000E+00
         0.00000E+00
         0.00000E+00
         0.00000E+00
         0.00000E+00
         0.00000E+00
         0.00000E+00
         0.00000E+00
         0.00000E+00
         0.00000E+00
         0.00000E+00
         0.00000E+00
         0.00000E+00
         0.00000E+00
         0.00000E+00
         0.00000E+00
         0.00000E+00
         0.00000E+00
         0.00000E+00
         0.00000E+00
         0.00000E+00
         0.00000E+00
         0.00000E+00
         0.00000E+00
         0.00000E+00
         0.00000E+00
         0.00000E+00
         0.00000E+00
         0.00000E+00
         0.00000E+00
         0.00000E+00
         0.00000E+00
         0.00000E+00
         0.00000E+00
         0.00000E+00
         0.00000E+00
         0.00000E+00
         0.00000E+00
         0.00000E+00
         0.00000E+00
         0.00000E+00
         0.00000E+00
         0.00000E+00
         0.00000E+00
         0.00000E+00
         0.00000E+00
         0.00000E+00
         0.00000E+00
         0.00000E+00
         0.00000E+00
         0.00000E+00
         0.00000E+00
         0.00000E+00
         0.00000E+00
         0.00000E+00
         0.00000E+00
         0.00000E+00
         0.00000E+00
         0.00000E+00
         0.00000E+00
         0.00000E+00
         0.00000E+00
         0.00000E+00
         0.00000E+00
         0.00000E+00
         0.00000E+00
         0.00000E+00
         0.00000E+00
         0.00000E+00
         0.00000E+00
         0.00000E+00
         0.00000E+00
         0.00000E+00
         0.00000E+00
         0.00000E+00
         0.00000E+00
         0.00000E+00
         0.00000E+00
         0.00000E+00
         0.00000E+00
         0.00000E+00
         0.00000E+00
         0.00000E+00
         0.00000E+00
         0.00000E+00
         0.00000E+00
         0.00000E+00
         0.00000E+00
         0.00000E+00
         0.00000E+00
         0.00000E+00
         0.00000E+00
         0.00000E+00
         0.00000E+00
         0.00000E+00
         0.00000E+00
         0.00000E+00
         0.00000E+00
         0.00000E+00
         0.00000E+00
         0.00000E+00
         0.00000E+00
         0.00000E+00
         0.00000E+00
         0.00000E+00
         0.00000E+00
         0.00000E+00
         0.00000E+00
         0.00000E+00
         0.00000E+00
         0.00000E+00
         0.00000E+00
         0.00000E+00
         0.00000E+00
         0.00000E+00
         0.00000E+00
         0.00000E+00
         0.00000E+00
         0.00000E+00
         0.00000E+00
         0.00000E+00
         0.00000E+00
         0.00000E+00
         0.00000E+00
         0.00000E+00
         0.00000E+00
         0.00000E+00
         0.00000E+00
         0.00000E+00
         0.00000E+00
         0.00000E+00
         0.00000E+00
         0.00000E+00
         0.00000E+00
         0.00000E+00
         0.00000E+00
         0.00000E+00
         0.00000E+00
         0.00000E+00
         0.00000E+00
         0.00000E+00
         0.00000E+00
         0.00000E+00
         0.00000E+00
         0.00000E+00
         0.00000E+00
         0.00000E+00
         0.00000E+00
         0.00000E+00
         0.00000E+00
         0.00000E+00
         0.00000E+00
         0.00000E+00
         0.00000E+00
         0.00000E+00
         0.00000E+00
  
SCALARS                 acceleration_y  double 1
LOOKUP_TABLE default
         0.00000E+00
         0.00000E+00
         0.00000E+00
         0.00000E+00
         0.00000E+00
         0.00000E+00
         0.00000E+00
         0.00000E+00
         0.00000E+00
         0.00000E+00
         0.00000E+00
         0.00000E+00
         0.00000E+00
         0.00000E+00
         0.00000E+00
         0.00000E+00
         0.00000E+00
         0.00000E+00
         0.00000E+00
         0.00000E+00
         0.00000E+00
         0.00000E+00
         0.00000E+00
         0.00000E+00
         0.00000E+00
         0.00000E+00
         0.00000E+00
         0.00000E+00
         0.00000E+00
         0.00000E+00
         0.00000E+00
         0.00000E+00
         0.00000E+00
         0.00000E+00
         0.00000E+00
         0.00000E+00
         0.00000E+00
         0.00000E+00
         0.00000E+00
         0.00000E+00
         0.00000E+00
         0.00000E+00
         0.00000E+00
         0.00000E+00
         0.00000E+00
         0.00000E+00
         0.00000E+00
         0.00000E+00
         0.00000E+00
         0.00000E+00
         0.00000E+00
         0.00000E+00
         0.00000E+00
         0.00000E+00
         0.00000E+00
         0.00000E+00
         0.00000E+00
         0.00000E+00
         0.00000E+00
         0.00000E+00
         0.00000E+00
         0.00000E+00
         0.00000E+00
         0.00000E+00
         0.00000E+00
         0.00000E+00
         0.00000E+00
         0.00000E+00
         0.00000E+00
         0.00000E+00
         0.00000E+00
         0.00000E+00
         0.00000E+00
         0.00000E+00
         0.00000E+00
         0.00000E+00
         0.00000E+00
         0.00000E+00
         0.00000E+00
         0.00000E+00
         0.00000E+00
         0.00000E+00
         0.00000E+00
         0.00000E+00
         0.00000E+00
         0.00000E+00
         0.00000E+00
         0.00000E+00
         0.00000E+00
         0.00000E+00
         0.00000E+00
         0.00000E+00
         0.00000E+00
         0.00000E+00
         0.00000E+00
         0.00000E+00
         0.00000E+00
         0.00000E+00
         0.00000E+00
         0.00000E+00
         0.00000E+00
         0.00000E+00
         0.00000E+00
         0.00000E+00
         0.00000E+00
         0.00000E+00
         0.00000E+00
         0.00000E+00
         0.00000E+00
         0.00000E+00
         0.00000E+00
         0.00000E+00
         0.00000E+00
         0.00000E+00
         0.00000E+00
         0.00000E+00
         0.00000E+00
         0.00000E+00
         0.00000E+00
         0.00000E+00
         0.00000E+00
         0.00000E+00
         0.00000E+00
         0.00000E+00
         0.00000E+00
         0.00000E+00
         0.00000E+00
         0.00000E+00
         0.00000E+00
         0.00000E+00
         0.00000E+00
         0.00000E+00
         0.00000E+00
         0.00000E+00
         0.00000E+00
         0.00000E+00
         0.00000E+00
         0.00000E+00
         0.00000E+00
         0.00000E+00
         0.00000E+00
         0.00000E+00
         0.00000E+00
         0.00000E+00
         0.00000E+00
         0.00000E+00
         0.00000E+00
         0.00000E+00
         0.00000E+00
         0.00000E+00
         0.00000E+00
         0.00000E+00
         0.00000E+00
         0.00000E+00
         0.00000E+00
         0.00000E+00
         0.00000E+00
         0.00000E+00
         0.00000E+00
         0.00000E+00
         0.00000E+00
         0.00000E+00
         0.00000E+00
         0.00000E+00
         0.00000E+00
         0.00000E+00
         0.00000E+00
         0.00000E+00
         0.00000E+00
         0.00000E+00
         0.00000E+00
         0.00000E+00
         0.00000E+00
         0.00000E+00
         0.00000E+00
         0.00000E+00
         0.00000E+00
         0.00000E+00
         0.00000E+00
         0.00000E+00
         0.00000E+00
         0.00000E+00
         0.00000E+00
         0.00000E+00
         0.00000E+00
         0.00000E+00
         0.00000E+00
         0.00000E+00
         0.00000E+00
         0.00000E+00
         0.00000E+00
         0.00000E+00
         0.00000E+00
         0.00000E+00
         0.00000E+00
         0.00000E+00
         0.00000E+00
         0.00000E+00
         0.00000E+00
         0.00000E+00
         0.00000E+00
         0.00000E+00
         0.00000E+00
         0.00000E+00
         0.00000E+00
         0.00000E+00
         0.00000E+00
         0.00000E+00
         0.00000E+00
         0.00000E+00
         0.00000E+00
         0.00000E+00
         0.00000E+00
         0.00000E+00
         0.00000E+00
         0.00000E+00
         0.00000E+00
         0.00000E+00
         0.00000E+00
         0.00000E+00
         0.00000E+00
         0.00000E+00
         0.00000E+00
         0.00000E+00
         0.00000E+00
         0.00000E+00
         0.00000E+00
         0.00000E+00
         0.00000E+00
         0.00000E+00
         0.00000E+00
         0.00000E+00
         0.00000E+00
         0.00000E+00
         0.00000E+00
         0.00000E+00
         0.00000E+00
         0.00000E+00
         0.00000E+00
         0.00000E+00
         0.00000E+00
         0.00000E+00
         0.00000E+00
         0.00000E+00
         0.00000E+00
         0.00000E+00
         0.00000E+00
         0.00000E+00
         0.00000E+00
         0.00000E+00
         0.00000E+00
         0.00000E+00
         0.00000E+00
         0.00000E+00
         0.00000E+00
         0.00000E+00
         0.00000E+00
         0.00000E+00
         0.00000E+00
         0.00000E+00
         0.00000E+00
         0.00000E+00
         0.00000E+00
         0.00000E+00
         0.00000E+00
         0.00000E+00
         0.00000E+00
         0.00000E+00
         0.00000E+00
         0.00000E+00
         0.00000E+00
         0.00000E+00
         0.00000E+00
         0.00000E+00
         0.00000E+00
         0.00000E+00
         0.00000E+00
         0.00000E+00
         0.00000E+00
         0.00000E+00
         0.00000E+00
         0.00000E+00
         0.00000E+00
         0.00000E+00
         0.00000E+00
         0.00000E+00
         0.00000E+00
         0.00000E+00
         0.00000E+00
         0.00000E+00
         0.00000E+00
         0.00000E+00
         0.00000E+00
         0.00000E+00
         0.00000E+00
         0.00000E+00
         0.00000E+00
         0.00000E+00
         0.00000E+00
         0.00000E+00
         0.00000E+00
         0.00000E+00
         0.00000E+00
         0.00000E+00
         0.00000E+00
         0.00000E+00
         0.00000E+00
         0.00000E+00
         0.00000E+00
         0.00000E+00
         0.00000E+00
         0.00000E+00
         0.00000E+00
         0.00000E+00
         0.00000E+00
         0.00000E+00
         0.00000E+00
         0.00000E+00
         0.00000E+00
         0.00000E+00
         0.00000E+00
         0.00000E+00
         0.00000E+00
         0.00000E+00
         0.00000E+00
         0.00000E+00
         0.00000E+00
         0.00000E+00
         0.00000E+00
         0.00000E+00
         0.00000E+00
         0.00000E+00
         0.00000E+00
         0.00000E+00
         0.00000E+00
         0.00000E+00
         0.00000E+00
         0.00000E+00
         0.00000E+00
         0.00000E+00
         0.00000E+00
         0.00000E+00
         0.00000E+00
         0.00000E+00
         0.00000E+00
         0.00000E+00
         0.00000E+00
         0.00000E+00
         0.00000E+00
         0.00000E+00
         0.00000E+00
         0.00000E+00
         0.00000E+00
         0.00000E+00
         0.00000E+00
         0.00000E+00
         0.00000E+00
         0.00000E+00
         0.00000E+00
         0.00000E+00
         0.00000E+00
         0.00000E+00
         0.00000E+00
         0.00000E+00
         0.00000E+00
         0.00000E+00
         0.00000E+00
         0.00000E+00
         0.00000E+00
         0.00000E+00
         0.00000E+00
         0.00000E+00
         0.00000E+00
         0.00000E+00
         0.00000E+00
         0.00000E+00
         0.00000E+00
         0.00000E+00
         0.00000E+00
         0.00000E+00
         0.00000E+00
         0.00000E+00
         0.00000E+00
         0.00000E+00
         0.00000E+00
         0.00000E+00
         0.00000E+00
         0.00000E+00
         0.00000E+00
         0.00000E+00
         0.00000E+00
         0.00000E+00
         0.00000E+00
         0.00000E+00
         0.00000E+00
         0.00000E+00
         0.00000E+00
         0.00000E+00
         0.00000E+00
         0.00000E+00
         0.00000E+00
         0.00000E+00
         0.00000E+00
         0.00000E+00
         0.00000E+00
         0.00000E+00
         0.00000E+00
         0.00000E+00
         0.00000E+00
         0.00000E+00
         0.00000E+00
         0.00000E+00
         0.00000E+00
         0.00000E+00
         0.00000E+00
         0.00000E+00
         0.00000E+00
         0.00000E+00
         0.00000E+00
         0.00000E+00
         0.00000E+00
         0.00000E+00
         0.00000E+00
         0.00000E+00
         0.00000E+00
         0.00000E+00
         0.00000E+00
         0.00000E+00
         0.00000E+00
         0.00000E+00
         0.00000E+00
         0.00000E+00
         0.00000E+00
         0.00000E+00
         0.00000E+00
         0.00000E+00
         0.00000E+00
         0.00000E+00
         0.00000E+00
         0.00000E+00
         0.00000E+00
         0.00000E+00
         0.00000E+00
         0.00000E+00
         0.00000E+00
         0.00000E+00
         0.00000E+00
         0.00000E+00
         0.00000E+00
         0.00000E+00
         0.00000E+00
         0.00000E+00
         0.00000E+00
         0.00000E+00
         0.00000E+00
         0.00000E+00
         0.00000E+00
         0.00000E+00
         0.00000E+00
         0.00000E+00
         0.00000E+00
         0.00000E+00
         0.00000E+00
         0.00000E+00
         0.00000E+00
         0.00000E+00
         0.00000E+00
         0.00000E+00
         0.00000E+00
         0.00000E+00
         0.00000E+00
         0.00000E+00
         0.00000E+00
         0.00000E+00
         0.00000E+00
         0.00000E+00
         0.00000E+00
         0.00000E+00
         0.00000E+00
         0.00000E+00
         0.00000E+00
         0.00000E+00
         0.00000E+00
         0.00000E+00
         0.00000E+00
         0.00000E+00
         0.00000E+00
         0.00000E+00
         0.00000E+00
         0.00000E+00
         0.00000E+00
         0.00000E+00
         0.00000E+00
         0.00000E+00
         0.00000E+00
         0.00000E+00
         0.00000E+00
         0.00000E+00
         0.00000E+00
         0.00000E+00
         0.00000E+00
         0.00000E+00
         0.00000E+00
         0.00000E+00
         0.00000E+00
         0.00000E+00
         0.00000E+00
         0.00000E+00
         0.00000E+00
         0.00000E+00
         0.00000E+00
         0.00000E+00
         0.00000E+00
         0.00000E+00
         0.00000E+00
         0.00000E+00
         0.00000E+00
         0.00000E+00
         0.00000E+00
         0.00000E+00
         0.00000E+00
         0.00000E+00
         0.00000E+00
         0.00000E+00
         0.00000E+00
         0.00000E+00
         0.00000E+00
         0.00000E+00
         0.00000E+00
         0.00000E+00
         0.00000E+00
         0.00000E+00
         0.00000E+00
         0.00000E+00
         0.00000E+00
         0.00000E+00
         0.00000E+00
         0.00000E+00
         0.00000E+00
         0.00000E+00
         0.00000E+00
         0.00000E+00
         0.00000E+00
         0.00000E+00
         0.00000E+00
         0.00000E+00
         0.00000E+00
         0.00000E+00
         0.00000E+00
         0.00000E+00
         0.00000E+00
         0.00000E+00
         0.00000E+00
         0.00000E+00
         0.00000E+00
         0.00000E+00
         0.00000E+00
         0.00000E+00
         0.00000E+00
         0.00000E+00
         0.00000E+00
         0.00000E+00
         0.00000E+00
         0.00000E+00
         0.00000E+00
         0.00000E+00
         0.00000E+00
         0.00000E+00
         0.00000E+00
         0.00000E+00
         0.00000E+00
         0.00000E+00
         0.00000E+00
         0.00000E+00
         0.00000E+00
         0.00000E+00
         0.00000E+00
         0.00000E+00
         0.00000E+00
         0.00000E+00
         0.00000E+00
         0.00000E+00
         0.00000E+00
         0.00000E+00
         0.00000E+00
         0.00000E+00
         0.00000E+00
         0.00000E+00
         0.00000E+00
         0.00000E+00
         0.00000E+00
         0.00000E+00
         0.00000E+00
         0.00000E+00
         0.00000E+00
         0.00000E+00
         0.00000E+00
         0.00000E+00
         0.00000E+00
         0.00000E+00
         0.00000E+00
         0.00000E+00
         0.00000E+00
         0.00000E+00
         0.00000E+00
         0.00000E+00
         0.00000E+00
         0.00000E+00
         0.00000E+00
         0.00000E+00
         0.00000E+00
         0.00000E+00
         0.00000E+00
         0.00000E+00
         0.00000E+00
         0.00000E+00
         0.00000E+00
         0.00000E+00
         0.00000E+00
         0.00000E+00
         0.00000E+00
         0.00000E+00
         0.00000E+00
         0.00000E+00
         0.00000E+00
         0.00000E+00
         0.00000E+00
         0.00000E+00
         0.00000E+00
         0.00000E+00
         0.00000E+00
         0.00000E+00
         0.00000E+00
         0.00000E+00
         0.00000E+00
         0.00000E+00
         0.00000E+00
         0.00000E+00
         0.00000E+00
         0.00000E+00
         0.00000E+00
         0.00000E+00
         0.00000E+00
         0.00000E+00
         0.00000E+00
         0.00000E+00
         0.00000E+00
         0.00000E+00
         0.00000E+00
         0.00000E+00
         0.00000E+00
         0.00000E+00
         0.00000E+00
         0.00000E+00
         0.00000E+00
         0.00000E+00
         0.00000E+00
         0.00000E+00
         0.00000E+00
         0.00000E+00
         0.00000E+00
         0.00000E+00
         0.00000E+00
         0.00000E+00
         0.00000E+00
         0.00000E+00
         0.00000E+00
         0.00000E+00
         0.00000E+00
         0.00000E+00
         0.00000E+00
         0.00000E+00
         0.00000E+00
         0.00000E+00
         0.00000E+00
         0.00000E+00
         0.00000E+00
         0.00000E+00
         0.00000E+00
         0.00000E+00
         0.00000E+00
         0.00000E+00
         0.00000E+00
         0.00000E+00
         0.00000E+00
         0.00000E+00
         0.00000E+00
         0.00000E+00
         0.00000E+00
         0.00000E+00
         0.00000E+00
         0.00000E+00
         0.00000E+00
         0.00000E+00
         0.00000E+00
         0.00000E+00
         0.00000E+00
         0.00000E+00
         0.00000E+00
         0.00000E+00
         0.00000E+00
         0.00000E+00
         0.00000E+00
         0.00000E+00
         0.00000E+00
         0.00000E+00
         0.00000E+00
         0.00000E+00
         0.00000E+00
         0.00000E+00
         0.00000E+00
         0.00000E+00
         0.00000E+00
         0.00000E+00
         0.00000E+00
         0.00000E+00
         0.00000E+00
         0.00000E+00
         0.00000E+00
         0.00000E+00
         0.00000E+00
         0.00000E+00
         0.00000E+00
         0.00000E+00
         0.00000E+00
         0.00000E+00
         0.00000E+00
         0.00000E+00
         0.00000E+00
         0.00000E+00
         0.00000E+00
         0.00000E+00
         0.00000E+00
         0.00000E+00
         0.00000E+00
         0.00000E+00
         0.00000E+00
         0.00000E+00
         0.00000E+00
         0.00000E+00
         0.00000E+00
         0.00000E+00
         0.00000E+00
         0.00000E+00
         0.00000E+00
         0.00000E+00
         0.00000E+00
         0.00000E+00
         0.00000E+00
         0.00000E+00
         0.00000E+00
         0.00000E+00
         0.00000E+00
         0.00000E+00
         0.00000E+00
         0.00000E+00
         0.00000E+00
         0.00000E+00
         0.00000E+00
         0.00000E+00
         0.00000E+00
         0.00000E+00
         0.00000E+00
         0.00000E+00
         0.00000E+00
         0.00000E+00
         0.00000E+00
         0.00000E+00
         0.00000E+00
         0.00000E+00
         0.00000E+00
         0.00000E+00
         0.00000E+00
         0.00000E+00
         0.00000E+00
         0.00000E+00
         0.00000E+00
         0.00000E+00
         0.00000E+00
         0.00000E+00
         0.00000E+00
         0.00000E+00
         0.00000E+00
         0.00000E+00
         0.00000E+00
         0.00000E+00
         0.00000E+00
         0.00000E+00
         0.00000E+00
         0.00000E+00
         0.00000E+00
         0.00000E+00
         0.00000E+00
         0.00000E+00
         0.00000E+00
         0.00000E+00
         0.00000E+00
         0.00000E+00
         0.00000E+00
         0.00000E+00
         0.00000E+00
         0.00000E+00
         0.00000E+00
         0.00000E+00
         0.00000E+00
         0.00000E+00
         0.00000E+00
         0.00000E+00
         0.00000E+00
         0.00000E+00
         0.00000E+00
         0.00000E+00
         0.00000E+00
         0.00000E+00
         0.00000E+00
         0.00000E+00
         0.00000E+00
         0.00000E+00
         0.00000E+00
         0.00000E+00
         0.00000E+00
         0.00000E+00
         0.00000E+00
         0.00000E+00
         0.00000E+00
         0.00000E+00
         0.00000E+00
         0.00000E+00
         0.00000E+00
         0.00000E+00
         0.00000E+00
         0.00000E+00
         0.00000E+00
         0.00000E+00
         0.00000E+00
         0.00000E+00
         0.00000E+00
         0.00000E+00
         0.00000E+00
         0.00000E+00
         0.00000E+00
         0.00000E+00
         0.00000E+00
         0.00000E+00
         0.00000E+00
         0.00000E+00
         0.00000E+00
         0.00000E+00
         0.00000E+00
         0.00000E+00
         0.00000E+00
         0.00000E+00
         0.00000E+00
         0.00000E+00
         0.00000E+00
         0.00000E+00
         0.00000E+00
         0.00000E+00
         0.00000E+00
         0.00000E+00
         0.00000E+00
         0.00000E+00
         0.00000E+00
         0.00000E+00
         0.00000E+00
         0.00000E+00
         0.00000E+00
         0.00000E+00
         0.00000E+00
         0.00000E+00
         0.00000E+00
         0.00000E+00
         0.00000E+00
         0.00000E+00
         0.00000E+00
         0.00000E+00
         0.00000E+00
         0.00000E+00
         0.00000E+00
         0.00000E+00
         0.00000E+00
         0.00000E+00
         0.00000E+00
         0.00000E+00
         0.00000E+00
         0.00000E+00
         0.00000E+00
         0.00000E+00
         0.00000E+00
         0.00000E+00
         0.00000E+00
         0.00000E+00
         0.00000E+00
         0.00000E+00
         0.00000E+00
         0.00000E+00
         0.00000E+00
         0.00000E+00
         0.00000E+00
         0.00000E+00
         0.00000E+00
         0.00000E+00
         0.00000E+00
         0.00000E+00
         0.00000E+00
         0.00000E+00
         0.00000E+00
         0.00000E+00
         0.00000E+00
         0.00000E+00
         0.00000E+00
         0.00000E+00
         0.00000E+00
         0.00000E+00
         0.00000E+00
         0.00000E+00
         0.00000E+00
         0.00000E+00
         0.00000E+00
         0.00000E+00
         0.00000E+00
         0.00000E+00
         0.00000E+00
         0.00000E+00
         0.00000E+00
         0.00000E+00
         0.00000E+00
         0.00000E+00
         0.00000E+00
         0.00000E+00
         0.00000E+00
         0.00000E+00
         0.00000E+00
         0.00000E+00
         0.00000E+00
         0.00000E+00
         0.00000E+00
         0.00000E+00
         0.00000E+00
         0.00000E+00
         0.00000E+00
         0.00000E+00
         0.00000E+00
         0.00000E+00
         0.00000E+00
         0.00000E+00
         0.00000E+00
         0.00000E+00
         0.00000E+00
         0.00000E+00
         0.00000E+00
         0.00000E+00
         0.00000E+00
         0.00000E+00
         0.00000E+00
         0.00000E+00
         0.00000E+00
         0.00000E+00
         0.00000E+00
         0.00000E+00
         0.00000E+00
         0.00000E+00
         0.00000E+00
         0.00000E+00
         0.00000E+00
         0.00000E+00
         0.00000E+00
         0.00000E+00
         0.00000E+00
         0.00000E+00
         0.00000E+00
         0.00000E+00
         0.00000E+00
         0.00000E+00
         0.00000E+00
         0.00000E+00
         0.00000E+00
         0.00000E+00
         0.00000E+00
         0.00000E+00
         0.00000E+00
         0.00000E+00
         0.00000E+00
         0.00000E+00
         0.00000E+00
         0.00000E+00
         0.00000E+00
         0.00000E+00
         0.00000E+00
         0.00000E+00
         0.00000E+00
         0.00000E+00
         0.00000E+00
         0.00000E+00
         0.00000E+00
         0.00000E+00
         0.00000E+00
         0.00000E+00
         0.00000E+00
         0.00000E+00
         0.00000E+00
         0.00000E+00
         0.00000E+00
         0.00000E+00
         0.00000E+00
         0.00000E+00
         0.00000E+00
         0.00000E+00
         0.00000E+00
         0.00000E+00
         0.00000E+00
         0.00000E+00
         0.00000E+00
         0.00000E+00
         0.00000E+00
         0.00000E+00
         0.00000E+00
         0.00000E+00
         0.00000E+00
         0.00000E+00
         0.00000E+00
         0.00000E+00
         0.00000E+00
         0.00000E+00
         0.00000E+00
         0.00000E+00
         0.00000E+00
         0.00000E+00
         0.00000E+00
         0.00000E+00
         0.00000E+00
         0.00000E+00
         0.00000E+00
         0.00000E+00
         0.00000E+00
         0.00000E+00
         0.00000E+00
         0.00000E+00
         0.00000E+00
         0.00000E+00
         0.00000E+00
         0.00000E+00
         0.00000E+00
         0.00000E+00
         0.00000E+00
         0.00000E+00
         0.00000E+00
         0.00000E+00
         0.00000E+00
         0.00000E+00
         0.00000E+00
         0.00000E+00
         0.00000E+00
         0.00000E+00
         0.00000E+00
         0.00000E+00
         0.00000E+00
         0.00000E+00
         0.00000E+00
         0.00000E+00
         0.00000E+00
         0.00000E+00
         0.00000E+00
         0.00000E+00
         0.00000E+00
         0.00000E+00
         0.00000E+00
         0.00000E+00
         0.00000E+00
         0.00000E+00
         0.00000E+00
         0.00000E+00
         0.00000E+00
         0.00000E+00
         0.00000E+00
         0.00000E+00
         0.00000E+00
         0.00000E+00
         0.00000E+00
         0.00000E+00
         0.00000E+00
         0.00000E+00
         0.00000E+00
         0.00000E+00
         0.00000E+00
         0.00000E+00
         0.00000E+00
         0.00000E+00
         0.00000E+00
         0.00000E+00
         0.00000E+00
         0.00000E+00
         0.00000E+00
         0.00000E+00
         0.00000E+00
         0.00000E+00
         0.00000E+00
         0.00000E+00
         0.00000E+00
         0.00000E+00
         0.00000E+00
         0.00000E+00
         0.00000E+00
         0.00000E+00
         0.00000E+00
         0.00000E+00
         0.00000E+00
         0.00000E+00
         0.00000E+00
         0.00000E+00
         0.00000E+00
         0.00000E+00
         0.00000E+00
         0.00000E+00
         0.00000E+00
         0.00000E+00
         0.00000E+00
         0.00000E+00
         0.00000E+00
         0.00000E+00
         0.00000E+00
         0.00000E+00
         0.00000E+00
         0.00000E+00
         0.00000E+00
         0.00000E+00
         0.00000E+00
         0.00000E+00
         0.00000E+00
         0.00000E+00
         0.00000E+00
         0.00000E+00
         0.00000E+00
         0.00000E+00
         0.00000E+00
         0.00000E+00
         0.00000E+00
         0.00000E+00
         0.00000E+00
         0.00000E+00
         0.00000E+00
         0.00000E+00
         0.00000E+00
         0.00000E+00
         0.00000E+00
         0.00000E+00
         0.00000E+00
         0.00000E+00
         0.00000E+00
         0.00000E+00
         0.00000E+00
         0.00000E+00
         0.00000E+00
         0.00000E+00
         0.00000E+00
         0.00000E+00
         0.00000E+00
         0.00000E+00
         0.00000E+00
         0.00000E+00
         0.00000E+00
         0.00000E+00
         0.00000E+00
         0.00000E+00
         0.00000E+00
         0.00000E+00
         0.00000E+00
         0.00000E+00
         0.00000E+00
         0.00000E+00
         0.00000E+00
         0.00000E+00
         0.00000E+00
         0.00000E+00
         0.00000E+00
         0.00000E+00
         0.00000E+00
         0.00000E+00
         0.00000E+00
         0.00000E+00
         0.00000E+00
         0.00000E+00
         0.00000E+00
         0.00000E+00
         0.00000E+00
         0.00000E+00
         0.00000E+00
         0.00000E+00
         0.00000E+00
         0.00000E+00
         0.00000E+00
         0.00000E+00
         0.00000E+00
         0.00000E+00
         0.00000E+00
         0.00000E+00
         0.00000E+00
         0.00000E+00
         0.00000E+00
         0.00000E+00
         0.00000E+00
         0.00000E+00
         0.00000E+00
         0.00000E+00
         0.00000E+00
         0.00000E+00
         0.00000E+00
         0.00000E+00
         0.00000E+00
         0.00000E+00
         0.00000E+00
         0.00000E+00
         0.00000E+00
         0.00000E+00
         0.00000E+00
         0.00000E+00
         0.00000E+00
         0.00000E+00
         0.00000E+00
         0.00000E+00
         0.00000E+00
         0.00000E+00
         0.00000E+00
         0.00000E+00
         0.00000E+00
         0.00000E+00
         0.00000E+00
         0.00000E+00
         0.00000E+00
         0.00000E+00
         0.00000E+00
         0.00000E+00
         0.00000E+00
         0.00000E+00
         0.00000E+00
         0.00000E+00
         0.00000E+00
         0.00000E+00
         0.00000E+00
         0.00000E+00
         0.00000E+00
         0.00000E+00
         0.00000E+00
         0.00000E+00
         0.00000E+00
         0.00000E+00
         0.00000E+00
         0.00000E+00
         0.00000E+00
         0.00000E+00
         0.00000E+00
         0.00000E+00
         0.00000E+00
         0.00000E+00
         0.00000E+00
         0.00000E+00
         0.00000E+00
         0.00000E+00
         0.00000E+00
         0.00000E+00
         0.00000E+00
         0.00000E+00
         0.00000E+00
         0.00000E+00
         0.00000E+00
         0.00000E+00
         0.00000E+00
         0.00000E+00
         0.00000E+00
         0.00000E+00
         0.00000E+00
         0.00000E+00
         0.00000E+00
         0.00000E+00
         0.00000E+00
         0.00000E+00
         0.00000E+00
         0.00000E+00
         0.00000E+00
         0.00000E+00
         0.00000E+00
         0.00000E+00
         0.00000E+00
         0.00000E+00
         0.00000E+00
         0.00000E+00
         0.00000E+00
         0.00000E+00
         0.00000E+00
         0.00000E+00
         0.00000E+00
         0.00000E+00
         0.00000E+00
         0.00000E+00
         0.00000E+00
         0.00000E+00
         0.00000E+00
         0.00000E+00
         0.00000E+00
         0.00000E+00
         0.00000E+00
         0.00000E+00
         0.00000E+00
         0.00000E+00
         0.00000E+00
         0.00000E+00
         0.00000E+00
         0.00000E+00
         0.00000E+00
         0.00000E+00
         0.00000E+00
         0.00000E+00
         0.00000E+00
         0.00000E+00
         0.00000E+00
         0.00000E+00
         0.00000E+00
         0.00000E+00
         0.00000E+00
         0.00000E+00
         0.00000E+00
         0.00000E+00
         0.00000E+00
         0.00000E+00
         0.00000E+00
         0.00000E+00
         0.00000E+00
         0.00000E+00
         0.00000E+00
         0.00000E+00
         0.00000E+00
         0.00000E+00
         0.00000E+00
         0.00000E+00
         0.00000E+00
         0.00000E+00
         0.00000E+00
         0.00000E+00
         0.00000E+00
         0.00000E+00
         0.00000E+00
         0.00000E+00
         0.00000E+00
         0.00000E+00
         0.00000E+00
         0.00000E+00
         0.00000E+00
         0.00000E+00
         0.00000E+00
         0.00000E+00
         0.00000E+00
         0.00000E+00
         0.00000E+00
         0.00000E+00
         0.00000E+00
         0.00000E+00
         0.00000E+00
         0.00000E+00
         0.00000E+00
         0.00000E+00
         0.00000E+00
         0.00000E+00
         0.00000E+00
         0.00000E+00
         0.00000E+00
         0.00000E+00
         0.00000E+00
         0.00000E+00
         0.00000E+00
         0.00000E+00
         0.00000E+00
         0.00000E+00
         0.00000E+00
         0.00000E+00
         0.00000E+00
         0.00000E+00
         0.00000E+00
         0.00000E+00
         0.00000E+00
         0.00000E+00
         0.00000E+00
         0.00000E+00
         0.00000E+00
         0.00000E+00
         0.00000E+00
         0.00000E+00
         0.00000E+00
         0.00000E+00
         0.00000E+00
         0.00000E+00
         0.00000E+00
         0.00000E+00
         0.00000E+00
         0.00000E+00
         0.00000E+00
         0.00000E+00
         0.00000E+00
         0.00000E+00
         0.00000E+00
         0.00000E+00
         0.00000E+00
         0.00000E+00
         0.00000E+00
         0.00000E+00
         0.00000E+00
         0.00000E+00
         0.00000E+00
         0.00000E+00
         0.00000E+00
         0.00000E+00
         0.00000E+00
         0.00000E+00
         0.00000E+00
         0.00000E+00
         0.00000E+00
         0.00000E+00
         0.00000E+00
         0.00000E+00
         0.00000E+00
         0.00000E+00
         0.00000E+00
         0.00000E+00
         0.00000E+00
         0.00000E+00
         0.00000E+00
         0.00000E+00
         0.00000E+00
         0.00000E+00
         0.00000E+00
         0.00000E+00
         0.00000E+00
         0.00000E+00
         0.00000E+00
         0.00000E+00
         0.00000E+00
         0.00000E+00
         0.00000E+00
         0.00000E+00
         0.00000E+00
         0.00000E+00
         0.00000E+00
         0.00000E+00
         0.00000E+00
         0.00000E+00
         0.00000E+00
         0.00000E+00
         0.00000E+00
         0.00000E+00
         0.00000E+00
         0.00000E+00
         0.00000E+00
         0.00000E+00
         0.00000E+00
         0.00000E+00
         0.00000E+00
         0.00000E+00
         0.00000E+00
         0.00000E+00
         0.00000E+00
         0.00000E+00
         0.00000E+00
         0.00000E+00
         0.00000E+00
         0.00000E+00
         0.00000E+00
         0.00000E+00
         0.00000E+00
         0.00000E+00
         0.00000E+00
         0.00000E+00
         0.00000E+00
         0.00000E+00
         0.00000E+00
         0.00000E+00
         0.00000E+00
         0.00000E+00
         0.00000E+00
         0.00000E+00
         0.00000E+00
         0.00000E+00
         0.00000E+00
         0.00000E+00
         0.00000E+00
         0.00000E+00
         0.00000E+00
         0.00000E+00
         0.00000E+00
         0.00000E+00
         0.00000E+00
         0.00000E+00
         0.00000E+00
         0.00000E+00
         0.00000E+00
         0.00000E+00
         0.00000E+00
         0.00000E+00
         0.00000E+00
         0.00000E+00
         0.00000E+00
         0.00000E+00
         0.00000E+00
         0.00000E+00
         0.00000E+00
         0.00000E+00
         0.00000E+00
         0.00000E+00
         0.00000E+00
         0.00000E+00
         0.00000E+00
         0.00000E+00
         0.00000E+00
         0.00000E+00
         0.00000E+00
         0.00000E+00
         0.00000E+00
         0.00000E+00
         0.00000E+00
         0.00000E+00
         0.00000E+00
         0.00000E+00
         0.00000E+00
         0.00000E+00
         0.00000E+00
         0.00000E+00
         0.00000E+00
         0.00000E+00
         0.00000E+00
         0.00000E+00
         0.00000E+00
         0.00000E+00
         0.00000E+00
         0.00000E+00
         0.00000E+00
         0.00000E+00
         0.00000E+00
         0.00000E+00
         0.00000E+00
         0.00000E+00
         0.00000E+00
         0.00000E+00
         0.00000E+00
         0.00000E+00
         0.00000E+00
         0.00000E+00
         0.00000E+00
         0.00000E+00
         0.00000E+00
         0.00000E+00
         0.00000E+00
         0.00000E+00
         0.00000E+00
         0.00000E+00
         0.00000E+00
         0.00000E+00
         0.00000E+00
         0.00000E+00
         0.00000E+00
         0.00000E+00
         0.00000E+00
         0.00000E+00
         0.00000E+00
         0.00000E+00
         0.00000E+00
         0.00000E+00
         0.00000E+00
         0.00000E+00
         0.00000E+00
         0.00000E+00
         0.00000E+00
         0.00000E+00
         0.00000E+00
         0.00000E+00
         0.00000E+00
         0.00000E+00
         0.00000E+00
         0.00000E+00
         0.00000E+00
         0.00000E+00
         0.00000E+00
         0.00000E+00
         0.00000E+00
         0.00000E+00
         0.00000E+00
         0.00000E+00
         0.00000E+00
         0.00000E+00
         0.00000E+00
         0.00000E+00
         0.00000E+00
         0.00000E+00
         0.00000E+00
         0.00000E+00
         0.00000E+00
         0.00000E+00
         0.00000E+00
         0.00000E+00
         0.00000E+00
         0.00000E+00
         0.00000E+00
         0.00000E+00
         0.00000E+00
         0.00000E+00
         0.00000E+00
         0.00000E+00
         0.00000E+00
         0.00000E+00
         0.00000E+00
         0.00000E+00
         0.00000E+00
         0.00000E+00
         0.00000E+00
         0.00000E+00
         0.00000E+00
         0.00000E+00
         0.00000E+00
         0.00000E+00
         0.00000E+00
         0.00000E+00
         0.00000E+00
         0.00000E+00
         0.00000E+00
         0.00000E+00
         0.00000E+00
         0.00000E+00
         0.00000E+00
         0.00000E+00
         0.00000E+00
         0.00000E+00
         0.00000E+00
         0.00000E+00
         0.00000E+00
         0.00000E+00
         0.00000E+00
         0.00000E+00
         0.00000E+00
         0.00000E+00
         0.00000E+00
         0.00000E+00
         0.00000E+00
         0.00000E+00
         0.00000E+00
         0.00000E+00
         0.00000E+00
         0.00000E+00
         0.00000E+00
         0.00000E+00
         0.00000E+00
         0.00000E+00
         0.00000E+00
         0.00000E+00
         0.00000E+00
         0.00000E+00
         0.00000E+00
         0.00000E+00
         0.00000E+00
         0.00000E+00
         0.00000E+00
         0.00000E+00
         0.00000E+00
         0.00000E+00
         0.00000E+00
         0.00000E+00
         0.00000E+00
         0.00000E+00
         0.00000E+00
         0.00000E+00
         0.00000E+00
         0.00000E+00
         0.00000E+00
         0.00000E+00
         0.00000E+00
         0.00000E+00
         0.00000E+00
         0.00000E+00
         0.00000E+00
         0.00000E+00
         0.00000E+00
         0.00000E+00
         0.00000E+00
         0.00000E+00
         0.00000E+00
         0.00000E+00
         0.00000E+00
         0.00000E+00
         0.00000E+00
         0.00000E+00
         0.00000E+00
         0.00000E+00
         0.00000E+00
         0.00000E+00
         0.00000E+00
         0.00000E+00
         0.00000E+00
         0.00000E+00
         0.00000E+00
         0.00000E+00
         0.00000E+00
         0.00000E+00
         0.00000E+00
         0.00000E+00
         0.00000E+00
         0.00000E+00
         0.00000E+00
         0.00000E+00
         0.00000E+00
         0.00000E+00
         0.00000E+00
         0.00000E+00
         0.00000E+00
         0.00000E+00
         0.00000E+00
         0.00000E+00
         0.00000E+00
         0.00000E+00
         0.00000E+00
         0.00000E+00
         0.00000E+00
         0.00000E+00
         0.00000E+00
         0.00000E+00
         0.00000E+00
         0.00000E+00
         0.00000E+00
         0.00000E+00
         0.00000E+00
         0.00000E+00
         0.00000E+00
         0.00000E+00
         0.00000E+00
         0.00000E+00
         0.00000E+00
         0.00000E+00
         0.00000E+00
         0.00000E+00
         0.00000E+00
         0.00000E+00
         0.00000E+00
         0.00000E+00
         0.00000E+00
         0.00000E+00
         0.00000E+00
         0.00000E+00
         0.00000E+00
         0.00000E+00
         0.00000E+00
         0.00000E+00
         0.00000E+00
         0.00000E+00
         0.00000E+00
         0.00000E+00
         0.00000E+00
         0.00000E+00
         0.00000E+00
         0.00000E+00
         0.00000E+00
         0.00000E+00
         0.00000E+00
         0.00000E+00
         0.00000E+00
         0.00000E+00
         0.00000E+00
         0.00000E+00
         0.00000E+00
         0.00000E+00
         0.00000E+00
         0.00000E+00
         0.00000E+00
         0.00000E+00
         0.00000E+00
         0.00000E+00
         0.00000E+00
         0.00000E+00
         0.00000E+00
         0.00000E+00
         0.00000E+00
         0.00000E+00
         0.00000E+00
         0.00000E+00
         0.00000E+00
         0.00000E+00
         0.00000E+00
         0.00000E+00
         0.00000E+00
         0.00000E+00
         0.00000E+00
         0.00000E+00
         0.00000E+00
         0.00000E+00
         0.00000E+00
         0.00000E+00
         0.00000E+00
         0.00000E+00
         0.00000E+00
         0.00000E+00
         0.00000E+00
         0.00000E+00
         0.00000E+00
         0.00000E+00
         0.00000E+00
         0.00000E+00
         0.00000E+00
         0.00000E+00
         0.00000E+00
         0.00000E+00
         0.00000E+00
         0.00000E+00
         0.00000E+00
         0.00000E+00
         0.00000E+00
         0.00000E+00
         0.00000E+00
         0.00000E+00
         0.00000E+00
         0.00000E+00
         0.00000E+00
         0.00000E+00
         0.00000E+00
         0.00000E+00
         0.00000E+00
         0.00000E+00
         0.00000E+00
         0.00000E+00
         0.00000E+00
         0.00000E+00
         0.00000E+00
         0.00000E+00
         0.00000E+00
         0.00000E+00
         0.00000E+00
         0.00000E+00
         0.00000E+00
         0.00000E+00
         0.00000E+00
         0.00000E+00
         0.00000E+00
         0.00000E+00
         0.00000E+00
         0.00000E+00
         0.00000E+00
         0.00000E+00
         0.00000E+00
         0.00000E+00
         0.00000E+00
         0.00000E+00
         0.00000E+00
         0.00000E+00
         0.00000E+00
         0.00000E+00
         0.00000E+00
         0.00000E+00
         0.00000E+00
         0.00000E+00
         0.00000E+00
         0.00000E+00
         0.00000E+00
         0.00000E+00
         0.00000E+00
         0.00000E+00
         0.00000E+00
         0.00000E+00
         0.00000E+00
         0.00000E+00
         0.00000E+00
         0.00000E+00
         0.00000E+00
         0.00000E+00
         0.00000E+00
         0.00000E+00
         0.00000E+00
         0.00000E+00
         0.00000E+00
         0.00000E+00
         0.00000E+00
         0.00000E+00
         0.00000E+00
         0.00000E+00
         0.00000E+00
         0.00000E+00
         0.00000E+00
         0.00000E+00
         0.00000E+00
         0.00000E+00
         0.00000E+00
         0.00000E+00
         0.00000E+00
         0.00000E+00
         0.00000E+00
         0.00000E+00
         0.00000E+00
         0.00000E+00
         0.00000E+00
         0.00000E+00
         0.00000E+00
         0.00000E+00
         0.00000E+00
         0.00000E+00
         0.00000E+00
         0.00000E+00
         0.00000E+00
         0.00000E+00
         0.00000E+00
         0.00000E+00
         0.00000E+00
         0.00000E+00
         0.00000E+00
         0.00000E+00
         0.00000E+00
         0.00000E+00
         0.00000E+00
         0.00000E+00
         0.00000E+00
         0.00000E+00
         0.00000E+00
         0.00000E+00
         0.00000E+00
         0.00000E+00
         0.00000E+00
         0.00000E+00
         0.00000E+00
         0.00000E+00
         0.00000E+00
         0.00000E+00
         0.00000E+00
         0.00000E+00
         0.00000E+00
         0.00000E+00
         0.00000E+00
         0.00000E+00
         0.00000E+00
         0.00000E+00
         0.00000E+00
         0.00000E+00
         0.00000E+00
         0.00000E+00
         0.00000E+00
         0.00000E+00
         0.00000E+00
         0.00000E+00
         0.00000E+00
         0.00000E+00
         0.00000E+00
         0.00000E+00
         0.00000E+00
         0.00000E+00
         0.00000E+00
         0.00000E+00
         0.00000E+00
         0.00000E+00
         0.00000E+00
         0.00000E+00
  
SCALARS                 acceleration_z  double 1
LOOKUP_TABLE default
         0.00000E+00
         0.00000E+00
         0.00000E+00
         0.00000E+00
         0.00000E+00
         0.00000E+00
         0.00000E+00
         0.00000E+00
         0.00000E+00
         0.00000E+00
         0.00000E+00
         0.00000E+00
         0.00000E+00
         0.00000E+00
         0.00000E+00
         0.00000E+00
         0.00000E+00
         0.00000E+00
         0.00000E+00
         0.00000E+00
         0.00000E+00
         0.00000E+00
         0.00000E+00
         0.00000E+00
         0.00000E+00
         0.00000E+00
         0.00000E+00
         0.00000E+00
         0.00000E+00
         0.00000E+00
         0.00000E+00
         0.00000E+00
         0.00000E+00
         0.00000E+00
         0.00000E+00
         0.00000E+00
         0.00000E+00
         0.00000E+00
         0.00000E+00
         0.00000E+00
         0.00000E+00
         0.00000E+00
         0.00000E+00
         0.00000E+00
         0.00000E+00
         0.00000E+00
         0.00000E+00
         0.00000E+00
         0.00000E+00
         0.00000E+00
         0.00000E+00
         0.00000E+00
         0.00000E+00
         0.00000E+00
         0.00000E+00
         0.00000E+00
         0.00000E+00
         0.00000E+00
         0.00000E+00
         0.00000E+00
         0.00000E+00
         0.00000E+00
         0.00000E+00
         0.00000E+00
         0.00000E+00
         0.00000E+00
         0.00000E+00
         0.00000E+00
         0.00000E+00
         0.00000E+00
         0.00000E+00
         0.00000E+00
         0.00000E+00
         0.00000E+00
         0.00000E+00
         0.00000E+00
         0.00000E+00
         0.00000E+00
         0.00000E+00
         0.00000E+00
         0.00000E+00
         0.00000E+00
         0.00000E+00
         0.00000E+00
         0.00000E+00
         0.00000E+00
         0.00000E+00
         0.00000E+00
         0.00000E+00
         0.00000E+00
         0.00000E+00
         0.00000E+00
         0.00000E+00
         0.00000E+00
         0.00000E+00
         0.00000E+00
         0.00000E+00
         0.00000E+00
         0.00000E+00
         0.00000E+00
         0.00000E+00
         0.00000E+00
         0.00000E+00
         0.00000E+00
         0.00000E+00
         0.00000E+00
         0.00000E+00
         0.00000E+00
         0.00000E+00
         0.00000E+00
         0.00000E+00
         0.00000E+00
         0.00000E+00
         0.00000E+00
         0.00000E+00
         0.00000E+00
         0.00000E+00
         0.00000E+00
         0.00000E+00
         0.00000E+00
         0.00000E+00
         0.00000E+00
         0.00000E+00
         0.00000E+00
         0.00000E+00
         0.00000E+00
         0.00000E+00
         0.00000E+00
         0.00000E+00
         0.00000E+00
         0.00000E+00
         0.00000E+00
         0.00000E+00
         0.00000E+00
         0.00000E+00
         0.00000E+00
         0.00000E+00
         0.00000E+00
         0.00000E+00
         0.00000E+00
         0.00000E+00
         0.00000E+00
         0.00000E+00
         0.00000E+00
         0.00000E+00
         0.00000E+00
         0.00000E+00
         0.00000E+00
         0.00000E+00
         0.00000E+00
         0.00000E+00
         0.00000E+00
         0.00000E+00
         0.00000E+00
         0.00000E+00
         0.00000E+00
         0.00000E+00
         0.00000E+00
         0.00000E+00
         0.00000E+00
         0.00000E+00
         0.00000E+00
         0.00000E+00
         0.00000E+00
         0.00000E+00
         0.00000E+00
         0.00000E+00
         0.00000E+00
         0.00000E+00
         0.00000E+00
         0.00000E+00
         0.00000E+00
         0.00000E+00
         0.00000E+00
         0.00000E+00
         0.00000E+00
         0.00000E+00
         0.00000E+00
         0.00000E+00
         0.00000E+00
         0.00000E+00
         0.00000E+00
         0.00000E+00
         0.00000E+00
         0.00000E+00
         0.00000E+00
         0.00000E+00
         0.00000E+00
         0.00000E+00
         0.00000E+00
         0.00000E+00
         0.00000E+00
         0.00000E+00
         0.00000E+00
         0.00000E+00
         0.00000E+00
         0.00000E+00
         0.00000E+00
         0.00000E+00
         0.00000E+00
         0.00000E+00
         0.00000E+00
         0.00000E+00
         0.00000E+00
         0.00000E+00
         0.00000E+00
         0.00000E+00
         0.00000E+00
         0.00000E+00
         0.00000E+00
         0.00000E+00
         0.00000E+00
         0.00000E+00
         0.00000E+00
         0.00000E+00
         0.00000E+00
         0.00000E+00
         0.00000E+00
         0.00000E+00
         0.00000E+00
         0.00000E+00
         0.00000E+00
         0.00000E+00
         0.00000E+00
         0.00000E+00
         0.00000E+00
         0.00000E+00
         0.00000E+00
         0.00000E+00
         0.00000E+00
         0.00000E+00
         0.00000E+00
         0.00000E+00
         0.00000E+00
         0.00000E+00
         0.00000E+00
         0.00000E+00
         0.00000E+00
         0.00000E+00
         0.00000E+00
         0.00000E+00
         0.00000E+00
         0.00000E+00
         0.00000E+00
         0.00000E+00
         0.00000E+00
         0.00000E+00
         0.00000E+00
         0.00000E+00
         0.00000E+00
         0.00000E+00
         0.00000E+00
         0.00000E+00
         0.00000E+00
         0.00000E+00
         0.00000E+00
         0.00000E+00
         0.00000E+00
         0.00000E+00
         0.00000E+00
         0.00000E+00
         0.00000E+00
         0.00000E+00
         0.00000E+00
         0.00000E+00
         0.00000E+00
         0.00000E+00
         0.00000E+00
         0.00000E+00
         0.00000E+00
         0.00000E+00
         0.00000E+00
         0.00000E+00
         0.00000E+00
         0.00000E+00
         0.00000E+00
         0.00000E+00
         0.00000E+00
         0.00000E+00
         0.00000E+00
         0.00000E+00
         0.00000E+00
         0.00000E+00
         0.00000E+00
         0.00000E+00
         0.00000E+00
         0.00000E+00
         0.00000E+00
         0.00000E+00
         0.00000E+00
         0.00000E+00
         0.00000E+00
         0.00000E+00
         0.00000E+00
         0.00000E+00
         0.00000E+00
         0.00000E+00
         0.00000E+00
         0.00000E+00
         0.00000E+00
         0.00000E+00
         0.00000E+00
         0.00000E+00
         0.00000E+00
         0.00000E+00
         0.00000E+00
         0.00000E+00
         0.00000E+00
         0.00000E+00
         0.00000E+00
         0.00000E+00
         0.00000E+00
         0.00000E+00
         0.00000E+00
         0.00000E+00
         0.00000E+00
         0.00000E+00
         0.00000E+00
         0.00000E+00
         0.00000E+00
         0.00000E+00
         0.00000E+00
         0.00000E+00
         0.00000E+00
         0.00000E+00
         0.00000E+00
         0.00000E+00
         0.00000E+00
         0.00000E+00
         0.00000E+00
         0.00000E+00
         0.00000E+00
         0.00000E+00
         0.00000E+00
         0.00000E+00
         0.00000E+00
         0.00000E+00
         0.00000E+00
         0.00000E+00
         0.00000E+00
         0.00000E+00
         0.00000E+00
         0.00000E+00
         0.00000E+00
         0.00000E+00
         0.00000E+00
         0.00000E+00
         0.00000E+00
         0.00000E+00
         0.00000E+00
         0.00000E+00
         0.00000E+00
         0.00000E+00
         0.00000E+00
         0.00000E+00
         0.00000E+00
         0.00000E+00
         0.00000E+00
         0.00000E+00
         0.00000E+00
         0.00000E+00
         0.00000E+00
         0.00000E+00
         0.00000E+00
         0.00000E+00
         0.00000E+00
         0.00000E+00
         0.00000E+00
         0.00000E+00
         0.00000E+00
         0.00000E+00
         0.00000E+00
         0.00000E+00
         0.00000E+00
         0.00000E+00
         0.00000E+00
         0.00000E+00
         0.00000E+00
         0.00000E+00
         0.00000E+00
         0.00000E+00
         0.00000E+00
         0.00000E+00
         0.00000E+00
         0.00000E+00
         0.00000E+00
         0.00000E+00
         0.00000E+00
         0.00000E+00
         0.00000E+00
         0.00000E+00
         0.00000E+00
         0.00000E+00
         0.00000E+00
         0.00000E+00
         0.00000E+00
         0.00000E+00
         0.00000E+00
         0.00000E+00
         0.00000E+00
         0.00000E+00
         0.00000E+00
         0.00000E+00
         0.00000E+00
         0.00000E+00
         0.00000E+00
         0.00000E+00
         0.00000E+00
         0.00000E+00
         0.00000E+00
         0.00000E+00
         0.00000E+00
         0.00000E+00
         0.00000E+00
         0.00000E+00
         0.00000E+00
         0.00000E+00
         0.00000E+00
         0.00000E+00
         0.00000E+00
         0.00000E+00
         0.00000E+00
         0.00000E+00
         0.00000E+00
         0.00000E+00
         0.00000E+00
         0.00000E+00
         0.00000E+00
         0.00000E+00
         0.00000E+00
         0.00000E+00
         0.00000E+00
         0.00000E+00
         0.00000E+00
         0.00000E+00
         0.00000E+00
         0.00000E+00
         0.00000E+00
         0.00000E+00
         0.00000E+00
         0.00000E+00
         0.00000E+00
         0.00000E+00
         0.00000E+00
         0.00000E+00
         0.00000E+00
         0.00000E+00
         0.00000E+00
         0.00000E+00
         0.00000E+00
         0.00000E+00
         0.00000E+00
         0.00000E+00
         0.00000E+00
         0.00000E+00
         0.00000E+00
         0.00000E+00
         0.00000E+00
         0.00000E+00
         0.00000E+00
         0.00000E+00
         0.00000E+00
         0.00000E+00
         0.00000E+00
         0.00000E+00
         0.00000E+00
         0.00000E+00
         0.00000E+00
         0.00000E+00
         0.00000E+00
         0.00000E+00
         0.00000E+00
         0.00000E+00
         0.00000E+00
         0.00000E+00
         0.00000E+00
         0.00000E+00
         0.00000E+00
         0.00000E+00
         0.00000E+00
         0.00000E+00
         0.00000E+00
         0.00000E+00
         0.00000E+00
         0.00000E+00
         0.00000E+00
         0.00000E+00
         0.00000E+00
         0.00000E+00
         0.00000E+00
         0.00000E+00
         0.00000E+00
         0.00000E+00
         0.00000E+00
         0.00000E+00
         0.00000E+00
         0.00000E+00
         0.00000E+00
         0.00000E+00
         0.00000E+00
         0.00000E+00
         0.00000E+00
         0.00000E+00
         0.00000E+00
         0.00000E+00
         0.00000E+00
         0.00000E+00
         0.00000E+00
         0.00000E+00
         0.00000E+00
         0.00000E+00
         0.00000E+00
         0.00000E+00
         0.00000E+00
         0.00000E+00
         0.00000E+00
         0.00000E+00
         0.00000E+00
         0.00000E+00
         0.00000E+00
         0.00000E+00
         0.00000E+00
         0.00000E+00
         0.00000E+00
         0.00000E+00
         0.00000E+00
         0.00000E+00
         0.00000E+00
         0.00000E+00
         0.00000E+00
         0.00000E+00
         0.00000E+00
         0.00000E+00
         0.00000E+00
         0.00000E+00
         0.00000E+00
         0.00000E+00
         0.00000E+00
         0.00000E+00
         0.00000E+00
         0.00000E+00
         0.00000E+00
         0.00000E+00
         0.00000E+00
         0.00000E+00
         0.00000E+00
         0.00000E+00
         0.00000E+00
         0.00000E+00
         0.00000E+00
         0.00000E+00
         0.00000E+00
         0.00000E+00
         0.00000E+00
         0.00000E+00
         0.00000E+00
         0.00000E+00
         0.00000E+00
         0.00000E+00
         0.00000E+00
         0.00000E+00
         0.00000E+00
         0.00000E+00
         0.00000E+00
         0.00000E+00
         0.00000E+00
         0.00000E+00
         0.00000E+00
         0.00000E+00
         0.00000E+00
         0.00000E+00
         0.00000E+00
         0.00000E+00
         0.00000E+00
         0.00000E+00
         0.00000E+00
         0.00000E+00
         0.00000E+00
         0.00000E+00
         0.00000E+00
         0.00000E+00
         0.00000E+00
         0.00000E+00
         0.00000E+00
         0.00000E+00
         0.00000E+00
         0.00000E+00
         0.00000E+00
         0.00000E+00
         0.00000E+00
         0.00000E+00
         0.00000E+00
         0.00000E+00
         0.00000E+00
         0.00000E+00
         0.00000E+00
         0.00000E+00
         0.00000E+00
         0.00000E+00
         0.00000E+00
         0.00000E+00
         0.00000E+00
         0.00000E+00
         0.00000E+00
         0.00000E+00
         0.00000E+00
         0.00000E+00
         0.00000E+00
         0.00000E+00
         0.00000E+00
         0.00000E+00
         0.00000E+00
         0.00000E+00
         0.00000E+00
         0.00000E+00
         0.00000E+00
         0.00000E+00
         0.00000E+00
         0.00000E+00
         0.00000E+00
         0.00000E+00
         0.00000E+00
         0.00000E+00
         0.00000E+00
         0.00000E+00
         0.00000E+00
         0.00000E+00
         0.00000E+00
         0.00000E+00
         0.00000E+00
         0.00000E+00
         0.00000E+00
         0.00000E+00
         0.00000E+00
         0.00000E+00
         0.00000E+00
         0.00000E+00
         0.00000E+00
         0.00000E+00
         0.00000E+00
         0.00000E+00
         0.00000E+00
         0.00000E+00
         0.00000E+00
         0.00000E+00
         0.00000E+00
         0.00000E+00
         0.00000E+00
         0.00000E+00
         0.00000E+00
         0.00000E+00
         0.00000E+00
         0.00000E+00
         0.00000E+00
         0.00000E+00
         0.00000E+00
         0.00000E+00
         0.00000E+00
         0.00000E+00
         0.00000E+00
         0.00000E+00
         0.00000E+00
         0.00000E+00
         0.00000E+00
         0.00000E+00
         0.00000E+00
         0.00000E+00
         0.00000E+00
         0.00000E+00
         0.00000E+00
         0.00000E+00
         0.00000E+00
         0.00000E+00
         0.00000E+00
         0.00000E+00
         0.00000E+00
         0.00000E+00
         0.00000E+00
         0.00000E+00
         0.00000E+00
         0.00000E+00
         0.00000E+00
         0.00000E+00
         0.00000E+00
         0.00000E+00
         0.00000E+00
         0.00000E+00
         0.00000E+00
         0.00000E+00
         0.00000E+00
         0.00000E+00
         0.00000E+00
         0.00000E+00
         0.00000E+00
         0.00000E+00
         0.00000E+00
         0.00000E+00
         0.00000E+00
         0.00000E+00
         0.00000E+00
         0.00000E+00
         0.00000E+00
         0.00000E+00
         0.00000E+00
         0.00000E+00
         0.00000E+00
         0.00000E+00
         0.00000E+00
         0.00000E+00
         0.00000E+00
         0.00000E+00
         0.00000E+00
         0.00000E+00
         0.00000E+00
         0.00000E+00
         0.00000E+00
         0.00000E+00
         0.00000E+00
         0.00000E+00
         0.00000E+00
         0.00000E+00
         0.00000E+00
         0.00000E+00
         0.00000E+00
         0.00000E+00
         0.00000E+00
         0.00000E+00
         0.00000E+00
         0.00000E+00
         0.00000E+00
         0.00000E+00
         0.00000E+00
         0.00000E+00
         0.00000E+00
         0.00000E+00
         0.00000E+00
         0.00000E+00
         0.00000E+00
         0.00000E+00
         0.00000E+00
         0.00000E+00
         0.00000E+00
         0.00000E+00
         0.00000E+00
         0.00000E+00
         0.00000E+00
         0.00000E+00
         0.00000E+00
         0.00000E+00
         0.00000E+00
         0.00000E+00
         0.00000E+00
         0.00000E+00
         0.00000E+00
         0.00000E+00
         0.00000E+00
         0.00000E+00
         0.00000E+00
         0.00000E+00
         0.00000E+00
         0.00000E+00
         0.00000E+00
         0.00000E+00
         0.00000E+00
         0.00000E+00
         0.00000E+00
         0.00000E+00
         0.00000E+00
         0.00000E+00
         0.00000E+00
         0.00000E+00
         0.00000E+00
         0.00000E+00
         0.00000E+00
         0.00000E+00
         0.00000E+00
         0.00000E+00
         0.00000E+00
         0.00000E+00
         0.00000E+00
         0.00000E+00
         0.00000E+00
         0.00000E+00
         0.00000E+00
         0.00000E+00
         0.00000E+00
         0.00000E+00
         0.00000E+00
         0.00000E+00
         0.00000E+00
         0.00000E+00
         0.00000E+00
         0.00000E+00
         0.00000E+00
         0.00000E+00
         0.00000E+00
         0.00000E+00
         0.00000E+00
         0.00000E+00
         0.00000E+00
         0.00000E+00
         0.00000E+00
         0.00000E+00
         0.00000E+00
         0.00000E+00
         0.00000E+00
         0.00000E+00
         0.00000E+00
         0.00000E+00
         0.00000E+00
         0.00000E+00
         0.00000E+00
         0.00000E+00
         0.00000E+00
         0.00000E+00
         0.00000E+00
         0.00000E+00
         0.00000E+00
         0.00000E+00
         0.00000E+00
         0.00000E+00
         0.00000E+00
         0.00000E+00
         0.00000E+00
         0.00000E+00
         0.00000E+00
         0.00000E+00
         0.00000E+00
         0.00000E+00
         0.00000E+00
         0.00000E+00
         0.00000E+00
         0.00000E+00
         0.00000E+00
         0.00000E+00
         0.00000E+00
         0.00000E+00
         0.00000E+00
         0.00000E+00
         0.00000E+00
         0.00000E+00
         0.00000E+00
         0.00000E+00
         0.00000E+00
         0.00000E+00
         0.00000E+00
         0.00000E+00
         0.00000E+00
         0.00000E+00
         0.00000E+00
         0.00000E+00
         0.00000E+00
         0.00000E+00
         0.00000E+00
         0.00000E+00
         0.00000E+00
         0.00000E+00
         0.00000E+00
         0.00000E+00
         0.00000E+00
         0.00000E+00
         0.00000E+00
         0.00000E+00
         0.00000E+00
         0.00000E+00
         0.00000E+00
         0.00000E+00
         0.00000E+00
         0.00000E+00
         0.00000E+00
         0.00000E+00
         0.00000E+00
         0.00000E+00
         0.00000E+00
         0.00000E+00
         0.00000E+00
         0.00000E+00
         0.00000E+00
         0.00000E+00
         0.00000E+00
         0.00000E+00
         0.00000E+00
         0.00000E+00
         0.00000E+00
         0.00000E+00
         0.00000E+00
         0.00000E+00
         0.00000E+00
         0.00000E+00
         0.00000E+00
         0.00000E+00
         0.00000E+00
         0.00000E+00
         0.00000E+00
         0.00000E+00
         0.00000E+00
         0.00000E+00
         0.00000E+00
         0.00000E+00
         0.00000E+00
         0.00000E+00
         0.00000E+00
         0.00000E+00
         0.00000E+00
         0.00000E+00
         0.00000E+00
         0.00000E+00
         0.00000E+00
         0.00000E+00
         0.00000E+00
         0.00000E+00
         0.00000E+00
         0.00000E+00
         0.00000E+00
         0.00000E+00
         0.00000E+00
         0.00000E+00
         0.00000E+00
         0.00000E+00
         0.00000E+00
         0.00000E+00
         0.00000E+00
         0.00000E+00
         0.00000E+00
         0.00000E+00
         0.00000E+00
         0.00000E+00
         0.00000E+00
         0.00000E+00
         0.00000E+00
         0.00000E+00
         0.00000E+00
         0.00000E+00
         0.00000E+00
         0.00000E+00
         0.00000E+00
         0.00000E+00
         0.00000E+00
         0.00000E+00
         0.00000E+00
         0.00000E+00
         0.00000E+00
         0.00000E+00
         0.00000E+00
         0.00000E+00
         0.00000E+00
         0.00000E+00
         0.00000E+00
         0.00000E+00
         0.00000E+00
         0.00000E+00
         0.00000E+00
         0.00000E+00
         0.00000E+00
         0.00000E+00
         0.00000E+00
         0.00000E+00
         0.00000E+00
         0.00000E+00
         0.00000E+00
         0.00000E+00
         0.00000E+00
         0.00000E+00
         0.00000E+00
         0.00000E+00
         0.00000E+00
         0.00000E+00
         0.00000E+00
         0.00000E+00
         0.00000E+00
         0.00000E+00
         0.00000E+00
         0.00000E+00
         0.00000E+00
         0.00000E+00
         0.00000E+00
         0.00000E+00
         0.00000E+00
         0.00000E+00
         0.00000E+00
         0.00000E+00
         0.00000E+00
         0.00000E+00
         0.00000E+00
         0.00000E+00
         0.00000E+00
         0.00000E+00
         0.00000E+00
         0.00000E+00
         0.00000E+00
         0.00000E+00
         0.00000E+00
         0.00000E+00
         0.00000E+00
         0.00000E+00
         0.00000E+00
         0.00000E+00
         0.00000E+00
         0.00000E+00
         0.00000E+00
         0.00000E+00
         0.00000E+00
         0.00000E+00
         0.00000E+00
         0.00000E+00
         0.00000E+00
         0.00000E+00
         0.00000E+00
         0.00000E+00
         0.00000E+00
         0.00000E+00
         0.00000E+00
         0.00000E+00
         0.00000E+00
         0.00000E+00
         0.00000E+00
         0.00000E+00
         0.00000E+00
         0.00000E+00
         0.00000E+00
         0.00000E+00
         0.00000E+00
         0.00000E+00
         0.00000E+00
         0.00000E+00
         0.00000E+00
         0.00000E+00
         0.00000E+00
         0.00000E+00
         0.00000E+00
         0.00000E+00
         0.00000E+00
         0.00000E+00
         0.00000E+00
         0.00000E+00
         0.00000E+00
         0.00000E+00
         0.00000E+00
         0.00000E+00
         0.00000E+00
         0.00000E+00
         0.00000E+00
         0.00000E+00
         0.00000E+00
         0.00000E+00
         0.00000E+00
         0.00000E+00
         0.00000E+00
         0.00000E+00
         0.00000E+00
         0.00000E+00
         0.00000E+00
         0.00000E+00
         0.00000E+00
         0.00000E+00
         0.00000E+00
         0.00000E+00
         0.00000E+00
         0.00000E+00
         0.00000E+00
         0.00000E+00
         0.00000E+00
         0.00000E+00
         0.00000E+00
         0.00000E+00
         0.00000E+00
         0.00000E+00
         0.00000E+00
         0.00000E+00
         0.00000E+00
         0.00000E+00
         0.00000E+00
         0.00000E+00
         0.00000E+00
         0.00000E+00
         0.00000E+00
         0.00000E+00
         0.00000E+00
         0.00000E+00
         0.00000E+00
         0.00000E+00
         0.00000E+00
         0.00000E+00
         0.00000E+00
         0.00000E+00
         0.00000E+00
         0.00000E+00
         0.00000E+00
         0.00000E+00
         0.00000E+00
         0.00000E+00
         0.00000E+00
         0.00000E+00
         0.00000E+00
         0.00000E+00
         0.00000E+00
         0.00000E+00
         0.00000E+00
         0.00000E+00
         0.00000E+00
         0.00000E+00
         0.00000E+00
         0.00000E+00
         0.00000E+00
         0.00000E+00
         0.00000E+00
         0.00000E+00
         0.00000E+00
         0.00000E+00
         0.00000E+00
         0.00000E+00
         0.00000E+00
         0.00000E+00
         0.00000E+00
         0.00000E+00
         0.00000E+00
         0.00000E+00
         0.00000E+00
         0.00000E+00
         0.00000E+00
         0.00000E+00
         0.00000E+00
         0.00000E+00
         0.00000E+00
         0.00000E+00
         0.00000E+00
         0.00000E+00
         0.00000E+00
         0.00000E+00
         0.00000E+00
         0.00000E+00
         0.00000E+00
         0.00000E+00
         0.00000E+00
         0.00000E+00
         0.00000E+00
         0.00000E+00
         0.00000E+00
         0.00000E+00
         0.00000E+00
         0.00000E+00
         0.00000E+00
         0.00000E+00
         0.00000E+00
         0.00000E+00
         0.00000E+00
         0.00000E+00
         0.00000E+00
         0.00000E+00
         0.00000E+00
         0.00000E+00
         0.00000E+00
         0.00000E+00
         0.00000E+00
         0.00000E+00
         0.00000E+00
         0.00000E+00
         0.00000E+00
         0.00000E+00
         0.00000E+00
         0.00000E+00
         0.00000E+00
         0.00000E+00
         0.00000E+00
         0.00000E+00
         0.00000E+00
         0.00000E+00
         0.00000E+00
         0.00000E+00
         0.00000E+00
         0.00000E+00
         0.00000E+00
         0.00000E+00
         0.00000E+00
         0.00000E+00
         0.00000E+00
         0.00000E+00
         0.00000E+00
         0.00000E+00
         0.00000E+00
         0.00000E+00
         0.00000E+00
         0.00000E+00
         0.00000E+00
         0.00000E+00
         0.00000E+00
         0.00000E+00
         0.00000E+00
         0.00000E+00
         0.00000E+00
         0.00000E+00
         0.00000E+00
         0.00000E+00
         0.00000E+00
         0.00000E+00
         0.00000E+00
         0.00000E+00
         0.00000E+00
         0.00000E+00
         0.00000E+00
         0.00000E+00
         0.00000E+00
         0.00000E+00
         0.00000E+00
         0.00000E+00
         0.00000E+00
         0.00000E+00
         0.00000E+00
         0.00000E+00
         0.00000E+00
         0.00000E+00
         0.00000E+00
         0.00000E+00
         0.00000E+00
         0.00000E+00
         0.00000E+00
         0.00000E+00
         0.00000E+00
         0.00000E+00
         0.00000E+00
         0.00000E+00
         0.00000E+00
         0.00000E+00
         0.00000E+00
         0.00000E+00
         0.00000E+00
         0.00000E+00
         0.00000E+00
         0.00000E+00
         0.00000E+00
         0.00000E+00
         0.00000E+00
         0.00000E+00
         0.00000E+00
         0.00000E+00
         0.00000E+00
         0.00000E+00
         0.00000E+00
         0.00000E+00
         0.00000E+00
         0.00000E+00
         0.00000E+00
         0.00000E+00
         0.00000E+00
         0.00000E+00
         0.00000E+00
         0.00000E+00
         0.00000E+00
         0.00000E+00
         0.00000E+00
         0.00000E+00
         0.00000E+00
         0.00000E+00
         0.00000E+00
         0.00000E+00
         0.00000E+00
         0.00000E+00
         0.00000E+00
         0.00000E+00
         0.00000E+00
         0.00000E+00
         0.00000E+00
         0.00000E+00
         0.00000E+00
         0.00000E+00
         0.00000E+00
         0.00000E+00
         0.00000E+00
         0.00000E+00
         0.00000E+00
         0.00000E+00
         0.00000E+00
         0.00000E+00
         0.00000E+00
         0.00000E+00
         0.00000E+00
         0.00000E+00
         0.00000E+00
         0.00000E+00
         0.00000E+00
         0.00000E+00
         0.00000E+00
         0.00000E+00
         0.00000E+00
         0.00000E+00
         0.00000E+00
         0.00000E+00
         0.00000E+00
         0.00000E+00
         0.00000E+00
         0.00000E+00
         0.00000E+00
         0.00000E+00
         0.00000E+00
         0.00000E+00
         0.00000E+00
         0.00000E+00
         0.00000E+00
         0.00000E+00
         0.00000E+00
         0.00000E+00
         0.00000E+00
         0.00000E+00
         0.00000E+00
         0.00000E+00
         0.00000E+00
         0.00000E+00
         0.00000E+00
         0.00000E+00
         0.00000E+00
         0.00000E+00
         0.00000E+00
         0.00000E+00
         0.00000E+00
         0.00000E+00
         0.00000E+00
         0.00000E+00
         0.00000E+00
         0.00000E+00
         0.00000E+00
         0.00000E+00
         0.00000E+00
         0.00000E+00
         0.00000E+00
         0.00000E+00
         0.00000E+00
         0.00000E+00
         0.00000E+00
         0.00000E+00
         0.00000E+00
         0.00000E+00
         0.00000E+00
         0.00000E+00
         0.00000E+00
         0.00000E+00
         0.00000E+00
         0.00000E+00
         0.00000E+00
         0.00000E+00
         0.00000E+00
         0.00000E+00
         0.00000E+00
         0.00000E+00
         0.00000E+00
         0.00000E+00
         0.00000E+00
         0.00000E+00
         0.00000E+00
         0.00000E+00
         0.00000E+00
         0.00000E+00
         0.00000E+00
         0.00000E+00
         0.00000E+00
         0.00000E+00
         0.00000E+00
         0.00000E+00
         0.00000E+00
         0.00000E+00
         0.00000E+00
         0.00000E+00
         0.00000E+00
         0.00000E+00
         0.00000E+00
         0.00000E+00
         0.00000E+00
         0.00000E+00
         0.00000E+00
         0.00000E+00
         0.00000E+00
         0.00000E+00
         0.00000E+00
         0.00000E+00
         0.00000E+00
         0.00000E+00
         0.00000E+00
         0.00000E+00
         0.00000E+00
         0.00000E+00
         0.00000E+00
         0.00000E+00
         0.00000E+00
         0.00000E+00
         0.00000E+00
         0.00000E+00
         0.00000E+00
         0.00000E+00
         0.00000E+00
         0.00000E+00
         0.00000E+00
         0.00000E+00
         0.00000E+00
         0.00000E+00
         0.00000E+00
         0.00000E+00
         0.00000E+00
         0.00000E+00
         0.00000E+00
         0.00000E+00
         0.00000E+00
         0.00000E+00
         0.00000E+00
         0.00000E+00
         0.00000E+00
         0.00000E+00
         0.00000E+00
         0.00000E+00
         0.00000E+00
         0.00000E+00
         0.00000E+00
         0.00000E+00
         0.00000E+00
         0.00000E+00
         0.00000E+00
         0.00000E+00
         0.00000E+00
         0.00000E+00
         0.00000E+00
         0.00000E+00
         0.00000E+00
         0.00000E+00
         0.00000E+00
         0.00000E+00
         0.00000E+00
         0.00000E+00
         0.00000E+00
         0.00000E+00
         0.00000E+00
         0.00000E+00
         0.00000E+00
         0.00000E+00
         0.00000E+00
         0.00000E+00
         0.00000E+00
         0.00000E+00
         0.00000E+00
         0.00000E+00
         0.00000E+00
         0.00000E+00
         0.00000E+00
         0.00000E+00
         0.00000E+00
         0.00000E+00
         0.00000E+00
         0.00000E+00
         0.00000E+00
         0.00000E+00
         0.00000E+00
         0.00000E+00
         0.00000E+00
         0.00000E+00
         0.00000E+00
         0.00000E+00
         0.00000E+00
         0.00000E+00
         0.00000E+00
         0.00000E+00
         0.00000E+00
         0.00000E+00
         0.00000E+00
         0.00000E+00
         0.00000E+00
         0.00000E+00
         0.00000E+00
         0.00000E+00
         0.00000E+00
         0.00000E+00
         0.00000E+00
         0.00000E+00
         0.00000E+00
         0.00000E+00
         0.00000E+00
         0.00000E+00
         0.00000E+00
         0.00000E+00
         0.00000E+00
         0.00000E+00
         0.00000E+00
         0.00000E+00
         0.00000E+00
         0.00000E+00
         0.00000E+00
         0.00000E+00
         0.00000E+00
         0.00000E+00
         0.00000E+00
         0.00000E+00
         0.00000E+00
         0.00000E+00
         0.00000E+00
         0.00000E+00
         0.00000E+00
         0.00000E+00
         0.00000E+00
         0.00000E+00
         0.00000E+00
         0.00000E+00
         0.00000E+00
         0.00000E+00
         0.00000E+00
         0.00000E+00
         0.00000E+00
         0.00000E+00
         0.00000E+00
         0.00000E+00
         0.00000E+00
         0.00000E+00
         0.00000E+00
         0.00000E+00
         0.00000E+00
         0.00000E+00
         0.00000E+00
         0.00000E+00
         0.00000E+00
         0.00000E+00
         0.00000E+00
         0.00000E+00
         0.00000E+00
         0.00000E+00
         0.00000E+00
         0.00000E+00
         0.00000E+00
         0.00000E+00
         0.00000E+00
         0.00000E+00
         0.00000E+00
         0.00000E+00
         0.00000E+00
         0.00000E+00
         0.00000E+00
         0.00000E+00
         0.00000E+00
         0.00000E+00
         0.00000E+00
         0.00000E+00
         0.00000E+00
         0.00000E+00
         0.00000E+00
         0.00000E+00
         0.00000E+00
         0.00000E+00
         0.00000E+00
         0.00000E+00
         0.00000E+00
         0.00000E+00
         0.00000E+00
         0.00000E+00
         0.00000E+00
         0.00000E+00
         0.00000E+00
         0.00000E+00
         0.00000E+00
         0.00000E+00
         0.00000E+00
         0.00000E+00
         0.00000E+00
         0.00000E+00
         0.00000E+00
         0.00000E+00
         0.00000E+00
         0.00000E+00
         0.00000E+00
         0.00000E+00
         0.00000E+00
         0.00000E+00
         0.00000E+00
         0.00000E+00
         0.00000E+00
         0.00000E+00
         0.00000E+00
         0.00000E+00
         0.00000E+00
         0.00000E+00
         0.00000E+00
         0.00000E+00
         0.00000E+00
         0.00000E+00
         0.00000E+00
         0.00000E+00
         0.00000E+00
         0.00000E+00
         0.00000E+00
         0.00000E+00
         0.00000E+00
         0.00000E+00
         0.00000E+00
         0.00000E+00
         0.00000E+00
         0.00000E+00
         0.00000E+00
         0.00000E+00
         0.00000E+00
         0.00000E+00
         0.00000E+00
         0.00000E+00
         0.00000E+00
         0.00000E+00
         0.00000E+00
         0.00000E+00
         0.00000E+00
         0.00000E+00
         0.00000E+00
         0.00000E+00
         0.00000E+00
         0.00000E+00
         0.00000E+00
         0.00000E+00
         0.00000E+00
         0.00000E+00
         0.00000E+00
         0.00000E+00
         0.00000E+00
         0.00000E+00
         0.00000E+00
         0.00000E+00
         0.00000E+00
         0.00000E+00
         0.00000E+00
         0.00000E+00
         0.00000E+00
         0.00000E+00
         0.00000E+00
         0.00000E+00
         0.00000E+00
         0.00000E+00
         0.00000E+00
         0.00000E+00
         0.00000E+00
         0.00000E+00
         0.00000E+00
         0.00000E+00
         0.00000E+00
         0.00000E+00
         0.00000E+00
         0.00000E+00
         0.00000E+00
         0.00000E+00
         0.00000E+00
         0.00000E+00
         0.00000E+00
         0.00000E+00
         0.00000E+00
         0.00000E+00
         0.00000E+00
         0.00000E+00
         0.00000E+00
         0.00000E+00
         0.00000E+00
         0.00000E+00
         0.00000E+00
         0.00000E+00
         0.00000E+00
         0.00000E+00
         0.00000E+00
         0.00000E+00
         0.00000E+00
         0.00000E+00
         0.00000E+00
         0.00000E+00
         0.00000E+00
         0.00000E+00
         0.00000E+00
         0.00000E+00
         0.00000E+00
         0.00000E+00
         0.00000E+00
         0.00000E+00
         0.00000E+00
         0.00000E+00
         0.00000E+00
         0.00000E+00
         0.00000E+00
         0.00000E+00
         0.00000E+00
         0.00000E+00
         0.00000E+00
         0.00000E+00
         0.00000E+00
         0.00000E+00
         0.00000E+00
         0.00000E+00
         0.00000E+00
         0.00000E+00
         0.00000E+00
         0.00000E+00
         0.00000E+00
         0.00000E+00
         0.00000E+00
         0.00000E+00
         0.00000E+00
         0.00000E+00
         0.00000E+00
         0.00000E+00
         0.00000E+00
         0.00000E+00
         0.00000E+00
         0.00000E+00
         0.00000E+00
         0.00000E+00
         0.00000E+00
         0.00000E+00
         0.00000E+00
         0.00000E+00
         0.00000E+00
         0.00000E+00
         0.00000E+00
         0.00000E+00
         0.00000E+00
         0.00000E+00
         0.00000E+00
         0.00000E+00
         0.00000E+00
         0.00000E+00
         0.00000E+00
         0.00000E+00
         0.00000E+00
         0.00000E+00
         0.00000E+00
         0.00000E+00
         0.00000E+00
         0.00000E+00
         0.00000E+00
         0.00000E+00
         0.00000E+00
         0.00000E+00
         0.00000E+00
         0.00000E+00
         0.00000E+00
         0.00000E+00
         0.00000E+00
         0.00000E+00
         0.00000E+00
         0.00000E+00
         0.00000E+00
         0.00000E+00
         0.00000E+00
         0.00000E+00
         0.00000E+00
         0.00000E+00
         0.00000E+00
         0.00000E+00
         0.00000E+00
         0.00000E+00
         0.00000E+00
         0.00000E+00
         0.00000E+00
         0.00000E+00
         0.00000E+00
         0.00000E+00
         0.00000E+00
         0.00000E+00
         0.00000E+00
         0.00000E+00
         0.00000E+00
         0.00000E+00
         0.00000E+00
         0.00000E+00
         0.00000E+00
         0.00000E+00
         0.00000E+00
         0.00000E+00
         0.00000E+00
         0.00000E+00
         0.00000E+00
         0.00000E+00
         0.00000E+00
         0.00000E+00
         0.00000E+00
         0.00000E+00
         0.00000E+00
         0.00000E+00
         0.00000E+00
         0.00000E+00
         0.00000E+00
         0.00000E+00
         0.00000E+00
         0.00000E+00
         0.00000E+00
         0.00000E+00
         0.00000E+00
         0.00000E+00
         0.00000E+00
         0.00000E+00
         0.00000E+00
         0.00000E+00
         0.00000E+00
         0.00000E+00
         0.00000E+00
         0.00000E+00
         0.00000E+00
         0.00000E+00
         0.00000E+00
         0.00000E+00
         0.00000E+00
         0.00000E+00
         0.00000E+00
         0.00000E+00
         0.00000E+00
         0.00000E+00
         0.00000E+00
         0.00000E+00
         0.00000E+00
         0.00000E+00
         0.00000E+00
         0.00000E+00
         0.00000E+00
         0.00000E+00
         0.00000E+00
         0.00000E+00
         0.00000E+00
         0.00000E+00
         0.00000E+00
         0.00000E+00
         0.00000E+00
         0.00000E+00
         0.00000E+00
         0.00000E+00
         0.00000E+00
         0.00000E+00
         0.00000E+00
         0.00000E+00
         0.00000E+00
         0.00000E+00
         0.00000E+00
         0.00000E+00
         0.00000E+00
         0.00000E+00
         0.00000E+00
         0.00000E+00
         0.00000E+00
         0.00000E+00
         0.00000E+00
         0.00000E+00
         0.00000E+00
         0.00000E+00
         0.00000E+00
         0.00000E+00
         0.00000E+00
         0.00000E+00
         0.00000E+00
         0.00000E+00
         0.00000E+00
         0.00000E+00
         0.00000E+00
         0.00000E+00
         0.00000E+00
         0.00000E+00
         0.00000E+00
         0.00000E+00
         0.00000E+00
         0.00000E+00
         0.00000E+00
         0.00000E+00
         0.00000E+00
         0.00000E+00
         0.00000E+00
         0.00000E+00
         0.00000E+00
         0.00000E+00
         0.00000E+00
         0.00000E+00
         0.00000E+00
         0.00000E+00
         0.00000E+00
         0.00000E+00
         0.00000E+00
         0.00000E+00
         0.00000E+00
         0.00000E+00
         0.00000E+00
         0.00000E+00
         0.00000E+00
         0.00000E+00
         0.00000E+00
         0.00000E+00
         0.00000E+00
         0.00000E+00
         0.00000E+00
         0.00000E+00
         0.00000E+00
         0.00000E+00
         0.00000E+00
         0.00000E+00
         0.00000E+00
         0.00000E+00
         0.00000E+00
         0.00000E+00
         0.00000E+00
         0.00000E+00
         0.00000E+00
         0.00000E+00
         0.00000E+00
         0.00000E+00
         0.00000E+00
         0.00000E+00
         0.00000E+00
         0.00000E+00
         0.00000E+00
         0.00000E+00
         0.00000E+00
         0.00000E+00
         0.00000E+00
         0.00000E+00
         0.00000E+00
         0.00000E+00
         0.00000E+00
         0.00000E+00
         0.00000E+00
         0.00000E+00
         0.00000E+00
         0.00000E+00
         0.00000E+00
         0.00000E+00
         0.00000E+00
         0.00000E+00
         0.00000E+00
         0.00000E+00
         0.00000E+00
         0.00000E+00
         0.00000E+00
         0.00000E+00
         0.00000E+00
         0.00000E+00
         0.00000E+00
         0.00000E+00
         0.00000E+00
         0.00000E+00
         0.00000E+00
         0.00000E+00
         0.00000E+00
         0.00000E+00
         0.00000E+00
         0.00000E+00
         0.00000E+00
         0.00000E+00
         0.00000E+00
         0.00000E+00
         0.00000E+00
         0.00000E+00
         0.00000E+00
         0.00000E+00
         0.00000E+00
         0.00000E+00
         0.00000E+00
         0.00000E+00
         0.00000E+00
         0.00000E+00
         0.00000E+00
         0.00000E+00
         0.00000E+00
  
SCALARS                         fint_x  double 1
LOOKUP_TABLE default
         0.00000E+00
         0.00000E+00
         0.00000E+00
         0.00000E+00
         0.00000E+00
         0.00000E+00
         0.00000E+00
         0.00000E+00
         0.00000E+00
         0.00000E+00
         0.00000E+00
         0.00000E+00
         0.00000E+00
         0.00000E+00
         0.00000E+00
         0.00000E+00
         0.00000E+00
         0.00000E+00
         0.00000E+00
         0.00000E+00
         0.00000E+00
         0.00000E+00
         0.00000E+00
         0.00000E+00
         0.00000E+00
         0.00000E+00
         0.00000E+00
         0.00000E+00
         0.00000E+00
         0.00000E+00
         0.00000E+00
         0.00000E+00
         0.00000E+00
         0.00000E+00
         0.00000E+00
         0.00000E+00
         0.00000E+00
         0.00000E+00
         0.00000E+00
         0.00000E+00
         0.00000E+00
         0.00000E+00
         0.00000E+00
         0.00000E+00
         0.00000E+00
         0.00000E+00
         0.00000E+00
         0.00000E+00
         0.00000E+00
         0.00000E+00
         0.00000E+00
         0.00000E+00
         0.00000E+00
         0.00000E+00
         0.00000E+00
         0.00000E+00
         0.00000E+00
         0.00000E+00
         0.00000E+00
         0.00000E+00
         0.00000E+00
         0.00000E+00
         0.00000E+00
         0.00000E+00
         0.00000E+00
         0.00000E+00
         0.00000E+00
         0.00000E+00
         0.00000E+00
         0.00000E+00
         0.00000E+00
         0.00000E+00
         0.00000E+00
         0.00000E+00
         0.00000E+00
         0.00000E+00
         0.00000E+00
         0.00000E+00
         0.00000E+00
         0.00000E+00
         0.00000E+00
         0.00000E+00
         0.00000E+00
         0.00000E+00
         0.00000E+00
         0.00000E+00
         0.00000E+00
         0.00000E+00
         0.00000E+00
         0.00000E+00
         0.00000E+00
         0.00000E+00
         0.00000E+00
         0.00000E+00
         0.00000E+00
         0.00000E+00
         0.00000E+00
         0.00000E+00
         0.00000E+00
         0.00000E+00
         0.00000E+00
         0.00000E+00
         0.00000E+00
         0.00000E+00
         0.00000E+00
         0.00000E+00
         0.00000E+00
         0.00000E+00
         0.00000E+00
         0.00000E+00
         0.00000E+00
         0.00000E+00
         0.00000E+00
         0.00000E+00
         0.00000E+00
         0.00000E+00
         0.00000E+00
         0.00000E+00
         0.00000E+00
         0.00000E+00
         0.00000E+00
         0.00000E+00
         0.00000E+00
         0.00000E+00
         0.00000E+00
         0.00000E+00
         0.00000E+00
         0.00000E+00
         0.00000E+00
         0.00000E+00
         0.00000E+00
         0.00000E+00
         0.00000E+00
         0.00000E+00
         0.00000E+00
         0.00000E+00
         0.00000E+00
         0.00000E+00
         0.00000E+00
         0.00000E+00
         0.00000E+00
         0.00000E+00
         0.00000E+00
         0.00000E+00
         0.00000E+00
         0.00000E+00
         0.00000E+00
         0.00000E+00
         0.00000E+00
         0.00000E+00
         0.00000E+00
         0.00000E+00
         0.00000E+00
         0.00000E+00
         0.00000E+00
         0.00000E+00
         0.00000E+00
         0.00000E+00
         0.00000E+00
         0.00000E+00
         0.00000E+00
         0.00000E+00
         0.00000E+00
         0.00000E+00
         0.00000E+00
         0.00000E+00
         0.00000E+00
         0.00000E+00
         0.00000E+00
         0.00000E+00
         0.00000E+00
         0.00000E+00
         0.00000E+00
         0.00000E+00
         0.00000E+00
         0.00000E+00
         0.00000E+00
         0.00000E+00
         0.00000E+00
         0.00000E+00
         0.00000E+00
         0.00000E+00
         0.00000E+00
         0.00000E+00
         0.00000E+00
         0.00000E+00
         0.00000E+00
         0.00000E+00
         0.00000E+00
         0.00000E+00
         0.00000E+00
         0.00000E+00
         0.00000E+00
         0.00000E+00
         0.00000E+00
         0.00000E+00
         0.00000E+00
         0.00000E+00
         0.00000E+00
         0.00000E+00
         0.00000E+00
         0.00000E+00
         0.00000E+00
         0.00000E+00
         0.00000E+00
         0.00000E+00
         0.00000E+00
         0.00000E+00
         0.00000E+00
         0.00000E+00
         0.00000E+00
         0.00000E+00
         0.00000E+00
         0.00000E+00
         0.00000E+00
         0.00000E+00
         0.00000E+00
         0.00000E+00
         0.00000E+00
         0.00000E+00
         0.00000E+00
         0.00000E+00
         0.00000E+00
         0.00000E+00
         0.00000E+00
         0.00000E+00
         0.00000E+00
         0.00000E+00
         0.00000E+00
         0.00000E+00
         0.00000E+00
         0.00000E+00
         0.00000E+00
         0.00000E+00
         0.00000E+00
         0.00000E+00
         0.00000E+00
         0.00000E+00
         0.00000E+00
         0.00000E+00
         0.00000E+00
         0.00000E+00
         0.00000E+00
         0.00000E+00
         0.00000E+00
         0.00000E+00
         0.00000E+00
         0.00000E+00
         0.00000E+00
         0.00000E+00
         0.00000E+00
         0.00000E+00
         0.00000E+00
         0.00000E+00
         0.00000E+00
         0.00000E+00
         0.00000E+00
         0.00000E+00
         0.00000E+00
         0.00000E+00
         0.00000E+00
         0.00000E+00
         0.00000E+00
         0.00000E+00
         0.00000E+00
         0.00000E+00
         0.00000E+00
         0.00000E+00
         0.00000E+00
         0.00000E+00
         0.00000E+00
         0.00000E+00
         0.00000E+00
         0.00000E+00
         0.00000E+00
         0.00000E+00
         0.00000E+00
         0.00000E+00
         0.00000E+00
         0.00000E+00
         0.00000E+00
         0.00000E+00
         0.00000E+00
         0.00000E+00
         0.00000E+00
         0.00000E+00
         0.00000E+00
         0.00000E+00
         0.00000E+00
         0.00000E+00
         0.00000E+00
         0.00000E+00
         0.00000E+00
         0.00000E+00
         0.00000E+00
         0.00000E+00
         0.00000E+00
         0.00000E+00
         0.00000E+00
         0.00000E+00
         0.00000E+00
         0.00000E+00
         0.00000E+00
         0.00000E+00
         0.00000E+00
         0.00000E+00
         0.00000E+00
         0.00000E+00
         0.00000E+00
         0.00000E+00
         0.00000E+00
         0.00000E+00
         0.00000E+00
         0.00000E+00
         0.00000E+00
         0.00000E+00
         0.00000E+00
         0.00000E+00
         0.00000E+00
         0.00000E+00
         0.00000E+00
         0.00000E+00
         0.00000E+00
         0.00000E+00
         0.00000E+00
         0.00000E+00
         0.00000E+00
         0.00000E+00
         0.00000E+00
         0.00000E+00
         0.00000E+00
         0.00000E+00
         0.00000E+00
         0.00000E+00
         0.00000E+00
         0.00000E+00
         0.00000E+00
         0.00000E+00
         0.00000E+00
         0.00000E+00
         0.00000E+00
         0.00000E+00
         0.00000E+00
         0.00000E+00
         0.00000E+00
         0.00000E+00
         0.00000E+00
         0.00000E+00
         0.00000E+00
         0.00000E+00
         0.00000E+00
         0.00000E+00
         0.00000E+00
         0.00000E+00
         0.00000E+00
         0.00000E+00
         0.00000E+00
         0.00000E+00
         0.00000E+00
         0.00000E+00
         0.00000E+00
         0.00000E+00
         0.00000E+00
         0.00000E+00
         0.00000E+00
         0.00000E+00
         0.00000E+00
         0.00000E+00
         0.00000E+00
         0.00000E+00
         0.00000E+00
         0.00000E+00
         0.00000E+00
         0.00000E+00
         0.00000E+00
         0.00000E+00
         0.00000E+00
         0.00000E+00
         0.00000E+00
         0.00000E+00
         0.00000E+00
         0.00000E+00
         0.00000E+00
         0.00000E+00
         0.00000E+00
         0.00000E+00
         0.00000E+00
         0.00000E+00
         0.00000E+00
         0.00000E+00
         0.00000E+00
         0.00000E+00
         0.00000E+00
         0.00000E+00
         0.00000E+00
         0.00000E+00
         0.00000E+00
         0.00000E+00
         0.00000E+00
         0.00000E+00
         0.00000E+00
         0.00000E+00
         0.00000E+00
         0.00000E+00
         0.00000E+00
         0.00000E+00
         0.00000E+00
         0.00000E+00
         0.00000E+00
         0.00000E+00
         0.00000E+00
         0.00000E+00
         0.00000E+00
         0.00000E+00
         0.00000E+00
         0.00000E+00
         0.00000E+00
         0.00000E+00
         0.00000E+00
         0.00000E+00
         0.00000E+00
         0.00000E+00
         0.00000E+00
         0.00000E+00
         0.00000E+00
         0.00000E+00
         0.00000E+00
         0.00000E+00
         0.00000E+00
         0.00000E+00
         0.00000E+00
         0.00000E+00
         0.00000E+00
         0.00000E+00
         0.00000E+00
         0.00000E+00
         0.00000E+00
         0.00000E+00
         0.00000E+00
         0.00000E+00
         0.00000E+00
         0.00000E+00
         0.00000E+00
         0.00000E+00
         0.00000E+00
         0.00000E+00
         0.00000E+00
         0.00000E+00
         0.00000E+00
         0.00000E+00
         0.00000E+00
         0.00000E+00
         0.00000E+00
         0.00000E+00
         0.00000E+00
         0.00000E+00
         0.00000E+00
         0.00000E+00
         0.00000E+00
         0.00000E+00
         0.00000E+00
         0.00000E+00
         0.00000E+00
         0.00000E+00
         0.00000E+00
         0.00000E+00
         0.00000E+00
         0.00000E+00
         0.00000E+00
         0.00000E+00
         0.00000E+00
         0.00000E+00
         0.00000E+00
         0.00000E+00
         0.00000E+00
         0.00000E+00
         0.00000E+00
         0.00000E+00
         0.00000E+00
         0.00000E+00
         0.00000E+00
         0.00000E+00
         0.00000E+00
         0.00000E+00
         0.00000E+00
         0.00000E+00
         0.00000E+00
         0.00000E+00
         0.00000E+00
         0.00000E+00
         0.00000E+00
         0.00000E+00
         0.00000E+00
         0.00000E+00
         0.00000E+00
         0.00000E+00
         0.00000E+00
         0.00000E+00
         0.00000E+00
         0.00000E+00
         0.00000E+00
         0.00000E+00
         0.00000E+00
         0.00000E+00
         0.00000E+00
         0.00000E+00
         0.00000E+00
         0.00000E+00
         0.00000E+00
         0.00000E+00
         0.00000E+00
         0.00000E+00
         0.00000E+00
         0.00000E+00
         0.00000E+00
         0.00000E+00
         0.00000E+00
         0.00000E+00
         0.00000E+00
         0.00000E+00
         0.00000E+00
         0.00000E+00
         0.00000E+00
         0.00000E+00
         0.00000E+00
         0.00000E+00
         0.00000E+00
         0.00000E+00
         0.00000E+00
         0.00000E+00
         0.00000E+00
         0.00000E+00
         0.00000E+00
         0.00000E+00
         0.00000E+00
         0.00000E+00
         0.00000E+00
         0.00000E+00
         0.00000E+00
         0.00000E+00
         0.00000E+00
         0.00000E+00
         0.00000E+00
         0.00000E+00
         0.00000E+00
         0.00000E+00
         0.00000E+00
         0.00000E+00
         0.00000E+00
         0.00000E+00
         0.00000E+00
         0.00000E+00
         0.00000E+00
         0.00000E+00
         0.00000E+00
         0.00000E+00
         0.00000E+00
         0.00000E+00
         0.00000E+00
         0.00000E+00
         0.00000E+00
         0.00000E+00
         0.00000E+00
         0.00000E+00
         0.00000E+00
         0.00000E+00
         0.00000E+00
         0.00000E+00
         0.00000E+00
         0.00000E+00
         0.00000E+00
         0.00000E+00
         0.00000E+00
         0.00000E+00
         0.00000E+00
         0.00000E+00
         0.00000E+00
         0.00000E+00
         0.00000E+00
         0.00000E+00
         0.00000E+00
         0.00000E+00
         0.00000E+00
         0.00000E+00
         0.00000E+00
         0.00000E+00
         0.00000E+00
         0.00000E+00
         0.00000E+00
         0.00000E+00
         0.00000E+00
         0.00000E+00
         0.00000E+00
         0.00000E+00
         0.00000E+00
         0.00000E+00
         0.00000E+00
         0.00000E+00
         0.00000E+00
         0.00000E+00
         0.00000E+00
         0.00000E+00
         0.00000E+00
         0.00000E+00
         0.00000E+00
         0.00000E+00
         0.00000E+00
         0.00000E+00
         0.00000E+00
         0.00000E+00
         0.00000E+00
         0.00000E+00
         0.00000E+00
         0.00000E+00
         0.00000E+00
         0.00000E+00
         0.00000E+00
         0.00000E+00
         0.00000E+00
         0.00000E+00
         0.00000E+00
         0.00000E+00
         0.00000E+00
         0.00000E+00
         0.00000E+00
         0.00000E+00
         0.00000E+00
         0.00000E+00
         0.00000E+00
         0.00000E+00
         0.00000E+00
         0.00000E+00
         0.00000E+00
         0.00000E+00
         0.00000E+00
         0.00000E+00
         0.00000E+00
         0.00000E+00
         0.00000E+00
         0.00000E+00
         0.00000E+00
         0.00000E+00
         0.00000E+00
         0.00000E+00
         0.00000E+00
         0.00000E+00
         0.00000E+00
         0.00000E+00
         0.00000E+00
         0.00000E+00
         0.00000E+00
         0.00000E+00
         0.00000E+00
         0.00000E+00
         0.00000E+00
         0.00000E+00
         0.00000E+00
         0.00000E+00
         0.00000E+00
         0.00000E+00
         0.00000E+00
         0.00000E+00
         0.00000E+00
         0.00000E+00
         0.00000E+00
         0.00000E+00
         0.00000E+00
         0.00000E+00
         0.00000E+00
         0.00000E+00
         0.00000E+00
         0.00000E+00
         0.00000E+00
         0.00000E+00
         0.00000E+00
         0.00000E+00
         0.00000E+00
         0.00000E+00
         0.00000E+00
         0.00000E+00
         0.00000E+00
         0.00000E+00
         0.00000E+00
         0.00000E+00
         0.00000E+00
         0.00000E+00
         0.00000E+00
         0.00000E+00
         0.00000E+00
         0.00000E+00
         0.00000E+00
         0.00000E+00
         0.00000E+00
         0.00000E+00
         0.00000E+00
         0.00000E+00
         0.00000E+00
         0.00000E+00
         0.00000E+00
         0.00000E+00
         0.00000E+00
         0.00000E+00
         0.00000E+00
         0.00000E+00
         0.00000E+00
         0.00000E+00
         0.00000E+00
         0.00000E+00
         0.00000E+00
         0.00000E+00
         0.00000E+00
         0.00000E+00
         0.00000E+00
         0.00000E+00
         0.00000E+00
         0.00000E+00
         0.00000E+00
         0.00000E+00
         0.00000E+00
         0.00000E+00
         0.00000E+00
         0.00000E+00
         0.00000E+00
         0.00000E+00
         0.00000E+00
         0.00000E+00
         0.00000E+00
         0.00000E+00
         0.00000E+00
         0.00000E+00
         0.00000E+00
         0.00000E+00
         0.00000E+00
         0.00000E+00
         0.00000E+00
         0.00000E+00
         0.00000E+00
         0.00000E+00
         0.00000E+00
         0.00000E+00
         0.00000E+00
         0.00000E+00
         0.00000E+00
         0.00000E+00
         0.00000E+00
         0.00000E+00
         0.00000E+00
         0.00000E+00
         0.00000E+00
         0.00000E+00
         0.00000E+00
         0.00000E+00
         0.00000E+00
         0.00000E+00
         0.00000E+00
         0.00000E+00
         0.00000E+00
         0.00000E+00
         0.00000E+00
         0.00000E+00
         0.00000E+00
         0.00000E+00
         0.00000E+00
         0.00000E+00
         0.00000E+00
         0.00000E+00
         0.00000E+00
         0.00000E+00
         0.00000E+00
         0.00000E+00
         0.00000E+00
         0.00000E+00
         0.00000E+00
         0.00000E+00
         0.00000E+00
         0.00000E+00
         0.00000E+00
         0.00000E+00
         0.00000E+00
         0.00000E+00
         0.00000E+00
         0.00000E+00
         0.00000E+00
         0.00000E+00
         0.00000E+00
         0.00000E+00
         0.00000E+00
         0.00000E+00
         0.00000E+00
         0.00000E+00
         0.00000E+00
         0.00000E+00
         0.00000E+00
         0.00000E+00
         0.00000E+00
         0.00000E+00
         0.00000E+00
         0.00000E+00
         0.00000E+00
         0.00000E+00
         0.00000E+00
         0.00000E+00
         0.00000E+00
         0.00000E+00
         0.00000E+00
         0.00000E+00
         0.00000E+00
         0.00000E+00
         0.00000E+00
         0.00000E+00
         0.00000E+00
         0.00000E+00
         0.00000E+00
         0.00000E+00
         0.00000E+00
         0.00000E+00
         0.00000E+00
         0.00000E+00
         0.00000E+00
         0.00000E+00
         0.00000E+00
         0.00000E+00
         0.00000E+00
         0.00000E+00
         0.00000E+00
         0.00000E+00
         0.00000E+00
         0.00000E+00
         0.00000E+00
         0.00000E+00
         0.00000E+00
         0.00000E+00
         0.00000E+00
         0.00000E+00
         0.00000E+00
         0.00000E+00
         0.00000E+00
         0.00000E+00
         0.00000E+00
         0.00000E+00
         0.00000E+00
         0.00000E+00
         0.00000E+00
         0.00000E+00
         0.00000E+00
         0.00000E+00
         0.00000E+00
         0.00000E+00
         0.00000E+00
         0.00000E+00
         0.00000E+00
         0.00000E+00
         0.00000E+00
         0.00000E+00
         0.00000E+00
         0.00000E+00
         0.00000E+00
         0.00000E+00
         0.00000E+00
         0.00000E+00
         0.00000E+00
         0.00000E+00
         0.00000E+00
         0.00000E+00
         0.00000E+00
         0.00000E+00
         0.00000E+00
         0.00000E+00
         0.00000E+00
         0.00000E+00
         0.00000E+00
         0.00000E+00
         0.00000E+00
         0.00000E+00
         0.00000E+00
         0.00000E+00
         0.00000E+00
         0.00000E+00
         0.00000E+00
         0.00000E+00
         0.00000E+00
         0.00000E+00
         0.00000E+00
         0.00000E+00
         0.00000E+00
         0.00000E+00
         0.00000E+00
         0.00000E+00
         0.00000E+00
         0.00000E+00
         0.00000E+00
         0.00000E+00
         0.00000E+00
         0.00000E+00
         0.00000E+00
         0.00000E+00
         0.00000E+00
         0.00000E+00
         0.00000E+00
         0.00000E+00
         0.00000E+00
         0.00000E+00
         0.00000E+00
         0.00000E+00
         0.00000E+00
         0.00000E+00
         0.00000E+00
         0.00000E+00
         0.00000E+00
         0.00000E+00
         0.00000E+00
         0.00000E+00
         0.00000E+00
         0.00000E+00
         0.00000E+00
         0.00000E+00
         0.00000E+00
         0.00000E+00
         0.00000E+00
         0.00000E+00
         0.00000E+00
         0.00000E+00
         0.00000E+00
         0.00000E+00
         0.00000E+00
         0.00000E+00
         0.00000E+00
         0.00000E+00
         0.00000E+00
         0.00000E+00
         0.00000E+00
         0.00000E+00
         0.00000E+00
         0.00000E+00
         0.00000E+00
         0.00000E+00
         0.00000E+00
         0.00000E+00
         0.00000E+00
         0.00000E+00
         0.00000E+00
         0.00000E+00
         0.00000E+00
         0.00000E+00
         0.00000E+00
         0.00000E+00
         0.00000E+00
         0.00000E+00
         0.00000E+00
         0.00000E+00
         0.00000E+00
         0.00000E+00
         0.00000E+00
         0.00000E+00
         0.00000E+00
         0.00000E+00
         0.00000E+00
         0.00000E+00
         0.00000E+00
         0.00000E+00
         0.00000E+00
         0.00000E+00
         0.00000E+00
         0.00000E+00
         0.00000E+00
         0.00000E+00
         0.00000E+00
         0.00000E+00
         0.00000E+00
         0.00000E+00
         0.00000E+00
         0.00000E+00
         0.00000E+00
         0.00000E+00
         0.00000E+00
         0.00000E+00
         0.00000E+00
         0.00000E+00
         0.00000E+00
         0.00000E+00
         0.00000E+00
         0.00000E+00
         0.00000E+00
         0.00000E+00
         0.00000E+00
         0.00000E+00
         0.00000E+00
         0.00000E+00
         0.00000E+00
         0.00000E+00
         0.00000E+00
         0.00000E+00
         0.00000E+00
         0.00000E+00
         0.00000E+00
         0.00000E+00
         0.00000E+00
         0.00000E+00
         0.00000E+00
         0.00000E+00
         0.00000E+00
         0.00000E+00
         0.00000E+00
         0.00000E+00
         0.00000E+00
         0.00000E+00
         0.00000E+00
         0.00000E+00
         0.00000E+00
         0.00000E+00
         0.00000E+00
         0.00000E+00
         0.00000E+00
         0.00000E+00
         0.00000E+00
         0.00000E+00
         0.00000E+00
         0.00000E+00
         0.00000E+00
         0.00000E+00
         0.00000E+00
         0.00000E+00
         0.00000E+00
         0.00000E+00
         0.00000E+00
         0.00000E+00
         0.00000E+00
         0.00000E+00
         0.00000E+00
         0.00000E+00
         0.00000E+00
         0.00000E+00
         0.00000E+00
         0.00000E+00
         0.00000E+00
         0.00000E+00
         0.00000E+00
         0.00000E+00
         0.00000E+00
         0.00000E+00
         0.00000E+00
         0.00000E+00
         0.00000E+00
         0.00000E+00
         0.00000E+00
         0.00000E+00
         0.00000E+00
         0.00000E+00
         0.00000E+00
         0.00000E+00
         0.00000E+00
         0.00000E+00
         0.00000E+00
         0.00000E+00
         0.00000E+00
         0.00000E+00
         0.00000E+00
         0.00000E+00
         0.00000E+00
         0.00000E+00
         0.00000E+00
         0.00000E+00
         0.00000E+00
         0.00000E+00
         0.00000E+00
         0.00000E+00
         0.00000E+00
         0.00000E+00
         0.00000E+00
         0.00000E+00
         0.00000E+00
         0.00000E+00
         0.00000E+00
         0.00000E+00
         0.00000E+00
         0.00000E+00
         0.00000E+00
         0.00000E+00
         0.00000E+00
         0.00000E+00
         0.00000E+00
         0.00000E+00
         0.00000E+00
         0.00000E+00
         0.00000E+00
         0.00000E+00
         0.00000E+00
         0.00000E+00
         0.00000E+00
         0.00000E+00
         0.00000E+00
         0.00000E+00
         0.00000E+00
         0.00000E+00
         0.00000E+00
         0.00000E+00
         0.00000E+00
         0.00000E+00
         0.00000E+00
         0.00000E+00
         0.00000E+00
         0.00000E+00
         0.00000E+00
         0.00000E+00
         0.00000E+00
         0.00000E+00
         0.00000E+00
         0.00000E+00
         0.00000E+00
         0.00000E+00
         0.00000E+00
         0.00000E+00
         0.00000E+00
         0.00000E+00
         0.00000E+00
         0.00000E+00
         0.00000E+00
         0.00000E+00
         0.00000E+00
         0.00000E+00
         0.00000E+00
         0.00000E+00
         0.00000E+00
         0.00000E+00
         0.00000E+00
         0.00000E+00
         0.00000E+00
         0.00000E+00
         0.00000E+00
         0.00000E+00
         0.00000E+00
         0.00000E+00
         0.00000E+00
         0.00000E+00
         0.00000E+00
         0.00000E+00
         0.00000E+00
         0.00000E+00
         0.00000E+00
         0.00000E+00
         0.00000E+00
         0.00000E+00
         0.00000E+00
         0.00000E+00
         0.00000E+00
         0.00000E+00
         0.00000E+00
         0.00000E+00
         0.00000E+00
         0.00000E+00
         0.00000E+00
         0.00000E+00
         0.00000E+00
         0.00000E+00
         0.00000E+00
         0.00000E+00
         0.00000E+00
         0.00000E+00
         0.00000E+00
         0.00000E+00
         0.00000E+00
         0.00000E+00
         0.00000E+00
         0.00000E+00
         0.00000E+00
         0.00000E+00
         0.00000E+00
         0.00000E+00
         0.00000E+00
         0.00000E+00
         0.00000E+00
         0.00000E+00
         0.00000E+00
         0.00000E+00
         0.00000E+00
         0.00000E+00
         0.00000E+00
         0.00000E+00
         0.00000E+00
         0.00000E+00
         0.00000E+00
         0.00000E+00
         0.00000E+00
         0.00000E+00
         0.00000E+00
         0.00000E+00
         0.00000E+00
         0.00000E+00
         0.00000E+00
         0.00000E+00
         0.00000E+00
         0.00000E+00
         0.00000E+00
         0.00000E+00
         0.00000E+00
         0.00000E+00
         0.00000E+00
         0.00000E+00
         0.00000E+00
         0.00000E+00
         0.00000E+00
         0.00000E+00
         0.00000E+00
         0.00000E+00
         0.00000E+00
         0.00000E+00
         0.00000E+00
         0.00000E+00
         0.00000E+00
         0.00000E+00
         0.00000E+00
         0.00000E+00
         0.00000E+00
         0.00000E+00
         0.00000E+00
         0.00000E+00
         0.00000E+00
         0.00000E+00
         0.00000E+00
         0.00000E+00
         0.00000E+00
         0.00000E+00
         0.00000E+00
         0.00000E+00
         0.00000E+00
         0.00000E+00
         0.00000E+00
         0.00000E+00
         0.00000E+00
         0.00000E+00
         0.00000E+00
         0.00000E+00
         0.00000E+00
         0.00000E+00
         0.00000E+00
         0.00000E+00
         0.00000E+00
         0.00000E+00
         0.00000E+00
         0.00000E+00
         0.00000E+00
         0.00000E+00
         0.00000E+00
         0.00000E+00
         0.00000E+00
         0.00000E+00
         0.00000E+00
         0.00000E+00
         0.00000E+00
         0.00000E+00
         0.00000E+00
         0.00000E+00
         0.00000E+00
         0.00000E+00
         0.00000E+00
         0.00000E+00
         0.00000E+00
         0.00000E+00
         0.00000E+00
         0.00000E+00
         0.00000E+00
         0.00000E+00
         0.00000E+00
         0.00000E+00
         0.00000E+00
         0.00000E+00
         0.00000E+00
         0.00000E+00
         0.00000E+00
         0.00000E+00
         0.00000E+00
         0.00000E+00
         0.00000E+00
         0.00000E+00
         0.00000E+00
         0.00000E+00
         0.00000E+00
         0.00000E+00
         0.00000E+00
         0.00000E+00
         0.00000E+00
         0.00000E+00
         0.00000E+00
         0.00000E+00
         0.00000E+00
         0.00000E+00
         0.00000E+00
         0.00000E+00
         0.00000E+00
         0.00000E+00
         0.00000E+00
         0.00000E+00
         0.00000E+00
         0.00000E+00
         0.00000E+00
         0.00000E+00
         0.00000E+00
         0.00000E+00
         0.00000E+00
         0.00000E+00
         0.00000E+00
         0.00000E+00
         0.00000E+00
         0.00000E+00
         0.00000E+00
         0.00000E+00
         0.00000E+00
         0.00000E+00
         0.00000E+00
         0.00000E+00
         0.00000E+00
         0.00000E+00
         0.00000E+00
         0.00000E+00
         0.00000E+00
         0.00000E+00
         0.00000E+00
         0.00000E+00
         0.00000E+00
         0.00000E+00
         0.00000E+00
         0.00000E+00
         0.00000E+00
         0.00000E+00
         0.00000E+00
         0.00000E+00
         0.00000E+00
         0.00000E+00
         0.00000E+00
         0.00000E+00
         0.00000E+00
         0.00000E+00
         0.00000E+00
         0.00000E+00
         0.00000E+00
         0.00000E+00
         0.00000E+00
         0.00000E+00
         0.00000E+00
         0.00000E+00
         0.00000E+00
         0.00000E+00
         0.00000E+00
         0.00000E+00
         0.00000E+00
         0.00000E+00
         0.00000E+00
         0.00000E+00
         0.00000E+00
         0.00000E+00
         0.00000E+00
         0.00000E+00
         0.00000E+00
         0.00000E+00
         0.00000E+00
         0.00000E+00
         0.00000E+00
         0.00000E+00
         0.00000E+00
         0.00000E+00
         0.00000E+00
         0.00000E+00
         0.00000E+00
         0.00000E+00
         0.00000E+00
         0.00000E+00
         0.00000E+00
         0.00000E+00
         0.00000E+00
         0.00000E+00
         0.00000E+00
         0.00000E+00
         0.00000E+00
         0.00000E+00
         0.00000E+00
         0.00000E+00
         0.00000E+00
         0.00000E+00
         0.00000E+00
         0.00000E+00
         0.00000E+00
         0.00000E+00
         0.00000E+00
         0.00000E+00
         0.00000E+00
         0.00000E+00
         0.00000E+00
         0.00000E+00
         0.00000E+00
         0.00000E+00
         0.00000E+00
         0.00000E+00
         0.00000E+00
         0.00000E+00
         0.00000E+00
         0.00000E+00
         0.00000E+00
         0.00000E+00
         0.00000E+00
         0.00000E+00
         0.00000E+00
         0.00000E+00
         0.00000E+00
         0.00000E+00
         0.00000E+00
         0.00000E+00
         0.00000E+00
         0.00000E+00
         0.00000E+00
         0.00000E+00
         0.00000E+00
         0.00000E+00
         0.00000E+00
         0.00000E+00
         0.00000E+00
         0.00000E+00
         0.00000E+00
         0.00000E+00
         0.00000E+00
         0.00000E+00
         0.00000E+00
         0.00000E+00
         0.00000E+00
         0.00000E+00
         0.00000E+00
         0.00000E+00
         0.00000E+00
         0.00000E+00
         0.00000E+00
         0.00000E+00
         0.00000E+00
         0.00000E+00
         0.00000E+00
         0.00000E+00
         0.00000E+00
         0.00000E+00
         0.00000E+00
         0.00000E+00
         0.00000E+00
         0.00000E+00
         0.00000E+00
         0.00000E+00
         0.00000E+00
         0.00000E+00
         0.00000E+00
         0.00000E+00
         0.00000E+00
         0.00000E+00
         0.00000E+00
         0.00000E+00
         0.00000E+00
         0.00000E+00
         0.00000E+00
         0.00000E+00
         0.00000E+00
         0.00000E+00
         0.00000E+00
         0.00000E+00
         0.00000E+00
         0.00000E+00
         0.00000E+00
         0.00000E+00
         0.00000E+00
         0.00000E+00
         0.00000E+00
         0.00000E+00
         0.00000E+00
         0.00000E+00
         0.00000E+00
         0.00000E+00
         0.00000E+00
         0.00000E+00
         0.00000E+00
         0.00000E+00
         0.00000E+00
         0.00000E+00
         0.00000E+00
         0.00000E+00
         0.00000E+00
         0.00000E+00
         0.00000E+00
         0.00000E+00
         0.00000E+00
         0.00000E+00
         0.00000E+00
         0.00000E+00
         0.00000E+00
         0.00000E+00
         0.00000E+00
         0.00000E+00
         0.00000E+00
         0.00000E+00
         0.00000E+00
         0.00000E+00
         0.00000E+00
         0.00000E+00
         0.00000E+00
         0.00000E+00
         0.00000E+00
         0.00000E+00
         0.00000E+00
         0.00000E+00
         0.00000E+00
         0.00000E+00
         0.00000E+00
         0.00000E+00
         0.00000E+00
         0.00000E+00
         0.00000E+00
         0.00000E+00
         0.00000E+00
         0.00000E+00
         0.00000E+00
         0.00000E+00
         0.00000E+00
         0.00000E+00
         0.00000E+00
         0.00000E+00
         0.00000E+00
         0.00000E+00
         0.00000E+00
         0.00000E+00
         0.00000E+00
         0.00000E+00
         0.00000E+00
         0.00000E+00
         0.00000E+00
         0.00000E+00
         0.00000E+00
         0.00000E+00
         0.00000E+00
         0.00000E+00
         0.00000E+00
         0.00000E+00
         0.00000E+00
         0.00000E+00
         0.00000E+00
         0.00000E+00
         0.00000E+00
         0.00000E+00
         0.00000E+00
         0.00000E+00
         0.00000E+00
         0.00000E+00
         0.00000E+00
         0.00000E+00
         0.00000E+00
         0.00000E+00
         0.00000E+00
         0.00000E+00
         0.00000E+00
         0.00000E+00
         0.00000E+00
         0.00000E+00
         0.00000E+00
         0.00000E+00
         0.00000E+00
         0.00000E+00
         0.00000E+00
         0.00000E+00
         0.00000E+00
         0.00000E+00
         0.00000E+00
         0.00000E+00
         0.00000E+00
         0.00000E+00
         0.00000E+00
         0.00000E+00
         0.00000E+00
         0.00000E+00
         0.00000E+00
         0.00000E+00
         0.00000E+00
         0.00000E+00
         0.00000E+00
         0.00000E+00
         0.00000E+00
         0.00000E+00
         0.00000E+00
         0.00000E+00
         0.00000E+00
         0.00000E+00
         0.00000E+00
         0.00000E+00
         0.00000E+00
         0.00000E+00
         0.00000E+00
         0.00000E+00
         0.00000E+00
         0.00000E+00
         0.00000E+00
         0.00000E+00
         0.00000E+00
         0.00000E+00
         0.00000E+00
         0.00000E+00
         0.00000E+00
         0.00000E+00
         0.00000E+00
         0.00000E+00
         0.00000E+00
         0.00000E+00
         0.00000E+00
         0.00000E+00
         0.00000E+00
         0.00000E+00
         0.00000E+00
         0.00000E+00
         0.00000E+00
         0.00000E+00
         0.00000E+00
         0.00000E+00
         0.00000E+00
         0.00000E+00
         0.00000E+00
         0.00000E+00
         0.00000E+00
         0.00000E+00
         0.00000E+00
         0.00000E+00
         0.00000E+00
         0.00000E+00
         0.00000E+00
         0.00000E+00
         0.00000E+00
         0.00000E+00
         0.00000E+00
         0.00000E+00
         0.00000E+00
         0.00000E+00
         0.00000E+00
         0.00000E+00
         0.00000E+00
         0.00000E+00
         0.00000E+00
         0.00000E+00
         0.00000E+00
         0.00000E+00
         0.00000E+00
         0.00000E+00
         0.00000E+00
         0.00000E+00
         0.00000E+00
         0.00000E+00
         0.00000E+00
         0.00000E+00
         0.00000E+00
         0.00000E+00
         0.00000E+00
         0.00000E+00
         0.00000E+00
         0.00000E+00
         0.00000E+00
         0.00000E+00
         0.00000E+00
         0.00000E+00
         0.00000E+00
         0.00000E+00
         0.00000E+00
         0.00000E+00
         0.00000E+00
         0.00000E+00
         0.00000E+00
         0.00000E+00
         0.00000E+00
         0.00000E+00
         0.00000E+00
         0.00000E+00
         0.00000E+00
         0.00000E+00
         0.00000E+00
         0.00000E+00
         0.00000E+00
         0.00000E+00
         0.00000E+00
         0.00000E+00
         0.00000E+00
         0.00000E+00
         0.00000E+00
         0.00000E+00
         0.00000E+00
         0.00000E+00
         0.00000E+00
         0.00000E+00
         0.00000E+00
         0.00000E+00
         0.00000E+00
         0.00000E+00
         0.00000E+00
         0.00000E+00
         0.00000E+00
         0.00000E+00
         0.00000E+00
         0.00000E+00
         0.00000E+00
         0.00000E+00
         0.00000E+00
         0.00000E+00
         0.00000E+00
         0.00000E+00
         0.00000E+00
         0.00000E+00
         0.00000E+00
         0.00000E+00
         0.00000E+00
         0.00000E+00
         0.00000E+00
         0.00000E+00
         0.00000E+00
         0.00000E+00
         0.00000E+00
         0.00000E+00
         0.00000E+00
         0.00000E+00
         0.00000E+00
         0.00000E+00
         0.00000E+00
         0.00000E+00
         0.00000E+00
         0.00000E+00
         0.00000E+00
         0.00000E+00
         0.00000E+00
         0.00000E+00
         0.00000E+00
         0.00000E+00
         0.00000E+00
         0.00000E+00
         0.00000E+00
         0.00000E+00
         0.00000E+00
         0.00000E+00
         0.00000E+00
         0.00000E+00
         0.00000E+00
         0.00000E+00
         0.00000E+00
         0.00000E+00
         0.00000E+00
         0.00000E+00
         0.00000E+00
         0.00000E+00
         0.00000E+00
         0.00000E+00
         0.00000E+00
         0.00000E+00
         0.00000E+00
         0.00000E+00
         0.00000E+00
         0.00000E+00
         0.00000E+00
         0.00000E+00
         0.00000E+00
         0.00000E+00
         0.00000E+00
         0.00000E+00
         0.00000E+00
         0.00000E+00
         0.00000E+00
         0.00000E+00
         0.00000E+00
         0.00000E+00
         0.00000E+00
         0.00000E+00
         0.00000E+00
         0.00000E+00
         0.00000E+00
         0.00000E+00
         0.00000E+00
         0.00000E+00
         0.00000E+00
         0.00000E+00
         0.00000E+00
         0.00000E+00
         0.00000E+00
         0.00000E+00
         0.00000E+00
         0.00000E+00
         0.00000E+00
         0.00000E+00
         0.00000E+00
         0.00000E+00
         0.00000E+00
         0.00000E+00
         0.00000E+00
         0.00000E+00
         0.00000E+00
         0.00000E+00
         0.00000E+00
         0.00000E+00
         0.00000E+00
         0.00000E+00
         0.00000E+00
         0.00000E+00
         0.00000E+00
         0.00000E+00
         0.00000E+00
         0.00000E+00
         0.00000E+00
         0.00000E+00
         0.00000E+00
         0.00000E+00
         0.00000E+00
         0.00000E+00
         0.00000E+00
         0.00000E+00
         0.00000E+00
         0.00000E+00
         0.00000E+00
         0.00000E+00
         0.00000E+00
         0.00000E+00
         0.00000E+00
         0.00000E+00
         0.00000E+00
         0.00000E+00
         0.00000E+00
         0.00000E+00
         0.00000E+00
         0.00000E+00
         0.00000E+00
         0.00000E+00
         0.00000E+00
         0.00000E+00
         0.00000E+00
         0.00000E+00
         0.00000E+00
         0.00000E+00
         0.00000E+00
         0.00000E+00
         0.00000E+00
         0.00000E+00
         0.00000E+00
         0.00000E+00
         0.00000E+00
         0.00000E+00
         0.00000E+00
         0.00000E+00
         0.00000E+00
         0.00000E+00
         0.00000E+00
         0.00000E+00
         0.00000E+00
         0.00000E+00
         0.00000E+00
         0.00000E+00
         0.00000E+00
         0.00000E+00
         0.00000E+00
         0.00000E+00
         0.00000E+00
         0.00000E+00
         0.00000E+00
         0.00000E+00
         0.00000E+00
         0.00000E+00
         0.00000E+00
         0.00000E+00
         0.00000E+00
         0.00000E+00
         0.00000E+00
         0.00000E+00
         0.00000E+00
         0.00000E+00
         0.00000E+00
         0.00000E+00
         0.00000E+00
         0.00000E+00
         0.00000E+00
         0.00000E+00
         0.00000E+00
         0.00000E+00
         0.00000E+00
         0.00000E+00
         0.00000E+00
         0.00000E+00
         0.00000E+00
         0.00000E+00
         0.00000E+00
         0.00000E+00
         0.00000E+00
         0.00000E+00
         0.00000E+00
         0.00000E+00
         0.00000E+00
         0.00000E+00
         0.00000E+00
         0.00000E+00
         0.00000E+00
         0.00000E+00
         0.00000E+00
         0.00000E+00
         0.00000E+00
         0.00000E+00
         0.00000E+00
         0.00000E+00
         0.00000E+00
         0.00000E+00
         0.00000E+00
         0.00000E+00
         0.00000E+00
         0.00000E+00
         0.00000E+00
         0.00000E+00
         0.00000E+00
         0.00000E+00
         0.00000E+00
         0.00000E+00
         0.00000E+00
         0.00000E+00
         0.00000E+00
         0.00000E+00
         0.00000E+00
         0.00000E+00
         0.00000E+00
         0.00000E+00
         0.00000E+00
         0.00000E+00
         0.00000E+00
         0.00000E+00
         0.00000E+00
         0.00000E+00
         0.00000E+00
         0.00000E+00
         0.00000E+00
         0.00000E+00
         0.00000E+00
         0.00000E+00
         0.00000E+00
         0.00000E+00
         0.00000E+00
         0.00000E+00
         0.00000E+00
         0.00000E+00
         0.00000E+00
         0.00000E+00
         0.00000E+00
         0.00000E+00
         0.00000E+00
         0.00000E+00
         0.00000E+00
         0.00000E+00
         0.00000E+00
         0.00000E+00
         0.00000E+00
         0.00000E+00
         0.00000E+00
         0.00000E+00
         0.00000E+00
         0.00000E+00
  
SCALARS                         fint_y  double 1
LOOKUP_TABLE default
         0.00000E+00
         0.00000E+00
         0.00000E+00
         0.00000E+00
         0.00000E+00
         0.00000E+00
         0.00000E+00
         0.00000E+00
         0.00000E+00
         0.00000E+00
         0.00000E+00
         0.00000E+00
         0.00000E+00
         0.00000E+00
         0.00000E+00
         0.00000E+00
         0.00000E+00
         0.00000E+00
         0.00000E+00
         0.00000E+00
         0.00000E+00
         0.00000E+00
         0.00000E+00
         0.00000E+00
         0.00000E+00
         0.00000E+00
         0.00000E+00
         0.00000E+00
         0.00000E+00
         0.00000E+00
         0.00000E+00
         0.00000E+00
         0.00000E+00
         0.00000E+00
         0.00000E+00
         0.00000E+00
         0.00000E+00
         0.00000E+00
         0.00000E+00
         0.00000E+00
         0.00000E+00
         0.00000E+00
         0.00000E+00
         0.00000E+00
         0.00000E+00
         0.00000E+00
         0.00000E+00
         0.00000E+00
         0.00000E+00
         0.00000E+00
         0.00000E+00
         0.00000E+00
         0.00000E+00
         0.00000E+00
         0.00000E+00
         0.00000E+00
         0.00000E+00
         0.00000E+00
         0.00000E+00
         0.00000E+00
         0.00000E+00
         0.00000E+00
         0.00000E+00
         0.00000E+00
         0.00000E+00
         0.00000E+00
         0.00000E+00
         0.00000E+00
         0.00000E+00
         0.00000E+00
         0.00000E+00
         0.00000E+00
         0.00000E+00
         0.00000E+00
         0.00000E+00
         0.00000E+00
         0.00000E+00
         0.00000E+00
         0.00000E+00
         0.00000E+00
         0.00000E+00
         0.00000E+00
         0.00000E+00
         0.00000E+00
         0.00000E+00
         0.00000E+00
         0.00000E+00
         0.00000E+00
         0.00000E+00
         0.00000E+00
         0.00000E+00
         0.00000E+00
         0.00000E+00
         0.00000E+00
         0.00000E+00
         0.00000E+00
         0.00000E+00
         0.00000E+00
         0.00000E+00
         0.00000E+00
         0.00000E+00
         0.00000E+00
         0.00000E+00
         0.00000E+00
         0.00000E+00
         0.00000E+00
         0.00000E+00
         0.00000E+00
         0.00000E+00
         0.00000E+00
         0.00000E+00
         0.00000E+00
         0.00000E+00
         0.00000E+00
         0.00000E+00
         0.00000E+00
         0.00000E+00
         0.00000E+00
         0.00000E+00
         0.00000E+00
         0.00000E+00
         0.00000E+00
         0.00000E+00
         0.00000E+00
         0.00000E+00
         0.00000E+00
         0.00000E+00
         0.00000E+00
         0.00000E+00
         0.00000E+00
         0.00000E+00
         0.00000E+00
         0.00000E+00
         0.00000E+00
         0.00000E+00
         0.00000E+00
         0.00000E+00
         0.00000E+00
         0.00000E+00
         0.00000E+00
         0.00000E+00
         0.00000E+00
         0.00000E+00
         0.00000E+00
         0.00000E+00
         0.00000E+00
         0.00000E+00
         0.00000E+00
         0.00000E+00
         0.00000E+00
         0.00000E+00
         0.00000E+00
         0.00000E+00
         0.00000E+00
         0.00000E+00
         0.00000E+00
         0.00000E+00
         0.00000E+00
         0.00000E+00
         0.00000E+00
         0.00000E+00
         0.00000E+00
         0.00000E+00
         0.00000E+00
         0.00000E+00
         0.00000E+00
         0.00000E+00
         0.00000E+00
         0.00000E+00
         0.00000E+00
         0.00000E+00
         0.00000E+00
         0.00000E+00
         0.00000E+00
         0.00000E+00
         0.00000E+00
         0.00000E+00
         0.00000E+00
         0.00000E+00
         0.00000E+00
         0.00000E+00
         0.00000E+00
         0.00000E+00
         0.00000E+00
         0.00000E+00
         0.00000E+00
         0.00000E+00
         0.00000E+00
         0.00000E+00
         0.00000E+00
         0.00000E+00
         0.00000E+00
         0.00000E+00
         0.00000E+00
         0.00000E+00
         0.00000E+00
         0.00000E+00
         0.00000E+00
         0.00000E+00
         0.00000E+00
         0.00000E+00
         0.00000E+00
         0.00000E+00
         0.00000E+00
         0.00000E+00
         0.00000E+00
         0.00000E+00
         0.00000E+00
         0.00000E+00
         0.00000E+00
         0.00000E+00
         0.00000E+00
         0.00000E+00
         0.00000E+00
         0.00000E+00
         0.00000E+00
         0.00000E+00
         0.00000E+00
         0.00000E+00
         0.00000E+00
         0.00000E+00
         0.00000E+00
         0.00000E+00
         0.00000E+00
         0.00000E+00
         0.00000E+00
         0.00000E+00
         0.00000E+00
         0.00000E+00
         0.00000E+00
         0.00000E+00
         0.00000E+00
         0.00000E+00
         0.00000E+00
         0.00000E+00
         0.00000E+00
         0.00000E+00
         0.00000E+00
         0.00000E+00
         0.00000E+00
         0.00000E+00
         0.00000E+00
         0.00000E+00
         0.00000E+00
         0.00000E+00
         0.00000E+00
         0.00000E+00
         0.00000E+00
         0.00000E+00
         0.00000E+00
         0.00000E+00
         0.00000E+00
         0.00000E+00
         0.00000E+00
         0.00000E+00
         0.00000E+00
         0.00000E+00
         0.00000E+00
         0.00000E+00
         0.00000E+00
         0.00000E+00
         0.00000E+00
         0.00000E+00
         0.00000E+00
         0.00000E+00
         0.00000E+00
         0.00000E+00
         0.00000E+00
         0.00000E+00
         0.00000E+00
         0.00000E+00
         0.00000E+00
         0.00000E+00
         0.00000E+00
         0.00000E+00
         0.00000E+00
         0.00000E+00
         0.00000E+00
         0.00000E+00
         0.00000E+00
         0.00000E+00
         0.00000E+00
         0.00000E+00
         0.00000E+00
         0.00000E+00
         0.00000E+00
         0.00000E+00
         0.00000E+00
         0.00000E+00
         0.00000E+00
         0.00000E+00
         0.00000E+00
         0.00000E+00
         0.00000E+00
         0.00000E+00
         0.00000E+00
         0.00000E+00
         0.00000E+00
         0.00000E+00
         0.00000E+00
         0.00000E+00
         0.00000E+00
         0.00000E+00
         0.00000E+00
         0.00000E+00
         0.00000E+00
         0.00000E+00
         0.00000E+00
         0.00000E+00
         0.00000E+00
         0.00000E+00
         0.00000E+00
         0.00000E+00
         0.00000E+00
         0.00000E+00
         0.00000E+00
         0.00000E+00
         0.00000E+00
         0.00000E+00
         0.00000E+00
         0.00000E+00
         0.00000E+00
         0.00000E+00
         0.00000E+00
         0.00000E+00
         0.00000E+00
         0.00000E+00
         0.00000E+00
         0.00000E+00
         0.00000E+00
         0.00000E+00
         0.00000E+00
         0.00000E+00
         0.00000E+00
         0.00000E+00
         0.00000E+00
         0.00000E+00
         0.00000E+00
         0.00000E+00
         0.00000E+00
         0.00000E+00
         0.00000E+00
         0.00000E+00
         0.00000E+00
         0.00000E+00
         0.00000E+00
         0.00000E+00
         0.00000E+00
         0.00000E+00
         0.00000E+00
         0.00000E+00
         0.00000E+00
         0.00000E+00
         0.00000E+00
         0.00000E+00
         0.00000E+00
         0.00000E+00
         0.00000E+00
         0.00000E+00
         0.00000E+00
         0.00000E+00
         0.00000E+00
         0.00000E+00
         0.00000E+00
         0.00000E+00
         0.00000E+00
         0.00000E+00
         0.00000E+00
         0.00000E+00
         0.00000E+00
         0.00000E+00
         0.00000E+00
         0.00000E+00
         0.00000E+00
         0.00000E+00
         0.00000E+00
         0.00000E+00
         0.00000E+00
         0.00000E+00
         0.00000E+00
         0.00000E+00
         0.00000E+00
         0.00000E+00
         0.00000E+00
         0.00000E+00
         0.00000E+00
         0.00000E+00
         0.00000E+00
         0.00000E+00
         0.00000E+00
         0.00000E+00
         0.00000E+00
         0.00000E+00
         0.00000E+00
         0.00000E+00
         0.00000E+00
         0.00000E+00
         0.00000E+00
         0.00000E+00
         0.00000E+00
         0.00000E+00
         0.00000E+00
         0.00000E+00
         0.00000E+00
         0.00000E+00
         0.00000E+00
         0.00000E+00
         0.00000E+00
         0.00000E+00
         0.00000E+00
         0.00000E+00
         0.00000E+00
         0.00000E+00
         0.00000E+00
         0.00000E+00
         0.00000E+00
         0.00000E+00
         0.00000E+00
         0.00000E+00
         0.00000E+00
         0.00000E+00
         0.00000E+00
         0.00000E+00
         0.00000E+00
         0.00000E+00
         0.00000E+00
         0.00000E+00
         0.00000E+00
         0.00000E+00
         0.00000E+00
         0.00000E+00
         0.00000E+00
         0.00000E+00
         0.00000E+00
         0.00000E+00
         0.00000E+00
         0.00000E+00
         0.00000E+00
         0.00000E+00
         0.00000E+00
         0.00000E+00
         0.00000E+00
         0.00000E+00
         0.00000E+00
         0.00000E+00
         0.00000E+00
         0.00000E+00
         0.00000E+00
         0.00000E+00
         0.00000E+00
         0.00000E+00
         0.00000E+00
         0.00000E+00
         0.00000E+00
         0.00000E+00
         0.00000E+00
         0.00000E+00
         0.00000E+00
         0.00000E+00
         0.00000E+00
         0.00000E+00
         0.00000E+00
         0.00000E+00
         0.00000E+00
         0.00000E+00
         0.00000E+00
         0.00000E+00
         0.00000E+00
         0.00000E+00
         0.00000E+00
         0.00000E+00
         0.00000E+00
         0.00000E+00
         0.00000E+00
         0.00000E+00
         0.00000E+00
         0.00000E+00
         0.00000E+00
         0.00000E+00
         0.00000E+00
         0.00000E+00
         0.00000E+00
         0.00000E+00
         0.00000E+00
         0.00000E+00
         0.00000E+00
         0.00000E+00
         0.00000E+00
         0.00000E+00
         0.00000E+00
         0.00000E+00
         0.00000E+00
         0.00000E+00
         0.00000E+00
         0.00000E+00
         0.00000E+00
         0.00000E+00
         0.00000E+00
         0.00000E+00
         0.00000E+00
         0.00000E+00
         0.00000E+00
         0.00000E+00
         0.00000E+00
         0.00000E+00
         0.00000E+00
         0.00000E+00
         0.00000E+00
         0.00000E+00
         0.00000E+00
         0.00000E+00
         0.00000E+00
         0.00000E+00
         0.00000E+00
         0.00000E+00
         0.00000E+00
         0.00000E+00
         0.00000E+00
         0.00000E+00
         0.00000E+00
         0.00000E+00
         0.00000E+00
         0.00000E+00
         0.00000E+00
         0.00000E+00
         0.00000E+00
         0.00000E+00
         0.00000E+00
         0.00000E+00
         0.00000E+00
         0.00000E+00
         0.00000E+00
         0.00000E+00
         0.00000E+00
         0.00000E+00
         0.00000E+00
         0.00000E+00
         0.00000E+00
         0.00000E+00
         0.00000E+00
         0.00000E+00
         0.00000E+00
         0.00000E+00
         0.00000E+00
         0.00000E+00
         0.00000E+00
         0.00000E+00
         0.00000E+00
         0.00000E+00
         0.00000E+00
         0.00000E+00
         0.00000E+00
         0.00000E+00
         0.00000E+00
         0.00000E+00
         0.00000E+00
         0.00000E+00
         0.00000E+00
         0.00000E+00
         0.00000E+00
         0.00000E+00
         0.00000E+00
         0.00000E+00
         0.00000E+00
         0.00000E+00
         0.00000E+00
         0.00000E+00
         0.00000E+00
         0.00000E+00
         0.00000E+00
         0.00000E+00
         0.00000E+00
         0.00000E+00
         0.00000E+00
         0.00000E+00
         0.00000E+00
         0.00000E+00
         0.00000E+00
         0.00000E+00
         0.00000E+00
         0.00000E+00
         0.00000E+00
         0.00000E+00
         0.00000E+00
         0.00000E+00
         0.00000E+00
         0.00000E+00
         0.00000E+00
         0.00000E+00
         0.00000E+00
         0.00000E+00
         0.00000E+00
         0.00000E+00
         0.00000E+00
         0.00000E+00
         0.00000E+00
         0.00000E+00
         0.00000E+00
         0.00000E+00
         0.00000E+00
         0.00000E+00
         0.00000E+00
         0.00000E+00
         0.00000E+00
         0.00000E+00
         0.00000E+00
         0.00000E+00
         0.00000E+00
         0.00000E+00
         0.00000E+00
         0.00000E+00
         0.00000E+00
         0.00000E+00
         0.00000E+00
         0.00000E+00
         0.00000E+00
         0.00000E+00
         0.00000E+00
         0.00000E+00
         0.00000E+00
         0.00000E+00
         0.00000E+00
         0.00000E+00
         0.00000E+00
         0.00000E+00
         0.00000E+00
         0.00000E+00
         0.00000E+00
         0.00000E+00
         0.00000E+00
         0.00000E+00
         0.00000E+00
         0.00000E+00
         0.00000E+00
         0.00000E+00
         0.00000E+00
         0.00000E+00
         0.00000E+00
         0.00000E+00
         0.00000E+00
         0.00000E+00
         0.00000E+00
         0.00000E+00
         0.00000E+00
         0.00000E+00
         0.00000E+00
         0.00000E+00
         0.00000E+00
         0.00000E+00
         0.00000E+00
         0.00000E+00
         0.00000E+00
         0.00000E+00
         0.00000E+00
         0.00000E+00
         0.00000E+00
         0.00000E+00
         0.00000E+00
         0.00000E+00
         0.00000E+00
         0.00000E+00
         0.00000E+00
         0.00000E+00
         0.00000E+00
         0.00000E+00
         0.00000E+00
         0.00000E+00
         0.00000E+00
         0.00000E+00
         0.00000E+00
         0.00000E+00
         0.00000E+00
         0.00000E+00
         0.00000E+00
         0.00000E+00
         0.00000E+00
         0.00000E+00
         0.00000E+00
         0.00000E+00
         0.00000E+00
         0.00000E+00
         0.00000E+00
         0.00000E+00
         0.00000E+00
         0.00000E+00
         0.00000E+00
         0.00000E+00
         0.00000E+00
         0.00000E+00
         0.00000E+00
         0.00000E+00
         0.00000E+00
         0.00000E+00
         0.00000E+00
         0.00000E+00
         0.00000E+00
         0.00000E+00
         0.00000E+00
         0.00000E+00
         0.00000E+00
         0.00000E+00
         0.00000E+00
         0.00000E+00
         0.00000E+00
         0.00000E+00
         0.00000E+00
         0.00000E+00
         0.00000E+00
         0.00000E+00
         0.00000E+00
         0.00000E+00
         0.00000E+00
         0.00000E+00
         0.00000E+00
         0.00000E+00
         0.00000E+00
         0.00000E+00
         0.00000E+00
         0.00000E+00
         0.00000E+00
         0.00000E+00
         0.00000E+00
         0.00000E+00
         0.00000E+00
         0.00000E+00
         0.00000E+00
         0.00000E+00
         0.00000E+00
         0.00000E+00
         0.00000E+00
         0.00000E+00
         0.00000E+00
         0.00000E+00
         0.00000E+00
         0.00000E+00
         0.00000E+00
         0.00000E+00
         0.00000E+00
         0.00000E+00
         0.00000E+00
         0.00000E+00
         0.00000E+00
         0.00000E+00
         0.00000E+00
         0.00000E+00
         0.00000E+00
         0.00000E+00
         0.00000E+00
         0.00000E+00
         0.00000E+00
         0.00000E+00
         0.00000E+00
         0.00000E+00
         0.00000E+00
         0.00000E+00
         0.00000E+00
         0.00000E+00
         0.00000E+00
         0.00000E+00
         0.00000E+00
         0.00000E+00
         0.00000E+00
         0.00000E+00
         0.00000E+00
         0.00000E+00
         0.00000E+00
         0.00000E+00
         0.00000E+00
         0.00000E+00
         0.00000E+00
         0.00000E+00
         0.00000E+00
         0.00000E+00
         0.00000E+00
         0.00000E+00
         0.00000E+00
         0.00000E+00
         0.00000E+00
         0.00000E+00
         0.00000E+00
         0.00000E+00
         0.00000E+00
         0.00000E+00
         0.00000E+00
         0.00000E+00
         0.00000E+00
         0.00000E+00
         0.00000E+00
         0.00000E+00
         0.00000E+00
         0.00000E+00
         0.00000E+00
         0.00000E+00
         0.00000E+00
         0.00000E+00
         0.00000E+00
         0.00000E+00
         0.00000E+00
         0.00000E+00
         0.00000E+00
         0.00000E+00
         0.00000E+00
         0.00000E+00
         0.00000E+00
         0.00000E+00
         0.00000E+00
         0.00000E+00
         0.00000E+00
         0.00000E+00
         0.00000E+00
         0.00000E+00
         0.00000E+00
         0.00000E+00
         0.00000E+00
         0.00000E+00
         0.00000E+00
         0.00000E+00
         0.00000E+00
         0.00000E+00
         0.00000E+00
         0.00000E+00
         0.00000E+00
         0.00000E+00
         0.00000E+00
         0.00000E+00
         0.00000E+00
         0.00000E+00
         0.00000E+00
         0.00000E+00
         0.00000E+00
         0.00000E+00
         0.00000E+00
         0.00000E+00
         0.00000E+00
         0.00000E+00
         0.00000E+00
         0.00000E+00
         0.00000E+00
         0.00000E+00
         0.00000E+00
         0.00000E+00
         0.00000E+00
         0.00000E+00
         0.00000E+00
         0.00000E+00
         0.00000E+00
         0.00000E+00
         0.00000E+00
         0.00000E+00
         0.00000E+00
         0.00000E+00
         0.00000E+00
         0.00000E+00
         0.00000E+00
         0.00000E+00
         0.00000E+00
         0.00000E+00
         0.00000E+00
         0.00000E+00
         0.00000E+00
         0.00000E+00
         0.00000E+00
         0.00000E+00
         0.00000E+00
         0.00000E+00
         0.00000E+00
         0.00000E+00
         0.00000E+00
         0.00000E+00
         0.00000E+00
         0.00000E+00
         0.00000E+00
         0.00000E+00
         0.00000E+00
         0.00000E+00
         0.00000E+00
         0.00000E+00
         0.00000E+00
         0.00000E+00
         0.00000E+00
         0.00000E+00
         0.00000E+00
         0.00000E+00
         0.00000E+00
         0.00000E+00
         0.00000E+00
         0.00000E+00
         0.00000E+00
         0.00000E+00
         0.00000E+00
         0.00000E+00
         0.00000E+00
         0.00000E+00
         0.00000E+00
         0.00000E+00
         0.00000E+00
         0.00000E+00
         0.00000E+00
         0.00000E+00
         0.00000E+00
         0.00000E+00
         0.00000E+00
         0.00000E+00
         0.00000E+00
         0.00000E+00
         0.00000E+00
         0.00000E+00
         0.00000E+00
         0.00000E+00
         0.00000E+00
         0.00000E+00
         0.00000E+00
         0.00000E+00
         0.00000E+00
         0.00000E+00
         0.00000E+00
         0.00000E+00
         0.00000E+00
         0.00000E+00
         0.00000E+00
         0.00000E+00
         0.00000E+00
         0.00000E+00
         0.00000E+00
         0.00000E+00
         0.00000E+00
         0.00000E+00
         0.00000E+00
         0.00000E+00
         0.00000E+00
         0.00000E+00
         0.00000E+00
         0.00000E+00
         0.00000E+00
         0.00000E+00
         0.00000E+00
         0.00000E+00
         0.00000E+00
         0.00000E+00
         0.00000E+00
         0.00000E+00
         0.00000E+00
         0.00000E+00
         0.00000E+00
         0.00000E+00
         0.00000E+00
         0.00000E+00
         0.00000E+00
         0.00000E+00
         0.00000E+00
         0.00000E+00
         0.00000E+00
         0.00000E+00
         0.00000E+00
         0.00000E+00
         0.00000E+00
         0.00000E+00
         0.00000E+00
         0.00000E+00
         0.00000E+00
         0.00000E+00
         0.00000E+00
         0.00000E+00
         0.00000E+00
         0.00000E+00
         0.00000E+00
         0.00000E+00
         0.00000E+00
         0.00000E+00
         0.00000E+00
         0.00000E+00
         0.00000E+00
         0.00000E+00
         0.00000E+00
         0.00000E+00
         0.00000E+00
         0.00000E+00
         0.00000E+00
         0.00000E+00
         0.00000E+00
         0.00000E+00
         0.00000E+00
         0.00000E+00
         0.00000E+00
         0.00000E+00
         0.00000E+00
         0.00000E+00
         0.00000E+00
         0.00000E+00
         0.00000E+00
         0.00000E+00
         0.00000E+00
         0.00000E+00
         0.00000E+00
         0.00000E+00
         0.00000E+00
         0.00000E+00
         0.00000E+00
         0.00000E+00
         0.00000E+00
         0.00000E+00
         0.00000E+00
         0.00000E+00
         0.00000E+00
         0.00000E+00
         0.00000E+00
         0.00000E+00
         0.00000E+00
         0.00000E+00
         0.00000E+00
         0.00000E+00
         0.00000E+00
         0.00000E+00
         0.00000E+00
         0.00000E+00
         0.00000E+00
         0.00000E+00
         0.00000E+00
         0.00000E+00
         0.00000E+00
         0.00000E+00
         0.00000E+00
         0.00000E+00
         0.00000E+00
         0.00000E+00
         0.00000E+00
         0.00000E+00
         0.00000E+00
         0.00000E+00
         0.00000E+00
         0.00000E+00
         0.00000E+00
         0.00000E+00
         0.00000E+00
         0.00000E+00
         0.00000E+00
         0.00000E+00
         0.00000E+00
         0.00000E+00
         0.00000E+00
         0.00000E+00
         0.00000E+00
         0.00000E+00
         0.00000E+00
         0.00000E+00
         0.00000E+00
         0.00000E+00
         0.00000E+00
         0.00000E+00
         0.00000E+00
         0.00000E+00
         0.00000E+00
         0.00000E+00
         0.00000E+00
         0.00000E+00
         0.00000E+00
         0.00000E+00
         0.00000E+00
         0.00000E+00
         0.00000E+00
         0.00000E+00
         0.00000E+00
         0.00000E+00
         0.00000E+00
         0.00000E+00
         0.00000E+00
         0.00000E+00
         0.00000E+00
         0.00000E+00
         0.00000E+00
         0.00000E+00
         0.00000E+00
         0.00000E+00
         0.00000E+00
         0.00000E+00
         0.00000E+00
         0.00000E+00
         0.00000E+00
         0.00000E+00
         0.00000E+00
         0.00000E+00
         0.00000E+00
         0.00000E+00
         0.00000E+00
         0.00000E+00
         0.00000E+00
         0.00000E+00
         0.00000E+00
         0.00000E+00
         0.00000E+00
         0.00000E+00
         0.00000E+00
         0.00000E+00
         0.00000E+00
         0.00000E+00
         0.00000E+00
         0.00000E+00
         0.00000E+00
         0.00000E+00
         0.00000E+00
         0.00000E+00
         0.00000E+00
         0.00000E+00
         0.00000E+00
         0.00000E+00
         0.00000E+00
         0.00000E+00
         0.00000E+00
         0.00000E+00
         0.00000E+00
         0.00000E+00
         0.00000E+00
         0.00000E+00
         0.00000E+00
         0.00000E+00
         0.00000E+00
         0.00000E+00
         0.00000E+00
         0.00000E+00
         0.00000E+00
         0.00000E+00
         0.00000E+00
         0.00000E+00
         0.00000E+00
         0.00000E+00
         0.00000E+00
         0.00000E+00
         0.00000E+00
         0.00000E+00
         0.00000E+00
         0.00000E+00
         0.00000E+00
         0.00000E+00
         0.00000E+00
         0.00000E+00
         0.00000E+00
         0.00000E+00
         0.00000E+00
         0.00000E+00
         0.00000E+00
         0.00000E+00
         0.00000E+00
         0.00000E+00
         0.00000E+00
         0.00000E+00
         0.00000E+00
         0.00000E+00
         0.00000E+00
         0.00000E+00
         0.00000E+00
         0.00000E+00
         0.00000E+00
         0.00000E+00
         0.00000E+00
         0.00000E+00
         0.00000E+00
         0.00000E+00
         0.00000E+00
         0.00000E+00
         0.00000E+00
         0.00000E+00
         0.00000E+00
         0.00000E+00
         0.00000E+00
         0.00000E+00
         0.00000E+00
         0.00000E+00
         0.00000E+00
         0.00000E+00
         0.00000E+00
         0.00000E+00
         0.00000E+00
         0.00000E+00
         0.00000E+00
         0.00000E+00
         0.00000E+00
         0.00000E+00
         0.00000E+00
         0.00000E+00
         0.00000E+00
         0.00000E+00
         0.00000E+00
         0.00000E+00
         0.00000E+00
         0.00000E+00
         0.00000E+00
         0.00000E+00
         0.00000E+00
         0.00000E+00
         0.00000E+00
         0.00000E+00
         0.00000E+00
         0.00000E+00
         0.00000E+00
         0.00000E+00
         0.00000E+00
         0.00000E+00
         0.00000E+00
         0.00000E+00
         0.00000E+00
         0.00000E+00
         0.00000E+00
         0.00000E+00
         0.00000E+00
         0.00000E+00
         0.00000E+00
         0.00000E+00
         0.00000E+00
         0.00000E+00
         0.00000E+00
         0.00000E+00
         0.00000E+00
         0.00000E+00
         0.00000E+00
         0.00000E+00
         0.00000E+00
         0.00000E+00
         0.00000E+00
         0.00000E+00
         0.00000E+00
         0.00000E+00
         0.00000E+00
         0.00000E+00
         0.00000E+00
         0.00000E+00
         0.00000E+00
         0.00000E+00
         0.00000E+00
         0.00000E+00
         0.00000E+00
         0.00000E+00
         0.00000E+00
         0.00000E+00
         0.00000E+00
         0.00000E+00
         0.00000E+00
         0.00000E+00
         0.00000E+00
         0.00000E+00
         0.00000E+00
         0.00000E+00
         0.00000E+00
         0.00000E+00
         0.00000E+00
         0.00000E+00
         0.00000E+00
         0.00000E+00
         0.00000E+00
         0.00000E+00
         0.00000E+00
         0.00000E+00
         0.00000E+00
         0.00000E+00
         0.00000E+00
         0.00000E+00
         0.00000E+00
         0.00000E+00
         0.00000E+00
         0.00000E+00
         0.00000E+00
         0.00000E+00
         0.00000E+00
         0.00000E+00
         0.00000E+00
         0.00000E+00
         0.00000E+00
         0.00000E+00
         0.00000E+00
         0.00000E+00
         0.00000E+00
         0.00000E+00
         0.00000E+00
         0.00000E+00
         0.00000E+00
         0.00000E+00
         0.00000E+00
         0.00000E+00
         0.00000E+00
         0.00000E+00
         0.00000E+00
         0.00000E+00
         0.00000E+00
         0.00000E+00
         0.00000E+00
         0.00000E+00
         0.00000E+00
         0.00000E+00
         0.00000E+00
         0.00000E+00
         0.00000E+00
         0.00000E+00
         0.00000E+00
         0.00000E+00
         0.00000E+00
         0.00000E+00
         0.00000E+00
         0.00000E+00
         0.00000E+00
         0.00000E+00
         0.00000E+00
         0.00000E+00
         0.00000E+00
         0.00000E+00
         0.00000E+00
         0.00000E+00
         0.00000E+00
         0.00000E+00
         0.00000E+00
         0.00000E+00
         0.00000E+00
         0.00000E+00
         0.00000E+00
         0.00000E+00
         0.00000E+00
         0.00000E+00
         0.00000E+00
         0.00000E+00
         0.00000E+00
         0.00000E+00
         0.00000E+00
         0.00000E+00
         0.00000E+00
         0.00000E+00
         0.00000E+00
         0.00000E+00
         0.00000E+00
         0.00000E+00
         0.00000E+00
         0.00000E+00
         0.00000E+00
         0.00000E+00
         0.00000E+00
         0.00000E+00
         0.00000E+00
         0.00000E+00
         0.00000E+00
         0.00000E+00
         0.00000E+00
         0.00000E+00
         0.00000E+00
         0.00000E+00
         0.00000E+00
         0.00000E+00
         0.00000E+00
         0.00000E+00
         0.00000E+00
         0.00000E+00
         0.00000E+00
         0.00000E+00
         0.00000E+00
         0.00000E+00
         0.00000E+00
         0.00000E+00
         0.00000E+00
         0.00000E+00
         0.00000E+00
         0.00000E+00
         0.00000E+00
         0.00000E+00
         0.00000E+00
         0.00000E+00
         0.00000E+00
         0.00000E+00
         0.00000E+00
         0.00000E+00
         0.00000E+00
         0.00000E+00
         0.00000E+00
         0.00000E+00
         0.00000E+00
         0.00000E+00
         0.00000E+00
         0.00000E+00
         0.00000E+00
         0.00000E+00
         0.00000E+00
         0.00000E+00
         0.00000E+00
         0.00000E+00
         0.00000E+00
         0.00000E+00
         0.00000E+00
         0.00000E+00
         0.00000E+00
         0.00000E+00
         0.00000E+00
         0.00000E+00
         0.00000E+00
         0.00000E+00
         0.00000E+00
         0.00000E+00
         0.00000E+00
         0.00000E+00
         0.00000E+00
         0.00000E+00
         0.00000E+00
         0.00000E+00
         0.00000E+00
         0.00000E+00
         0.00000E+00
         0.00000E+00
         0.00000E+00
         0.00000E+00
         0.00000E+00
         0.00000E+00
         0.00000E+00
         0.00000E+00
         0.00000E+00
         0.00000E+00
         0.00000E+00
         0.00000E+00
         0.00000E+00
         0.00000E+00
         0.00000E+00
         0.00000E+00
         0.00000E+00
         0.00000E+00
         0.00000E+00
         0.00000E+00
         0.00000E+00
         0.00000E+00
         0.00000E+00
         0.00000E+00
         0.00000E+00
         0.00000E+00
         0.00000E+00
         0.00000E+00
         0.00000E+00
         0.00000E+00
         0.00000E+00
         0.00000E+00
         0.00000E+00
         0.00000E+00
         0.00000E+00
         0.00000E+00
         0.00000E+00
         0.00000E+00
         0.00000E+00
         0.00000E+00
         0.00000E+00
         0.00000E+00
         0.00000E+00
         0.00000E+00
         0.00000E+00
         0.00000E+00
         0.00000E+00
         0.00000E+00
         0.00000E+00
         0.00000E+00
         0.00000E+00
         0.00000E+00
         0.00000E+00
         0.00000E+00
         0.00000E+00
         0.00000E+00
         0.00000E+00
         0.00000E+00
         0.00000E+00
         0.00000E+00
         0.00000E+00
         0.00000E+00
         0.00000E+00
         0.00000E+00
         0.00000E+00
         0.00000E+00
         0.00000E+00
         0.00000E+00
         0.00000E+00
         0.00000E+00
         0.00000E+00
         0.00000E+00
         0.00000E+00
         0.00000E+00
         0.00000E+00
         0.00000E+00
         0.00000E+00
         0.00000E+00
         0.00000E+00
         0.00000E+00
         0.00000E+00
         0.00000E+00
         0.00000E+00
         0.00000E+00
         0.00000E+00
         0.00000E+00
         0.00000E+00
         0.00000E+00
         0.00000E+00
         0.00000E+00
         0.00000E+00
         0.00000E+00
         0.00000E+00
         0.00000E+00
         0.00000E+00
         0.00000E+00
         0.00000E+00
         0.00000E+00
         0.00000E+00
         0.00000E+00
         0.00000E+00
         0.00000E+00
         0.00000E+00
         0.00000E+00
         0.00000E+00
         0.00000E+00
         0.00000E+00
         0.00000E+00
         0.00000E+00
         0.00000E+00
         0.00000E+00
         0.00000E+00
         0.00000E+00
         0.00000E+00
         0.00000E+00
         0.00000E+00
         0.00000E+00
         0.00000E+00
         0.00000E+00
         0.00000E+00
         0.00000E+00
         0.00000E+00
         0.00000E+00
         0.00000E+00
         0.00000E+00
         0.00000E+00
         0.00000E+00
         0.00000E+00
         0.00000E+00
         0.00000E+00
         0.00000E+00
         0.00000E+00
         0.00000E+00
         0.00000E+00
         0.00000E+00
         0.00000E+00
         0.00000E+00
         0.00000E+00
         0.00000E+00
         0.00000E+00
         0.00000E+00
         0.00000E+00
         0.00000E+00
         0.00000E+00
         0.00000E+00
         0.00000E+00
         0.00000E+00
         0.00000E+00
         0.00000E+00
         0.00000E+00
         0.00000E+00
         0.00000E+00
         0.00000E+00
         0.00000E+00
         0.00000E+00
         0.00000E+00
         0.00000E+00
         0.00000E+00
         0.00000E+00
         0.00000E+00
         0.00000E+00
         0.00000E+00
         0.00000E+00
         0.00000E+00
         0.00000E+00
         0.00000E+00
         0.00000E+00
         0.00000E+00
         0.00000E+00
         0.00000E+00
         0.00000E+00
         0.00000E+00
         0.00000E+00
         0.00000E+00
         0.00000E+00
         0.00000E+00
         0.00000E+00
         0.00000E+00
         0.00000E+00
         0.00000E+00
         0.00000E+00
         0.00000E+00
         0.00000E+00
         0.00000E+00
         0.00000E+00
         0.00000E+00
         0.00000E+00
         0.00000E+00
         0.00000E+00
         0.00000E+00
         0.00000E+00
         0.00000E+00
         0.00000E+00
         0.00000E+00
         0.00000E+00
         0.00000E+00
         0.00000E+00
         0.00000E+00
         0.00000E+00
         0.00000E+00
         0.00000E+00
         0.00000E+00
         0.00000E+00
         0.00000E+00
         0.00000E+00
         0.00000E+00
         0.00000E+00
         0.00000E+00
         0.00000E+00
         0.00000E+00
         0.00000E+00
         0.00000E+00
         0.00000E+00
         0.00000E+00
         0.00000E+00
         0.00000E+00
         0.00000E+00
         0.00000E+00
         0.00000E+00
         0.00000E+00
         0.00000E+00
         0.00000E+00
         0.00000E+00
         0.00000E+00
         0.00000E+00
         0.00000E+00
         0.00000E+00
         0.00000E+00
         0.00000E+00
         0.00000E+00
         0.00000E+00
         0.00000E+00
         0.00000E+00
         0.00000E+00
         0.00000E+00
         0.00000E+00
         0.00000E+00
         0.00000E+00
         0.00000E+00
         0.00000E+00
         0.00000E+00
         0.00000E+00
         0.00000E+00
         0.00000E+00
         0.00000E+00
         0.00000E+00
         0.00000E+00
         0.00000E+00
         0.00000E+00
         0.00000E+00
         0.00000E+00
         0.00000E+00
         0.00000E+00
         0.00000E+00
         0.00000E+00
         0.00000E+00
         0.00000E+00
         0.00000E+00
         0.00000E+00
         0.00000E+00
         0.00000E+00
         0.00000E+00
         0.00000E+00
         0.00000E+00
         0.00000E+00
         0.00000E+00
         0.00000E+00
         0.00000E+00
         0.00000E+00
         0.00000E+00
         0.00000E+00
         0.00000E+00
         0.00000E+00
         0.00000E+00
         0.00000E+00
         0.00000E+00
         0.00000E+00
         0.00000E+00
         0.00000E+00
         0.00000E+00
         0.00000E+00
         0.00000E+00
         0.00000E+00
         0.00000E+00
         0.00000E+00
         0.00000E+00
         0.00000E+00
         0.00000E+00
         0.00000E+00
         0.00000E+00
         0.00000E+00
         0.00000E+00
         0.00000E+00
         0.00000E+00
         0.00000E+00
         0.00000E+00
         0.00000E+00
         0.00000E+00
         0.00000E+00
         0.00000E+00
         0.00000E+00
         0.00000E+00
         0.00000E+00
         0.00000E+00
         0.00000E+00
         0.00000E+00
         0.00000E+00
         0.00000E+00
         0.00000E+00
         0.00000E+00
         0.00000E+00
         0.00000E+00
         0.00000E+00
         0.00000E+00
         0.00000E+00
         0.00000E+00
         0.00000E+00
         0.00000E+00
         0.00000E+00
         0.00000E+00
         0.00000E+00
         0.00000E+00
         0.00000E+00
         0.00000E+00
         0.00000E+00
         0.00000E+00
         0.00000E+00
         0.00000E+00
         0.00000E+00
         0.00000E+00
         0.00000E+00
         0.00000E+00
         0.00000E+00
         0.00000E+00
         0.00000E+00
         0.00000E+00
         0.00000E+00
         0.00000E+00
         0.00000E+00
         0.00000E+00
         0.00000E+00
         0.00000E+00
         0.00000E+00
         0.00000E+00
         0.00000E+00
         0.00000E+00
         0.00000E+00
         0.00000E+00
         0.00000E+00
         0.00000E+00
         0.00000E+00
         0.00000E+00
         0.00000E+00
         0.00000E+00
         0.00000E+00
         0.00000E+00
         0.00000E+00
         0.00000E+00
         0.00000E+00
         0.00000E+00
         0.00000E+00
         0.00000E+00
         0.00000E+00
         0.00000E+00
         0.00000E+00
         0.00000E+00
         0.00000E+00
         0.00000E+00
         0.00000E+00
         0.00000E+00
         0.00000E+00
         0.00000E+00
         0.00000E+00
         0.00000E+00
         0.00000E+00
         0.00000E+00
         0.00000E+00
         0.00000E+00
         0.00000E+00
         0.00000E+00
         0.00000E+00
         0.00000E+00
         0.00000E+00
         0.00000E+00
         0.00000E+00
         0.00000E+00
         0.00000E+00
         0.00000E+00
         0.00000E+00
         0.00000E+00
         0.00000E+00
         0.00000E+00
         0.00000E+00
         0.00000E+00
         0.00000E+00
         0.00000E+00
         0.00000E+00
         0.00000E+00
         0.00000E+00
         0.00000E+00
         0.00000E+00
         0.00000E+00
         0.00000E+00
         0.00000E+00
         0.00000E+00
         0.00000E+00
         0.00000E+00
         0.00000E+00
         0.00000E+00
         0.00000E+00
         0.00000E+00
         0.00000E+00
         0.00000E+00
         0.00000E+00
         0.00000E+00
         0.00000E+00
         0.00000E+00
         0.00000E+00
         0.00000E+00
         0.00000E+00
         0.00000E+00
         0.00000E+00
         0.00000E+00
         0.00000E+00
         0.00000E+00
         0.00000E+00
         0.00000E+00
         0.00000E+00
         0.00000E+00
         0.00000E+00
         0.00000E+00
         0.00000E+00
         0.00000E+00
         0.00000E+00
         0.00000E+00
         0.00000E+00
         0.00000E+00
         0.00000E+00
         0.00000E+00
         0.00000E+00
         0.00000E+00
         0.00000E+00
         0.00000E+00
         0.00000E+00
         0.00000E+00
         0.00000E+00
         0.00000E+00
         0.00000E+00
         0.00000E+00
         0.00000E+00
         0.00000E+00
         0.00000E+00
         0.00000E+00
         0.00000E+00
         0.00000E+00
         0.00000E+00
         0.00000E+00
         0.00000E+00
         0.00000E+00
         0.00000E+00
         0.00000E+00
         0.00000E+00
         0.00000E+00
         0.00000E+00
         0.00000E+00
         0.00000E+00
         0.00000E+00
         0.00000E+00
         0.00000E+00
         0.00000E+00
         0.00000E+00
         0.00000E+00
         0.00000E+00
         0.00000E+00
         0.00000E+00
         0.00000E+00
         0.00000E+00
         0.00000E+00
         0.00000E+00
         0.00000E+00
         0.00000E+00
         0.00000E+00
         0.00000E+00
         0.00000E+00
         0.00000E+00
         0.00000E+00
         0.00000E+00
         0.00000E+00
         0.00000E+00
         0.00000E+00
         0.00000E+00
         0.00000E+00
         0.00000E+00
         0.00000E+00
         0.00000E+00
         0.00000E+00
         0.00000E+00
         0.00000E+00
         0.00000E+00
         0.00000E+00
         0.00000E+00
         0.00000E+00
         0.00000E+00
         0.00000E+00
         0.00000E+00
         0.00000E+00
         0.00000E+00
         0.00000E+00
         0.00000E+00
         0.00000E+00
         0.00000E+00
         0.00000E+00
         0.00000E+00
         0.00000E+00
         0.00000E+00
         0.00000E+00
         0.00000E+00
         0.00000E+00
         0.00000E+00
         0.00000E+00
         0.00000E+00
         0.00000E+00
         0.00000E+00
         0.00000E+00
         0.00000E+00
         0.00000E+00
         0.00000E+00
         0.00000E+00
         0.00000E+00
         0.00000E+00
         0.00000E+00
         0.00000E+00
         0.00000E+00
         0.00000E+00
         0.00000E+00
         0.00000E+00
         0.00000E+00
         0.00000E+00
         0.00000E+00
         0.00000E+00
         0.00000E+00
         0.00000E+00
         0.00000E+00
         0.00000E+00
         0.00000E+00
         0.00000E+00
         0.00000E+00
         0.00000E+00
         0.00000E+00
         0.00000E+00
         0.00000E+00
  
SCALARS                         fint_z  double 1
LOOKUP_TABLE default
         0.00000E+00
         0.00000E+00
         0.00000E+00
         0.00000E+00
         0.00000E+00
         0.00000E+00
         0.00000E+00
         0.00000E+00
         0.00000E+00
         0.00000E+00
         0.00000E+00
         0.00000E+00
         0.00000E+00
         0.00000E+00
         0.00000E+00
         0.00000E+00
         0.00000E+00
         0.00000E+00
         0.00000E+00
         0.00000E+00
         0.00000E+00
         0.00000E+00
         0.00000E+00
         0.00000E+00
         0.00000E+00
         0.00000E+00
         0.00000E+00
         0.00000E+00
         0.00000E+00
         0.00000E+00
         0.00000E+00
         0.00000E+00
         0.00000E+00
         0.00000E+00
         0.00000E+00
         0.00000E+00
         0.00000E+00
         0.00000E+00
         0.00000E+00
         0.00000E+00
         0.00000E+00
         0.00000E+00
         0.00000E+00
         0.00000E+00
         0.00000E+00
         0.00000E+00
         0.00000E+00
         0.00000E+00
         0.00000E+00
         0.00000E+00
         0.00000E+00
         0.00000E+00
         0.00000E+00
         0.00000E+00
         0.00000E+00
         0.00000E+00
         0.00000E+00
         0.00000E+00
         0.00000E+00
         0.00000E+00
         0.00000E+00
         0.00000E+00
         0.00000E+00
         0.00000E+00
         0.00000E+00
         0.00000E+00
         0.00000E+00
         0.00000E+00
         0.00000E+00
         0.00000E+00
         0.00000E+00
         0.00000E+00
         0.00000E+00
         0.00000E+00
         0.00000E+00
         0.00000E+00
         0.00000E+00
         0.00000E+00
         0.00000E+00
         0.00000E+00
         0.00000E+00
         0.00000E+00
         0.00000E+00
         0.00000E+00
         0.00000E+00
         0.00000E+00
         0.00000E+00
         0.00000E+00
         0.00000E+00
         0.00000E+00
         0.00000E+00
         0.00000E+00
         0.00000E+00
         0.00000E+00
         0.00000E+00
         0.00000E+00
         0.00000E+00
         0.00000E+00
         0.00000E+00
         0.00000E+00
         0.00000E+00
         0.00000E+00
         0.00000E+00
         0.00000E+00
         0.00000E+00
         0.00000E+00
         0.00000E+00
         0.00000E+00
         0.00000E+00
         0.00000E+00
         0.00000E+00
         0.00000E+00
         0.00000E+00
         0.00000E+00
         0.00000E+00
         0.00000E+00
         0.00000E+00
         0.00000E+00
         0.00000E+00
         0.00000E+00
         0.00000E+00
         0.00000E+00
         0.00000E+00
         0.00000E+00
         0.00000E+00
         0.00000E+00
         0.00000E+00
         0.00000E+00
         0.00000E+00
         0.00000E+00
         0.00000E+00
         0.00000E+00
         0.00000E+00
         0.00000E+00
         0.00000E+00
         0.00000E+00
         0.00000E+00
         0.00000E+00
         0.00000E+00
         0.00000E+00
         0.00000E+00
         0.00000E+00
         0.00000E+00
         0.00000E+00
         0.00000E+00
         0.00000E+00
         0.00000E+00
         0.00000E+00
         0.00000E+00
         0.00000E+00
         0.00000E+00
         0.00000E+00
         0.00000E+00
         0.00000E+00
         0.00000E+00
         0.00000E+00
         0.00000E+00
         0.00000E+00
         0.00000E+00
         0.00000E+00
         0.00000E+00
         0.00000E+00
         0.00000E+00
         0.00000E+00
         0.00000E+00
         0.00000E+00
         0.00000E+00
         0.00000E+00
         0.00000E+00
         0.00000E+00
         0.00000E+00
         0.00000E+00
         0.00000E+00
         0.00000E+00
         0.00000E+00
         0.00000E+00
         0.00000E+00
         0.00000E+00
         0.00000E+00
         0.00000E+00
         0.00000E+00
         0.00000E+00
         0.00000E+00
         0.00000E+00
         0.00000E+00
         0.00000E+00
         0.00000E+00
         0.00000E+00
         0.00000E+00
         0.00000E+00
         0.00000E+00
         0.00000E+00
         0.00000E+00
         0.00000E+00
         0.00000E+00
         0.00000E+00
         0.00000E+00
         0.00000E+00
         0.00000E+00
         0.00000E+00
         0.00000E+00
         0.00000E+00
         0.00000E+00
         0.00000E+00
         0.00000E+00
         0.00000E+00
         0.00000E+00
         0.00000E+00
         0.00000E+00
         0.00000E+00
         0.00000E+00
         0.00000E+00
         0.00000E+00
         0.00000E+00
         0.00000E+00
         0.00000E+00
         0.00000E+00
         0.00000E+00
         0.00000E+00
         0.00000E+00
         0.00000E+00
         0.00000E+00
         0.00000E+00
         0.00000E+00
         0.00000E+00
         0.00000E+00
         0.00000E+00
         0.00000E+00
         0.00000E+00
         0.00000E+00
         0.00000E+00
         0.00000E+00
         0.00000E+00
         0.00000E+00
         0.00000E+00
         0.00000E+00
         0.00000E+00
         0.00000E+00
         0.00000E+00
         0.00000E+00
         0.00000E+00
         0.00000E+00
         0.00000E+00
         0.00000E+00
         0.00000E+00
         0.00000E+00
         0.00000E+00
         0.00000E+00
         0.00000E+00
         0.00000E+00
         0.00000E+00
         0.00000E+00
         0.00000E+00
         0.00000E+00
         0.00000E+00
         0.00000E+00
         0.00000E+00
         0.00000E+00
         0.00000E+00
         0.00000E+00
         0.00000E+00
         0.00000E+00
         0.00000E+00
         0.00000E+00
         0.00000E+00
         0.00000E+00
         0.00000E+00
         0.00000E+00
         0.00000E+00
         0.00000E+00
         0.00000E+00
         0.00000E+00
         0.00000E+00
         0.00000E+00
         0.00000E+00
         0.00000E+00
         0.00000E+00
         0.00000E+00
         0.00000E+00
         0.00000E+00
         0.00000E+00
         0.00000E+00
         0.00000E+00
         0.00000E+00
         0.00000E+00
         0.00000E+00
         0.00000E+00
         0.00000E+00
         0.00000E+00
         0.00000E+00
         0.00000E+00
         0.00000E+00
         0.00000E+00
         0.00000E+00
         0.00000E+00
         0.00000E+00
         0.00000E+00
         0.00000E+00
         0.00000E+00
         0.00000E+00
         0.00000E+00
         0.00000E+00
         0.00000E+00
         0.00000E+00
         0.00000E+00
         0.00000E+00
         0.00000E+00
         0.00000E+00
         0.00000E+00
         0.00000E+00
         0.00000E+00
         0.00000E+00
         0.00000E+00
         0.00000E+00
         0.00000E+00
         0.00000E+00
         0.00000E+00
         0.00000E+00
         0.00000E+00
         0.00000E+00
         0.00000E+00
         0.00000E+00
         0.00000E+00
         0.00000E+00
         0.00000E+00
         0.00000E+00
         0.00000E+00
         0.00000E+00
         0.00000E+00
         0.00000E+00
         0.00000E+00
         0.00000E+00
         0.00000E+00
         0.00000E+00
         0.00000E+00
         0.00000E+00
         0.00000E+00
         0.00000E+00
         0.00000E+00
         0.00000E+00
         0.00000E+00
         0.00000E+00
         0.00000E+00
         0.00000E+00
         0.00000E+00
         0.00000E+00
         0.00000E+00
         0.00000E+00
         0.00000E+00
         0.00000E+00
         0.00000E+00
         0.00000E+00
         0.00000E+00
         0.00000E+00
         0.00000E+00
         0.00000E+00
         0.00000E+00
         0.00000E+00
         0.00000E+00
         0.00000E+00
         0.00000E+00
         0.00000E+00
         0.00000E+00
         0.00000E+00
         0.00000E+00
         0.00000E+00
         0.00000E+00
         0.00000E+00
         0.00000E+00
         0.00000E+00
         0.00000E+00
         0.00000E+00
         0.00000E+00
         0.00000E+00
         0.00000E+00
         0.00000E+00
         0.00000E+00
         0.00000E+00
         0.00000E+00
         0.00000E+00
         0.00000E+00
         0.00000E+00
         0.00000E+00
         0.00000E+00
         0.00000E+00
         0.00000E+00
         0.00000E+00
         0.00000E+00
         0.00000E+00
         0.00000E+00
         0.00000E+00
         0.00000E+00
         0.00000E+00
         0.00000E+00
         0.00000E+00
         0.00000E+00
         0.00000E+00
         0.00000E+00
         0.00000E+00
         0.00000E+00
         0.00000E+00
         0.00000E+00
         0.00000E+00
         0.00000E+00
         0.00000E+00
         0.00000E+00
         0.00000E+00
         0.00000E+00
         0.00000E+00
         0.00000E+00
         0.00000E+00
         0.00000E+00
         0.00000E+00
         0.00000E+00
         0.00000E+00
         0.00000E+00
         0.00000E+00
         0.00000E+00
         0.00000E+00
         0.00000E+00
         0.00000E+00
         0.00000E+00
         0.00000E+00
         0.00000E+00
         0.00000E+00
         0.00000E+00
         0.00000E+00
         0.00000E+00
         0.00000E+00
         0.00000E+00
         0.00000E+00
         0.00000E+00
         0.00000E+00
         0.00000E+00
         0.00000E+00
         0.00000E+00
         0.00000E+00
         0.00000E+00
         0.00000E+00
         0.00000E+00
         0.00000E+00
         0.00000E+00
         0.00000E+00
         0.00000E+00
         0.00000E+00
         0.00000E+00
         0.00000E+00
         0.00000E+00
         0.00000E+00
         0.00000E+00
         0.00000E+00
         0.00000E+00
         0.00000E+00
         0.00000E+00
         0.00000E+00
         0.00000E+00
         0.00000E+00
         0.00000E+00
         0.00000E+00
         0.00000E+00
         0.00000E+00
         0.00000E+00
         0.00000E+00
         0.00000E+00
         0.00000E+00
         0.00000E+00
         0.00000E+00
         0.00000E+00
         0.00000E+00
         0.00000E+00
         0.00000E+00
         0.00000E+00
         0.00000E+00
         0.00000E+00
         0.00000E+00
         0.00000E+00
         0.00000E+00
         0.00000E+00
         0.00000E+00
         0.00000E+00
         0.00000E+00
         0.00000E+00
         0.00000E+00
         0.00000E+00
         0.00000E+00
         0.00000E+00
         0.00000E+00
         0.00000E+00
         0.00000E+00
         0.00000E+00
         0.00000E+00
         0.00000E+00
         0.00000E+00
         0.00000E+00
         0.00000E+00
         0.00000E+00
         0.00000E+00
         0.00000E+00
         0.00000E+00
         0.00000E+00
         0.00000E+00
         0.00000E+00
         0.00000E+00
         0.00000E+00
         0.00000E+00
         0.00000E+00
         0.00000E+00
         0.00000E+00
         0.00000E+00
         0.00000E+00
         0.00000E+00
         0.00000E+00
         0.00000E+00
         0.00000E+00
         0.00000E+00
         0.00000E+00
         0.00000E+00
         0.00000E+00
         0.00000E+00
         0.00000E+00
         0.00000E+00
         0.00000E+00
         0.00000E+00
         0.00000E+00
         0.00000E+00
         0.00000E+00
         0.00000E+00
         0.00000E+00
         0.00000E+00
         0.00000E+00
         0.00000E+00
         0.00000E+00
         0.00000E+00
         0.00000E+00
         0.00000E+00
         0.00000E+00
         0.00000E+00
         0.00000E+00
         0.00000E+00
         0.00000E+00
         0.00000E+00
         0.00000E+00
         0.00000E+00
         0.00000E+00
         0.00000E+00
         0.00000E+00
         0.00000E+00
         0.00000E+00
         0.00000E+00
         0.00000E+00
         0.00000E+00
         0.00000E+00
         0.00000E+00
         0.00000E+00
         0.00000E+00
         0.00000E+00
         0.00000E+00
         0.00000E+00
         0.00000E+00
         0.00000E+00
         0.00000E+00
         0.00000E+00
         0.00000E+00
         0.00000E+00
         0.00000E+00
         0.00000E+00
         0.00000E+00
         0.00000E+00
         0.00000E+00
         0.00000E+00
         0.00000E+00
         0.00000E+00
         0.00000E+00
         0.00000E+00
         0.00000E+00
         0.00000E+00
         0.00000E+00
         0.00000E+00
         0.00000E+00
         0.00000E+00
         0.00000E+00
         0.00000E+00
         0.00000E+00
         0.00000E+00
         0.00000E+00
         0.00000E+00
         0.00000E+00
         0.00000E+00
         0.00000E+00
         0.00000E+00
         0.00000E+00
         0.00000E+00
         0.00000E+00
         0.00000E+00
         0.00000E+00
         0.00000E+00
         0.00000E+00
         0.00000E+00
         0.00000E+00
         0.00000E+00
         0.00000E+00
         0.00000E+00
         0.00000E+00
         0.00000E+00
         0.00000E+00
         0.00000E+00
         0.00000E+00
         0.00000E+00
         0.00000E+00
         0.00000E+00
         0.00000E+00
         0.00000E+00
         0.00000E+00
         0.00000E+00
         0.00000E+00
         0.00000E+00
         0.00000E+00
         0.00000E+00
         0.00000E+00
         0.00000E+00
         0.00000E+00
         0.00000E+00
         0.00000E+00
         0.00000E+00
         0.00000E+00
         0.00000E+00
         0.00000E+00
         0.00000E+00
         0.00000E+00
         0.00000E+00
         0.00000E+00
         0.00000E+00
         0.00000E+00
         0.00000E+00
         0.00000E+00
         0.00000E+00
         0.00000E+00
         0.00000E+00
         0.00000E+00
         0.00000E+00
         0.00000E+00
         0.00000E+00
         0.00000E+00
         0.00000E+00
         0.00000E+00
         0.00000E+00
         0.00000E+00
         0.00000E+00
         0.00000E+00
         0.00000E+00
         0.00000E+00
         0.00000E+00
         0.00000E+00
         0.00000E+00
         0.00000E+00
         0.00000E+00
         0.00000E+00
         0.00000E+00
         0.00000E+00
         0.00000E+00
         0.00000E+00
         0.00000E+00
         0.00000E+00
         0.00000E+00
         0.00000E+00
         0.00000E+00
         0.00000E+00
         0.00000E+00
         0.00000E+00
         0.00000E+00
         0.00000E+00
         0.00000E+00
         0.00000E+00
         0.00000E+00
         0.00000E+00
         0.00000E+00
         0.00000E+00
         0.00000E+00
         0.00000E+00
         0.00000E+00
         0.00000E+00
         0.00000E+00
         0.00000E+00
         0.00000E+00
         0.00000E+00
         0.00000E+00
         0.00000E+00
         0.00000E+00
         0.00000E+00
         0.00000E+00
         0.00000E+00
         0.00000E+00
         0.00000E+00
         0.00000E+00
         0.00000E+00
         0.00000E+00
         0.00000E+00
         0.00000E+00
         0.00000E+00
         0.00000E+00
         0.00000E+00
         0.00000E+00
         0.00000E+00
         0.00000E+00
         0.00000E+00
         0.00000E+00
         0.00000E+00
         0.00000E+00
         0.00000E+00
         0.00000E+00
         0.00000E+00
         0.00000E+00
         0.00000E+00
         0.00000E+00
         0.00000E+00
         0.00000E+00
         0.00000E+00
         0.00000E+00
         0.00000E+00
         0.00000E+00
         0.00000E+00
         0.00000E+00
         0.00000E+00
         0.00000E+00
         0.00000E+00
         0.00000E+00
         0.00000E+00
         0.00000E+00
         0.00000E+00
         0.00000E+00
         0.00000E+00
         0.00000E+00
         0.00000E+00
         0.00000E+00
         0.00000E+00
         0.00000E+00
         0.00000E+00
         0.00000E+00
         0.00000E+00
         0.00000E+00
         0.00000E+00
         0.00000E+00
         0.00000E+00
         0.00000E+00
         0.00000E+00
         0.00000E+00
         0.00000E+00
         0.00000E+00
         0.00000E+00
         0.00000E+00
         0.00000E+00
         0.00000E+00
         0.00000E+00
         0.00000E+00
         0.00000E+00
         0.00000E+00
         0.00000E+00
         0.00000E+00
         0.00000E+00
         0.00000E+00
         0.00000E+00
         0.00000E+00
         0.00000E+00
         0.00000E+00
         0.00000E+00
         0.00000E+00
         0.00000E+00
         0.00000E+00
         0.00000E+00
         0.00000E+00
         0.00000E+00
         0.00000E+00
         0.00000E+00
         0.00000E+00
         0.00000E+00
         0.00000E+00
         0.00000E+00
         0.00000E+00
         0.00000E+00
         0.00000E+00
         0.00000E+00
         0.00000E+00
         0.00000E+00
         0.00000E+00
         0.00000E+00
         0.00000E+00
         0.00000E+00
         0.00000E+00
         0.00000E+00
         0.00000E+00
         0.00000E+00
         0.00000E+00
         0.00000E+00
         0.00000E+00
         0.00000E+00
         0.00000E+00
         0.00000E+00
         0.00000E+00
         0.00000E+00
         0.00000E+00
         0.00000E+00
         0.00000E+00
         0.00000E+00
         0.00000E+00
         0.00000E+00
         0.00000E+00
         0.00000E+00
         0.00000E+00
         0.00000E+00
         0.00000E+00
         0.00000E+00
         0.00000E+00
         0.00000E+00
         0.00000E+00
         0.00000E+00
         0.00000E+00
         0.00000E+00
         0.00000E+00
         0.00000E+00
         0.00000E+00
         0.00000E+00
         0.00000E+00
         0.00000E+00
         0.00000E+00
         0.00000E+00
         0.00000E+00
         0.00000E+00
         0.00000E+00
         0.00000E+00
         0.00000E+00
         0.00000E+00
         0.00000E+00
         0.00000E+00
         0.00000E+00
         0.00000E+00
         0.00000E+00
         0.00000E+00
         0.00000E+00
         0.00000E+00
         0.00000E+00
         0.00000E+00
         0.00000E+00
         0.00000E+00
         0.00000E+00
         0.00000E+00
         0.00000E+00
         0.00000E+00
         0.00000E+00
         0.00000E+00
         0.00000E+00
         0.00000E+00
         0.00000E+00
         0.00000E+00
         0.00000E+00
         0.00000E+00
         0.00000E+00
         0.00000E+00
         0.00000E+00
         0.00000E+00
         0.00000E+00
         0.00000E+00
         0.00000E+00
         0.00000E+00
         0.00000E+00
         0.00000E+00
         0.00000E+00
         0.00000E+00
         0.00000E+00
         0.00000E+00
         0.00000E+00
         0.00000E+00
         0.00000E+00
         0.00000E+00
         0.00000E+00
         0.00000E+00
         0.00000E+00
         0.00000E+00
         0.00000E+00
         0.00000E+00
         0.00000E+00
         0.00000E+00
         0.00000E+00
         0.00000E+00
         0.00000E+00
         0.00000E+00
         0.00000E+00
         0.00000E+00
         0.00000E+00
         0.00000E+00
         0.00000E+00
         0.00000E+00
         0.00000E+00
         0.00000E+00
         0.00000E+00
         0.00000E+00
         0.00000E+00
         0.00000E+00
         0.00000E+00
         0.00000E+00
         0.00000E+00
         0.00000E+00
         0.00000E+00
         0.00000E+00
         0.00000E+00
         0.00000E+00
         0.00000E+00
         0.00000E+00
         0.00000E+00
         0.00000E+00
         0.00000E+00
         0.00000E+00
         0.00000E+00
         0.00000E+00
         0.00000E+00
         0.00000E+00
         0.00000E+00
         0.00000E+00
         0.00000E+00
         0.00000E+00
         0.00000E+00
         0.00000E+00
         0.00000E+00
         0.00000E+00
         0.00000E+00
         0.00000E+00
         0.00000E+00
         0.00000E+00
         0.00000E+00
         0.00000E+00
         0.00000E+00
         0.00000E+00
         0.00000E+00
         0.00000E+00
         0.00000E+00
         0.00000E+00
         0.00000E+00
         0.00000E+00
         0.00000E+00
         0.00000E+00
         0.00000E+00
         0.00000E+00
         0.00000E+00
         0.00000E+00
         0.00000E+00
         0.00000E+00
         0.00000E+00
         0.00000E+00
         0.00000E+00
         0.00000E+00
         0.00000E+00
         0.00000E+00
         0.00000E+00
         0.00000E+00
         0.00000E+00
         0.00000E+00
         0.00000E+00
         0.00000E+00
         0.00000E+00
         0.00000E+00
         0.00000E+00
         0.00000E+00
         0.00000E+00
         0.00000E+00
         0.00000E+00
         0.00000E+00
         0.00000E+00
         0.00000E+00
         0.00000E+00
         0.00000E+00
         0.00000E+00
         0.00000E+00
         0.00000E+00
         0.00000E+00
         0.00000E+00
         0.00000E+00
         0.00000E+00
         0.00000E+00
         0.00000E+00
         0.00000E+00
         0.00000E+00
         0.00000E+00
         0.00000E+00
         0.00000E+00
         0.00000E+00
         0.00000E+00
         0.00000E+00
         0.00000E+00
         0.00000E+00
         0.00000E+00
         0.00000E+00
         0.00000E+00
         0.00000E+00
         0.00000E+00
         0.00000E+00
         0.00000E+00
         0.00000E+00
         0.00000E+00
         0.00000E+00
         0.00000E+00
         0.00000E+00
         0.00000E+00
         0.00000E+00
         0.00000E+00
         0.00000E+00
         0.00000E+00
         0.00000E+00
         0.00000E+00
         0.00000E+00
         0.00000E+00
         0.00000E+00
         0.00000E+00
         0.00000E+00
         0.00000E+00
         0.00000E+00
         0.00000E+00
         0.00000E+00
         0.00000E+00
         0.00000E+00
         0.00000E+00
         0.00000E+00
         0.00000E+00
         0.00000E+00
         0.00000E+00
         0.00000E+00
         0.00000E+00
         0.00000E+00
         0.00000E+00
         0.00000E+00
         0.00000E+00
         0.00000E+00
         0.00000E+00
         0.00000E+00
         0.00000E+00
         0.00000E+00
         0.00000E+00
         0.00000E+00
         0.00000E+00
         0.00000E+00
         0.00000E+00
         0.00000E+00
         0.00000E+00
         0.00000E+00
         0.00000E+00
         0.00000E+00
         0.00000E+00
         0.00000E+00
         0.00000E+00
         0.00000E+00
         0.00000E+00
         0.00000E+00
         0.00000E+00
         0.00000E+00
         0.00000E+00
         0.00000E+00
         0.00000E+00
         0.00000E+00
         0.00000E+00
         0.00000E+00
         0.00000E+00
         0.00000E+00
         0.00000E+00
         0.00000E+00
         0.00000E+00
         0.00000E+00
         0.00000E+00
         0.00000E+00
         0.00000E+00
         0.00000E+00
         0.00000E+00
         0.00000E+00
         0.00000E+00
         0.00000E+00
         0.00000E+00
         0.00000E+00
         0.00000E+00
         0.00000E+00
         0.00000E+00
         0.00000E+00
         0.00000E+00
         0.00000E+00
         0.00000E+00
         0.00000E+00
         0.00000E+00
         0.00000E+00
         0.00000E+00
         0.00000E+00
         0.00000E+00
         0.00000E+00
         0.00000E+00
         0.00000E+00
         0.00000E+00
         0.00000E+00
         0.00000E+00
         0.00000E+00
         0.00000E+00
         0.00000E+00
         0.00000E+00
         0.00000E+00
         0.00000E+00
         0.00000E+00
         0.00000E+00
         0.00000E+00
         0.00000E+00
         0.00000E+00
         0.00000E+00
         0.00000E+00
         0.00000E+00
         0.00000E+00
         0.00000E+00
         0.00000E+00
         0.00000E+00
         0.00000E+00
         0.00000E+00
         0.00000E+00
         0.00000E+00
         0.00000E+00
         0.00000E+00
         0.00000E+00
         0.00000E+00
         0.00000E+00
         0.00000E+00
         0.00000E+00
         0.00000E+00
         0.00000E+00
         0.00000E+00
         0.00000E+00
         0.00000E+00
         0.00000E+00
         0.00000E+00
         0.00000E+00
         0.00000E+00
         0.00000E+00
         0.00000E+00
         0.00000E+00
         0.00000E+00
         0.00000E+00
         0.00000E+00
         0.00000E+00
         0.00000E+00
         0.00000E+00
         0.00000E+00
         0.00000E+00
         0.00000E+00
         0.00000E+00
         0.00000E+00
         0.00000E+00
         0.00000E+00
         0.00000E+00
         0.00000E+00
         0.00000E+00
         0.00000E+00
         0.00000E+00
         0.00000E+00
         0.00000E+00
         0.00000E+00
         0.00000E+00
         0.00000E+00
         0.00000E+00
         0.00000E+00
         0.00000E+00
         0.00000E+00
         0.00000E+00
         0.00000E+00
         0.00000E+00
         0.00000E+00
         0.00000E+00
         0.00000E+00
         0.00000E+00
         0.00000E+00
         0.00000E+00
         0.00000E+00
         0.00000E+00
         0.00000E+00
         0.00000E+00
         0.00000E+00
         0.00000E+00
         0.00000E+00
         0.00000E+00
         0.00000E+00
         0.00000E+00
         0.00000E+00
         0.00000E+00
         0.00000E+00
         0.00000E+00
         0.00000E+00
         0.00000E+00
         0.00000E+00
         0.00000E+00
         0.00000E+00
         0.00000E+00
         0.00000E+00
         0.00000E+00
         0.00000E+00
         0.00000E+00
         0.00000E+00
         0.00000E+00
         0.00000E+00
         0.00000E+00
         0.00000E+00
         0.00000E+00
         0.00000E+00
         0.00000E+00
         0.00000E+00
         0.00000E+00
         0.00000E+00
         0.00000E+00
         0.00000E+00
         0.00000E+00
         0.00000E+00
         0.00000E+00
         0.00000E+00
         0.00000E+00
         0.00000E+00
         0.00000E+00
         0.00000E+00
         0.00000E+00
         0.00000E+00
         0.00000E+00
         0.00000E+00
         0.00000E+00
         0.00000E+00
         0.00000E+00
         0.00000E+00
         0.00000E+00
         0.00000E+00
         0.00000E+00
         0.00000E+00
         0.00000E+00
         0.00000E+00
         0.00000E+00
         0.00000E+00
         0.00000E+00
         0.00000E+00
         0.00000E+00
         0.00000E+00
         0.00000E+00
         0.00000E+00
         0.00000E+00
         0.00000E+00
         0.00000E+00
         0.00000E+00
         0.00000E+00
         0.00000E+00
         0.00000E+00
         0.00000E+00
         0.00000E+00
         0.00000E+00
         0.00000E+00
         0.00000E+00
         0.00000E+00
         0.00000E+00
         0.00000E+00
         0.00000E+00
         0.00000E+00
         0.00000E+00
         0.00000E+00
         0.00000E+00
         0.00000E+00
         0.00000E+00
         0.00000E+00
         0.00000E+00
         0.00000E+00
         0.00000E+00
         0.00000E+00
         0.00000E+00
         0.00000E+00
         0.00000E+00
         0.00000E+00
         0.00000E+00
         0.00000E+00
         0.00000E+00
         0.00000E+00
         0.00000E+00
         0.00000E+00
         0.00000E+00
         0.00000E+00
         0.00000E+00
         0.00000E+00
         0.00000E+00
         0.00000E+00
         0.00000E+00
         0.00000E+00
         0.00000E+00
         0.00000E+00
         0.00000E+00
         0.00000E+00
         0.00000E+00
         0.00000E+00
         0.00000E+00
         0.00000E+00
         0.00000E+00
         0.00000E+00
         0.00000E+00
         0.00000E+00
         0.00000E+00
         0.00000E+00
         0.00000E+00
         0.00000E+00
         0.00000E+00
         0.00000E+00
         0.00000E+00
         0.00000E+00
         0.00000E+00
         0.00000E+00
         0.00000E+00
         0.00000E+00
         0.00000E+00
         0.00000E+00
         0.00000E+00
         0.00000E+00
         0.00000E+00
         0.00000E+00
         0.00000E+00
         0.00000E+00
         0.00000E+00
         0.00000E+00
         0.00000E+00
         0.00000E+00
         0.00000E+00
         0.00000E+00
         0.00000E+00
         0.00000E+00
         0.00000E+00
         0.00000E+00
         0.00000E+00
         0.00000E+00
         0.00000E+00
         0.00000E+00
         0.00000E+00
         0.00000E+00
         0.00000E+00
         0.00000E+00
         0.00000E+00
         0.00000E+00
         0.00000E+00
         0.00000E+00
         0.00000E+00
         0.00000E+00
         0.00000E+00
         0.00000E+00
         0.00000E+00
         0.00000E+00
         0.00000E+00
         0.00000E+00
         0.00000E+00
         0.00000E+00
         0.00000E+00
         0.00000E+00
         0.00000E+00
         0.00000E+00
         0.00000E+00
         0.00000E+00
         0.00000E+00
         0.00000E+00
         0.00000E+00
         0.00000E+00
         0.00000E+00
         0.00000E+00
         0.00000E+00
         0.00000E+00
         0.00000E+00
         0.00000E+00
         0.00000E+00
         0.00000E+00
         0.00000E+00
         0.00000E+00
         0.00000E+00
         0.00000E+00
         0.00000E+00
         0.00000E+00
         0.00000E+00
         0.00000E+00
         0.00000E+00
         0.00000E+00
         0.00000E+00
         0.00000E+00
         0.00000E+00
         0.00000E+00
         0.00000E+00
         0.00000E+00
         0.00000E+00
         0.00000E+00
         0.00000E+00
         0.00000E+00
         0.00000E+00
         0.00000E+00
         0.00000E+00
         0.00000E+00
         0.00000E+00
         0.00000E+00
         0.00000E+00
         0.00000E+00
         0.00000E+00
         0.00000E+00
         0.00000E+00
         0.00000E+00
         0.00000E+00
         0.00000E+00
         0.00000E+00
         0.00000E+00
         0.00000E+00
         0.00000E+00
         0.00000E+00
         0.00000E+00
         0.00000E+00
         0.00000E+00
         0.00000E+00
         0.00000E+00
         0.00000E+00
         0.00000E+00
         0.00000E+00
         0.00000E+00
         0.00000E+00
         0.00000E+00
         0.00000E+00
         0.00000E+00
         0.00000E+00
         0.00000E+00
         0.00000E+00
         0.00000E+00
         0.00000E+00
         0.00000E+00
         0.00000E+00
         0.00000E+00
         0.00000E+00
         0.00000E+00
         0.00000E+00
         0.00000E+00
         0.00000E+00
         0.00000E+00
         0.00000E+00
         0.00000E+00
         0.00000E+00
         0.00000E+00
         0.00000E+00
         0.00000E+00
         0.00000E+00
         0.00000E+00
         0.00000E+00
         0.00000E+00
         0.00000E+00
         0.00000E+00
         0.00000E+00
         0.00000E+00
         0.00000E+00
         0.00000E+00
         0.00000E+00
         0.00000E+00
         0.00000E+00
         0.00000E+00
         0.00000E+00
         0.00000E+00
         0.00000E+00
         0.00000E+00
         0.00000E+00
         0.00000E+00
         0.00000E+00
         0.00000E+00
         0.00000E+00
         0.00000E+00
         0.00000E+00
         0.00000E+00
         0.00000E+00
         0.00000E+00
         0.00000E+00
         0.00000E+00
         0.00000E+00
         0.00000E+00
         0.00000E+00
         0.00000E+00
         0.00000E+00
         0.00000E+00
         0.00000E+00
         0.00000E+00
         0.00000E+00
         0.00000E+00
         0.00000E+00
         0.00000E+00
         0.00000E+00
         0.00000E+00
         0.00000E+00
         0.00000E+00
         0.00000E+00
         0.00000E+00
         0.00000E+00
         0.00000E+00
         0.00000E+00
         0.00000E+00
         0.00000E+00
         0.00000E+00
         0.00000E+00
         0.00000E+00
         0.00000E+00
         0.00000E+00
         0.00000E+00
         0.00000E+00
         0.00000E+00
         0.00000E+00
         0.00000E+00
         0.00000E+00
         0.00000E+00
         0.00000E+00
         0.00000E+00
         0.00000E+00
         0.00000E+00
         0.00000E+00
         0.00000E+00
         0.00000E+00
         0.00000E+00
         0.00000E+00
         0.00000E+00
         0.00000E+00
         0.00000E+00
         0.00000E+00
         0.00000E+00
         0.00000E+00
         0.00000E+00
         0.00000E+00
         0.00000E+00
         0.00000E+00
         0.00000E+00
         0.00000E+00
         0.00000E+00
         0.00000E+00
         0.00000E+00
         0.00000E+00
         0.00000E+00
         0.00000E+00
         0.00000E+00
         0.00000E+00
         0.00000E+00
         0.00000E+00
         0.00000E+00
         0.00000E+00
         0.00000E+00
         0.00000E+00
         0.00000E+00
         0.00000E+00
         0.00000E+00
         0.00000E+00
         0.00000E+00
         0.00000E+00
         0.00000E+00
         0.00000E+00
         0.00000E+00
         0.00000E+00
         0.00000E+00
         0.00000E+00
         0.00000E+00
         0.00000E+00
         0.00000E+00
         0.00000E+00
         0.00000E+00
         0.00000E+00
         0.00000E+00
         0.00000E+00
         0.00000E+00
         0.00000E+00
         0.00000E+00
         0.00000E+00
         0.00000E+00
         0.00000E+00
         0.00000E+00
         0.00000E+00
         0.00000E+00
         0.00000E+00
         0.00000E+00
         0.00000E+00
         0.00000E+00
         0.00000E+00
         0.00000E+00
         0.00000E+00
         0.00000E+00
         0.00000E+00
         0.00000E+00
         0.00000E+00
         0.00000E+00
         0.00000E+00
         0.00000E+00
         0.00000E+00
         0.00000E+00
         0.00000E+00
         0.00000E+00
         0.00000E+00
         0.00000E+00
         0.00000E+00
         0.00000E+00
         0.00000E+00
         0.00000E+00
         0.00000E+00
         0.00000E+00
         0.00000E+00
         0.00000E+00
         0.00000E+00
         0.00000E+00
         0.00000E+00
         0.00000E+00
         0.00000E+00
         0.00000E+00
         0.00000E+00
         0.00000E+00
         0.00000E+00
         0.00000E+00
         0.00000E+00
         0.00000E+00
         0.00000E+00
         0.00000E+00
         0.00000E+00
         0.00000E+00
         0.00000E+00
         0.00000E+00
         0.00000E+00
         0.00000E+00
         0.00000E+00
         0.00000E+00
         0.00000E+00
         0.00000E+00
         0.00000E+00
         0.00000E+00
         0.00000E+00
         0.00000E+00
         0.00000E+00
         0.00000E+00
         0.00000E+00
         0.00000E+00
         0.00000E+00
         0.00000E+00
         0.00000E+00
         0.00000E+00
         0.00000E+00
         0.00000E+00
         0.00000E+00
         0.00000E+00
         0.00000E+00
         0.00000E+00
         0.00000E+00
         0.00000E+00
         0.00000E+00
         0.00000E+00
         0.00000E+00
         0.00000E+00
         0.00000E+00
         0.00000E+00
         0.00000E+00
         0.00000E+00
         0.00000E+00
         0.00000E+00
         0.00000E+00
         0.00000E+00
         0.00000E+00
         0.00000E+00
         0.00000E+00
         0.00000E+00
         0.00000E+00
         0.00000E+00
         0.00000E+00
         0.00000E+00
         0.00000E+00
         0.00000E+00
         0.00000E+00
         0.00000E+00
         0.00000E+00
         0.00000E+00
         0.00000E+00
         0.00000E+00
         0.00000E+00
         0.00000E+00
         0.00000E+00
         0.00000E+00
         0.00000E+00
         0.00000E+00
         0.00000E+00
         0.00000E+00
         0.00000E+00
         0.00000E+00
         0.00000E+00
         0.00000E+00
         0.00000E+00
         0.00000E+00
         0.00000E+00
         0.00000E+00
         0.00000E+00
         0.00000E+00
         0.00000E+00
         0.00000E+00
         0.00000E+00
         0.00000E+00
         0.00000E+00
         0.00000E+00
         0.00000E+00
         0.00000E+00
         0.00000E+00
         0.00000E+00
         0.00000E+00
         0.00000E+00
         0.00000E+00
         0.00000E+00
         0.00000E+00
         0.00000E+00
         0.00000E+00
         0.00000E+00
         0.00000E+00
         0.00000E+00
         0.00000E+00
         0.00000E+00
         0.00000E+00
         0.00000E+00
         0.00000E+00
         0.00000E+00
         0.00000E+00
         0.00000E+00
         0.00000E+00
         0.00000E+00
         0.00000E+00
         0.00000E+00
         0.00000E+00
         0.00000E+00
         0.00000E+00
         0.00000E+00
         0.00000E+00
         0.00000E+00
         0.00000E+00
         0.00000E+00
         0.00000E+00
         0.00000E+00
         0.00000E+00
         0.00000E+00
         0.00000E+00
         0.00000E+00
         0.00000E+00
         0.00000E+00
         0.00000E+00
         0.00000E+00
         0.00000E+00
         0.00000E+00
         0.00000E+00
         0.00000E+00
         0.00000E+00
         0.00000E+00
         0.00000E+00
         0.00000E+00
         0.00000E+00
         0.00000E+00
         0.00000E+00
         0.00000E+00
         0.00000E+00
         0.00000E+00
         0.00000E+00
         0.00000E+00
         0.00000E+00
         0.00000E+00
         0.00000E+00
         0.00000E+00
         0.00000E+00
         0.00000E+00
         0.00000E+00
         0.00000E+00
         0.00000E+00
         0.00000E+00
         0.00000E+00
         0.00000E+00
         0.00000E+00
         0.00000E+00
         0.00000E+00
         0.00000E+00
         0.00000E+00
         0.00000E+00
         0.00000E+00
         0.00000E+00
         0.00000E+00
         0.00000E+00
         0.00000E+00
         0.00000E+00
         0.00000E+00
         0.00000E+00
         0.00000E+00
         0.00000E+00
         0.00000E+00
         0.00000E+00
         0.00000E+00
         0.00000E+00
         0.00000E+00
         0.00000E+00
         0.00000E+00
         0.00000E+00
         0.00000E+00
         0.00000E+00
         0.00000E+00
         0.00000E+00
         0.00000E+00
         0.00000E+00
         0.00000E+00
         0.00000E+00
         0.00000E+00
         0.00000E+00
         0.00000E+00
         0.00000E+00
         0.00000E+00
         0.00000E+00
         0.00000E+00
         0.00000E+00
         0.00000E+00
         0.00000E+00
         0.00000E+00
         0.00000E+00
         0.00000E+00
         0.00000E+00
         0.00000E+00
         0.00000E+00
         0.00000E+00
         0.00000E+00
         0.00000E+00
         0.00000E+00
         0.00000E+00
         0.00000E+00
         0.00000E+00
         0.00000E+00
         0.00000E+00
         0.00000E+00
         0.00000E+00
         0.00000E+00
         0.00000E+00
         0.00000E+00
         0.00000E+00
         0.00000E+00
         0.00000E+00
         0.00000E+00
         0.00000E+00
         0.00000E+00
         0.00000E+00
         0.00000E+00
         0.00000E+00
         0.00000E+00
         0.00000E+00
         0.00000E+00
         0.00000E+00
         0.00000E+00
         0.00000E+00
         0.00000E+00
         0.00000E+00
         0.00000E+00
         0.00000E+00
         0.00000E+00
         0.00000E+00
         0.00000E+00
         0.00000E+00
         0.00000E+00
         0.00000E+00
         0.00000E+00
         0.00000E+00
         0.00000E+00
         0.00000E+00
         0.00000E+00
         0.00000E+00
         0.00000E+00
         0.00000E+00
         0.00000E+00
         0.00000E+00
         0.00000E+00
         0.00000E+00
         0.00000E+00
         0.00000E+00
         0.00000E+00
         0.00000E+00
         0.00000E+00
         0.00000E+00
         0.00000E+00
         0.00000E+00
         0.00000E+00
         0.00000E+00
         0.00000E+00
         0.00000E+00
         0.00000E+00
         0.00000E+00
         0.00000E+00
         0.00000E+00
         0.00000E+00
         0.00000E+00
         0.00000E+00
         0.00000E+00
         0.00000E+00
         0.00000E+00
         0.00000E+00
         0.00000E+00
         0.00000E+00
         0.00000E+00
         0.00000E+00
         0.00000E+00
         0.00000E+00
         0.00000E+00
         0.00000E+00
         0.00000E+00
         0.00000E+00
         0.00000E+00
         0.00000E+00
         0.00000E+00
         0.00000E+00
         0.00000E+00
         0.00000E+00
         0.00000E+00
         0.00000E+00
         0.00000E+00
         0.00000E+00
         0.00000E+00
         0.00000E+00
         0.00000E+00
         0.00000E+00
         0.00000E+00
         0.00000E+00
         0.00000E+00
         0.00000E+00
         0.00000E+00
         0.00000E+00
         0.00000E+00
         0.00000E+00
         0.00000E+00
         0.00000E+00
         0.00000E+00
         0.00000E+00
         0.00000E+00
         0.00000E+00
         0.00000E+00
         0.00000E+00
         0.00000E+00
         0.00000E+00
         0.00000E+00
         0.00000E+00
         0.00000E+00
         0.00000E+00
         0.00000E+00
         0.00000E+00
         0.00000E+00
         0.00000E+00
         0.00000E+00
         0.00000E+00
         0.00000E+00
         0.00000E+00
         0.00000E+00
         0.00000E+00
         0.00000E+00
         0.00000E+00
         0.00000E+00
         0.00000E+00
         0.00000E+00
         0.00000E+00
         0.00000E+00
         0.00000E+00
         0.00000E+00
         0.00000E+00
         0.00000E+00
  
SCALARS        characteristic_distance  double 1
LOOKUP_TABLE default
         0.00000E+00
         0.00000E+00
         0.00000E+00
         0.00000E+00
         0.00000E+00
         0.00000E+00
         0.00000E+00
         0.00000E+00
         0.00000E+00
         0.00000E+00
         0.00000E+00
         0.00000E+00
         0.00000E+00
         0.00000E+00
         0.00000E+00
         0.00000E+00
         0.00000E+00
         0.00000E+00
         0.00000E+00
         0.00000E+00
         0.00000E+00
         0.00000E+00
         0.00000E+00
         0.00000E+00
         0.00000E+00
         0.00000E+00
         0.00000E+00
         0.00000E+00
         0.00000E+00
         0.00000E+00
         0.00000E+00
         0.00000E+00
         0.00000E+00
         0.00000E+00
         0.00000E+00
         0.00000E+00
         0.00000E+00
         0.00000E+00
         0.00000E+00
         0.00000E+00
         0.00000E+00
         0.00000E+00
         0.00000E+00
         0.00000E+00
         0.00000E+00
         0.00000E+00
         0.00000E+00
         0.00000E+00
         0.00000E+00
         0.00000E+00
         0.00000E+00
         0.00000E+00
         0.00000E+00
         0.00000E+00
         0.00000E+00
         0.00000E+00
         0.00000E+00
         0.00000E+00
         0.00000E+00
         0.00000E+00
         0.00000E+00
         0.00000E+00
         0.00000E+00
         0.00000E+00
         0.00000E+00
         0.00000E+00
         0.00000E+00
         0.00000E+00
         0.00000E+00
         0.00000E+00
         0.00000E+00
         0.00000E+00
         0.00000E+00
         0.00000E+00
         0.00000E+00
         0.00000E+00
         0.00000E+00
         0.00000E+00
         0.00000E+00
         0.00000E+00
         0.00000E+00
         0.00000E+00
         0.00000E+00
         0.00000E+00
         0.00000E+00
         0.00000E+00
         0.00000E+00
         0.00000E+00
         0.00000E+00
         0.00000E+00
         0.00000E+00
         0.00000E+00
         0.00000E+00
         0.00000E+00
         0.00000E+00
         0.00000E+00
         0.00000E+00
         0.00000E+00
         0.00000E+00
         0.00000E+00
         0.00000E+00
         0.00000E+00
         0.00000E+00
         0.00000E+00
         0.00000E+00
         0.00000E+00
         0.00000E+00
         0.00000E+00
         0.00000E+00
         0.00000E+00
         0.00000E+00
         0.00000E+00
         0.00000E+00
         0.00000E+00
         0.00000E+00
         0.00000E+00
         0.00000E+00
         0.00000E+00
         0.00000E+00
         0.00000E+00
         0.00000E+00
         0.00000E+00
         0.00000E+00
         0.00000E+00
         0.00000E+00
         0.00000E+00
         0.00000E+00
         0.00000E+00
         0.00000E+00
         0.00000E+00
         0.00000E+00
         0.00000E+00
         0.00000E+00
         0.00000E+00
         0.00000E+00
         0.00000E+00
         0.00000E+00
         0.00000E+00
         0.00000E+00
         0.00000E+00
         0.00000E+00
         0.00000E+00
         0.00000E+00
         0.00000E+00
         0.00000E+00
         0.00000E+00
         0.00000E+00
         0.00000E+00
         0.00000E+00
         0.00000E+00
         0.00000E+00
         0.00000E+00
         0.00000E+00
         0.00000E+00
         0.00000E+00
         0.00000E+00
         0.00000E+00
         0.00000E+00
         0.00000E+00
         0.00000E+00
         0.00000E+00
         0.00000E+00
         0.00000E+00
         0.00000E+00
         0.00000E+00
         0.00000E+00
         0.00000E+00
         0.00000E+00
         0.00000E+00
         0.00000E+00
         0.00000E+00
         0.00000E+00
         0.00000E+00
         0.00000E+00
         0.00000E+00
         0.00000E+00
         0.00000E+00
         0.00000E+00
         0.00000E+00
         0.00000E+00
         0.00000E+00
         0.00000E+00
         0.00000E+00
         0.00000E+00
         0.00000E+00
         0.00000E+00
         0.00000E+00
         0.00000E+00
         0.00000E+00
         0.00000E+00
         0.00000E+00
         0.00000E+00
         0.00000E+00
         0.00000E+00
         0.00000E+00
         0.00000E+00
         0.00000E+00
         0.00000E+00
         0.00000E+00
         0.00000E+00
         0.00000E+00
         0.00000E+00
         0.00000E+00
         0.00000E+00
         0.00000E+00
         0.00000E+00
         0.00000E+00
         0.00000E+00
         0.00000E+00
         0.00000E+00
         0.00000E+00
         0.00000E+00
         0.00000E+00
         0.00000E+00
         0.00000E+00
         0.00000E+00
         0.00000E+00
         0.00000E+00
         0.00000E+00
         0.00000E+00
         0.00000E+00
         0.00000E+00
         0.00000E+00
         0.00000E+00
         0.00000E+00
         0.00000E+00
         0.00000E+00
         0.00000E+00
         0.00000E+00
         0.00000E+00
         0.00000E+00
         0.00000E+00
         0.00000E+00
         0.00000E+00
         0.00000E+00
         0.00000E+00
         0.00000E+00
         0.00000E+00
         0.00000E+00
         0.00000E+00
         0.00000E+00
         0.00000E+00
         0.00000E+00
         0.00000E+00
         0.00000E+00
         0.00000E+00
         0.00000E+00
         0.00000E+00
         0.00000E+00
         0.00000E+00
         0.00000E+00
         0.00000E+00
         0.00000E+00
         0.00000E+00
         0.00000E+00
         0.00000E+00
         0.00000E+00
         0.00000E+00
         0.00000E+00
         0.00000E+00
         0.00000E+00
         0.00000E+00
         0.00000E+00
         0.00000E+00
         0.00000E+00
         0.00000E+00
         0.00000E+00
         0.00000E+00
         0.00000E+00
         0.00000E+00
         0.00000E+00
         0.00000E+00
         0.00000E+00
         0.00000E+00
         0.00000E+00
         0.00000E+00
         0.00000E+00
         0.00000E+00
         0.00000E+00
         0.00000E+00
         0.00000E+00
         0.00000E+00
         0.00000E+00
         0.00000E+00
         0.00000E+00
         0.00000E+00
         0.00000E+00
         0.00000E+00
         0.00000E+00
         0.00000E+00
         0.00000E+00
         0.00000E+00
         0.00000E+00
         0.00000E+00
         0.00000E+00
         0.00000E+00
         0.00000E+00
         0.00000E+00
         0.00000E+00
         0.00000E+00
         0.00000E+00
         0.00000E+00
         0.00000E+00
         0.00000E+00
         0.00000E+00
         0.00000E+00
         0.00000E+00
         0.00000E+00
         0.00000E+00
         0.00000E+00
         0.00000E+00
         0.00000E+00
         0.00000E+00
         0.00000E+00
         0.00000E+00
         0.00000E+00
         0.00000E+00
         0.00000E+00
         0.00000E+00
         0.00000E+00
         0.00000E+00
         0.00000E+00
         0.00000E+00
         0.00000E+00
         0.00000E+00
         0.00000E+00
         0.00000E+00
         0.00000E+00
         0.00000E+00
         0.00000E+00
         0.00000E+00
         0.00000E+00
         0.00000E+00
         0.00000E+00
         0.00000E+00
         0.00000E+00
         0.00000E+00
         0.00000E+00
         0.00000E+00
         0.00000E+00
         0.00000E+00
         0.00000E+00
         0.00000E+00
         0.00000E+00
         0.00000E+00
         0.00000E+00
         0.00000E+00
         0.00000E+00
         0.00000E+00
         0.00000E+00
         0.00000E+00
         0.00000E+00
         0.00000E+00
         0.00000E+00
         0.00000E+00
         0.00000E+00
         0.00000E+00
         0.00000E+00
         0.00000E+00
         0.00000E+00
         0.00000E+00
         0.00000E+00
         0.00000E+00
         0.00000E+00
         0.00000E+00
         0.00000E+00
         0.00000E+00
         0.00000E+00
         0.00000E+00
         0.00000E+00
         0.00000E+00
         0.00000E+00
         0.00000E+00
         0.00000E+00
         0.00000E+00
         0.00000E+00
         0.00000E+00
         0.00000E+00
         0.00000E+00
         0.00000E+00
         0.00000E+00
         0.00000E+00
         0.00000E+00
         0.00000E+00
         0.00000E+00
         0.00000E+00
         0.00000E+00
         0.00000E+00
         0.00000E+00
         0.00000E+00
         0.00000E+00
         0.00000E+00
         0.00000E+00
         0.00000E+00
         0.00000E+00
         0.00000E+00
         0.00000E+00
         0.00000E+00
         0.00000E+00
         0.00000E+00
         0.00000E+00
         0.00000E+00
         0.00000E+00
         0.00000E+00
         0.00000E+00
         0.00000E+00
         0.00000E+00
         0.00000E+00
         0.00000E+00
         0.00000E+00
         0.00000E+00
         0.00000E+00
         0.00000E+00
         0.00000E+00
         0.00000E+00
         0.00000E+00
         0.00000E+00
         0.00000E+00
         0.00000E+00
         0.00000E+00
         0.00000E+00
         0.00000E+00
         0.00000E+00
         0.00000E+00
         0.00000E+00
         0.00000E+00
         0.00000E+00
         0.00000E+00
         0.00000E+00
         0.00000E+00
         0.00000E+00
         0.00000E+00
         0.00000E+00
         0.00000E+00
         0.00000E+00
         0.00000E+00
         0.00000E+00
         0.00000E+00
         0.00000E+00
         0.00000E+00
         0.00000E+00
         0.00000E+00
         0.00000E+00
         0.00000E+00
         0.00000E+00
         0.00000E+00
         0.00000E+00
         0.00000E+00
         0.00000E+00
         0.00000E+00
         0.00000E+00
         0.00000E+00
         0.00000E+00
         0.00000E+00
         0.00000E+00
         0.00000E+00
         0.00000E+00
         0.00000E+00
         0.00000E+00
         0.00000E+00
         0.00000E+00
         0.00000E+00
         0.00000E+00
         0.00000E+00
         0.00000E+00
         0.00000E+00
         0.00000E+00
         0.00000E+00
         0.00000E+00
         0.00000E+00
         0.00000E+00
         0.00000E+00
         0.00000E+00
         0.00000E+00
         0.00000E+00
         0.00000E+00
         0.00000E+00
         0.00000E+00
         0.00000E+00
         0.00000E+00
         0.00000E+00
         0.00000E+00
         0.00000E+00
         0.00000E+00
         0.00000E+00
         0.00000E+00
         0.00000E+00
         0.00000E+00
         0.00000E+00
         0.00000E+00
         0.00000E+00
         0.00000E+00
         0.00000E+00
         0.00000E+00
         0.00000E+00
         0.00000E+00
         0.00000E+00
         0.00000E+00
         0.00000E+00
         0.00000E+00
         0.00000E+00
         0.00000E+00
         0.00000E+00
         0.00000E+00
         0.00000E+00
         0.00000E+00
         0.00000E+00
         0.00000E+00
         0.00000E+00
         0.00000E+00
         0.00000E+00
         0.00000E+00
         0.00000E+00
         0.00000E+00
         0.00000E+00
         0.00000E+00
         0.00000E+00
         0.00000E+00
         0.00000E+00
         0.00000E+00
         0.00000E+00
         0.00000E+00
         0.00000E+00
         0.00000E+00
         0.00000E+00
         0.00000E+00
         0.00000E+00
         0.00000E+00
         0.00000E+00
         0.00000E+00
         0.00000E+00
         0.00000E+00
         0.00000E+00
         0.00000E+00
         0.00000E+00
         0.00000E+00
         0.00000E+00
         0.00000E+00
         0.00000E+00
         0.00000E+00
         0.00000E+00
         0.00000E+00
         0.00000E+00
         0.00000E+00
         0.00000E+00
         0.00000E+00
         0.00000E+00
         0.00000E+00
         0.00000E+00
         0.00000E+00
         0.00000E+00
         0.00000E+00
         0.00000E+00
         0.00000E+00
         0.00000E+00
         0.00000E+00
         0.00000E+00
         0.00000E+00
         0.00000E+00
         0.00000E+00
         0.00000E+00
         0.00000E+00
         0.00000E+00
         0.00000E+00
         0.00000E+00
         0.00000E+00
         0.00000E+00
         0.00000E+00
         0.00000E+00
         0.00000E+00
         0.00000E+00
         0.00000E+00
         0.00000E+00
         0.00000E+00
         0.00000E+00
         0.00000E+00
         0.00000E+00
         0.00000E+00
         0.00000E+00
         0.00000E+00
         0.00000E+00
         0.00000E+00
         0.00000E+00
         0.00000E+00
         0.00000E+00
         0.00000E+00
         0.00000E+00
         0.00000E+00
         0.00000E+00
         0.00000E+00
         0.00000E+00
         0.00000E+00
         0.00000E+00
         0.00000E+00
         0.00000E+00
         0.00000E+00
         0.00000E+00
         0.00000E+00
         0.00000E+00
         0.00000E+00
         0.00000E+00
         0.00000E+00
         0.00000E+00
         0.00000E+00
         0.00000E+00
         0.00000E+00
         0.00000E+00
         0.00000E+00
         0.00000E+00
         0.00000E+00
         0.00000E+00
         0.00000E+00
         0.00000E+00
         0.00000E+00
         0.00000E+00
         0.00000E+00
         0.00000E+00
         0.00000E+00
         0.00000E+00
         0.00000E+00
         0.00000E+00
         0.00000E+00
         0.00000E+00
         0.00000E+00
         0.00000E+00
         0.00000E+00
         0.00000E+00
         0.00000E+00
         0.00000E+00
         0.00000E+00
         0.00000E+00
         0.00000E+00
         0.00000E+00
         0.00000E+00
         0.00000E+00
         0.00000E+00
         0.00000E+00
         0.00000E+00
         0.00000E+00
         0.00000E+00
         0.00000E+00
         0.00000E+00
         0.00000E+00
         0.00000E+00
         0.00000E+00
         0.00000E+00
         0.00000E+00
         0.00000E+00
         0.00000E+00
         0.00000E+00
         0.00000E+00
         0.00000E+00
         0.00000E+00
         0.00000E+00
         0.00000E+00
         0.00000E+00
         0.00000E+00
         0.00000E+00
         0.00000E+00
         0.00000E+00
         0.00000E+00
         0.00000E+00
         0.00000E+00
         0.00000E+00
         0.00000E+00
         0.00000E+00
         0.00000E+00
         0.00000E+00
         0.00000E+00
         0.00000E+00
         0.00000E+00
         0.00000E+00
         0.00000E+00
         0.00000E+00
         0.00000E+00
         0.00000E+00
         0.00000E+00
         0.00000E+00
         0.00000E+00
         0.00000E+00
         0.00000E+00
         0.00000E+00
         0.00000E+00
         0.00000E+00
         0.00000E+00
         0.00000E+00
         0.00000E+00
         0.00000E+00
         0.00000E+00
         0.00000E+00
         0.00000E+00
         0.00000E+00
         0.00000E+00
         0.00000E+00
         0.00000E+00
         0.00000E+00
         0.00000E+00
         0.00000E+00
         0.00000E+00
         0.00000E+00
         0.00000E+00
         0.00000E+00
         0.00000E+00
         0.00000E+00
         0.00000E+00
         0.00000E+00
         0.00000E+00
         0.00000E+00
         0.00000E+00
         0.00000E+00
         0.00000E+00
         0.00000E+00
         0.00000E+00
         0.00000E+00
         0.00000E+00
         0.00000E+00
         0.00000E+00
         0.00000E+00
         0.00000E+00
         0.00000E+00
         0.00000E+00
         0.00000E+00
         0.00000E+00
         0.00000E+00
         0.00000E+00
         0.00000E+00
         0.00000E+00
         0.00000E+00
         0.00000E+00
         0.00000E+00
         0.00000E+00
         0.00000E+00
         0.00000E+00
         0.00000E+00
         0.00000E+00
         0.00000E+00
         0.00000E+00
         0.00000E+00
         0.00000E+00
         0.00000E+00
         0.00000E+00
         0.00000E+00
         0.00000E+00
         0.00000E+00
         0.00000E+00
         0.00000E+00
         0.00000E+00
         0.00000E+00
         0.00000E+00
         0.00000E+00
         0.00000E+00
         0.00000E+00
         0.00000E+00
         0.00000E+00
         0.00000E+00
         0.00000E+00
         0.00000E+00
         0.00000E+00
         0.00000E+00
         0.00000E+00
         0.00000E+00
         0.00000E+00
         0.00000E+00
         0.00000E+00
         0.00000E+00
         0.00000E+00
         0.00000E+00
         0.00000E+00
         0.00000E+00
         0.00000E+00
         0.00000E+00
         0.00000E+00
         0.00000E+00
         0.00000E+00
         0.00000E+00
         0.00000E+00
         0.00000E+00
         0.00000E+00
         0.00000E+00
         0.00000E+00
         0.00000E+00
         0.00000E+00
         0.00000E+00
         0.00000E+00
         0.00000E+00
         0.00000E+00
         0.00000E+00
         0.00000E+00
         0.00000E+00
         0.00000E+00
         0.00000E+00
         0.00000E+00
         0.00000E+00
         0.00000E+00
         0.00000E+00
         0.00000E+00
         0.00000E+00
         0.00000E+00
         0.00000E+00
         0.00000E+00
         0.00000E+00
         0.00000E+00
         0.00000E+00
         0.00000E+00
         0.00000E+00
         0.00000E+00
         0.00000E+00
         0.00000E+00
         0.00000E+00
         0.00000E+00
         0.00000E+00
         0.00000E+00
         0.00000E+00
         0.00000E+00
         0.00000E+00
         0.00000E+00
         0.00000E+00
         0.00000E+00
         0.00000E+00
         0.00000E+00
         0.00000E+00
         0.00000E+00
         0.00000E+00
         0.00000E+00
         0.00000E+00
         0.00000E+00
         0.00000E+00
         0.00000E+00
         0.00000E+00
         0.00000E+00
         0.00000E+00
         0.00000E+00
         0.00000E+00
         0.00000E+00
         0.00000E+00
         0.00000E+00
         0.00000E+00
         0.00000E+00
         0.00000E+00
         0.00000E+00
         0.00000E+00
         0.00000E+00
         0.00000E+00
         0.00000E+00
         0.00000E+00
         0.00000E+00
         0.00000E+00
         0.00000E+00
         0.00000E+00
         0.00000E+00
         0.00000E+00
         0.00000E+00
         0.00000E+00
         0.00000E+00
         0.00000E+00
         0.00000E+00
         0.00000E+00
         0.00000E+00
         0.00000E+00
         0.00000E+00
         0.00000E+00
         0.00000E+00
         0.00000E+00
         0.00000E+00
         0.00000E+00
         0.00000E+00
         0.00000E+00
         0.00000E+00
         0.00000E+00
         0.00000E+00
         0.00000E+00
         0.00000E+00
         0.00000E+00
         0.00000E+00
         0.00000E+00
         0.00000E+00
         0.00000E+00
         0.00000E+00
         0.00000E+00
         0.00000E+00
         0.00000E+00
         0.00000E+00
         0.00000E+00
         0.00000E+00
         0.00000E+00
         0.00000E+00
         0.00000E+00
         0.00000E+00
         0.00000E+00
         0.00000E+00
         0.00000E+00
         0.00000E+00
         0.00000E+00
         0.00000E+00
         0.00000E+00
         0.00000E+00
         0.00000E+00
         0.00000E+00
         0.00000E+00
         0.00000E+00
         0.00000E+00
         0.00000E+00
         0.00000E+00
         0.00000E+00
         0.00000E+00
         0.00000E+00
         0.00000E+00
         0.00000E+00
         0.00000E+00
         0.00000E+00
         0.00000E+00
         0.00000E+00
         0.00000E+00
         0.00000E+00
         0.00000E+00
         0.00000E+00
         0.00000E+00
         0.00000E+00
         0.00000E+00
         0.00000E+00
         0.00000E+00
         0.00000E+00
         0.00000E+00
         0.00000E+00
         0.00000E+00
         0.00000E+00
         0.00000E+00
         0.00000E+00
         0.00000E+00
         0.00000E+00
         0.00000E+00
         0.00000E+00
         0.00000E+00
         0.00000E+00
         0.00000E+00
         0.00000E+00
         0.00000E+00
         0.00000E+00
         0.00000E+00
         0.00000E+00
         0.00000E+00
         0.00000E+00
         0.00000E+00
         0.00000E+00
         0.00000E+00
         0.00000E+00
         0.00000E+00
         0.00000E+00
         0.00000E+00
         0.00000E+00
         0.00000E+00
         0.00000E+00
         0.00000E+00
         0.00000E+00
         0.00000E+00
         0.00000E+00
         0.00000E+00
         0.00000E+00
         0.00000E+00
         0.00000E+00
         0.00000E+00
         0.00000E+00
         0.00000E+00
         0.00000E+00
         0.00000E+00
         0.00000E+00
         0.00000E+00
         0.00000E+00
         0.00000E+00
         0.00000E+00
         0.00000E+00
         0.00000E+00
         0.00000E+00
         0.00000E+00
         0.00000E+00
         0.00000E+00
         0.00000E+00
         0.00000E+00
         0.00000E+00
         0.00000E+00
         0.00000E+00
         0.00000E+00
         0.00000E+00
         0.00000E+00
         0.00000E+00
         0.00000E+00
         0.00000E+00
         0.00000E+00
         0.00000E+00
         0.00000E+00
         0.00000E+00
         0.00000E+00
         0.00000E+00
         0.00000E+00
         0.00000E+00
         0.00000E+00
         0.00000E+00
         0.00000E+00
         0.00000E+00
         0.00000E+00
         0.00000E+00
         0.00000E+00
         0.00000E+00
         0.00000E+00
         0.00000E+00
         0.00000E+00
         0.00000E+00
         0.00000E+00
         0.00000E+00
         0.00000E+00
         0.00000E+00
         0.00000E+00
         0.00000E+00
         0.00000E+00
         0.00000E+00
         0.00000E+00
         0.00000E+00
         0.00000E+00
         0.00000E+00
         0.00000E+00
         0.00000E+00
         0.00000E+00
         0.00000E+00
         0.00000E+00
         0.00000E+00
         0.00000E+00
         0.00000E+00
         0.00000E+00
         0.00000E+00
         0.00000E+00
         0.00000E+00
         0.00000E+00
         0.00000E+00
         0.00000E+00
         0.00000E+00
         0.00000E+00
         0.00000E+00
         0.00000E+00
         0.00000E+00
         0.00000E+00
         0.00000E+00
         0.00000E+00
         0.00000E+00
         0.00000E+00
         0.00000E+00
         0.00000E+00
         0.00000E+00
         0.00000E+00
         0.00000E+00
         0.00000E+00
         0.00000E+00
         0.00000E+00
         0.00000E+00
         0.00000E+00
         0.00000E+00
         0.00000E+00
         0.00000E+00
         0.00000E+00
         0.00000E+00
         0.00000E+00
         0.00000E+00
         0.00000E+00
         0.00000E+00
         0.00000E+00
         0.00000E+00
         0.00000E+00
         0.00000E+00
         0.00000E+00
         0.00000E+00
         0.00000E+00
         0.00000E+00
         0.00000E+00
         0.00000E+00
         0.00000E+00
         0.00000E+00
         0.00000E+00
         0.00000E+00
         0.00000E+00
         0.00000E+00
         0.00000E+00
         0.00000E+00
         0.00000E+00
         0.00000E+00
         0.00000E+00
         0.00000E+00
         0.00000E+00
         0.00000E+00
         0.00000E+00
         0.00000E+00
         0.00000E+00
         0.00000E+00
         0.00000E+00
         0.00000E+00
         0.00000E+00
         0.00000E+00
         0.00000E+00
         0.00000E+00
         0.00000E+00
         0.00000E+00
         0.00000E+00
         0.00000E+00
         0.00000E+00
         0.00000E+00
         0.00000E+00
         0.00000E+00
         0.00000E+00
         0.00000E+00
         0.00000E+00
         0.00000E+00
         0.00000E+00
         0.00000E+00
         0.00000E+00
         0.00000E+00
         0.00000E+00
         0.00000E+00
         0.00000E+00
         0.00000E+00
         0.00000E+00
         0.00000E+00
         0.00000E+00
         0.00000E+00
         0.00000E+00
         0.00000E+00
         0.00000E+00
         0.00000E+00
         0.00000E+00
         0.00000E+00
         0.00000E+00
         0.00000E+00
         0.00000E+00
         0.00000E+00
         0.00000E+00
         0.00000E+00
         0.00000E+00
         0.00000E+00
         0.00000E+00
         0.00000E+00
         0.00000E+00
         0.00000E+00
         0.00000E+00
         0.00000E+00
         0.00000E+00
         0.00000E+00
         0.00000E+00
         0.00000E+00
         0.00000E+00
         0.00000E+00
         0.00000E+00
         0.00000E+00
         0.00000E+00
         0.00000E+00
         0.00000E+00
         0.00000E+00
         0.00000E+00
         0.00000E+00
         0.00000E+00
         0.00000E+00
         0.00000E+00
         0.00000E+00
         0.00000E+00
         0.00000E+00
         0.00000E+00
         0.00000E+00
         0.00000E+00
         0.00000E+00
         0.00000E+00
         0.00000E+00
         0.00000E+00
         0.00000E+00
         0.00000E+00
         0.00000E+00
         0.00000E+00
         0.00000E+00
         0.00000E+00
         0.00000E+00
         0.00000E+00
         0.00000E+00
         0.00000E+00
         0.00000E+00
         0.00000E+00
         0.00000E+00
         0.00000E+00
         0.00000E+00
         0.00000E+00
         0.00000E+00
         0.00000E+00
         0.00000E+00
         0.00000E+00
         0.00000E+00
         0.00000E+00
         0.00000E+00
         0.00000E+00
         0.00000E+00
         0.00000E+00
         0.00000E+00
         0.00000E+00
         0.00000E+00
         0.00000E+00
         0.00000E+00
         0.00000E+00
         0.00000E+00
         0.00000E+00
         0.00000E+00
         0.00000E+00
         0.00000E+00
         0.00000E+00
         0.00000E+00
         0.00000E+00
         0.00000E+00
         0.00000E+00
         0.00000E+00
         0.00000E+00
         0.00000E+00
         0.00000E+00
         0.00000E+00
         0.00000E+00
         0.00000E+00
         0.00000E+00
         0.00000E+00
         0.00000E+00
         0.00000E+00
         0.00000E+00
         0.00000E+00
         0.00000E+00
         0.00000E+00
         0.00000E+00
         0.00000E+00
         0.00000E+00
         0.00000E+00
         0.00000E+00
         0.00000E+00
         0.00000E+00
         0.00000E+00
         0.00000E+00
         0.00000E+00
         0.00000E+00
         0.00000E+00
         0.00000E+00
         0.00000E+00
         0.00000E+00
         0.00000E+00
         0.00000E+00
         0.00000E+00
         0.00000E+00
         0.00000E+00
         0.00000E+00
         0.00000E+00
         0.00000E+00
         0.00000E+00
         0.00000E+00
         0.00000E+00
         0.00000E+00
         0.00000E+00
         0.00000E+00
         0.00000E+00
         0.00000E+00
         0.00000E+00
         0.00000E+00
         0.00000E+00
         0.00000E+00
         0.00000E+00
         0.00000E+00
         0.00000E+00
         0.00000E+00
         0.00000E+00
         0.00000E+00
         0.00000E+00
         0.00000E+00
         0.00000E+00
         0.00000E+00
         0.00000E+00
         0.00000E+00
         0.00000E+00
         0.00000E+00
         0.00000E+00
         0.00000E+00
         0.00000E+00
         0.00000E+00
         0.00000E+00
         0.00000E+00
         0.00000E+00
         0.00000E+00
         0.00000E+00
         0.00000E+00
         0.00000E+00
         0.00000E+00
         0.00000E+00
         0.00000E+00
         0.00000E+00
         0.00000E+00
         0.00000E+00
         0.00000E+00
         0.00000E+00
         0.00000E+00
         0.00000E+00
         0.00000E+00
         0.00000E+00
         0.00000E+00
         0.00000E+00
         0.00000E+00
         0.00000E+00
         0.00000E+00
         0.00000E+00
         0.00000E+00
         0.00000E+00
         0.00000E+00
         0.00000E+00
         0.00000E+00
         0.00000E+00
         0.00000E+00
         0.00000E+00
         0.00000E+00
         0.00000E+00
         0.00000E+00
         0.00000E+00
         0.00000E+00
         0.00000E+00
         0.00000E+00
         0.00000E+00
         0.00000E+00
         0.00000E+00
         0.00000E+00
         0.00000E+00
         0.00000E+00
         0.00000E+00
         0.00000E+00
         0.00000E+00
         0.00000E+00
         0.00000E+00
         0.00000E+00
         0.00000E+00
         0.00000E+00
         0.00000E+00
         0.00000E+00
         0.00000E+00
         0.00000E+00
         0.00000E+00
         0.00000E+00
         0.00000E+00
         0.00000E+00
         0.00000E+00
         0.00000E+00
         0.00000E+00
         0.00000E+00
         0.00000E+00
         0.00000E+00
         0.00000E+00
         0.00000E+00
         0.00000E+00
         0.00000E+00
         0.00000E+00
         0.00000E+00
         0.00000E+00
         0.00000E+00
         0.00000E+00
         0.00000E+00
         0.00000E+00
         0.00000E+00
         0.00000E+00
         0.00000E+00
         0.00000E+00
         0.00000E+00
         0.00000E+00
         0.00000E+00
         0.00000E+00
         0.00000E+00
         0.00000E+00
         0.00000E+00
         0.00000E+00
         0.00000E+00
         0.00000E+00
         0.00000E+00
         0.00000E+00
         0.00000E+00
         0.00000E+00
         0.00000E+00
         0.00000E+00
         0.00000E+00
         0.00000E+00
         0.00000E+00
         0.00000E+00
         0.00000E+00
         0.00000E+00
         0.00000E+00
         0.00000E+00
         0.00000E+00
         0.00000E+00
         0.00000E+00
         0.00000E+00
         0.00000E+00
         0.00000E+00
         0.00000E+00
         0.00000E+00
         0.00000E+00
         0.00000E+00
         0.00000E+00
         0.00000E+00
         0.00000E+00
         0.00000E+00
         0.00000E+00
         0.00000E+00
         0.00000E+00
         0.00000E+00
         0.00000E+00
         0.00000E+00
         0.00000E+00
         0.00000E+00
         0.00000E+00
         0.00000E+00
         0.00000E+00
         0.00000E+00
         0.00000E+00
         0.00000E+00
         0.00000E+00
         0.00000E+00
         0.00000E+00
         0.00000E+00
         0.00000E+00
         0.00000E+00
         0.00000E+00
         0.00000E+00
         0.00000E+00
         0.00000E+00
         0.00000E+00
         0.00000E+00
         0.00000E+00
         0.00000E+00
         0.00000E+00
         0.00000E+00
         0.00000E+00
         0.00000E+00
         0.00000E+00
         0.00000E+00
         0.00000E+00
         0.00000E+00
         0.00000E+00
         0.00000E+00
         0.00000E+00
         0.00000E+00
         0.00000E+00
         0.00000E+00
         0.00000E+00
         0.00000E+00
         0.00000E+00
         0.00000E+00
         0.00000E+00
         0.00000E+00
         0.00000E+00
         0.00000E+00
         0.00000E+00
         0.00000E+00
         0.00000E+00
         0.00000E+00
         0.00000E+00
         0.00000E+00
         0.00000E+00
         0.00000E+00
         0.00000E+00
         0.00000E+00
         0.00000E+00
         0.00000E+00
         0.00000E+00
         0.00000E+00
         0.00000E+00
         0.00000E+00
         0.00000E+00
         0.00000E+00
         0.00000E+00
         0.00000E+00
         0.00000E+00
         0.00000E+00
         0.00000E+00
         0.00000E+00
         0.00000E+00
         0.00000E+00
         0.00000E+00
         0.00000E+00
         0.00000E+00
         0.00000E+00
         0.00000E+00
         0.00000E+00
         0.00000E+00
         0.00000E+00
         0.00000E+00
         0.00000E+00
         0.00000E+00
         0.00000E+00
         0.00000E+00
         0.00000E+00
         0.00000E+00
         0.00000E+00
         0.00000E+00
         0.00000E+00
         0.00000E+00
         0.00000E+00
         0.00000E+00
         0.00000E+00
         0.00000E+00
         0.00000E+00
         0.00000E+00
         0.00000E+00
         0.00000E+00
         0.00000E+00
         0.00000E+00
         0.00000E+00
         0.00000E+00
         0.00000E+00
         0.00000E+00
         0.00000E+00
         0.00000E+00
         0.00000E+00
         0.00000E+00
         0.00000E+00
         0.00000E+00
         0.00000E+00
         0.00000E+00
         0.00000E+00
         0.00000E+00
         0.00000E+00
         0.00000E+00
         0.00000E+00
         0.00000E+00
         0.00000E+00
         0.00000E+00
         0.00000E+00
         0.00000E+00
         0.00000E+00
         0.00000E+00
         0.00000E+00
         0.00000E+00
         0.00000E+00
         0.00000E+00
         0.00000E+00
         0.00000E+00
         0.00000E+00
         0.00000E+00
         0.00000E+00
         0.00000E+00
         0.00000E+00
         0.00000E+00
         0.00000E+00
         0.00000E+00
         0.00000E+00
         0.00000E+00
         0.00000E+00
         0.00000E+00
         0.00000E+00
         0.00000E+00
         0.00000E+00
         0.00000E+00
         0.00000E+00
         0.00000E+00
         0.00000E+00
         0.00000E+00
         0.00000E+00
         0.00000E+00
         0.00000E+00
         0.00000E+00
         0.00000E+00
         0.00000E+00
         0.00000E+00
         0.00000E+00
         0.00000E+00
         0.00000E+00
         0.00000E+00
         0.00000E+00
         0.00000E+00
         0.00000E+00
         0.00000E+00
         0.00000E+00
         0.00000E+00
         0.00000E+00
         0.00000E+00
         0.00000E+00
         0.00000E+00
         0.00000E+00
         0.00000E+00
         0.00000E+00
         0.00000E+00
         0.00000E+00
         0.00000E+00
         0.00000E+00
         0.00000E+00
         0.00000E+00
         0.00000E+00
         0.00000E+00
         0.00000E+00
         0.00000E+00
         0.00000E+00
         0.00000E+00
         0.00000E+00
         0.00000E+00
         0.00000E+00
         0.00000E+00
         0.00000E+00
         0.00000E+00
         0.00000E+00
         0.00000E+00
         0.00000E+00
         0.00000E+00
         0.00000E+00
         0.00000E+00
         0.00000E+00
         0.00000E+00
         0.00000E+00
         0.00000E+00
         0.00000E+00
         0.00000E+00
         0.00000E+00
         0.00000E+00
         0.00000E+00
         0.00000E+00
         0.00000E+00
         0.00000E+00
         0.00000E+00
         0.00000E+00
         0.00000E+00
         0.00000E+00
         0.00000E+00
         0.00000E+00
         0.00000E+00
         0.00000E+00
         0.00000E+00
         0.00000E+00
         0.00000E+00
         0.00000E+00
         0.00000E+00
         0.00000E+00
         0.00000E+00
         0.00000E+00
         0.00000E+00
         0.00000E+00
         0.00000E+00
         0.00000E+00
         0.00000E+00
         0.00000E+00
         0.00000E+00
         0.00000E+00
         0.00000E+00
         0.00000E+00
         0.00000E+00
         0.00000E+00
         0.00000E+00
         0.00000E+00
         0.00000E+00
         0.00000E+00
         0.00000E+00
         0.00000E+00
         0.00000E+00
         0.00000E+00
         0.00000E+00
         0.00000E+00
         0.00000E+00
         0.00000E+00
         0.00000E+00
         0.00000E+00
         0.00000E+00
         0.00000E+00
         0.00000E+00
         0.00000E+00
         0.00000E+00
         0.00000E+00
         0.00000E+00
         0.00000E+00
         0.00000E+00
         0.00000E+00
         0.00000E+00
         0.00000E+00
         0.00000E+00
         0.00000E+00
         0.00000E+00
         0.00000E+00
         0.00000E+00
         0.00000E+00
         0.00000E+00
         0.00000E+00
         0.00000E+00
         0.00000E+00
         0.00000E+00
         0.00000E+00
         0.00000E+00
         0.00000E+00
         0.00000E+00
         0.00000E+00
         0.00000E+00
         0.00000E+00
         0.00000E+00
         0.00000E+00
         0.00000E+00
         0.00000E+00
         0.00000E+00
         0.00000E+00
         0.00000E+00
         0.00000E+00
         0.00000E+00
         0.00000E+00
         0.00000E+00
         0.00000E+00
         0.00000E+00
         0.00000E+00
         0.00000E+00
         0.00000E+00
         0.00000E+00
         0.00000E+00
         0.00000E+00
         0.00000E+00
         0.00000E+00
         0.00000E+00
         0.00000E+00
         0.00000E+00
         0.00000E+00
         0.00000E+00
         0.00000E+00
         0.00000E+00
         0.00000E+00
         0.00000E+00
         0.00000E+00
         0.00000E+00
         0.00000E+00
         0.00000E+00
         0.00000E+00
         0.00000E+00
         0.00000E+00
         0.00000E+00
         0.00000E+00
         0.00000E+00
         0.00000E+00
         0.00000E+00
         0.00000E+00
         0.00000E+00
         0.00000E+00
         0.00000E+00
         0.00000E+00
         0.00000E+00
         0.00000E+00
         0.00000E+00
         0.00000E+00
         0.00000E+00
         0.00000E+00
         0.00000E+00
         0.00000E+00
         0.00000E+00
         0.00000E+00
         0.00000E+00
         0.00000E+00
         0.00000E+00
         0.00000E+00
         0.00000E+00
         0.00000E+00
         0.00000E+00
         0.00000E+00
         0.00000E+00
         0.00000E+00
         0.00000E+00
         0.00000E+00
         0.00000E+00
         0.00000E+00
         0.00000E+00
         0.00000E+00
         0.00000E+00
         0.00000E+00
         0.00000E+00
         0.00000E+00
         0.00000E+00
         0.00000E+00
         0.00000E+00
         0.00000E+00
         0.00000E+00
         0.00000E+00
         0.00000E+00
         0.00000E+00
         0.00000E+00
         0.00000E+00
         0.00000E+00
         0.00000E+00
         0.00000E+00
         0.00000E+00
         0.00000E+00
         0.00000E+00
         0.00000E+00
         0.00000E+00
         0.00000E+00
         0.00000E+00
         0.00000E+00
         0.00000E+00
         0.00000E+00
         0.00000E+00
         0.00000E+00
         0.00000E+00
         0.00000E+00
         0.00000E+00
         0.00000E+00
         0.00000E+00
         0.00000E+00
         0.00000E+00
         0.00000E+00
         0.00000E+00
         0.00000E+00
         0.00000E+00
         0.00000E+00
         0.00000E+00
         0.00000E+00
         0.00000E+00
         0.00000E+00
         0.00000E+00
         0.00000E+00
         0.00000E+00
         0.00000E+00
         0.00000E+00
         0.00000E+00
         0.00000E+00
         0.00000E+00
         0.00000E+00
         0.00000E+00
         0.00000E+00
         0.00000E+00
         0.00000E+00
         0.00000E+00
         0.00000E+00
         0.00000E+00
         0.00000E+00
         0.00000E+00
         0.00000E+00
         0.00000E+00
         0.00000E+00
         0.00000E+00
         0.00000E+00
         0.00000E+00
         0.00000E+00
         0.00000E+00
         0.00000E+00
         0.00000E+00
         0.00000E+00
         0.00000E+00
         0.00000E+00
         0.00000E+00
         0.00000E+00
         0.00000E+00
         0.00000E+00
         0.00000E+00
         0.00000E+00
         0.00000E+00
         0.00000E+00
         0.00000E+00
         0.00000E+00
         0.00000E+00
         0.00000E+00
         0.00000E+00
         0.00000E+00
         0.00000E+00
         0.00000E+00
         0.00000E+00
         0.00000E+00
         0.00000E+00
         0.00000E+00
         0.00000E+00
         0.00000E+00
         0.00000E+00
         0.00000E+00
         0.00000E+00
         0.00000E+00
         0.00000E+00
         0.00000E+00
         0.00000E+00
         0.00000E+00
         0.00000E+00
         0.00000E+00
         0.00000E+00
         0.00000E+00
         0.00000E+00
         0.00000E+00
         0.00000E+00
         0.00000E+00
         0.00000E+00
         0.00000E+00
         0.00000E+00
         0.00000E+00
         0.00000E+00
         0.00000E+00
         0.00000E+00
         0.00000E+00
         0.00000E+00
         0.00000E+00
         0.00000E+00
         0.00000E+00
         0.00000E+00
         0.00000E+00
         0.00000E+00
         0.00000E+00
         0.00000E+00
         0.00000E+00
         0.00000E+00
         0.00000E+00
         0.00000E+00
         0.00000E+00
         0.00000E+00
         0.00000E+00
         0.00000E+00
         0.00000E+00
         0.00000E+00
         0.00000E+00
         0.00000E+00
         0.00000E+00
         0.00000E+00
         0.00000E+00
         0.00000E+00
         0.00000E+00
         0.00000E+00
         0.00000E+00
         0.00000E+00
         0.00000E+00
         0.00000E+00
         0.00000E+00
         0.00000E+00
         0.00000E+00
         0.00000E+00
         0.00000E+00
         0.00000E+00
         0.00000E+00
         0.00000E+00
         0.00000E+00
         0.00000E+00
         0.00000E+00
         0.00000E+00
         0.00000E+00
         0.00000E+00
         0.00000E+00
         0.00000E+00
         0.00000E+00
         0.00000E+00
         0.00000E+00
         0.00000E+00
         0.00000E+00
         0.00000E+00
         0.00000E+00
         0.00000E+00
         0.00000E+00
         0.00000E+00
         0.00000E+00
         0.00000E+00
         0.00000E+00
         0.00000E+00
         0.00000E+00
         0.00000E+00
         0.00000E+00
         0.00000E+00
         0.00000E+00
         0.00000E+00
         0.00000E+00
         0.00000E+00
  
SCALARS                   max_wave_vel  double 1
LOOKUP_TABLE default
         0.00000E+00
         0.00000E+00
         0.00000E+00
         0.00000E+00
         0.00000E+00
         0.00000E+00
         0.00000E+00
         0.00000E+00
         0.00000E+00
         0.00000E+00
         0.00000E+00
         0.00000E+00
         0.00000E+00
         0.00000E+00
         0.00000E+00
         0.00000E+00
         0.00000E+00
         0.00000E+00
         0.00000E+00
         0.00000E+00
         0.00000E+00
         0.00000E+00
         0.00000E+00
         0.00000E+00
         0.00000E+00
         0.00000E+00
         0.00000E+00
         0.00000E+00
         0.00000E+00
         0.00000E+00
         0.00000E+00
         0.00000E+00
         0.00000E+00
         0.00000E+00
         0.00000E+00
         0.00000E+00
         0.00000E+00
         0.00000E+00
         0.00000E+00
         0.00000E+00
         0.00000E+00
         0.00000E+00
         0.00000E+00
         0.00000E+00
         0.00000E+00
         0.00000E+00
         0.00000E+00
         0.00000E+00
         0.00000E+00
         0.00000E+00
         0.00000E+00
         0.00000E+00
         0.00000E+00
         0.00000E+00
         0.00000E+00
         0.00000E+00
         0.00000E+00
         0.00000E+00
         0.00000E+00
         0.00000E+00
         0.00000E+00
         0.00000E+00
         0.00000E+00
         0.00000E+00
         0.00000E+00
         0.00000E+00
         0.00000E+00
         0.00000E+00
         0.00000E+00
         0.00000E+00
         0.00000E+00
         0.00000E+00
         0.00000E+00
         0.00000E+00
         0.00000E+00
         0.00000E+00
         0.00000E+00
         0.00000E+00
         0.00000E+00
         0.00000E+00
         0.00000E+00
         0.00000E+00
         0.00000E+00
         0.00000E+00
         0.00000E+00
         0.00000E+00
         0.00000E+00
         0.00000E+00
         0.00000E+00
         0.00000E+00
         0.00000E+00
         0.00000E+00
         0.00000E+00
         0.00000E+00
         0.00000E+00
         0.00000E+00
         0.00000E+00
         0.00000E+00
         0.00000E+00
         0.00000E+00
         0.00000E+00
         0.00000E+00
         0.00000E+00
         0.00000E+00
         0.00000E+00
         0.00000E+00
         0.00000E+00
         0.00000E+00
         0.00000E+00
         0.00000E+00
         0.00000E+00
         0.00000E+00
         0.00000E+00
         0.00000E+00
         0.00000E+00
         0.00000E+00
         0.00000E+00
         0.00000E+00
         0.00000E+00
         0.00000E+00
         0.00000E+00
         0.00000E+00
         0.00000E+00
         0.00000E+00
         0.00000E+00
         0.00000E+00
         0.00000E+00
         0.00000E+00
         0.00000E+00
         0.00000E+00
         0.00000E+00
         0.00000E+00
         0.00000E+00
         0.00000E+00
         0.00000E+00
         0.00000E+00
         0.00000E+00
         0.00000E+00
         0.00000E+00
         0.00000E+00
         0.00000E+00
         0.00000E+00
         0.00000E+00
         0.00000E+00
         0.00000E+00
         0.00000E+00
         0.00000E+00
         0.00000E+00
         0.00000E+00
         0.00000E+00
         0.00000E+00
         0.00000E+00
         0.00000E+00
         0.00000E+00
         0.00000E+00
         0.00000E+00
         0.00000E+00
         0.00000E+00
         0.00000E+00
         0.00000E+00
         0.00000E+00
         0.00000E+00
         0.00000E+00
         0.00000E+00
         0.00000E+00
         0.00000E+00
         0.00000E+00
         0.00000E+00
         0.00000E+00
         0.00000E+00
         0.00000E+00
         0.00000E+00
         0.00000E+00
         0.00000E+00
         0.00000E+00
         0.00000E+00
         0.00000E+00
         0.00000E+00
         0.00000E+00
         0.00000E+00
         0.00000E+00
         0.00000E+00
         0.00000E+00
         0.00000E+00
         0.00000E+00
         0.00000E+00
         0.00000E+00
         0.00000E+00
         0.00000E+00
         0.00000E+00
         0.00000E+00
         0.00000E+00
         0.00000E+00
         0.00000E+00
         0.00000E+00
         0.00000E+00
         0.00000E+00
         0.00000E+00
         0.00000E+00
         0.00000E+00
         0.00000E+00
         0.00000E+00
         0.00000E+00
         0.00000E+00
         0.00000E+00
         0.00000E+00
         0.00000E+00
         0.00000E+00
         0.00000E+00
         0.00000E+00
         0.00000E+00
         0.00000E+00
         0.00000E+00
         0.00000E+00
         0.00000E+00
         0.00000E+00
         0.00000E+00
         0.00000E+00
         0.00000E+00
         0.00000E+00
         0.00000E+00
         0.00000E+00
         0.00000E+00
         0.00000E+00
         0.00000E+00
         0.00000E+00
         0.00000E+00
         0.00000E+00
         0.00000E+00
         0.00000E+00
         0.00000E+00
         0.00000E+00
         0.00000E+00
         0.00000E+00
         0.00000E+00
         0.00000E+00
         0.00000E+00
         0.00000E+00
         0.00000E+00
         0.00000E+00
         0.00000E+00
         0.00000E+00
         0.00000E+00
         0.00000E+00
         0.00000E+00
         0.00000E+00
         0.00000E+00
         0.00000E+00
         0.00000E+00
         0.00000E+00
         0.00000E+00
         0.00000E+00
         0.00000E+00
         0.00000E+00
         0.00000E+00
         0.00000E+00
         0.00000E+00
         0.00000E+00
         0.00000E+00
         0.00000E+00
         0.00000E+00
         0.00000E+00
         0.00000E+00
         0.00000E+00
         0.00000E+00
         0.00000E+00
         0.00000E+00
         0.00000E+00
         0.00000E+00
         0.00000E+00
         0.00000E+00
         0.00000E+00
         0.00000E+00
         0.00000E+00
         0.00000E+00
         0.00000E+00
         0.00000E+00
         0.00000E+00
         0.00000E+00
         0.00000E+00
         0.00000E+00
         0.00000E+00
         0.00000E+00
         0.00000E+00
         0.00000E+00
         0.00000E+00
         0.00000E+00
         0.00000E+00
         0.00000E+00
         0.00000E+00
         0.00000E+00
         0.00000E+00
         0.00000E+00
         0.00000E+00
         0.00000E+00
         0.00000E+00
         0.00000E+00
         0.00000E+00
         0.00000E+00
         0.00000E+00
         0.00000E+00
         0.00000E+00
         0.00000E+00
         0.00000E+00
         0.00000E+00
         0.00000E+00
         0.00000E+00
         0.00000E+00
         0.00000E+00
         0.00000E+00
         0.00000E+00
         0.00000E+00
         0.00000E+00
         0.00000E+00
         0.00000E+00
         0.00000E+00
         0.00000E+00
         0.00000E+00
         0.00000E+00
         0.00000E+00
         0.00000E+00
         0.00000E+00
         0.00000E+00
         0.00000E+00
         0.00000E+00
         0.00000E+00
         0.00000E+00
         0.00000E+00
         0.00000E+00
         0.00000E+00
         0.00000E+00
         0.00000E+00
         0.00000E+00
         0.00000E+00
         0.00000E+00
         0.00000E+00
         0.00000E+00
         0.00000E+00
         0.00000E+00
         0.00000E+00
         0.00000E+00
         0.00000E+00
         0.00000E+00
         0.00000E+00
         0.00000E+00
         0.00000E+00
         0.00000E+00
         0.00000E+00
         0.00000E+00
         0.00000E+00
         0.00000E+00
         0.00000E+00
         0.00000E+00
         0.00000E+00
         0.00000E+00
         0.00000E+00
         0.00000E+00
         0.00000E+00
         0.00000E+00
         0.00000E+00
         0.00000E+00
         0.00000E+00
         0.00000E+00
         0.00000E+00
         0.00000E+00
         0.00000E+00
         0.00000E+00
         0.00000E+00
         0.00000E+00
         0.00000E+00
         0.00000E+00
         0.00000E+00
         0.00000E+00
         0.00000E+00
         0.00000E+00
         0.00000E+00
         0.00000E+00
         0.00000E+00
         0.00000E+00
         0.00000E+00
         0.00000E+00
         0.00000E+00
         0.00000E+00
         0.00000E+00
         0.00000E+00
         0.00000E+00
         0.00000E+00
         0.00000E+00
         0.00000E+00
         0.00000E+00
         0.00000E+00
         0.00000E+00
         0.00000E+00
         0.00000E+00
         0.00000E+00
         0.00000E+00
         0.00000E+00
         0.00000E+00
         0.00000E+00
         0.00000E+00
         0.00000E+00
         0.00000E+00
         0.00000E+00
         0.00000E+00
         0.00000E+00
         0.00000E+00
         0.00000E+00
         0.00000E+00
         0.00000E+00
         0.00000E+00
         0.00000E+00
         0.00000E+00
         0.00000E+00
         0.00000E+00
         0.00000E+00
         0.00000E+00
         0.00000E+00
         0.00000E+00
         0.00000E+00
         0.00000E+00
         0.00000E+00
         0.00000E+00
         0.00000E+00
         0.00000E+00
         0.00000E+00
         0.00000E+00
         0.00000E+00
         0.00000E+00
         0.00000E+00
         0.00000E+00
         0.00000E+00
         0.00000E+00
         0.00000E+00
         0.00000E+00
         0.00000E+00
         0.00000E+00
         0.00000E+00
         0.00000E+00
         0.00000E+00
         0.00000E+00
         0.00000E+00
         0.00000E+00
         0.00000E+00
         0.00000E+00
         0.00000E+00
         0.00000E+00
         0.00000E+00
         0.00000E+00
         0.00000E+00
         0.00000E+00
         0.00000E+00
         0.00000E+00
         0.00000E+00
         0.00000E+00
         0.00000E+00
         0.00000E+00
         0.00000E+00
         0.00000E+00
         0.00000E+00
         0.00000E+00
         0.00000E+00
         0.00000E+00
         0.00000E+00
         0.00000E+00
         0.00000E+00
         0.00000E+00
         0.00000E+00
         0.00000E+00
         0.00000E+00
         0.00000E+00
         0.00000E+00
         0.00000E+00
         0.00000E+00
         0.00000E+00
         0.00000E+00
         0.00000E+00
         0.00000E+00
         0.00000E+00
         0.00000E+00
         0.00000E+00
         0.00000E+00
         0.00000E+00
         0.00000E+00
         0.00000E+00
         0.00000E+00
         0.00000E+00
         0.00000E+00
         0.00000E+00
         0.00000E+00
         0.00000E+00
         0.00000E+00
         0.00000E+00
         0.00000E+00
         0.00000E+00
         0.00000E+00
         0.00000E+00
         0.00000E+00
         0.00000E+00
         0.00000E+00
         0.00000E+00
         0.00000E+00
         0.00000E+00
         0.00000E+00
         0.00000E+00
         0.00000E+00
         0.00000E+00
         0.00000E+00
         0.00000E+00
         0.00000E+00
         0.00000E+00
         0.00000E+00
         0.00000E+00
         0.00000E+00
         0.00000E+00
         0.00000E+00
         0.00000E+00
         0.00000E+00
         0.00000E+00
         0.00000E+00
         0.00000E+00
         0.00000E+00
         0.00000E+00
         0.00000E+00
         0.00000E+00
         0.00000E+00
         0.00000E+00
         0.00000E+00
         0.00000E+00
         0.00000E+00
         0.00000E+00
         0.00000E+00
         0.00000E+00
         0.00000E+00
         0.00000E+00
         0.00000E+00
         0.00000E+00
         0.00000E+00
         0.00000E+00
         0.00000E+00
         0.00000E+00
         0.00000E+00
         0.00000E+00
         0.00000E+00
         0.00000E+00
         0.00000E+00
         0.00000E+00
         0.00000E+00
         0.00000E+00
         0.00000E+00
         0.00000E+00
         0.00000E+00
         0.00000E+00
         0.00000E+00
         0.00000E+00
         0.00000E+00
         0.00000E+00
         0.00000E+00
         0.00000E+00
         0.00000E+00
         0.00000E+00
         0.00000E+00
         0.00000E+00
         0.00000E+00
         0.00000E+00
         0.00000E+00
         0.00000E+00
         0.00000E+00
         0.00000E+00
         0.00000E+00
         0.00000E+00
         0.00000E+00
         0.00000E+00
         0.00000E+00
         0.00000E+00
         0.00000E+00
         0.00000E+00
         0.00000E+00
         0.00000E+00
         0.00000E+00
         0.00000E+00
         0.00000E+00
         0.00000E+00
         0.00000E+00
         0.00000E+00
         0.00000E+00
         0.00000E+00
         0.00000E+00
         0.00000E+00
         0.00000E+00
         0.00000E+00
         0.00000E+00
         0.00000E+00
         0.00000E+00
         0.00000E+00
         0.00000E+00
         0.00000E+00
         0.00000E+00
         0.00000E+00
         0.00000E+00
         0.00000E+00
         0.00000E+00
         0.00000E+00
         0.00000E+00
         0.00000E+00
         0.00000E+00
         0.00000E+00
         0.00000E+00
         0.00000E+00
         0.00000E+00
         0.00000E+00
         0.00000E+00
         0.00000E+00
         0.00000E+00
         0.00000E+00
         0.00000E+00
         0.00000E+00
         0.00000E+00
         0.00000E+00
         0.00000E+00
         0.00000E+00
         0.00000E+00
         0.00000E+00
         0.00000E+00
         0.00000E+00
         0.00000E+00
         0.00000E+00
         0.00000E+00
         0.00000E+00
         0.00000E+00
         0.00000E+00
         0.00000E+00
         0.00000E+00
         0.00000E+00
         0.00000E+00
         0.00000E+00
         0.00000E+00
         0.00000E+00
         0.00000E+00
         0.00000E+00
         0.00000E+00
         0.00000E+00
         0.00000E+00
         0.00000E+00
         0.00000E+00
         0.00000E+00
         0.00000E+00
         0.00000E+00
         0.00000E+00
         0.00000E+00
         0.00000E+00
         0.00000E+00
         0.00000E+00
         0.00000E+00
         0.00000E+00
         0.00000E+00
         0.00000E+00
         0.00000E+00
         0.00000E+00
         0.00000E+00
         0.00000E+00
         0.00000E+00
         0.00000E+00
         0.00000E+00
         0.00000E+00
         0.00000E+00
         0.00000E+00
         0.00000E+00
         0.00000E+00
         0.00000E+00
         0.00000E+00
         0.00000E+00
         0.00000E+00
         0.00000E+00
         0.00000E+00
         0.00000E+00
         0.00000E+00
         0.00000E+00
         0.00000E+00
         0.00000E+00
         0.00000E+00
         0.00000E+00
         0.00000E+00
         0.00000E+00
         0.00000E+00
         0.00000E+00
         0.00000E+00
         0.00000E+00
         0.00000E+00
         0.00000E+00
         0.00000E+00
         0.00000E+00
         0.00000E+00
         0.00000E+00
         0.00000E+00
         0.00000E+00
         0.00000E+00
         0.00000E+00
         0.00000E+00
         0.00000E+00
         0.00000E+00
         0.00000E+00
         0.00000E+00
         0.00000E+00
         0.00000E+00
         0.00000E+00
         0.00000E+00
         0.00000E+00
         0.00000E+00
         0.00000E+00
         0.00000E+00
         0.00000E+00
         0.00000E+00
         0.00000E+00
         0.00000E+00
         0.00000E+00
         0.00000E+00
         0.00000E+00
         0.00000E+00
         0.00000E+00
         0.00000E+00
         0.00000E+00
         0.00000E+00
         0.00000E+00
         0.00000E+00
         0.00000E+00
         0.00000E+00
         0.00000E+00
         0.00000E+00
         0.00000E+00
         0.00000E+00
         0.00000E+00
         0.00000E+00
         0.00000E+00
         0.00000E+00
         0.00000E+00
         0.00000E+00
         0.00000E+00
         0.00000E+00
         0.00000E+00
         0.00000E+00
         0.00000E+00
         0.00000E+00
         0.00000E+00
         0.00000E+00
         0.00000E+00
         0.00000E+00
         0.00000E+00
         0.00000E+00
         0.00000E+00
         0.00000E+00
         0.00000E+00
         0.00000E+00
         0.00000E+00
         0.00000E+00
         0.00000E+00
         0.00000E+00
         0.00000E+00
         0.00000E+00
         0.00000E+00
         0.00000E+00
         0.00000E+00
         0.00000E+00
         0.00000E+00
         0.00000E+00
         0.00000E+00
         0.00000E+00
         0.00000E+00
         0.00000E+00
         0.00000E+00
         0.00000E+00
         0.00000E+00
         0.00000E+00
         0.00000E+00
         0.00000E+00
         0.00000E+00
         0.00000E+00
         0.00000E+00
         0.00000E+00
         0.00000E+00
         0.00000E+00
         0.00000E+00
         0.00000E+00
         0.00000E+00
         0.00000E+00
         0.00000E+00
         0.00000E+00
         0.00000E+00
         0.00000E+00
         0.00000E+00
         0.00000E+00
         0.00000E+00
         0.00000E+00
         0.00000E+00
         0.00000E+00
         0.00000E+00
         0.00000E+00
         0.00000E+00
         0.00000E+00
         0.00000E+00
         0.00000E+00
         0.00000E+00
         0.00000E+00
         0.00000E+00
         0.00000E+00
         0.00000E+00
         0.00000E+00
         0.00000E+00
         0.00000E+00
         0.00000E+00
         0.00000E+00
         0.00000E+00
         0.00000E+00
         0.00000E+00
         0.00000E+00
         0.00000E+00
         0.00000E+00
         0.00000E+00
         0.00000E+00
         0.00000E+00
         0.00000E+00
         0.00000E+00
         0.00000E+00
         0.00000E+00
         0.00000E+00
         0.00000E+00
         0.00000E+00
         0.00000E+00
         0.00000E+00
         0.00000E+00
         0.00000E+00
         0.00000E+00
         0.00000E+00
         0.00000E+00
         0.00000E+00
         0.00000E+00
         0.00000E+00
         0.00000E+00
         0.00000E+00
         0.00000E+00
         0.00000E+00
         0.00000E+00
         0.00000E+00
         0.00000E+00
         0.00000E+00
         0.00000E+00
         0.00000E+00
         0.00000E+00
         0.00000E+00
         0.00000E+00
         0.00000E+00
         0.00000E+00
         0.00000E+00
         0.00000E+00
         0.00000E+00
         0.00000E+00
         0.00000E+00
         0.00000E+00
         0.00000E+00
         0.00000E+00
         0.00000E+00
         0.00000E+00
         0.00000E+00
         0.00000E+00
         0.00000E+00
         0.00000E+00
         0.00000E+00
         0.00000E+00
         0.00000E+00
         0.00000E+00
         0.00000E+00
         0.00000E+00
         0.00000E+00
         0.00000E+00
         0.00000E+00
         0.00000E+00
         0.00000E+00
         0.00000E+00
         0.00000E+00
         0.00000E+00
         0.00000E+00
         0.00000E+00
         0.00000E+00
         0.00000E+00
         0.00000E+00
         0.00000E+00
         0.00000E+00
         0.00000E+00
         0.00000E+00
         0.00000E+00
         0.00000E+00
         0.00000E+00
         0.00000E+00
         0.00000E+00
         0.00000E+00
         0.00000E+00
         0.00000E+00
         0.00000E+00
         0.00000E+00
         0.00000E+00
         0.00000E+00
         0.00000E+00
         0.00000E+00
         0.00000E+00
         0.00000E+00
         0.00000E+00
         0.00000E+00
         0.00000E+00
         0.00000E+00
         0.00000E+00
         0.00000E+00
         0.00000E+00
         0.00000E+00
         0.00000E+00
         0.00000E+00
         0.00000E+00
         0.00000E+00
         0.00000E+00
         0.00000E+00
         0.00000E+00
         0.00000E+00
         0.00000E+00
         0.00000E+00
         0.00000E+00
         0.00000E+00
         0.00000E+00
         0.00000E+00
         0.00000E+00
         0.00000E+00
         0.00000E+00
         0.00000E+00
         0.00000E+00
         0.00000E+00
         0.00000E+00
         0.00000E+00
         0.00000E+00
         0.00000E+00
         0.00000E+00
         0.00000E+00
         0.00000E+00
         0.00000E+00
         0.00000E+00
         0.00000E+00
         0.00000E+00
         0.00000E+00
         0.00000E+00
         0.00000E+00
         0.00000E+00
         0.00000E+00
         0.00000E+00
         0.00000E+00
         0.00000E+00
         0.00000E+00
         0.00000E+00
         0.00000E+00
         0.00000E+00
         0.00000E+00
         0.00000E+00
         0.00000E+00
         0.00000E+00
         0.00000E+00
         0.00000E+00
         0.00000E+00
         0.00000E+00
         0.00000E+00
         0.00000E+00
         0.00000E+00
         0.00000E+00
         0.00000E+00
         0.00000E+00
         0.00000E+00
         0.00000E+00
         0.00000E+00
         0.00000E+00
         0.00000E+00
         0.00000E+00
         0.00000E+00
         0.00000E+00
         0.00000E+00
         0.00000E+00
         0.00000E+00
         0.00000E+00
         0.00000E+00
         0.00000E+00
         0.00000E+00
         0.00000E+00
         0.00000E+00
         0.00000E+00
         0.00000E+00
         0.00000E+00
         0.00000E+00
         0.00000E+00
         0.00000E+00
         0.00000E+00
         0.00000E+00
         0.00000E+00
         0.00000E+00
         0.00000E+00
         0.00000E+00
         0.00000E+00
         0.00000E+00
         0.00000E+00
         0.00000E+00
         0.00000E+00
         0.00000E+00
         0.00000E+00
         0.00000E+00
         0.00000E+00
         0.00000E+00
         0.00000E+00
         0.00000E+00
         0.00000E+00
         0.00000E+00
         0.00000E+00
         0.00000E+00
         0.00000E+00
         0.00000E+00
         0.00000E+00
         0.00000E+00
         0.00000E+00
         0.00000E+00
         0.00000E+00
         0.00000E+00
         0.00000E+00
         0.00000E+00
         0.00000E+00
         0.00000E+00
         0.00000E+00
         0.00000E+00
         0.00000E+00
         0.00000E+00
         0.00000E+00
         0.00000E+00
         0.00000E+00
         0.00000E+00
         0.00000E+00
         0.00000E+00
         0.00000E+00
         0.00000E+00
         0.00000E+00
         0.00000E+00
         0.00000E+00
         0.00000E+00
         0.00000E+00
         0.00000E+00
         0.00000E+00
         0.00000E+00
         0.00000E+00
         0.00000E+00
         0.00000E+00
         0.00000E+00
         0.00000E+00
         0.00000E+00
         0.00000E+00
         0.00000E+00
         0.00000E+00
         0.00000E+00
         0.00000E+00
         0.00000E+00
         0.00000E+00
         0.00000E+00
         0.00000E+00
         0.00000E+00
         0.00000E+00
         0.00000E+00
         0.00000E+00
         0.00000E+00
         0.00000E+00
         0.00000E+00
         0.00000E+00
         0.00000E+00
         0.00000E+00
         0.00000E+00
         0.00000E+00
         0.00000E+00
         0.00000E+00
         0.00000E+00
         0.00000E+00
         0.00000E+00
         0.00000E+00
         0.00000E+00
         0.00000E+00
         0.00000E+00
         0.00000E+00
         0.00000E+00
         0.00000E+00
         0.00000E+00
         0.00000E+00
         0.00000E+00
         0.00000E+00
         0.00000E+00
         0.00000E+00
         0.00000E+00
         0.00000E+00
         0.00000E+00
         0.00000E+00
         0.00000E+00
         0.00000E+00
         0.00000E+00
         0.00000E+00
         0.00000E+00
         0.00000E+00
         0.00000E+00
         0.00000E+00
         0.00000E+00
         0.00000E+00
         0.00000E+00
         0.00000E+00
         0.00000E+00
         0.00000E+00
         0.00000E+00
         0.00000E+00
         0.00000E+00
         0.00000E+00
         0.00000E+00
         0.00000E+00
         0.00000E+00
         0.00000E+00
         0.00000E+00
         0.00000E+00
         0.00000E+00
         0.00000E+00
         0.00000E+00
         0.00000E+00
         0.00000E+00
         0.00000E+00
         0.00000E+00
         0.00000E+00
         0.00000E+00
         0.00000E+00
         0.00000E+00
         0.00000E+00
         0.00000E+00
         0.00000E+00
         0.00000E+00
         0.00000E+00
         0.00000E+00
         0.00000E+00
         0.00000E+00
         0.00000E+00
         0.00000E+00
         0.00000E+00
         0.00000E+00
         0.00000E+00
         0.00000E+00
         0.00000E+00
         0.00000E+00
         0.00000E+00
         0.00000E+00
         0.00000E+00
         0.00000E+00
         0.00000E+00
         0.00000E+00
         0.00000E+00
         0.00000E+00
         0.00000E+00
         0.00000E+00
         0.00000E+00
         0.00000E+00
         0.00000E+00
         0.00000E+00
         0.00000E+00
         0.00000E+00
         0.00000E+00
         0.00000E+00
         0.00000E+00
         0.00000E+00
         0.00000E+00
         0.00000E+00
         0.00000E+00
         0.00000E+00
         0.00000E+00
         0.00000E+00
         0.00000E+00
         0.00000E+00
         0.00000E+00
         0.00000E+00
         0.00000E+00
         0.00000E+00
         0.00000E+00
         0.00000E+00
         0.00000E+00
         0.00000E+00
         0.00000E+00
         0.00000E+00
         0.00000E+00
         0.00000E+00
         0.00000E+00
         0.00000E+00
         0.00000E+00
         0.00000E+00
         0.00000E+00
         0.00000E+00
         0.00000E+00
         0.00000E+00
         0.00000E+00
         0.00000E+00
         0.00000E+00
         0.00000E+00
         0.00000E+00
         0.00000E+00
         0.00000E+00
         0.00000E+00
         0.00000E+00
         0.00000E+00
         0.00000E+00
         0.00000E+00
         0.00000E+00
         0.00000E+00
         0.00000E+00
         0.00000E+00
         0.00000E+00
         0.00000E+00
         0.00000E+00
         0.00000E+00
         0.00000E+00
         0.00000E+00
         0.00000E+00
         0.00000E+00
         0.00000E+00
         0.00000E+00
         0.00000E+00
         0.00000E+00
         0.00000E+00
         0.00000E+00
         0.00000E+00
         0.00000E+00
         0.00000E+00
         0.00000E+00
         0.00000E+00
         0.00000E+00
         0.00000E+00
         0.00000E+00
         0.00000E+00
         0.00000E+00
         0.00000E+00
         0.00000E+00
         0.00000E+00
         0.00000E+00
         0.00000E+00
         0.00000E+00
         0.00000E+00
         0.00000E+00
         0.00000E+00
         0.00000E+00
         0.00000E+00
         0.00000E+00
         0.00000E+00
         0.00000E+00
         0.00000E+00
         0.00000E+00
         0.00000E+00
         0.00000E+00
         0.00000E+00
         0.00000E+00
         0.00000E+00
         0.00000E+00
         0.00000E+00
         0.00000E+00
         0.00000E+00
         0.00000E+00
         0.00000E+00
         0.00000E+00
         0.00000E+00
         0.00000E+00
         0.00000E+00
         0.00000E+00
         0.00000E+00
         0.00000E+00
         0.00000E+00
         0.00000E+00
         0.00000E+00
         0.00000E+00
         0.00000E+00
         0.00000E+00
         0.00000E+00
         0.00000E+00
         0.00000E+00
         0.00000E+00
         0.00000E+00
         0.00000E+00
         0.00000E+00
         0.00000E+00
         0.00000E+00
         0.00000E+00
         0.00000E+00
         0.00000E+00
         0.00000E+00
         0.00000E+00
         0.00000E+00
         0.00000E+00
         0.00000E+00
         0.00000E+00
         0.00000E+00
         0.00000E+00
         0.00000E+00
         0.00000E+00
         0.00000E+00
         0.00000E+00
         0.00000E+00
         0.00000E+00
         0.00000E+00
         0.00000E+00
         0.00000E+00
         0.00000E+00
         0.00000E+00
         0.00000E+00
         0.00000E+00
         0.00000E+00
         0.00000E+00
         0.00000E+00
         0.00000E+00
         0.00000E+00
         0.00000E+00
         0.00000E+00
         0.00000E+00
         0.00000E+00
         0.00000E+00
         0.00000E+00
         0.00000E+00
         0.00000E+00
         0.00000E+00
         0.00000E+00
         0.00000E+00
         0.00000E+00
         0.00000E+00
         0.00000E+00
         0.00000E+00
         0.00000E+00
         0.00000E+00
         0.00000E+00
         0.00000E+00
         0.00000E+00
         0.00000E+00
         0.00000E+00
         0.00000E+00
         0.00000E+00
         0.00000E+00
         0.00000E+00
         0.00000E+00
         0.00000E+00
         0.00000E+00
         0.00000E+00
         0.00000E+00
         0.00000E+00
         0.00000E+00
         0.00000E+00
         0.00000E+00
         0.00000E+00
         0.00000E+00
         0.00000E+00
         0.00000E+00
         0.00000E+00
         0.00000E+00
         0.00000E+00
         0.00000E+00
         0.00000E+00
         0.00000E+00
         0.00000E+00
         0.00000E+00
         0.00000E+00
         0.00000E+00
         0.00000E+00
         0.00000E+00
         0.00000E+00
         0.00000E+00
         0.00000E+00
         0.00000E+00
         0.00000E+00
         0.00000E+00
         0.00000E+00
         0.00000E+00
         0.00000E+00
         0.00000E+00
         0.00000E+00
         0.00000E+00
         0.00000E+00
         0.00000E+00
         0.00000E+00
         0.00000E+00
         0.00000E+00
         0.00000E+00
         0.00000E+00
         0.00000E+00
         0.00000E+00
         0.00000E+00
         0.00000E+00
         0.00000E+00
         0.00000E+00
         0.00000E+00
         0.00000E+00
         0.00000E+00
         0.00000E+00
         0.00000E+00
         0.00000E+00
         0.00000E+00
         0.00000E+00
         0.00000E+00
         0.00000E+00
         0.00000E+00
         0.00000E+00
         0.00000E+00
         0.00000E+00
         0.00000E+00
         0.00000E+00
         0.00000E+00
         0.00000E+00
         0.00000E+00
         0.00000E+00
         0.00000E+00
         0.00000E+00
         0.00000E+00
         0.00000E+00
         0.00000E+00
         0.00000E+00
         0.00000E+00
         0.00000E+00
         0.00000E+00
         0.00000E+00
         0.00000E+00
         0.00000E+00
         0.00000E+00
         0.00000E+00
         0.00000E+00
         0.00000E+00
         0.00000E+00
         0.00000E+00
         0.00000E+00
         0.00000E+00
         0.00000E+00
         0.00000E+00
         0.00000E+00
         0.00000E+00
         0.00000E+00
         0.00000E+00
         0.00000E+00
         0.00000E+00
         0.00000E+00
         0.00000E+00
         0.00000E+00
         0.00000E+00
         0.00000E+00
         0.00000E+00
         0.00000E+00
         0.00000E+00
         0.00000E+00
         0.00000E+00
         0.00000E+00
         0.00000E+00
         0.00000E+00
         0.00000E+00
         0.00000E+00
         0.00000E+00
         0.00000E+00
         0.00000E+00
         0.00000E+00
         0.00000E+00
         0.00000E+00
         0.00000E+00
         0.00000E+00
         0.00000E+00
         0.00000E+00
         0.00000E+00
         0.00000E+00
         0.00000E+00
         0.00000E+00
         0.00000E+00
         0.00000E+00
         0.00000E+00
         0.00000E+00
         0.00000E+00
         0.00000E+00
         0.00000E+00
         0.00000E+00
         0.00000E+00
         0.00000E+00
         0.00000E+00
         0.00000E+00
         0.00000E+00
         0.00000E+00
         0.00000E+00
         0.00000E+00
         0.00000E+00
         0.00000E+00
         0.00000E+00
         0.00000E+00
         0.00000E+00
         0.00000E+00
         0.00000E+00
         0.00000E+00
         0.00000E+00
         0.00000E+00
         0.00000E+00
         0.00000E+00
         0.00000E+00
         0.00000E+00
         0.00000E+00
         0.00000E+00
         0.00000E+00
         0.00000E+00
         0.00000E+00
         0.00000E+00
         0.00000E+00
         0.00000E+00
         0.00000E+00
         0.00000E+00
         0.00000E+00
         0.00000E+00
         0.00000E+00
         0.00000E+00
         0.00000E+00
         0.00000E+00
         0.00000E+00
         0.00000E+00
         0.00000E+00
         0.00000E+00
         0.00000E+00
         0.00000E+00
         0.00000E+00
         0.00000E+00
         0.00000E+00
         0.00000E+00
         0.00000E+00
         0.00000E+00
         0.00000E+00
         0.00000E+00
         0.00000E+00
         0.00000E+00
         0.00000E+00
         0.00000E+00
         0.00000E+00
         0.00000E+00
         0.00000E+00
         0.00000E+00
         0.00000E+00
         0.00000E+00
         0.00000E+00
         0.00000E+00
         0.00000E+00
         0.00000E+00
         0.00000E+00
         0.00000E+00
         0.00000E+00
         0.00000E+00
         0.00000E+00
         0.00000E+00
         0.00000E+00
         0.00000E+00
         0.00000E+00
         0.00000E+00
         0.00000E+00
         0.00000E+00
         0.00000E+00
         0.00000E+00
         0.00000E+00
         0.00000E+00
         0.00000E+00
         0.00000E+00
         0.00000E+00
         0.00000E+00
         0.00000E+00
         0.00000E+00
         0.00000E+00
         0.00000E+00
         0.00000E+00
         0.00000E+00
         0.00000E+00
         0.00000E+00
         0.00000E+00
         0.00000E+00
         0.00000E+00
         0.00000E+00
         0.00000E+00
         0.00000E+00
         0.00000E+00
         0.00000E+00
         0.00000E+00
         0.00000E+00
         0.00000E+00
         0.00000E+00
         0.00000E+00
         0.00000E+00
         0.00000E+00
         0.00000E+00
         0.00000E+00
         0.00000E+00
         0.00000E+00
         0.00000E+00
         0.00000E+00
         0.00000E+00
         0.00000E+00
         0.00000E+00
         0.00000E+00
         0.00000E+00
         0.00000E+00
         0.00000E+00
         0.00000E+00
         0.00000E+00
         0.00000E+00
         0.00000E+00
         0.00000E+00
         0.00000E+00
         0.00000E+00
         0.00000E+00
         0.00000E+00
         0.00000E+00
         0.00000E+00
         0.00000E+00
         0.00000E+00
         0.00000E+00
         0.00000E+00
         0.00000E+00
         0.00000E+00
         0.00000E+00
         0.00000E+00
         0.00000E+00
         0.00000E+00
         0.00000E+00
         0.00000E+00
         0.00000E+00
         0.00000E+00
         0.00000E+00
         0.00000E+00
         0.00000E+00
         0.00000E+00
         0.00000E+00
         0.00000E+00
         0.00000E+00
         0.00000E+00
         0.00000E+00
         0.00000E+00
         0.00000E+00
         0.00000E+00
         0.00000E+00
         0.00000E+00
         0.00000E+00
         0.00000E+00
         0.00000E+00
         0.00000E+00
         0.00000E+00
         0.00000E+00
         0.00000E+00
         0.00000E+00
         0.00000E+00
         0.00000E+00
         0.00000E+00
         0.00000E+00
         0.00000E+00
         0.00000E+00
         0.00000E+00
         0.00000E+00
         0.00000E+00
         0.00000E+00
         0.00000E+00
         0.00000E+00
         0.00000E+00
         0.00000E+00
         0.00000E+00
         0.00000E+00
         0.00000E+00
         0.00000E+00
         0.00000E+00
         0.00000E+00
         0.00000E+00
         0.00000E+00
         0.00000E+00
         0.00000E+00
         0.00000E+00
         0.00000E+00
         0.00000E+00
         0.00000E+00
         0.00000E+00
         0.00000E+00
         0.00000E+00
         0.00000E+00
         0.00000E+00
         0.00000E+00
         0.00000E+00
         0.00000E+00
         0.00000E+00
         0.00000E+00
         0.00000E+00
         0.00000E+00
         0.00000E+00
         0.00000E+00
         0.00000E+00
         0.00000E+00
         0.00000E+00
         0.00000E+00
         0.00000E+00
         0.00000E+00
         0.00000E+00
         0.00000E+00
         0.00000E+00
         0.00000E+00
         0.00000E+00
         0.00000E+00
         0.00000E+00
         0.00000E+00
         0.00000E+00
         0.00000E+00
         0.00000E+00
         0.00000E+00
         0.00000E+00
         0.00000E+00
         0.00000E+00
         0.00000E+00
         0.00000E+00
         0.00000E+00
         0.00000E+00
         0.00000E+00
         0.00000E+00
         0.00000E+00
         0.00000E+00
         0.00000E+00
         0.00000E+00
         0.00000E+00
         0.00000E+00
         0.00000E+00
         0.00000E+00
         0.00000E+00
         0.00000E+00
         0.00000E+00
         0.00000E+00
         0.00000E+00
         0.00000E+00
         0.00000E+00
         0.00000E+00
         0.00000E+00
         0.00000E+00
         0.00000E+00
         0.00000E+00
         0.00000E+00
         0.00000E+00
         0.00000E+00
         0.00000E+00
         0.00000E+00
         0.00000E+00
         0.00000E+00
         0.00000E+00
         0.00000E+00
         0.00000E+00
         0.00000E+00
         0.00000E+00
         0.00000E+00
         0.00000E+00
         0.00000E+00
         0.00000E+00
         0.00000E+00
         0.00000E+00
         0.00000E+00
         0.00000E+00
         0.00000E+00
         0.00000E+00
         0.00000E+00
         0.00000E+00
         0.00000E+00
         0.00000E+00
         0.00000E+00
         0.00000E+00
         0.00000E+00
         0.00000E+00
         0.00000E+00
         0.00000E+00
         0.00000E+00
         0.00000E+00
         0.00000E+00
         0.00000E+00
         0.00000E+00
         0.00000E+00
         0.00000E+00
         0.00000E+00
         0.00000E+00
         0.00000E+00
         0.00000E+00
         0.00000E+00
         0.00000E+00
         0.00000E+00
         0.00000E+00
         0.00000E+00
         0.00000E+00
         0.00000E+00
         0.00000E+00
         0.00000E+00
         0.00000E+00
         0.00000E+00
         0.00000E+00
         0.00000E+00
         0.00000E+00
         0.00000E+00
         0.00000E+00
         0.00000E+00
         0.00000E+00
         0.00000E+00
         0.00000E+00
         0.00000E+00
         0.00000E+00
         0.00000E+00
         0.00000E+00
         0.00000E+00
         0.00000E+00
         0.00000E+00
         0.00000E+00
         0.00000E+00
         0.00000E+00
         0.00000E+00
         0.00000E+00
         0.00000E+00
         0.00000E+00
         0.00000E+00
         0.00000E+00
         0.00000E+00
         0.00000E+00
         0.00000E+00
         0.00000E+00
         0.00000E+00
         0.00000E+00
         0.00000E+00
         0.00000E+00
         0.00000E+00
         0.00000E+00
         0.00000E+00
         0.00000E+00
         0.00000E+00
         0.00000E+00
         0.00000E+00
         0.00000E+00
         0.00000E+00
         0.00000E+00
         0.00000E+00
         0.00000E+00
         0.00000E+00
         0.00000E+00
         0.00000E+00
         0.00000E+00
         0.00000E+00
         0.00000E+00
         0.00000E+00
         0.00000E+00
         0.00000E+00
         0.00000E+00
         0.00000E+00
         0.00000E+00
         0.00000E+00
         0.00000E+00
         0.00000E+00
         0.00000E+00
         0.00000E+00
         0.00000E+00
         0.00000E+00
         0.00000E+00
         0.00000E+00
         0.00000E+00
         0.00000E+00
         0.00000E+00
         0.00000E+00
         0.00000E+00
         0.00000E+00
         0.00000E+00
         0.00000E+00
         0.00000E+00
         0.00000E+00
         0.00000E+00
         0.00000E+00
         0.00000E+00
         0.00000E+00
         0.00000E+00
         0.00000E+00
         0.00000E+00
         0.00000E+00
         0.00000E+00
         0.00000E+00
         0.00000E+00
         0.00000E+00
         0.00000E+00
         0.00000E+00
         0.00000E+00
         0.00000E+00
         0.00000E+00
         0.00000E+00
         0.00000E+00
         0.00000E+00
         0.00000E+00
         0.00000E+00
         0.00000E+00
         0.00000E+00
         0.00000E+00
         0.00000E+00
         0.00000E+00
         0.00000E+00
         0.00000E+00
         0.00000E+00
         0.00000E+00
         0.00000E+00
         0.00000E+00
         0.00000E+00
         0.00000E+00
         0.00000E+00
         0.00000E+00
         0.00000E+00
         0.00000E+00
         0.00000E+00
         0.00000E+00
         0.00000E+00
         0.00000E+00
         0.00000E+00
         0.00000E+00
         0.00000E+00
         0.00000E+00
         0.00000E+00
         0.00000E+00
         0.00000E+00
         0.00000E+00
         0.00000E+00
         0.00000E+00
         0.00000E+00
         0.00000E+00
         0.00000E+00
         0.00000E+00
         0.00000E+00
         0.00000E+00
         0.00000E+00
         0.00000E+00
         0.00000E+00
         0.00000E+00
         0.00000E+00
         0.00000E+00
         0.00000E+00
         0.00000E+00
         0.00000E+00
         0.00000E+00
         0.00000E+00
         0.00000E+00
         0.00000E+00
         0.00000E+00
         0.00000E+00
         0.00000E+00
         0.00000E+00
         0.00000E+00
         0.00000E+00
         0.00000E+00
         0.00000E+00
         0.00000E+00
         0.00000E+00
         0.00000E+00
         0.00000E+00
         0.00000E+00
         0.00000E+00
         0.00000E+00
         0.00000E+00
         0.00000E+00
  
SCALARS                      eps_shear  double 1
LOOKUP_TABLE default
         0.00000E+00
         0.00000E+00
         0.00000E+00
         0.00000E+00
         0.00000E+00
         0.00000E+00
         0.00000E+00
         0.00000E+00
         0.00000E+00
         0.00000E+00
         0.00000E+00
         0.00000E+00
         0.00000E+00
         0.00000E+00
         0.00000E+00
         0.00000E+00
         0.00000E+00
         0.00000E+00
         0.00000E+00
         0.00000E+00
         0.00000E+00
         0.00000E+00
         0.00000E+00
         0.00000E+00
         0.00000E+00
         0.00000E+00
         0.00000E+00
         0.00000E+00
         0.00000E+00
         0.00000E+00
         0.00000E+00
         0.00000E+00
         0.00000E+00
         0.00000E+00
         0.00000E+00
         0.00000E+00
         0.00000E+00
         0.00000E+00
         0.00000E+00
         0.00000E+00
         0.00000E+00
         0.00000E+00
         0.00000E+00
         0.00000E+00
         0.00000E+00
         0.00000E+00
         0.00000E+00
         0.00000E+00
         0.00000E+00
         0.00000E+00
         0.00000E+00
         0.00000E+00
         0.00000E+00
         0.00000E+00
         0.00000E+00
         0.00000E+00
         0.00000E+00
         0.00000E+00
         0.00000E+00
         0.00000E+00
         0.00000E+00
         0.00000E+00
         0.00000E+00
         0.00000E+00
         0.00000E+00
         0.00000E+00
         0.00000E+00
         0.00000E+00
         0.00000E+00
         0.00000E+00
         0.00000E+00
         0.00000E+00
         0.00000E+00
         0.00000E+00
         0.00000E+00
         0.00000E+00
         0.00000E+00
         0.00000E+00
         0.00000E+00
         0.00000E+00
         0.00000E+00
         0.00000E+00
         0.00000E+00
         0.00000E+00
         0.00000E+00
         0.00000E+00
         0.00000E+00
         0.00000E+00
         0.00000E+00
         0.00000E+00
         0.00000E+00
         0.00000E+00
         0.00000E+00
         0.00000E+00
         0.00000E+00
         0.00000E+00
         0.00000E+00
         0.00000E+00
         0.00000E+00
         0.00000E+00
         0.00000E+00
         0.00000E+00
         0.00000E+00
         0.00000E+00
         0.00000E+00
         0.00000E+00
         0.00000E+00
         0.00000E+00
         0.00000E+00
         0.00000E+00
         0.00000E+00
         0.00000E+00
         0.00000E+00
         0.00000E+00
         0.00000E+00
         0.00000E+00
         0.00000E+00
         0.00000E+00
         0.00000E+00
         0.00000E+00
         0.00000E+00
         0.00000E+00
         0.00000E+00
         0.00000E+00
         0.00000E+00
         0.00000E+00
         0.00000E+00
         0.00000E+00
         0.00000E+00
         0.00000E+00
         0.00000E+00
         0.00000E+00
         0.00000E+00
         0.00000E+00
         0.00000E+00
         0.00000E+00
         0.00000E+00
         0.00000E+00
         0.00000E+00
         0.00000E+00
         0.00000E+00
         0.00000E+00
         0.00000E+00
         0.00000E+00
         0.00000E+00
         0.00000E+00
         0.00000E+00
         0.00000E+00
         0.00000E+00
         0.00000E+00
         0.00000E+00
         0.00000E+00
         0.00000E+00
         0.00000E+00
         0.00000E+00
         0.00000E+00
         0.00000E+00
         0.00000E+00
         0.00000E+00
         0.00000E+00
         0.00000E+00
         0.00000E+00
         0.00000E+00
         0.00000E+00
         0.00000E+00
         0.00000E+00
         0.00000E+00
         0.00000E+00
         0.00000E+00
         0.00000E+00
         0.00000E+00
         0.00000E+00
         0.00000E+00
         0.00000E+00
         0.00000E+00
         0.00000E+00
         0.00000E+00
         0.00000E+00
         0.00000E+00
         0.00000E+00
         0.00000E+00
         0.00000E+00
         0.00000E+00
         0.00000E+00
         0.00000E+00
         0.00000E+00
         0.00000E+00
         0.00000E+00
         0.00000E+00
         0.00000E+00
         0.00000E+00
         0.00000E+00
         0.00000E+00
         0.00000E+00
         0.00000E+00
         0.00000E+00
         0.00000E+00
         0.00000E+00
         0.00000E+00
         0.00000E+00
         0.00000E+00
         0.00000E+00
         0.00000E+00
         0.00000E+00
         0.00000E+00
         0.00000E+00
         0.00000E+00
         0.00000E+00
         0.00000E+00
         0.00000E+00
         0.00000E+00
         0.00000E+00
         0.00000E+00
         0.00000E+00
         0.00000E+00
         0.00000E+00
         0.00000E+00
         0.00000E+00
         0.00000E+00
         0.00000E+00
         0.00000E+00
         0.00000E+00
         0.00000E+00
         0.00000E+00
         0.00000E+00
         0.00000E+00
         0.00000E+00
         0.00000E+00
         0.00000E+00
         0.00000E+00
         0.00000E+00
         0.00000E+00
         0.00000E+00
         0.00000E+00
         0.00000E+00
         0.00000E+00
         0.00000E+00
         0.00000E+00
         0.00000E+00
         0.00000E+00
         0.00000E+00
         0.00000E+00
         0.00000E+00
         0.00000E+00
         0.00000E+00
         0.00000E+00
         0.00000E+00
         0.00000E+00
         0.00000E+00
         0.00000E+00
         0.00000E+00
         0.00000E+00
         0.00000E+00
         0.00000E+00
         0.00000E+00
         0.00000E+00
         0.00000E+00
         0.00000E+00
         0.00000E+00
         0.00000E+00
         0.00000E+00
         0.00000E+00
         0.00000E+00
         0.00000E+00
         0.00000E+00
         0.00000E+00
         0.00000E+00
         0.00000E+00
         0.00000E+00
         0.00000E+00
         0.00000E+00
         0.00000E+00
         0.00000E+00
         0.00000E+00
         0.00000E+00
         0.00000E+00
         0.00000E+00
         0.00000E+00
         0.00000E+00
         0.00000E+00
         0.00000E+00
         0.00000E+00
         0.00000E+00
         0.00000E+00
         0.00000E+00
         0.00000E+00
         0.00000E+00
         0.00000E+00
         0.00000E+00
         0.00000E+00
         0.00000E+00
         0.00000E+00
         0.00000E+00
         0.00000E+00
         0.00000E+00
         0.00000E+00
         0.00000E+00
         0.00000E+00
         0.00000E+00
         0.00000E+00
         0.00000E+00
         0.00000E+00
         0.00000E+00
         0.00000E+00
         0.00000E+00
         0.00000E+00
         0.00000E+00
         0.00000E+00
         0.00000E+00
         0.00000E+00
         0.00000E+00
         0.00000E+00
         0.00000E+00
         0.00000E+00
         0.00000E+00
         0.00000E+00
         0.00000E+00
         0.00000E+00
         0.00000E+00
         0.00000E+00
         0.00000E+00
         0.00000E+00
         0.00000E+00
         0.00000E+00
         0.00000E+00
         0.00000E+00
         0.00000E+00
         0.00000E+00
         0.00000E+00
         0.00000E+00
         0.00000E+00
         0.00000E+00
         0.00000E+00
         0.00000E+00
         0.00000E+00
         0.00000E+00
         0.00000E+00
         0.00000E+00
         0.00000E+00
         0.00000E+00
         0.00000E+00
         0.00000E+00
         0.00000E+00
         0.00000E+00
         0.00000E+00
         0.00000E+00
         0.00000E+00
         0.00000E+00
         0.00000E+00
         0.00000E+00
         0.00000E+00
         0.00000E+00
         0.00000E+00
         0.00000E+00
         0.00000E+00
         0.00000E+00
         0.00000E+00
         0.00000E+00
         0.00000E+00
         0.00000E+00
         0.00000E+00
         0.00000E+00
         0.00000E+00
         0.00000E+00
         0.00000E+00
         0.00000E+00
         0.00000E+00
         0.00000E+00
         0.00000E+00
         0.00000E+00
         0.00000E+00
         0.00000E+00
         0.00000E+00
         0.00000E+00
         0.00000E+00
         0.00000E+00
         0.00000E+00
         0.00000E+00
         0.00000E+00
         0.00000E+00
         0.00000E+00
         0.00000E+00
         0.00000E+00
         0.00000E+00
         0.00000E+00
         0.00000E+00
         0.00000E+00
         0.00000E+00
         0.00000E+00
         0.00000E+00
         0.00000E+00
         0.00000E+00
         0.00000E+00
         0.00000E+00
         0.00000E+00
         0.00000E+00
         0.00000E+00
         0.00000E+00
         0.00000E+00
         0.00000E+00
         0.00000E+00
         0.00000E+00
         0.00000E+00
         0.00000E+00
         0.00000E+00
         0.00000E+00
         0.00000E+00
         0.00000E+00
         0.00000E+00
         0.00000E+00
         0.00000E+00
         0.00000E+00
         0.00000E+00
         0.00000E+00
         0.00000E+00
         0.00000E+00
         0.00000E+00
         0.00000E+00
         0.00000E+00
         0.00000E+00
         0.00000E+00
         0.00000E+00
         0.00000E+00
         0.00000E+00
         0.00000E+00
         0.00000E+00
         0.00000E+00
         0.00000E+00
         0.00000E+00
         0.00000E+00
         0.00000E+00
         0.00000E+00
         0.00000E+00
         0.00000E+00
         0.00000E+00
         0.00000E+00
         0.00000E+00
         0.00000E+00
         0.00000E+00
         0.00000E+00
         0.00000E+00
         0.00000E+00
         0.00000E+00
         0.00000E+00
         0.00000E+00
         0.00000E+00
         0.00000E+00
         0.00000E+00
         0.00000E+00
         0.00000E+00
         0.00000E+00
         0.00000E+00
         0.00000E+00
         0.00000E+00
         0.00000E+00
         0.00000E+00
         0.00000E+00
         0.00000E+00
         0.00000E+00
         0.00000E+00
         0.00000E+00
         0.00000E+00
         0.00000E+00
         0.00000E+00
         0.00000E+00
         0.00000E+00
         0.00000E+00
         0.00000E+00
         0.00000E+00
         0.00000E+00
         0.00000E+00
         0.00000E+00
         0.00000E+00
         0.00000E+00
         0.00000E+00
         0.00000E+00
         0.00000E+00
         0.00000E+00
         0.00000E+00
         0.00000E+00
         0.00000E+00
         0.00000E+00
         0.00000E+00
         0.00000E+00
         0.00000E+00
         0.00000E+00
         0.00000E+00
         0.00000E+00
         0.00000E+00
         0.00000E+00
         0.00000E+00
         0.00000E+00
         0.00000E+00
         0.00000E+00
         0.00000E+00
         0.00000E+00
         0.00000E+00
         0.00000E+00
         0.00000E+00
         0.00000E+00
         0.00000E+00
         0.00000E+00
         0.00000E+00
         0.00000E+00
         0.00000E+00
         0.00000E+00
         0.00000E+00
         0.00000E+00
         0.00000E+00
         0.00000E+00
         0.00000E+00
         0.00000E+00
         0.00000E+00
         0.00000E+00
         0.00000E+00
         0.00000E+00
         0.00000E+00
         0.00000E+00
         0.00000E+00
         0.00000E+00
         0.00000E+00
         0.00000E+00
         0.00000E+00
         0.00000E+00
         0.00000E+00
         0.00000E+00
         0.00000E+00
         0.00000E+00
         0.00000E+00
         0.00000E+00
         0.00000E+00
         0.00000E+00
         0.00000E+00
         0.00000E+00
         0.00000E+00
         0.00000E+00
         0.00000E+00
         0.00000E+00
         0.00000E+00
         0.00000E+00
         0.00000E+00
         0.00000E+00
         0.00000E+00
         0.00000E+00
         0.00000E+00
         0.00000E+00
         0.00000E+00
         0.00000E+00
         0.00000E+00
         0.00000E+00
         0.00000E+00
         0.00000E+00
         0.00000E+00
         0.00000E+00
         0.00000E+00
         0.00000E+00
         0.00000E+00
         0.00000E+00
         0.00000E+00
         0.00000E+00
         0.00000E+00
         0.00000E+00
         0.00000E+00
         0.00000E+00
         0.00000E+00
         0.00000E+00
         0.00000E+00
         0.00000E+00
         0.00000E+00
         0.00000E+00
         0.00000E+00
         0.00000E+00
         0.00000E+00
         0.00000E+00
         0.00000E+00
         0.00000E+00
         0.00000E+00
         0.00000E+00
         0.00000E+00
         0.00000E+00
         0.00000E+00
         0.00000E+00
         0.00000E+00
         0.00000E+00
         0.00000E+00
         0.00000E+00
         0.00000E+00
         0.00000E+00
         0.00000E+00
         0.00000E+00
         0.00000E+00
         0.00000E+00
         0.00000E+00
         0.00000E+00
         0.00000E+00
         0.00000E+00
         0.00000E+00
         0.00000E+00
         0.00000E+00
         0.00000E+00
         0.00000E+00
         0.00000E+00
         0.00000E+00
         0.00000E+00
         0.00000E+00
         0.00000E+00
         0.00000E+00
         0.00000E+00
         0.00000E+00
         0.00000E+00
         0.00000E+00
         0.00000E+00
         0.00000E+00
         0.00000E+00
         0.00000E+00
         0.00000E+00
         0.00000E+00
         0.00000E+00
         0.00000E+00
         0.00000E+00
         0.00000E+00
         0.00000E+00
         0.00000E+00
         0.00000E+00
         0.00000E+00
         0.00000E+00
         0.00000E+00
         0.00000E+00
         0.00000E+00
         0.00000E+00
         0.00000E+00
         0.00000E+00
         0.00000E+00
         0.00000E+00
         0.00000E+00
         0.00000E+00
         0.00000E+00
         0.00000E+00
         0.00000E+00
         0.00000E+00
         0.00000E+00
         0.00000E+00
         0.00000E+00
         0.00000E+00
         0.00000E+00
         0.00000E+00
         0.00000E+00
         0.00000E+00
         0.00000E+00
         0.00000E+00
         0.00000E+00
         0.00000E+00
         0.00000E+00
         0.00000E+00
         0.00000E+00
         0.00000E+00
         0.00000E+00
         0.00000E+00
         0.00000E+00
         0.00000E+00
         0.00000E+00
         0.00000E+00
         0.00000E+00
         0.00000E+00
         0.00000E+00
         0.00000E+00
         0.00000E+00
         0.00000E+00
         0.00000E+00
         0.00000E+00
         0.00000E+00
         0.00000E+00
         0.00000E+00
         0.00000E+00
         0.00000E+00
         0.00000E+00
         0.00000E+00
         0.00000E+00
         0.00000E+00
         0.00000E+00
         0.00000E+00
         0.00000E+00
         0.00000E+00
         0.00000E+00
         0.00000E+00
         0.00000E+00
         0.00000E+00
         0.00000E+00
         0.00000E+00
         0.00000E+00
         0.00000E+00
         0.00000E+00
         0.00000E+00
         0.00000E+00
         0.00000E+00
         0.00000E+00
         0.00000E+00
         0.00000E+00
         0.00000E+00
         0.00000E+00
         0.00000E+00
         0.00000E+00
         0.00000E+00
         0.00000E+00
         0.00000E+00
         0.00000E+00
         0.00000E+00
         0.00000E+00
         0.00000E+00
         0.00000E+00
         0.00000E+00
         0.00000E+00
         0.00000E+00
         0.00000E+00
         0.00000E+00
         0.00000E+00
         0.00000E+00
         0.00000E+00
         0.00000E+00
         0.00000E+00
         0.00000E+00
         0.00000E+00
         0.00000E+00
         0.00000E+00
         0.00000E+00
         0.00000E+00
         0.00000E+00
         0.00000E+00
         0.00000E+00
         0.00000E+00
         0.00000E+00
         0.00000E+00
         0.00000E+00
         0.00000E+00
         0.00000E+00
         0.00000E+00
         0.00000E+00
         0.00000E+00
         0.00000E+00
         0.00000E+00
         0.00000E+00
         0.00000E+00
         0.00000E+00
         0.00000E+00
         0.00000E+00
         0.00000E+00
         0.00000E+00
         0.00000E+00
         0.00000E+00
         0.00000E+00
         0.00000E+00
         0.00000E+00
         0.00000E+00
         0.00000E+00
         0.00000E+00
         0.00000E+00
         0.00000E+00
         0.00000E+00
         0.00000E+00
         0.00000E+00
         0.00000E+00
         0.00000E+00
         0.00000E+00
         0.00000E+00
         0.00000E+00
         0.00000E+00
         0.00000E+00
         0.00000E+00
         0.00000E+00
         0.00000E+00
         0.00000E+00
         0.00000E+00
         0.00000E+00
         0.00000E+00
         0.00000E+00
         0.00000E+00
         0.00000E+00
         0.00000E+00
         0.00000E+00
         0.00000E+00
         0.00000E+00
         0.00000E+00
         0.00000E+00
         0.00000E+00
         0.00000E+00
         0.00000E+00
         0.00000E+00
         0.00000E+00
         0.00000E+00
         0.00000E+00
         0.00000E+00
         0.00000E+00
         0.00000E+00
         0.00000E+00
         0.00000E+00
         0.00000E+00
         0.00000E+00
         0.00000E+00
         0.00000E+00
         0.00000E+00
         0.00000E+00
         0.00000E+00
         0.00000E+00
         0.00000E+00
         0.00000E+00
         0.00000E+00
         0.00000E+00
         0.00000E+00
         0.00000E+00
         0.00000E+00
         0.00000E+00
         0.00000E+00
         0.00000E+00
         0.00000E+00
         0.00000E+00
         0.00000E+00
         0.00000E+00
         0.00000E+00
         0.00000E+00
         0.00000E+00
         0.00000E+00
         0.00000E+00
         0.00000E+00
         0.00000E+00
         0.00000E+00
         0.00000E+00
         0.00000E+00
         0.00000E+00
         0.00000E+00
         0.00000E+00
         0.00000E+00
         0.00000E+00
         0.00000E+00
         0.00000E+00
         0.00000E+00
         0.00000E+00
         0.00000E+00
         0.00000E+00
         0.00000E+00
         0.00000E+00
         0.00000E+00
         0.00000E+00
         0.00000E+00
         0.00000E+00
         0.00000E+00
         0.00000E+00
         0.00000E+00
         0.00000E+00
         0.00000E+00
         0.00000E+00
         0.00000E+00
         0.00000E+00
         0.00000E+00
         0.00000E+00
         0.00000E+00
         0.00000E+00
         0.00000E+00
         0.00000E+00
         0.00000E+00
         0.00000E+00
         0.00000E+00
         0.00000E+00
         0.00000E+00
         0.00000E+00
         0.00000E+00
         0.00000E+00
         0.00000E+00
         0.00000E+00
         0.00000E+00
         0.00000E+00
         0.00000E+00
         0.00000E+00
         0.00000E+00
         0.00000E+00
         0.00000E+00
         0.00000E+00
         0.00000E+00
         0.00000E+00
         0.00000E+00
         0.00000E+00
         0.00000E+00
         0.00000E+00
         0.00000E+00
         0.00000E+00
         0.00000E+00
         0.00000E+00
         0.00000E+00
         0.00000E+00
         0.00000E+00
         0.00000E+00
         0.00000E+00
         0.00000E+00
         0.00000E+00
         0.00000E+00
         0.00000E+00
         0.00000E+00
         0.00000E+00
         0.00000E+00
         0.00000E+00
         0.00000E+00
         0.00000E+00
         0.00000E+00
         0.00000E+00
         0.00000E+00
         0.00000E+00
         0.00000E+00
         0.00000E+00
         0.00000E+00
         0.00000E+00
         0.00000E+00
         0.00000E+00
         0.00000E+00
         0.00000E+00
         0.00000E+00
         0.00000E+00
         0.00000E+00
         0.00000E+00
         0.00000E+00
         0.00000E+00
         0.00000E+00
         0.00000E+00
         0.00000E+00
         0.00000E+00
         0.00000E+00
         0.00000E+00
         0.00000E+00
         0.00000E+00
         0.00000E+00
         0.00000E+00
         0.00000E+00
         0.00000E+00
         0.00000E+00
         0.00000E+00
         0.00000E+00
         0.00000E+00
         0.00000E+00
         0.00000E+00
         0.00000E+00
         0.00000E+00
         0.00000E+00
         0.00000E+00
         0.00000E+00
         0.00000E+00
         0.00000E+00
         0.00000E+00
         0.00000E+00
         0.00000E+00
         0.00000E+00
         0.00000E+00
         0.00000E+00
         0.00000E+00
         0.00000E+00
         0.00000E+00
         0.00000E+00
         0.00000E+00
         0.00000E+00
         0.00000E+00
         0.00000E+00
         0.00000E+00
         0.00000E+00
         0.00000E+00
         0.00000E+00
         0.00000E+00
         0.00000E+00
         0.00000E+00
         0.00000E+00
         0.00000E+00
         0.00000E+00
         0.00000E+00
         0.00000E+00
         0.00000E+00
         0.00000E+00
         0.00000E+00
         0.00000E+00
         0.00000E+00
         0.00000E+00
         0.00000E+00
         0.00000E+00
         0.00000E+00
         0.00000E+00
         0.00000E+00
         0.00000E+00
         0.00000E+00
         0.00000E+00
         0.00000E+00
         0.00000E+00
         0.00000E+00
         0.00000E+00
         0.00000E+00
         0.00000E+00
         0.00000E+00
         0.00000E+00
         0.00000E+00
         0.00000E+00
         0.00000E+00
         0.00000E+00
         0.00000E+00
         0.00000E+00
         0.00000E+00
         0.00000E+00
         0.00000E+00
         0.00000E+00
         0.00000E+00
         0.00000E+00
         0.00000E+00
         0.00000E+00
         0.00000E+00
         0.00000E+00
         0.00000E+00
         0.00000E+00
         0.00000E+00
         0.00000E+00
         0.00000E+00
         0.00000E+00
         0.00000E+00
         0.00000E+00
         0.00000E+00
         0.00000E+00
         0.00000E+00
         0.00000E+00
         0.00000E+00
         0.00000E+00
         0.00000E+00
         0.00000E+00
         0.00000E+00
         0.00000E+00
         0.00000E+00
         0.00000E+00
         0.00000E+00
         0.00000E+00
         0.00000E+00
         0.00000E+00
         0.00000E+00
         0.00000E+00
         0.00000E+00
         0.00000E+00
         0.00000E+00
         0.00000E+00
         0.00000E+00
         0.00000E+00
         0.00000E+00
         0.00000E+00
         0.00000E+00
         0.00000E+00
         0.00000E+00
         0.00000E+00
         0.00000E+00
         0.00000E+00
         0.00000E+00
         0.00000E+00
         0.00000E+00
         0.00000E+00
         0.00000E+00
         0.00000E+00
         0.00000E+00
         0.00000E+00
         0.00000E+00
         0.00000E+00
         0.00000E+00
         0.00000E+00
         0.00000E+00
         0.00000E+00
         0.00000E+00
         0.00000E+00
         0.00000E+00
         0.00000E+00
         0.00000E+00
         0.00000E+00
         0.00000E+00
         0.00000E+00
         0.00000E+00
         0.00000E+00
         0.00000E+00
         0.00000E+00
         0.00000E+00
         0.00000E+00
         0.00000E+00
         0.00000E+00
         0.00000E+00
         0.00000E+00
         0.00000E+00
         0.00000E+00
         0.00000E+00
         0.00000E+00
         0.00000E+00
         0.00000E+00
         0.00000E+00
         0.00000E+00
         0.00000E+00
         0.00000E+00
         0.00000E+00
         0.00000E+00
         0.00000E+00
         0.00000E+00
         0.00000E+00
         0.00000E+00
         0.00000E+00
         0.00000E+00
         0.00000E+00
         0.00000E+00
         0.00000E+00
         0.00000E+00
         0.00000E+00
         0.00000E+00
         0.00000E+00
         0.00000E+00
         0.00000E+00
         0.00000E+00
         0.00000E+00
         0.00000E+00
         0.00000E+00
         0.00000E+00
         0.00000E+00
         0.00000E+00
         0.00000E+00
         0.00000E+00
         0.00000E+00
         0.00000E+00
         0.00000E+00
         0.00000E+00
         0.00000E+00
         0.00000E+00
         0.00000E+00
         0.00000E+00
         0.00000E+00
         0.00000E+00
         0.00000E+00
         0.00000E+00
         0.00000E+00
         0.00000E+00
         0.00000E+00
         0.00000E+00
         0.00000E+00
         0.00000E+00
         0.00000E+00
         0.00000E+00
         0.00000E+00
         0.00000E+00
         0.00000E+00
         0.00000E+00
         0.00000E+00
         0.00000E+00
         0.00000E+00
         0.00000E+00
         0.00000E+00
         0.00000E+00
         0.00000E+00
         0.00000E+00
         0.00000E+00
         0.00000E+00
         0.00000E+00
         0.00000E+00
         0.00000E+00
         0.00000E+00
         0.00000E+00
         0.00000E+00
         0.00000E+00
         0.00000E+00
         0.00000E+00
         0.00000E+00
         0.00000E+00
         0.00000E+00
         0.00000E+00
         0.00000E+00
         0.00000E+00
         0.00000E+00
         0.00000E+00
         0.00000E+00
         0.00000E+00
         0.00000E+00
         0.00000E+00
         0.00000E+00
         0.00000E+00
         0.00000E+00
         0.00000E+00
         0.00000E+00
         0.00000E+00
         0.00000E+00
         0.00000E+00
         0.00000E+00
         0.00000E+00
         0.00000E+00
         0.00000E+00
         0.00000E+00
         0.00000E+00
         0.00000E+00
         0.00000E+00
         0.00000E+00
         0.00000E+00
         0.00000E+00
         0.00000E+00
         0.00000E+00
         0.00000E+00
         0.00000E+00
         0.00000E+00
         0.00000E+00
         0.00000E+00
         0.00000E+00
         0.00000E+00
         0.00000E+00
         0.00000E+00
         0.00000E+00
         0.00000E+00
         0.00000E+00
         0.00000E+00
         0.00000E+00
         0.00000E+00
         0.00000E+00
         0.00000E+00
         0.00000E+00
         0.00000E+00
         0.00000E+00
         0.00000E+00
         0.00000E+00
         0.00000E+00
         0.00000E+00
         0.00000E+00
         0.00000E+00
         0.00000E+00
         0.00000E+00
         0.00000E+00
         0.00000E+00
         0.00000E+00
         0.00000E+00
         0.00000E+00
         0.00000E+00
         0.00000E+00
         0.00000E+00
         0.00000E+00
         0.00000E+00
         0.00000E+00
         0.00000E+00
         0.00000E+00
         0.00000E+00
         0.00000E+00
         0.00000E+00
         0.00000E+00
         0.00000E+00
         0.00000E+00
         0.00000E+00
         0.00000E+00
         0.00000E+00
         0.00000E+00
         0.00000E+00
         0.00000E+00
         0.00000E+00
         0.00000E+00
         0.00000E+00
         0.00000E+00
         0.00000E+00
         0.00000E+00
         0.00000E+00
         0.00000E+00
         0.00000E+00
         0.00000E+00
         0.00000E+00
         0.00000E+00
         0.00000E+00
         0.00000E+00
         0.00000E+00
         0.00000E+00
         0.00000E+00
         0.00000E+00
         0.00000E+00
         0.00000E+00
         0.00000E+00
         0.00000E+00
         0.00000E+00
         0.00000E+00
         0.00000E+00
         0.00000E+00
         0.00000E+00
         0.00000E+00
         0.00000E+00
         0.00000E+00
         0.00000E+00
         0.00000E+00
         0.00000E+00
         0.00000E+00
         0.00000E+00
         0.00000E+00
         0.00000E+00
         0.00000E+00
         0.00000E+00
         0.00000E+00
         0.00000E+00
         0.00000E+00
         0.00000E+00
         0.00000E+00
         0.00000E+00
         0.00000E+00
         0.00000E+00
         0.00000E+00
         0.00000E+00
         0.00000E+00
         0.00000E+00
         0.00000E+00
         0.00000E+00
         0.00000E+00
         0.00000E+00
         0.00000E+00
         0.00000E+00
         0.00000E+00
         0.00000E+00
         0.00000E+00
         0.00000E+00
         0.00000E+00
         0.00000E+00
         0.00000E+00
         0.00000E+00
         0.00000E+00
         0.00000E+00
         0.00000E+00
         0.00000E+00
         0.00000E+00
         0.00000E+00
         0.00000E+00
         0.00000E+00
         0.00000E+00
         0.00000E+00
         0.00000E+00
         0.00000E+00
         0.00000E+00
         0.00000E+00
         0.00000E+00
         0.00000E+00
         0.00000E+00
         0.00000E+00
         0.00000E+00
         0.00000E+00
         0.00000E+00
         0.00000E+00
         0.00000E+00
         0.00000E+00
         0.00000E+00
         0.00000E+00
         0.00000E+00
         0.00000E+00
         0.00000E+00
         0.00000E+00
         0.00000E+00
         0.00000E+00
         0.00000E+00
         0.00000E+00
         0.00000E+00
         0.00000E+00
         0.00000E+00
         0.00000E+00
         0.00000E+00
         0.00000E+00
         0.00000E+00
         0.00000E+00
         0.00000E+00
         0.00000E+00
         0.00000E+00
         0.00000E+00
         0.00000E+00
         0.00000E+00
         0.00000E+00
         0.00000E+00
         0.00000E+00
         0.00000E+00
         0.00000E+00
         0.00000E+00
         0.00000E+00
         0.00000E+00
         0.00000E+00
         0.00000E+00
         0.00000E+00
         0.00000E+00
         0.00000E+00
         0.00000E+00
         0.00000E+00
         0.00000E+00
         0.00000E+00
         0.00000E+00
         0.00000E+00
         0.00000E+00
         0.00000E+00
         0.00000E+00
         0.00000E+00
         0.00000E+00
         0.00000E+00
         0.00000E+00
         0.00000E+00
         0.00000E+00
         0.00000E+00
         0.00000E+00
         0.00000E+00
         0.00000E+00
         0.00000E+00
         0.00000E+00
         0.00000E+00
         0.00000E+00
         0.00000E+00
         0.00000E+00
         0.00000E+00
         0.00000E+00
         0.00000E+00
         0.00000E+00
         0.00000E+00
         0.00000E+00
         0.00000E+00
         0.00000E+00
         0.00000E+00
         0.00000E+00
         0.00000E+00
         0.00000E+00
         0.00000E+00
         0.00000E+00
         0.00000E+00
         0.00000E+00
         0.00000E+00
         0.00000E+00
         0.00000E+00
         0.00000E+00
         0.00000E+00
         0.00000E+00
         0.00000E+00
         0.00000E+00
         0.00000E+00
         0.00000E+00
         0.00000E+00
         0.00000E+00
         0.00000E+00
         0.00000E+00
         0.00000E+00
         0.00000E+00
         0.00000E+00
         0.00000E+00
         0.00000E+00
         0.00000E+00
         0.00000E+00
         0.00000E+00
         0.00000E+00
         0.00000E+00
         0.00000E+00
         0.00000E+00
         0.00000E+00
         0.00000E+00
         0.00000E+00
         0.00000E+00
         0.00000E+00
         0.00000E+00
         0.00000E+00
         0.00000E+00
         0.00000E+00
         0.00000E+00
         0.00000E+00
         0.00000E+00
         0.00000E+00
         0.00000E+00
         0.00000E+00
         0.00000E+00
         0.00000E+00
         0.00000E+00
         0.00000E+00
         0.00000E+00
         0.00000E+00
         0.00000E+00
         0.00000E+00
         0.00000E+00
         0.00000E+00
         0.00000E+00
         0.00000E+00
         0.00000E+00
         0.00000E+00
         0.00000E+00
         0.00000E+00
         0.00000E+00
         0.00000E+00
         0.00000E+00
         0.00000E+00
         0.00000E+00
         0.00000E+00
         0.00000E+00
         0.00000E+00
         0.00000E+00
         0.00000E+00
         0.00000E+00
         0.00000E+00
         0.00000E+00
         0.00000E+00
         0.00000E+00
         0.00000E+00
         0.00000E+00
         0.00000E+00
         0.00000E+00
         0.00000E+00
         0.00000E+00
         0.00000E+00
         0.00000E+00
         0.00000E+00
         0.00000E+00
         0.00000E+00
         0.00000E+00
         0.00000E+00
         0.00000E+00
         0.00000E+00
         0.00000E+00
         0.00000E+00
         0.00000E+00
         0.00000E+00
         0.00000E+00
         0.00000E+00
         0.00000E+00
         0.00000E+00
         0.00000E+00
         0.00000E+00
         0.00000E+00
         0.00000E+00
         0.00000E+00
         0.00000E+00
         0.00000E+00
         0.00000E+00
         0.00000E+00
         0.00000E+00
         0.00000E+00
         0.00000E+00
         0.00000E+00
         0.00000E+00
         0.00000E+00
         0.00000E+00
         0.00000E+00
         0.00000E+00
         0.00000E+00
         0.00000E+00
         0.00000E+00
         0.00000E+00
         0.00000E+00
         0.00000E+00
         0.00000E+00
         0.00000E+00
         0.00000E+00
         0.00000E+00
         0.00000E+00
         0.00000E+00
         0.00000E+00
         0.00000E+00
         0.00000E+00
         0.00000E+00
         0.00000E+00
         0.00000E+00
         0.00000E+00
         0.00000E+00
         0.00000E+00
         0.00000E+00
         0.00000E+00
         0.00000E+00
         0.00000E+00
         0.00000E+00
         0.00000E+00
         0.00000E+00
         0.00000E+00
         0.00000E+00
         0.00000E+00
         0.00000E+00
         0.00000E+00
         0.00000E+00
         0.00000E+00
         0.00000E+00
         0.00000E+00
         0.00000E+00
         0.00000E+00
         0.00000E+00
         0.00000E+00
         0.00000E+00
         0.00000E+00
         0.00000E+00
         0.00000E+00
         0.00000E+00
         0.00000E+00
         0.00000E+00
         0.00000E+00
         0.00000E+00
         0.00000E+00
         0.00000E+00
         0.00000E+00
         0.00000E+00
         0.00000E+00
         0.00000E+00
         0.00000E+00
         0.00000E+00
         0.00000E+00
         0.00000E+00
         0.00000E+00
         0.00000E+00
         0.00000E+00
         0.00000E+00
         0.00000E+00
         0.00000E+00
         0.00000E+00
         0.00000E+00
         0.00000E+00
         0.00000E+00
         0.00000E+00
         0.00000E+00
         0.00000E+00
         0.00000E+00
         0.00000E+00
         0.00000E+00
         0.00000E+00
         0.00000E+00
         0.00000E+00
         0.00000E+00
         0.00000E+00
         0.00000E+00
         0.00000E+00
         0.00000E+00
         0.00000E+00
         0.00000E+00
         0.00000E+00
         0.00000E+00
         0.00000E+00
         0.00000E+00
         0.00000E+00
         0.00000E+00
         0.00000E+00
         0.00000E+00
         0.00000E+00
         0.00000E+00
         0.00000E+00
         0.00000E+00
         0.00000E+00
         0.00000E+00
         0.00000E+00
         0.00000E+00
         0.00000E+00
         0.00000E+00
         0.00000E+00
         0.00000E+00
         0.00000E+00
         0.00000E+00
         0.00000E+00
         0.00000E+00
         0.00000E+00
         0.00000E+00
         0.00000E+00
         0.00000E+00
         0.00000E+00
         0.00000E+00
         0.00000E+00
         0.00000E+00
         0.00000E+00
         0.00000E+00
         0.00000E+00
         0.00000E+00
         0.00000E+00
         0.00000E+00
         0.00000E+00
         0.00000E+00
         0.00000E+00
         0.00000E+00
         0.00000E+00
         0.00000E+00
         0.00000E+00
         0.00000E+00
         0.00000E+00
         0.00000E+00
         0.00000E+00
         0.00000E+00
         0.00000E+00
         0.00000E+00
         0.00000E+00
         0.00000E+00
         0.00000E+00
         0.00000E+00
         0.00000E+00
         0.00000E+00
         0.00000E+00
         0.00000E+00
         0.00000E+00
         0.00000E+00
         0.00000E+00
         0.00000E+00
         0.00000E+00
         0.00000E+00
         0.00000E+00
         0.00000E+00
         0.00000E+00
         0.00000E+00
         0.00000E+00
         0.00000E+00
         0.00000E+00
         0.00000E+00
         0.00000E+00
         0.00000E+00
         0.00000E+00
         0.00000E+00
         0.00000E+00
         0.00000E+00
         0.00000E+00
         0.00000E+00
         0.00000E+00
         0.00000E+00
         0.00000E+00
         0.00000E+00
         0.00000E+00
         0.00000E+00
         0.00000E+00
         0.00000E+00
         0.00000E+00
         0.00000E+00
         0.00000E+00
         0.00000E+00
         0.00000E+00
         0.00000E+00
         0.00000E+00
         0.00000E+00
         0.00000E+00
         0.00000E+00
         0.00000E+00
         0.00000E+00
         0.00000E+00
         0.00000E+00
         0.00000E+00
         0.00000E+00
         0.00000E+00
         0.00000E+00
         0.00000E+00
         0.00000E+00
         0.00000E+00
         0.00000E+00
         0.00000E+00
         0.00000E+00
         0.00000E+00
         0.00000E+00
         0.00000E+00
         0.00000E+00
         0.00000E+00
         0.00000E+00
         0.00000E+00
         0.00000E+00
         0.00000E+00
         0.00000E+00
         0.00000E+00
         0.00000E+00
         0.00000E+00
         0.00000E+00
         0.00000E+00
         0.00000E+00
         0.00000E+00
         0.00000E+00
         0.00000E+00
         0.00000E+00
         0.00000E+00
         0.00000E+00
         0.00000E+00
         0.00000E+00
         0.00000E+00
         0.00000E+00
         0.00000E+00
         0.00000E+00
         0.00000E+00
         0.00000E+00
         0.00000E+00
         0.00000E+00
         0.00000E+00
         0.00000E+00
         0.00000E+00
         0.00000E+00
         0.00000E+00
         0.00000E+00
         0.00000E+00
         0.00000E+00
         0.00000E+00
         0.00000E+00
         0.00000E+00
         0.00000E+00
         0.00000E+00
         0.00000E+00
         0.00000E+00
         0.00000E+00
         0.00000E+00
         0.00000E+00
         0.00000E+00
         0.00000E+00
         0.00000E+00
         0.00000E+00
         0.00000E+00
         0.00000E+00
         0.00000E+00
         0.00000E+00
         0.00000E+00
         0.00000E+00
         0.00000E+00
         0.00000E+00
         0.00000E+00
         0.00000E+00
         0.00000E+00
         0.00000E+00
         0.00000E+00
         0.00000E+00
         0.00000E+00
         0.00000E+00
         0.00000E+00
         0.00000E+00
         0.00000E+00
         0.00000E+00
         0.00000E+00
         0.00000E+00
         0.00000E+00
         0.00000E+00
         0.00000E+00
         0.00000E+00
         0.00000E+00
         0.00000E+00
         0.00000E+00
         0.00000E+00
         0.00000E+00
         0.00000E+00
         0.00000E+00
         0.00000E+00
         0.00000E+00
         0.00000E+00
         0.00000E+00
         0.00000E+00
         0.00000E+00
         0.00000E+00
         0.00000E+00
         0.00000E+00
         0.00000E+00
         0.00000E+00
         0.00000E+00
         0.00000E+00
         0.00000E+00
         0.00000E+00
         0.00000E+00
         0.00000E+00
         0.00000E+00
         0.00000E+00
         0.00000E+00
         0.00000E+00
         0.00000E+00
         0.00000E+00
         0.00000E+00
         0.00000E+00
         0.00000E+00
         0.00000E+00
         0.00000E+00
         0.00000E+00
         0.00000E+00
         0.00000E+00
         0.00000E+00
         0.00000E+00
         0.00000E+00
         0.00000E+00
         0.00000E+00
         0.00000E+00
         0.00000E+00
         0.00000E+00
         0.00000E+00
         0.00000E+00
         0.00000E+00
         0.00000E+00
         0.00000E+00
         0.00000E+00
         0.00000E+00
         0.00000E+00
         0.00000E+00
         0.00000E+00
         0.00000E+00
         0.00000E+00
         0.00000E+00
         0.00000E+00
         0.00000E+00
         0.00000E+00
         0.00000E+00
         0.00000E+00
         0.00000E+00
         0.00000E+00
         0.00000E+00
         0.00000E+00
         0.00000E+00
         0.00000E+00
         0.00000E+00
         0.00000E+00
         0.00000E+00
         0.00000E+00
         0.00000E+00
         0.00000E+00
         0.00000E+00
         0.00000E+00
         0.00000E+00
         0.00000E+00
         0.00000E+00
         0.00000E+00
         0.00000E+00
         0.00000E+00
         0.00000E+00
         0.00000E+00
         0.00000E+00
         0.00000E+00
         0.00000E+00
         0.00000E+00
         0.00000E+00
         0.00000E+00
         0.00000E+00
         0.00000E+00
         0.00000E+00
         0.00000E+00
         0.00000E+00
         0.00000E+00
         0.00000E+00
         0.00000E+00
         0.00000E+00
         0.00000E+00
         0.00000E+00
         0.00000E+00
         0.00000E+00
         0.00000E+00
         0.00000E+00
         0.00000E+00
         0.00000E+00
         0.00000E+00
         0.00000E+00
         0.00000E+00
         0.00000E+00
         0.00000E+00
         0.00000E+00
         0.00000E+00
         0.00000E+00
         0.00000E+00
         0.00000E+00
         0.00000E+00
         0.00000E+00
         0.00000E+00
         0.00000E+00
         0.00000E+00
         0.00000E+00
         0.00000E+00
         0.00000E+00
         0.00000E+00
         0.00000E+00
         0.00000E+00
         0.00000E+00
         0.00000E+00
         0.00000E+00
         0.00000E+00
         0.00000E+00
         0.00000E+00
         0.00000E+00
         0.00000E+00
         0.00000E+00
         0.00000E+00
         0.00000E+00
         0.00000E+00
         0.00000E+00
         0.00000E+00
         0.00000E+00
  
SCALARS                        eps_vol  double 1
LOOKUP_TABLE default
         0.00000E+00
         0.00000E+00
         0.00000E+00
         0.00000E+00
         0.00000E+00
         0.00000E+00
         0.00000E+00
         0.00000E+00
         0.00000E+00
         0.00000E+00
         0.00000E+00
         0.00000E+00
         0.00000E+00
         0.00000E+00
         0.00000E+00
         0.00000E+00
         0.00000E+00
         0.00000E+00
         0.00000E+00
         0.00000E+00
         0.00000E+00
         0.00000E+00
         0.00000E+00
         0.00000E+00
         0.00000E+00
         0.00000E+00
         0.00000E+00
         0.00000E+00
         0.00000E+00
         0.00000E+00
         0.00000E+00
         0.00000E+00
         0.00000E+00
         0.00000E+00
         0.00000E+00
         0.00000E+00
         0.00000E+00
         0.00000E+00
         0.00000E+00
         0.00000E+00
         0.00000E+00
         0.00000E+00
         0.00000E+00
         0.00000E+00
         0.00000E+00
         0.00000E+00
         0.00000E+00
         0.00000E+00
         0.00000E+00
         0.00000E+00
         0.00000E+00
         0.00000E+00
         0.00000E+00
         0.00000E+00
         0.00000E+00
         0.00000E+00
         0.00000E+00
         0.00000E+00
         0.00000E+00
         0.00000E+00
         0.00000E+00
         0.00000E+00
         0.00000E+00
         0.00000E+00
         0.00000E+00
         0.00000E+00
         0.00000E+00
         0.00000E+00
         0.00000E+00
         0.00000E+00
         0.00000E+00
         0.00000E+00
         0.00000E+00
         0.00000E+00
         0.00000E+00
         0.00000E+00
         0.00000E+00
         0.00000E+00
         0.00000E+00
         0.00000E+00
         0.00000E+00
         0.00000E+00
         0.00000E+00
         0.00000E+00
         0.00000E+00
         0.00000E+00
         0.00000E+00
         0.00000E+00
         0.00000E+00
         0.00000E+00
         0.00000E+00
         0.00000E+00
         0.00000E+00
         0.00000E+00
         0.00000E+00
         0.00000E+00
         0.00000E+00
         0.00000E+00
         0.00000E+00
         0.00000E+00
         0.00000E+00
         0.00000E+00
         0.00000E+00
         0.00000E+00
         0.00000E+00
         0.00000E+00
         0.00000E+00
         0.00000E+00
         0.00000E+00
         0.00000E+00
         0.00000E+00
         0.00000E+00
         0.00000E+00
         0.00000E+00
         0.00000E+00
         0.00000E+00
         0.00000E+00
         0.00000E+00
         0.00000E+00
         0.00000E+00
         0.00000E+00
         0.00000E+00
         0.00000E+00
         0.00000E+00
         0.00000E+00
         0.00000E+00
         0.00000E+00
         0.00000E+00
         0.00000E+00
         0.00000E+00
         0.00000E+00
         0.00000E+00
         0.00000E+00
         0.00000E+00
         0.00000E+00
         0.00000E+00
         0.00000E+00
         0.00000E+00
         0.00000E+00
         0.00000E+00
         0.00000E+00
         0.00000E+00
         0.00000E+00
         0.00000E+00
         0.00000E+00
         0.00000E+00
         0.00000E+00
         0.00000E+00
         0.00000E+00
         0.00000E+00
         0.00000E+00
         0.00000E+00
         0.00000E+00
         0.00000E+00
         0.00000E+00
         0.00000E+00
         0.00000E+00
         0.00000E+00
         0.00000E+00
         0.00000E+00
         0.00000E+00
         0.00000E+00
         0.00000E+00
         0.00000E+00
         0.00000E+00
         0.00000E+00
         0.00000E+00
         0.00000E+00
         0.00000E+00
         0.00000E+00
         0.00000E+00
         0.00000E+00
         0.00000E+00
         0.00000E+00
         0.00000E+00
         0.00000E+00
         0.00000E+00
         0.00000E+00
         0.00000E+00
         0.00000E+00
         0.00000E+00
         0.00000E+00
         0.00000E+00
         0.00000E+00
         0.00000E+00
         0.00000E+00
         0.00000E+00
         0.00000E+00
         0.00000E+00
         0.00000E+00
         0.00000E+00
         0.00000E+00
         0.00000E+00
         0.00000E+00
         0.00000E+00
         0.00000E+00
         0.00000E+00
         0.00000E+00
         0.00000E+00
         0.00000E+00
         0.00000E+00
         0.00000E+00
         0.00000E+00
         0.00000E+00
         0.00000E+00
         0.00000E+00
         0.00000E+00
         0.00000E+00
         0.00000E+00
         0.00000E+00
         0.00000E+00
         0.00000E+00
         0.00000E+00
         0.00000E+00
         0.00000E+00
         0.00000E+00
         0.00000E+00
         0.00000E+00
         0.00000E+00
         0.00000E+00
         0.00000E+00
         0.00000E+00
         0.00000E+00
         0.00000E+00
         0.00000E+00
         0.00000E+00
         0.00000E+00
         0.00000E+00
         0.00000E+00
         0.00000E+00
         0.00000E+00
         0.00000E+00
         0.00000E+00
         0.00000E+00
         0.00000E+00
         0.00000E+00
         0.00000E+00
         0.00000E+00
         0.00000E+00
         0.00000E+00
         0.00000E+00
         0.00000E+00
         0.00000E+00
         0.00000E+00
         0.00000E+00
         0.00000E+00
         0.00000E+00
         0.00000E+00
         0.00000E+00
         0.00000E+00
         0.00000E+00
         0.00000E+00
         0.00000E+00
         0.00000E+00
         0.00000E+00
         0.00000E+00
         0.00000E+00
         0.00000E+00
         0.00000E+00
         0.00000E+00
         0.00000E+00
         0.00000E+00
         0.00000E+00
         0.00000E+00
         0.00000E+00
         0.00000E+00
         0.00000E+00
         0.00000E+00
         0.00000E+00
         0.00000E+00
         0.00000E+00
         0.00000E+00
         0.00000E+00
         0.00000E+00
         0.00000E+00
         0.00000E+00
         0.00000E+00
         0.00000E+00
         0.00000E+00
         0.00000E+00
         0.00000E+00
         0.00000E+00
         0.00000E+00
         0.00000E+00
         0.00000E+00
         0.00000E+00
         0.00000E+00
         0.00000E+00
         0.00000E+00
         0.00000E+00
         0.00000E+00
         0.00000E+00
         0.00000E+00
         0.00000E+00
         0.00000E+00
         0.00000E+00
         0.00000E+00
         0.00000E+00
         0.00000E+00
         0.00000E+00
         0.00000E+00
         0.00000E+00
         0.00000E+00
         0.00000E+00
         0.00000E+00
         0.00000E+00
         0.00000E+00
         0.00000E+00
         0.00000E+00
         0.00000E+00
         0.00000E+00
         0.00000E+00
         0.00000E+00
         0.00000E+00
         0.00000E+00
         0.00000E+00
         0.00000E+00
         0.00000E+00
         0.00000E+00
         0.00000E+00
         0.00000E+00
         0.00000E+00
         0.00000E+00
         0.00000E+00
         0.00000E+00
         0.00000E+00
         0.00000E+00
         0.00000E+00
         0.00000E+00
         0.00000E+00
         0.00000E+00
         0.00000E+00
         0.00000E+00
         0.00000E+00
         0.00000E+00
         0.00000E+00
         0.00000E+00
         0.00000E+00
         0.00000E+00
         0.00000E+00
         0.00000E+00
         0.00000E+00
         0.00000E+00
         0.00000E+00
         0.00000E+00
         0.00000E+00
         0.00000E+00
         0.00000E+00
         0.00000E+00
         0.00000E+00
         0.00000E+00
         0.00000E+00
         0.00000E+00
         0.00000E+00
         0.00000E+00
         0.00000E+00
         0.00000E+00
         0.00000E+00
         0.00000E+00
         0.00000E+00
         0.00000E+00
         0.00000E+00
         0.00000E+00
         0.00000E+00
         0.00000E+00
         0.00000E+00
         0.00000E+00
         0.00000E+00
         0.00000E+00
         0.00000E+00
         0.00000E+00
         0.00000E+00
         0.00000E+00
         0.00000E+00
         0.00000E+00
         0.00000E+00
         0.00000E+00
         0.00000E+00
         0.00000E+00
         0.00000E+00
         0.00000E+00
         0.00000E+00
         0.00000E+00
         0.00000E+00
         0.00000E+00
         0.00000E+00
         0.00000E+00
         0.00000E+00
         0.00000E+00
         0.00000E+00
         0.00000E+00
         0.00000E+00
         0.00000E+00
         0.00000E+00
         0.00000E+00
         0.00000E+00
         0.00000E+00
         0.00000E+00
         0.00000E+00
         0.00000E+00
         0.00000E+00
         0.00000E+00
         0.00000E+00
         0.00000E+00
         0.00000E+00
         0.00000E+00
         0.00000E+00
         0.00000E+00
         0.00000E+00
         0.00000E+00
         0.00000E+00
         0.00000E+00
         0.00000E+00
         0.00000E+00
         0.00000E+00
         0.00000E+00
         0.00000E+00
         0.00000E+00
         0.00000E+00
         0.00000E+00
         0.00000E+00
         0.00000E+00
         0.00000E+00
         0.00000E+00
         0.00000E+00
         0.00000E+00
         0.00000E+00
         0.00000E+00
         0.00000E+00
         0.00000E+00
         0.00000E+00
         0.00000E+00
         0.00000E+00
         0.00000E+00
         0.00000E+00
         0.00000E+00
         0.00000E+00
         0.00000E+00
         0.00000E+00
         0.00000E+00
         0.00000E+00
         0.00000E+00
         0.00000E+00
         0.00000E+00
         0.00000E+00
         0.00000E+00
         0.00000E+00
         0.00000E+00
         0.00000E+00
         0.00000E+00
         0.00000E+00
         0.00000E+00
         0.00000E+00
         0.00000E+00
         0.00000E+00
         0.00000E+00
         0.00000E+00
         0.00000E+00
         0.00000E+00
         0.00000E+00
         0.00000E+00
         0.00000E+00
         0.00000E+00
         0.00000E+00
         0.00000E+00
         0.00000E+00
         0.00000E+00
         0.00000E+00
         0.00000E+00
         0.00000E+00
         0.00000E+00
         0.00000E+00
         0.00000E+00
         0.00000E+00
         0.00000E+00
         0.00000E+00
         0.00000E+00
         0.00000E+00
         0.00000E+00
         0.00000E+00
         0.00000E+00
         0.00000E+00
         0.00000E+00
         0.00000E+00
         0.00000E+00
         0.00000E+00
         0.00000E+00
         0.00000E+00
         0.00000E+00
         0.00000E+00
         0.00000E+00
         0.00000E+00
         0.00000E+00
         0.00000E+00
         0.00000E+00
         0.00000E+00
         0.00000E+00
         0.00000E+00
         0.00000E+00
         0.00000E+00
         0.00000E+00
         0.00000E+00
         0.00000E+00
         0.00000E+00
         0.00000E+00
         0.00000E+00
         0.00000E+00
         0.00000E+00
         0.00000E+00
         0.00000E+00
         0.00000E+00
         0.00000E+00
         0.00000E+00
         0.00000E+00
         0.00000E+00
         0.00000E+00
         0.00000E+00
         0.00000E+00
         0.00000E+00
         0.00000E+00
         0.00000E+00
         0.00000E+00
         0.00000E+00
         0.00000E+00
         0.00000E+00
         0.00000E+00
         0.00000E+00
         0.00000E+00
         0.00000E+00
         0.00000E+00
         0.00000E+00
         0.00000E+00
         0.00000E+00
         0.00000E+00
         0.00000E+00
         0.00000E+00
         0.00000E+00
         0.00000E+00
         0.00000E+00
         0.00000E+00
         0.00000E+00
         0.00000E+00
         0.00000E+00
         0.00000E+00
         0.00000E+00
         0.00000E+00
         0.00000E+00
         0.00000E+00
         0.00000E+00
         0.00000E+00
         0.00000E+00
         0.00000E+00
         0.00000E+00
         0.00000E+00
         0.00000E+00
         0.00000E+00
         0.00000E+00
         0.00000E+00
         0.00000E+00
         0.00000E+00
         0.00000E+00
         0.00000E+00
         0.00000E+00
         0.00000E+00
         0.00000E+00
         0.00000E+00
         0.00000E+00
         0.00000E+00
         0.00000E+00
         0.00000E+00
         0.00000E+00
         0.00000E+00
         0.00000E+00
         0.00000E+00
         0.00000E+00
         0.00000E+00
         0.00000E+00
         0.00000E+00
         0.00000E+00
         0.00000E+00
         0.00000E+00
         0.00000E+00
         0.00000E+00
         0.00000E+00
         0.00000E+00
         0.00000E+00
         0.00000E+00
         0.00000E+00
         0.00000E+00
         0.00000E+00
         0.00000E+00
         0.00000E+00
         0.00000E+00
         0.00000E+00
         0.00000E+00
         0.00000E+00
         0.00000E+00
         0.00000E+00
         0.00000E+00
         0.00000E+00
         0.00000E+00
         0.00000E+00
         0.00000E+00
         0.00000E+00
         0.00000E+00
         0.00000E+00
         0.00000E+00
         0.00000E+00
         0.00000E+00
         0.00000E+00
         0.00000E+00
         0.00000E+00
         0.00000E+00
         0.00000E+00
         0.00000E+00
         0.00000E+00
         0.00000E+00
         0.00000E+00
         0.00000E+00
         0.00000E+00
         0.00000E+00
         0.00000E+00
         0.00000E+00
         0.00000E+00
         0.00000E+00
         0.00000E+00
         0.00000E+00
         0.00000E+00
         0.00000E+00
         0.00000E+00
         0.00000E+00
         0.00000E+00
         0.00000E+00
         0.00000E+00
         0.00000E+00
         0.00000E+00
         0.00000E+00
         0.00000E+00
         0.00000E+00
         0.00000E+00
         0.00000E+00
         0.00000E+00
         0.00000E+00
         0.00000E+00
         0.00000E+00
         0.00000E+00
         0.00000E+00
         0.00000E+00
         0.00000E+00
         0.00000E+00
         0.00000E+00
         0.00000E+00
         0.00000E+00
         0.00000E+00
         0.00000E+00
         0.00000E+00
         0.00000E+00
         0.00000E+00
         0.00000E+00
         0.00000E+00
         0.00000E+00
         0.00000E+00
         0.00000E+00
         0.00000E+00
         0.00000E+00
         0.00000E+00
         0.00000E+00
         0.00000E+00
         0.00000E+00
         0.00000E+00
         0.00000E+00
         0.00000E+00
         0.00000E+00
         0.00000E+00
         0.00000E+00
         0.00000E+00
         0.00000E+00
         0.00000E+00
         0.00000E+00
         0.00000E+00
         0.00000E+00
         0.00000E+00
         0.00000E+00
         0.00000E+00
         0.00000E+00
         0.00000E+00
         0.00000E+00
         0.00000E+00
         0.00000E+00
         0.00000E+00
         0.00000E+00
         0.00000E+00
         0.00000E+00
         0.00000E+00
         0.00000E+00
         0.00000E+00
         0.00000E+00
         0.00000E+00
         0.00000E+00
         0.00000E+00
         0.00000E+00
         0.00000E+00
         0.00000E+00
         0.00000E+00
         0.00000E+00
         0.00000E+00
         0.00000E+00
         0.00000E+00
         0.00000E+00
         0.00000E+00
         0.00000E+00
         0.00000E+00
         0.00000E+00
         0.00000E+00
         0.00000E+00
         0.00000E+00
         0.00000E+00
         0.00000E+00
         0.00000E+00
         0.00000E+00
         0.00000E+00
         0.00000E+00
         0.00000E+00
         0.00000E+00
         0.00000E+00
         0.00000E+00
         0.00000E+00
         0.00000E+00
         0.00000E+00
         0.00000E+00
         0.00000E+00
         0.00000E+00
         0.00000E+00
         0.00000E+00
         0.00000E+00
         0.00000E+00
         0.00000E+00
         0.00000E+00
         0.00000E+00
         0.00000E+00
         0.00000E+00
         0.00000E+00
         0.00000E+00
         0.00000E+00
         0.00000E+00
         0.00000E+00
         0.00000E+00
         0.00000E+00
         0.00000E+00
         0.00000E+00
         0.00000E+00
         0.00000E+00
         0.00000E+00
         0.00000E+00
         0.00000E+00
         0.00000E+00
         0.00000E+00
         0.00000E+00
         0.00000E+00
         0.00000E+00
         0.00000E+00
         0.00000E+00
         0.00000E+00
         0.00000E+00
         0.00000E+00
         0.00000E+00
         0.00000E+00
         0.00000E+00
         0.00000E+00
         0.00000E+00
         0.00000E+00
         0.00000E+00
         0.00000E+00
         0.00000E+00
         0.00000E+00
         0.00000E+00
         0.00000E+00
         0.00000E+00
         0.00000E+00
         0.00000E+00
         0.00000E+00
         0.00000E+00
         0.00000E+00
         0.00000E+00
         0.00000E+00
         0.00000E+00
         0.00000E+00
         0.00000E+00
         0.00000E+00
         0.00000E+00
         0.00000E+00
         0.00000E+00
         0.00000E+00
         0.00000E+00
         0.00000E+00
         0.00000E+00
         0.00000E+00
         0.00000E+00
         0.00000E+00
         0.00000E+00
         0.00000E+00
         0.00000E+00
         0.00000E+00
         0.00000E+00
         0.00000E+00
         0.00000E+00
         0.00000E+00
         0.00000E+00
         0.00000E+00
         0.00000E+00
         0.00000E+00
         0.00000E+00
         0.00000E+00
         0.00000E+00
         0.00000E+00
         0.00000E+00
         0.00000E+00
         0.00000E+00
         0.00000E+00
         0.00000E+00
         0.00000E+00
         0.00000E+00
         0.00000E+00
         0.00000E+00
         0.00000E+00
         0.00000E+00
         0.00000E+00
         0.00000E+00
         0.00000E+00
         0.00000E+00
         0.00000E+00
         0.00000E+00
         0.00000E+00
         0.00000E+00
         0.00000E+00
         0.00000E+00
         0.00000E+00
         0.00000E+00
         0.00000E+00
         0.00000E+00
         0.00000E+00
         0.00000E+00
         0.00000E+00
         0.00000E+00
         0.00000E+00
         0.00000E+00
         0.00000E+00
         0.00000E+00
         0.00000E+00
         0.00000E+00
         0.00000E+00
         0.00000E+00
         0.00000E+00
         0.00000E+00
         0.00000E+00
         0.00000E+00
         0.00000E+00
         0.00000E+00
         0.00000E+00
         0.00000E+00
         0.00000E+00
         0.00000E+00
         0.00000E+00
         0.00000E+00
         0.00000E+00
         0.00000E+00
         0.00000E+00
         0.00000E+00
         0.00000E+00
         0.00000E+00
         0.00000E+00
         0.00000E+00
         0.00000E+00
         0.00000E+00
         0.00000E+00
         0.00000E+00
         0.00000E+00
         0.00000E+00
         0.00000E+00
         0.00000E+00
         0.00000E+00
         0.00000E+00
         0.00000E+00
         0.00000E+00
         0.00000E+00
         0.00000E+00
         0.00000E+00
         0.00000E+00
         0.00000E+00
         0.00000E+00
         0.00000E+00
         0.00000E+00
         0.00000E+00
         0.00000E+00
         0.00000E+00
         0.00000E+00
         0.00000E+00
         0.00000E+00
         0.00000E+00
         0.00000E+00
         0.00000E+00
         0.00000E+00
         0.00000E+00
         0.00000E+00
         0.00000E+00
         0.00000E+00
         0.00000E+00
         0.00000E+00
         0.00000E+00
         0.00000E+00
         0.00000E+00
         0.00000E+00
         0.00000E+00
         0.00000E+00
         0.00000E+00
         0.00000E+00
         0.00000E+00
         0.00000E+00
         0.00000E+00
         0.00000E+00
         0.00000E+00
         0.00000E+00
         0.00000E+00
         0.00000E+00
         0.00000E+00
         0.00000E+00
         0.00000E+00
         0.00000E+00
         0.00000E+00
         0.00000E+00
         0.00000E+00
         0.00000E+00
         0.00000E+00
         0.00000E+00
         0.00000E+00
         0.00000E+00
         0.00000E+00
         0.00000E+00
         0.00000E+00
         0.00000E+00
         0.00000E+00
         0.00000E+00
         0.00000E+00
         0.00000E+00
         0.00000E+00
         0.00000E+00
         0.00000E+00
         0.00000E+00
         0.00000E+00
         0.00000E+00
         0.00000E+00
         0.00000E+00
         0.00000E+00
         0.00000E+00
         0.00000E+00
         0.00000E+00
         0.00000E+00
         0.00000E+00
         0.00000E+00
         0.00000E+00
         0.00000E+00
         0.00000E+00
         0.00000E+00
         0.00000E+00
         0.00000E+00
         0.00000E+00
         0.00000E+00
         0.00000E+00
         0.00000E+00
         0.00000E+00
         0.00000E+00
         0.00000E+00
         0.00000E+00
         0.00000E+00
         0.00000E+00
         0.00000E+00
         0.00000E+00
         0.00000E+00
         0.00000E+00
         0.00000E+00
         0.00000E+00
         0.00000E+00
         0.00000E+00
         0.00000E+00
         0.00000E+00
         0.00000E+00
         0.00000E+00
         0.00000E+00
         0.00000E+00
         0.00000E+00
         0.00000E+00
         0.00000E+00
         0.00000E+00
         0.00000E+00
         0.00000E+00
         0.00000E+00
         0.00000E+00
         0.00000E+00
         0.00000E+00
         0.00000E+00
         0.00000E+00
         0.00000E+00
         0.00000E+00
         0.00000E+00
         0.00000E+00
         0.00000E+00
         0.00000E+00
         0.00000E+00
         0.00000E+00
         0.00000E+00
         0.00000E+00
         0.00000E+00
         0.00000E+00
         0.00000E+00
         0.00000E+00
         0.00000E+00
         0.00000E+00
         0.00000E+00
         0.00000E+00
         0.00000E+00
         0.00000E+00
         0.00000E+00
         0.00000E+00
         0.00000E+00
         0.00000E+00
         0.00000E+00
         0.00000E+00
         0.00000E+00
         0.00000E+00
         0.00000E+00
         0.00000E+00
         0.00000E+00
         0.00000E+00
         0.00000E+00
         0.00000E+00
         0.00000E+00
         0.00000E+00
         0.00000E+00
         0.00000E+00
         0.00000E+00
         0.00000E+00
         0.00000E+00
         0.00000E+00
         0.00000E+00
         0.00000E+00
         0.00000E+00
         0.00000E+00
         0.00000E+00
         0.00000E+00
         0.00000E+00
         0.00000E+00
         0.00000E+00
         0.00000E+00
         0.00000E+00
         0.00000E+00
         0.00000E+00
         0.00000E+00
         0.00000E+00
         0.00000E+00
         0.00000E+00
         0.00000E+00
         0.00000E+00
         0.00000E+00
         0.00000E+00
         0.00000E+00
         0.00000E+00
         0.00000E+00
         0.00000E+00
         0.00000E+00
         0.00000E+00
         0.00000E+00
         0.00000E+00
         0.00000E+00
         0.00000E+00
         0.00000E+00
         0.00000E+00
         0.00000E+00
         0.00000E+00
         0.00000E+00
         0.00000E+00
         0.00000E+00
         0.00000E+00
         0.00000E+00
         0.00000E+00
         0.00000E+00
         0.00000E+00
         0.00000E+00
         0.00000E+00
         0.00000E+00
         0.00000E+00
         0.00000E+00
         0.00000E+00
         0.00000E+00
         0.00000E+00
         0.00000E+00
         0.00000E+00
         0.00000E+00
         0.00000E+00
         0.00000E+00
         0.00000E+00
         0.00000E+00
         0.00000E+00
         0.00000E+00
         0.00000E+00
         0.00000E+00
         0.00000E+00
         0.00000E+00
         0.00000E+00
         0.00000E+00
         0.00000E+00
         0.00000E+00
         0.00000E+00
         0.00000E+00
         0.00000E+00
         0.00000E+00
         0.00000E+00
         0.00000E+00
         0.00000E+00
         0.00000E+00
         0.00000E+00
         0.00000E+00
         0.00000E+00
         0.00000E+00
         0.00000E+00
         0.00000E+00
         0.00000E+00
         0.00000E+00
         0.00000E+00
         0.00000E+00
         0.00000E+00
         0.00000E+00
         0.00000E+00
         0.00000E+00
         0.00000E+00
         0.00000E+00
         0.00000E+00
         0.00000E+00
         0.00000E+00
         0.00000E+00
         0.00000E+00
         0.00000E+00
         0.00000E+00
         0.00000E+00
         0.00000E+00
         0.00000E+00
         0.00000E+00
         0.00000E+00
         0.00000E+00
         0.00000E+00
         0.00000E+00
         0.00000E+00
         0.00000E+00
         0.00000E+00
         0.00000E+00
         0.00000E+00
         0.00000E+00
         0.00000E+00
         0.00000E+00
         0.00000E+00
         0.00000E+00
         0.00000E+00
         0.00000E+00
         0.00000E+00
         0.00000E+00
         0.00000E+00
         0.00000E+00
         0.00000E+00
         0.00000E+00
         0.00000E+00
         0.00000E+00
         0.00000E+00
         0.00000E+00
         0.00000E+00
         0.00000E+00
         0.00000E+00
         0.00000E+00
         0.00000E+00
         0.00000E+00
         0.00000E+00
         0.00000E+00
         0.00000E+00
         0.00000E+00
         0.00000E+00
         0.00000E+00
         0.00000E+00
         0.00000E+00
         0.00000E+00
         0.00000E+00
         0.00000E+00
         0.00000E+00
         0.00000E+00
         0.00000E+00
         0.00000E+00
         0.00000E+00
         0.00000E+00
         0.00000E+00
         0.00000E+00
         0.00000E+00
         0.00000E+00
         0.00000E+00
         0.00000E+00
         0.00000E+00
         0.00000E+00
         0.00000E+00
         0.00000E+00
         0.00000E+00
         0.00000E+00
         0.00000E+00
         0.00000E+00
         0.00000E+00
         0.00000E+00
         0.00000E+00
         0.00000E+00
         0.00000E+00
         0.00000E+00
         0.00000E+00
         0.00000E+00
         0.00000E+00
         0.00000E+00
         0.00000E+00
         0.00000E+00
         0.00000E+00
         0.00000E+00
         0.00000E+00
         0.00000E+00
         0.00000E+00
         0.00000E+00
         0.00000E+00
         0.00000E+00
         0.00000E+00
         0.00000E+00
         0.00000E+00
         0.00000E+00
         0.00000E+00
         0.00000E+00
         0.00000E+00
         0.00000E+00
         0.00000E+00
         0.00000E+00
         0.00000E+00
         0.00000E+00
         0.00000E+00
         0.00000E+00
         0.00000E+00
         0.00000E+00
         0.00000E+00
         0.00000E+00
         0.00000E+00
         0.00000E+00
         0.00000E+00
         0.00000E+00
         0.00000E+00
         0.00000E+00
         0.00000E+00
         0.00000E+00
         0.00000E+00
         0.00000E+00
         0.00000E+00
         0.00000E+00
         0.00000E+00
         0.00000E+00
         0.00000E+00
         0.00000E+00
         0.00000E+00
         0.00000E+00
         0.00000E+00
         0.00000E+00
         0.00000E+00
         0.00000E+00
         0.00000E+00
         0.00000E+00
         0.00000E+00
         0.00000E+00
         0.00000E+00
         0.00000E+00
         0.00000E+00
         0.00000E+00
         0.00000E+00
         0.00000E+00
         0.00000E+00
         0.00000E+00
         0.00000E+00
         0.00000E+00
         0.00000E+00
         0.00000E+00
         0.00000E+00
         0.00000E+00
         0.00000E+00
         0.00000E+00
         0.00000E+00
         0.00000E+00
         0.00000E+00
         0.00000E+00
         0.00000E+00
         0.00000E+00
         0.00000E+00
         0.00000E+00
         0.00000E+00
         0.00000E+00
         0.00000E+00
         0.00000E+00
         0.00000E+00
         0.00000E+00
         0.00000E+00
         0.00000E+00
         0.00000E+00
         0.00000E+00
         0.00000E+00
         0.00000E+00
         0.00000E+00
         0.00000E+00
         0.00000E+00
         0.00000E+00
         0.00000E+00
         0.00000E+00
         0.00000E+00
         0.00000E+00
         0.00000E+00
         0.00000E+00
         0.00000E+00
         0.00000E+00
         0.00000E+00
         0.00000E+00
         0.00000E+00
         0.00000E+00
         0.00000E+00
         0.00000E+00
         0.00000E+00
         0.00000E+00
         0.00000E+00
         0.00000E+00
         0.00000E+00
         0.00000E+00
         0.00000E+00
         0.00000E+00
         0.00000E+00
         0.00000E+00
         0.00000E+00
         0.00000E+00
         0.00000E+00
         0.00000E+00
         0.00000E+00
         0.00000E+00
         0.00000E+00
         0.00000E+00
         0.00000E+00
         0.00000E+00
         0.00000E+00
         0.00000E+00
         0.00000E+00
         0.00000E+00
         0.00000E+00
         0.00000E+00
         0.00000E+00
         0.00000E+00
         0.00000E+00
         0.00000E+00
         0.00000E+00
         0.00000E+00
         0.00000E+00
         0.00000E+00
         0.00000E+00
         0.00000E+00
         0.00000E+00
         0.00000E+00
         0.00000E+00
         0.00000E+00
         0.00000E+00
         0.00000E+00
         0.00000E+00
         0.00000E+00
         0.00000E+00
         0.00000E+00
         0.00000E+00
         0.00000E+00
         0.00000E+00
         0.00000E+00
         0.00000E+00
         0.00000E+00
         0.00000E+00
         0.00000E+00
         0.00000E+00
         0.00000E+00
         0.00000E+00
         0.00000E+00
         0.00000E+00
         0.00000E+00
         0.00000E+00
         0.00000E+00
         0.00000E+00
         0.00000E+00
         0.00000E+00
         0.00000E+00
         0.00000E+00
         0.00000E+00
         0.00000E+00
         0.00000E+00
         0.00000E+00
         0.00000E+00
         0.00000E+00
         0.00000E+00
         0.00000E+00
         0.00000E+00
         0.00000E+00
         0.00000E+00
         0.00000E+00
         0.00000E+00
         0.00000E+00
         0.00000E+00
         0.00000E+00
         0.00000E+00
         0.00000E+00
         0.00000E+00
         0.00000E+00
         0.00000E+00
         0.00000E+00
         0.00000E+00
         0.00000E+00
         0.00000E+00
         0.00000E+00
         0.00000E+00
         0.00000E+00
         0.00000E+00
         0.00000E+00
         0.00000E+00
         0.00000E+00
         0.00000E+00
         0.00000E+00
         0.00000E+00
         0.00000E+00
         0.00000E+00
         0.00000E+00
         0.00000E+00
         0.00000E+00
         0.00000E+00
         0.00000E+00
         0.00000E+00
         0.00000E+00
         0.00000E+00
         0.00000E+00
         0.00000E+00
         0.00000E+00
         0.00000E+00
         0.00000E+00
         0.00000E+00
         0.00000E+00
         0.00000E+00
         0.00000E+00
         0.00000E+00
         0.00000E+00
         0.00000E+00
         0.00000E+00
         0.00000E+00
         0.00000E+00
         0.00000E+00
         0.00000E+00
         0.00000E+00
         0.00000E+00
         0.00000E+00
         0.00000E+00
         0.00000E+00
         0.00000E+00
         0.00000E+00
         0.00000E+00
         0.00000E+00
         0.00000E+00
         0.00000E+00
         0.00000E+00
         0.00000E+00
         0.00000E+00
         0.00000E+00
         0.00000E+00
         0.00000E+00
         0.00000E+00
         0.00000E+00
         0.00000E+00
         0.00000E+00
         0.00000E+00
         0.00000E+00
         0.00000E+00
         0.00000E+00
         0.00000E+00
         0.00000E+00
         0.00000E+00
         0.00000E+00
         0.00000E+00
         0.00000E+00
         0.00000E+00
         0.00000E+00
         0.00000E+00
         0.00000E+00
         0.00000E+00
         0.00000E+00
         0.00000E+00
         0.00000E+00
         0.00000E+00
         0.00000E+00
         0.00000E+00
         0.00000E+00
         0.00000E+00
         0.00000E+00
         0.00000E+00
         0.00000E+00
         0.00000E+00
         0.00000E+00
         0.00000E+00
         0.00000E+00
         0.00000E+00
         0.00000E+00
         0.00000E+00
         0.00000E+00
         0.00000E+00
         0.00000E+00
         0.00000E+00
         0.00000E+00
         0.00000E+00
         0.00000E+00
         0.00000E+00
         0.00000E+00
         0.00000E+00
         0.00000E+00
         0.00000E+00
         0.00000E+00
         0.00000E+00
         0.00000E+00
         0.00000E+00
         0.00000E+00
         0.00000E+00
         0.00000E+00
         0.00000E+00
         0.00000E+00
         0.00000E+00
         0.00000E+00
         0.00000E+00
         0.00000E+00
         0.00000E+00
         0.00000E+00
         0.00000E+00
         0.00000E+00
         0.00000E+00
         0.00000E+00
         0.00000E+00
         0.00000E+00
         0.00000E+00
         0.00000E+00
         0.00000E+00
         0.00000E+00
         0.00000E+00
         0.00000E+00
         0.00000E+00
         0.00000E+00
         0.00000E+00
         0.00000E+00
         0.00000E+00
         0.00000E+00
         0.00000E+00
         0.00000E+00
         0.00000E+00
         0.00000E+00
         0.00000E+00
         0.00000E+00
         0.00000E+00
         0.00000E+00
         0.00000E+00
         0.00000E+00
         0.00000E+00
         0.00000E+00
         0.00000E+00
         0.00000E+00
         0.00000E+00
         0.00000E+00
         0.00000E+00
         0.00000E+00
         0.00000E+00
         0.00000E+00
         0.00000E+00
         0.00000E+00
         0.00000E+00
         0.00000E+00
         0.00000E+00
         0.00000E+00
         0.00000E+00
         0.00000E+00
         0.00000E+00
         0.00000E+00
         0.00000E+00
         0.00000E+00
         0.00000E+00
         0.00000E+00
         0.00000E+00
         0.00000E+00
         0.00000E+00
         0.00000E+00
         0.00000E+00
         0.00000E+00
         0.00000E+00
         0.00000E+00
         0.00000E+00
         0.00000E+00
         0.00000E+00
         0.00000E+00
         0.00000E+00
         0.00000E+00
         0.00000E+00
         0.00000E+00
         0.00000E+00
         0.00000E+00
         0.00000E+00
         0.00000E+00
         0.00000E+00
         0.00000E+00
         0.00000E+00
         0.00000E+00
         0.00000E+00
         0.00000E+00
         0.00000E+00
         0.00000E+00
         0.00000E+00
         0.00000E+00
         0.00000E+00
         0.00000E+00
         0.00000E+00
         0.00000E+00
         0.00000E+00
         0.00000E+00
         0.00000E+00
         0.00000E+00
         0.00000E+00
         0.00000E+00
         0.00000E+00
         0.00000E+00
         0.00000E+00
         0.00000E+00
         0.00000E+00
         0.00000E+00
         0.00000E+00
         0.00000E+00
         0.00000E+00
         0.00000E+00
         0.00000E+00
         0.00000E+00
         0.00000E+00
         0.00000E+00
         0.00000E+00
         0.00000E+00
         0.00000E+00
         0.00000E+00
         0.00000E+00
         0.00000E+00
         0.00000E+00
         0.00000E+00
         0.00000E+00
         0.00000E+00
         0.00000E+00
         0.00000E+00
         0.00000E+00
         0.00000E+00
         0.00000E+00
         0.00000E+00
         0.00000E+00
         0.00000E+00
         0.00000E+00
         0.00000E+00
         0.00000E+00
         0.00000E+00
         0.00000E+00
         0.00000E+00
         0.00000E+00
         0.00000E+00
         0.00000E+00
         0.00000E+00
         0.00000E+00
         0.00000E+00
         0.00000E+00
         0.00000E+00
         0.00000E+00
         0.00000E+00
         0.00000E+00
         0.00000E+00
         0.00000E+00
         0.00000E+00
         0.00000E+00
         0.00000E+00
         0.00000E+00
         0.00000E+00
         0.00000E+00
         0.00000E+00
         0.00000E+00
         0.00000E+00
         0.00000E+00
         0.00000E+00
         0.00000E+00
         0.00000E+00
         0.00000E+00
         0.00000E+00
         0.00000E+00
         0.00000E+00
         0.00000E+00
         0.00000E+00
         0.00000E+00
         0.00000E+00
         0.00000E+00
         0.00000E+00
         0.00000E+00
         0.00000E+00
         0.00000E+00
         0.00000E+00
         0.00000E+00
         0.00000E+00
         0.00000E+00
         0.00000E+00
         0.00000E+00
         0.00000E+00
         0.00000E+00
         0.00000E+00
         0.00000E+00
         0.00000E+00
         0.00000E+00
         0.00000E+00
         0.00000E+00
         0.00000E+00
         0.00000E+00
         0.00000E+00
         0.00000E+00
         0.00000E+00
         0.00000E+00
         0.00000E+00
         0.00000E+00
         0.00000E+00
         0.00000E+00
         0.00000E+00
         0.00000E+00
         0.00000E+00
         0.00000E+00
         0.00000E+00
         0.00000E+00
         0.00000E+00
         0.00000E+00
         0.00000E+00
         0.00000E+00
         0.00000E+00
         0.00000E+00
         0.00000E+00
         0.00000E+00
         0.00000E+00
         0.00000E+00
         0.00000E+00
         0.00000E+00
         0.00000E+00
         0.00000E+00
         0.00000E+00
         0.00000E+00
         0.00000E+00
         0.00000E+00
         0.00000E+00
         0.00000E+00
         0.00000E+00
         0.00000E+00
         0.00000E+00
         0.00000E+00
         0.00000E+00
         0.00000E+00
         0.00000E+00
         0.00000E+00
         0.00000E+00
         0.00000E+00
         0.00000E+00
         0.00000E+00
         0.00000E+00
         0.00000E+00
         0.00000E+00
         0.00000E+00
         0.00000E+00
         0.00000E+00
         0.00000E+00
         0.00000E+00
         0.00000E+00
         0.00000E+00
         0.00000E+00
         0.00000E+00
         0.00000E+00
         0.00000E+00
         0.00000E+00
         0.00000E+00
         0.00000E+00
         0.00000E+00
         0.00000E+00
         0.00000E+00
         0.00000E+00
         0.00000E+00
         0.00000E+00
         0.00000E+00
         0.00000E+00
         0.00000E+00
         0.00000E+00
         0.00000E+00
         0.00000E+00
         0.00000E+00
         0.00000E+00
         0.00000E+00
         0.00000E+00
         0.00000E+00
         0.00000E+00
         0.00000E+00
         0.00000E+00
         0.00000E+00
         0.00000E+00
         0.00000E+00
         0.00000E+00
         0.00000E+00
         0.00000E+00
         0.00000E+00
         0.00000E+00
         0.00000E+00
         0.00000E+00
         0.00000E+00
         0.00000E+00
         0.00000E+00
         0.00000E+00
         0.00000E+00
         0.00000E+00
         0.00000E+00
         0.00000E+00
         0.00000E+00
         0.00000E+00
         0.00000E+00
         0.00000E+00
         0.00000E+00
         0.00000E+00
         0.00000E+00
         0.00000E+00
         0.00000E+00
         0.00000E+00
         0.00000E+00
         0.00000E+00
         0.00000E+00
         0.00000E+00
         0.00000E+00
         0.00000E+00
         0.00000E+00
         0.00000E+00
         0.00000E+00
         0.00000E+00
         0.00000E+00
         0.00000E+00
         0.00000E+00
         0.00000E+00
         0.00000E+00
         0.00000E+00
         0.00000E+00
         0.00000E+00
         0.00000E+00
         0.00000E+00
         0.00000E+00
         0.00000E+00
         0.00000E+00
         0.00000E+00
         0.00000E+00
         0.00000E+00
         0.00000E+00
         0.00000E+00
         0.00000E+00
         0.00000E+00
         0.00000E+00
         0.00000E+00
         0.00000E+00
         0.00000E+00
         0.00000E+00
         0.00000E+00
         0.00000E+00
         0.00000E+00
         0.00000E+00
         0.00000E+00
         0.00000E+00
         0.00000E+00
         0.00000E+00
         0.00000E+00
         0.00000E+00
         0.00000E+00
         0.00000E+00
         0.00000E+00
         0.00000E+00
         0.00000E+00
         0.00000E+00
         0.00000E+00
         0.00000E+00
         0.00000E+00
         0.00000E+00
         0.00000E+00
         0.00000E+00
         0.00000E+00
         0.00000E+00
         0.00000E+00
         0.00000E+00
         0.00000E+00
         0.00000E+00
         0.00000E+00
         0.00000E+00
         0.00000E+00
         0.00000E+00
         0.00000E+00
         0.00000E+00
         0.00000E+00
         0.00000E+00
         0.00000E+00
         0.00000E+00
         0.00000E+00
         0.00000E+00
         0.00000E+00
         0.00000E+00
         0.00000E+00
         0.00000E+00
         0.00000E+00
         0.00000E+00
         0.00000E+00
         0.00000E+00
         0.00000E+00
         0.00000E+00
         0.00000E+00
         0.00000E+00
         0.00000E+00
         0.00000E+00
         0.00000E+00
         0.00000E+00
         0.00000E+00
         0.00000E+00
         0.00000E+00
         0.00000E+00
         0.00000E+00
         0.00000E+00
         0.00000E+00
         0.00000E+00
         0.00000E+00
         0.00000E+00
         0.00000E+00
         0.00000E+00
         0.00000E+00
         0.00000E+00
         0.00000E+00
         0.00000E+00
         0.00000E+00
         0.00000E+00
         0.00000E+00
         0.00000E+00
         0.00000E+00
         0.00000E+00
         0.00000E+00
         0.00000E+00
         0.00000E+00
         0.00000E+00
  
SCALARS                            eps  double 1
LOOKUP_TABLE default
         0.15106E+02
         0.14923E+02
         0.15040E+02
         0.15248E+02
         0.00000E+00
         0.00000E+00
         0.00000E+00
         0.00000E+00
         0.14918E+02
         0.14980E+02
         0.00000E+00
         0.00000E+00
         0.14658E+02
         0.14648E+02
         0.00000E+00
         0.00000E+00
         0.15217E+02
         0.14663E+02
         0.00000E+00
         0.00000E+00
         0.14459E+02
         0.14301E+02
         0.14553E+02
         0.00000E+00
         0.00000E+00
         0.00000E+00
         0.14306E+02
         0.14075E+02
         0.00000E+00
         0.00000E+00
         0.15207E+02
         0.14966E+02
         0.15441E+02
         0.00000E+00
         0.00000E+00
         0.00000E+00
         0.15068E+02
         0.14760E+02
         0.00000E+00
         0.00000E+00
         0.14946E+02
         0.14709E+02
         0.00000E+00
         0.00000E+00
         0.15147E+02
         0.15236E+02
         0.00000E+00
         0.00000E+00
         0.14518E+02
         0.00000E+00
         0.15218E+02
         0.00000E+00
         0.14239E+02
         0.00000E+00
         0.14166E+02
         0.00000E+00
         0.14168E+02
         0.14426E+02
         0.00000E+00
         0.00000E+00
         0.15202E+02
         0.15110E+02
         0.00000E+00
         0.00000E+00
         0.15260E+02
         0.00000E+00
         0.15150E+02
         0.00000E+00
         0.14862E+02
         0.14832E+02
         0.00000E+00
         0.00000E+00
         0.14766E+02
         0.00000E+00
         0.13993E+02
         0.00000E+00
         0.13952E+02
         0.00000E+00
         0.13973E+02
         0.00000E+00
         0.14086E+02
         0.14202E+02
         0.00000E+00
         0.00000E+00
         0.14435E+02
         0.00000E+00
         0.15143E+02
         0.00000E+00
         0.15033E+02
         0.00000E+00
         0.14944E+02
         0.14893E+02
         0.00000E+00
         0.00000E+00
         0.14953E+02
         0.00000E+00
         0.14997E+02
         0.00000E+00
         0.14958E+02
         0.00000E+00
         0.14945E+02
         0.14984E+02
         0.00000E+00
         0.00000E+00
         0.14732E+02
         0.14838E+02
         0.00000E+00
         0.00000E+00
         0.14714E+02
         0.00000E+00
         0.14836E+02
         0.00000E+00
         0.14716E+02
         0.00000E+00
         0.14453E+02
         0.00000E+00
         0.14199E+02
         0.00000E+00
         0.14045E+02
         0.00000E+00
         0.14030E+02
         0.00000E+00
         0.14034E+02
         0.00000E+00
         0.14200E+02
         0.00000E+00
         0.14513E+02
         0.00000E+00
         0.14854E+02
         0.00000E+00
         0.15052E+02
         0.00000E+00
         0.15248E+02
         0.00000E+00
         0.15378E+02
         0.00000E+00
         0.15374E+02
         0.00000E+00
         0.15056E+02
         0.00000E+00
         0.14834E+02
         0.00000E+00
         0.14760E+02
         0.00000E+00
         0.14880E+02
         0.00000E+00
         0.14941E+02
         0.00000E+00
         0.14835E+02
         0.00000E+00
         0.14835E+02
         0.00000E+00
         0.14915E+02
         0.00000E+00
         0.15018E+02
         0.00000E+00
         0.37812E+00
         0.38629E+00
         0.38516E+00
         0.37472E+00
         0.39468E+00
         0.38425E+00
         0.39721E+00
         0.39031E+00
         0.37632E+00
         0.38489E+00
         0.40492E+00
         0.40747E+00
         0.40106E+00
         0.40053E+00
         0.40476E+00
         0.37520E+00
         0.37709E+00
         0.37185E+00
         0.38720E+00
         0.38428E+00
         0.38856E+00
         0.38578E+00
         0.39095E+00
         0.38951E+00
         0.38453E+00
         0.38487E+00
         0.39351E+00
         0.39270E+00
         0.39937E+00
         0.38939E+00
         0.37613E+00
         0.38641E+00
         0.37620E+00
         0.38286E+00
         0.40914E+00
         0.40028E+00
         0.39624E+00
         0.40107E+00
         0.40166E+00
         0.40974E+00
         0.41590E+00
         0.40133E+00
         0.38841E+00
         0.39007E+00
         0.39665E+00
         0.40883E+00
         0.39836E+00
         0.38780E+00
         0.38851E+00
         0.39665E+00
         0.40541E+00
         0.39373E+00
         0.43232E+00
         0.42081E+00
         0.42281E+00
         0.42023E+00
         0.42108E+00
         0.42754E+00
         0.43400E+00
         0.43587E+00
         0.43486E+00
         0.43563E+00
         0.43839E+00
         0.42153E+00
         0.41513E+00
         0.41272E+00
         0.40899E+00
         0.40623E+00
         0.40647E+00
         0.41149E+00
         0.42851E+00
         0.42446E+00
         0.41838E+00
         0.41832E+00
         0.41936E+00
         0.42499E+00
         0.41671E+00
         0.41375E+00
         0.92598E-02
         0.42942E-02
         0.38718E-02
         0.16721E-02
         0.97402E-02
         0.57480E-02
         0.79034E-03
         0.90540E-02
         0.44830E-02
         0.83460E-02
         0.24513E-02
         0.21131E-01
         0.15247E-01
         0.60147E-02
         0.22290E-01
         0.58548E-02
         0.14194E-02
         0.00000E+00
         0.29133E-02
         0.15204E-03
         0.15907E-01
         0.14720E-01
         0.14249E-01
         0.13695E-02
         0.42596E-02
         0.00000E+00
         0.54953E-02
         0.00000E+00
         0.37539E-04
         0.48874E-02
         0.45404E-02
         0.95287E-03
         0.18373E-02
         0.11698E-02
         0.13541E-01
         0.68087E-02
         0.97571E-02
         0.17562E-01
         0.12750E-01
         0.11642E-01
         0.17914E-01
         0.15930E-01
         0.16058E-01
         0.11692E-01
         0.10095E-01
         0.15008E-01
         0.87202E-02
         0.69359E-02
         0.51625E-02
         0.66705E-02
         0.12952E-01
         0.78797E-02
         0.68391E-01
         0.70117E-01
         0.73460E-01
         0.72901E-01
         0.77959E-01
         0.83981E-01
         0.80434E-01
         0.71109E-01
         0.69201E-01
         0.74321E-01
         0.72765E-01
         0.71723E-01
         0.58655E-01
         0.55579E-01
         0.61416E-01
         0.66044E-01
         0.68676E-01
         0.75340E-01
         0.72328E-01
         0.74387E-01
         0.66612E-01
         0.63062E-01
         0.67497E-01
         0.65901E-01
         0.67922E-01
         0.67319E-01
         0.92692E-02
         0.42958E-02
         0.38757E-02
         0.16790E-02
         0.97344E-02
         0.57428E-02
         0.80214E-03
         0.90658E-02
         0.44962E-02
         0.83800E-02
         0.24512E-02
         0.21130E-01
         0.15254E-01
         0.59931E-02
         0.22316E-01
         0.58620E-02
         0.14321E-02
         0.00000E+00
         0.29168E-02
         0.14488E-03
         0.15909E-01
         0.14719E-01
         0.14248E-01
         0.13694E-02
         0.42915E-02
         0.00000E+00
         0.54982E-02
         0.00000E+00
         0.52458E-04
         0.49016E-02
         0.45478E-02
         0.95155E-03
         0.18289E-02
         0.11737E-02
         0.13549E-01
         0.68058E-02
         0.97542E-02
         0.17594E-01
         0.12786E-01
         0.11663E-01
         0.17928E-01
         0.15940E-01
         0.16060E-01
         0.11692E-01
         0.10092E-01
         0.15007E-01
         0.87204E-02
         0.69352E-02
         0.51506E-02
         0.66570E-02
         0.12943E-01
         0.78626E-02
         0.68365E-01
         0.70099E-01
         0.73460E-01
         0.72901E-01
         0.77946E-01
         0.83952E-01
         0.80399E-01
         0.71089E-01
         0.69182E-01
         0.74297E-01
         0.72751E-01
         0.71726E-01
         0.58648E-01
         0.55577E-01
         0.61423E-01
         0.66060E-01
         0.68694E-01
         0.75356E-01
         0.72323E-01
         0.74382E-01
         0.66605E-01
         0.63058E-01
         0.67472E-01
         0.65856E-01
         0.67882E-01
         0.67282E-01
         0.92787E-02
         0.42976E-02
         0.38797E-02
         0.16859E-02
         0.97284E-02
         0.57379E-02
         0.81400E-03
         0.90776E-02
         0.45094E-02
         0.84137E-02
         0.24511E-02
         0.21129E-01
         0.15262E-01
         0.59716E-02
         0.22343E-01
         0.58694E-02
         0.14450E-02
         0.00000E+00
         0.29203E-02
         0.13787E-03
         0.15911E-01
         0.14718E-01
         0.14247E-01
         0.13692E-02
         0.43231E-02
         0.00000E+00
         0.55010E-02
         0.00000E+00
         0.67251E-04
         0.49153E-02
         0.45553E-02
         0.95024E-03
         0.18206E-02
         0.11775E-02
         0.13556E-01
         0.68033E-02
         0.97511E-02
         0.17627E-01
         0.12822E-01
         0.11683E-01
         0.17942E-01
         0.15950E-01
         0.16063E-01
         0.11692E-01
         0.10090E-01
         0.15006E-01
         0.87205E-02
         0.69345E-02
         0.51389E-02
         0.66435E-02
         0.12934E-01
         0.78457E-02
         0.68339E-01
         0.70081E-01
         0.73460E-01
         0.72902E-01
         0.77932E-01
         0.83922E-01
         0.80364E-01
         0.71069E-01
         0.69164E-01
         0.74274E-01
         0.72738E-01
         0.71729E-01
         0.58643E-01
         0.55574E-01
         0.61431E-01
         0.66078E-01
         0.68713E-01
         0.75373E-01
         0.72319E-01
         0.74378E-01
         0.66597E-01
         0.63053E-01
         0.67448E-01
         0.65810E-01
         0.67842E-01
         0.67244E-01
         0.92882E-02
         0.42993E-02
         0.38838E-02
         0.16928E-02
         0.97224E-02
         0.57328E-02
         0.82596E-03
         0.90893E-02
         0.45226E-02
         0.84468E-02
         0.24512E-02
         0.21128E-01
         0.15269E-01
         0.59501E-02
         0.22369E-01
         0.58775E-02
         0.14584E-02
         0.00000E+00
         0.29242E-02
         0.13052E-03
         0.15913E-01
         0.14717E-01
         0.14248E-01
         0.13687E-02
         0.43541E-02
         0.00000E+00
         0.55034E-02
         0.00000E+00
         0.81198E-04
         0.49277E-02
         0.45631E-02
         0.94923E-03
         0.18121E-02
         0.11814E-02
         0.13564E-01
         0.68005E-02
         0.97480E-02
         0.17660E-01
         0.12859E-01
         0.11705E-01
         0.17958E-01
         0.15961E-01
         0.16066E-01
         0.11694E-01
         0.10088E-01
         0.15006E-01
         0.87214E-02
         0.69339E-02
         0.51271E-02
         0.66299E-02
         0.12925E-01
         0.78285E-02
         0.68313E-01
         0.70064E-01
         0.73459E-01
         0.72902E-01
         0.77919E-01
         0.83893E-01
         0.80329E-01
         0.71049E-01
         0.69146E-01
         0.74250E-01
         0.72726E-01
         0.71732E-01
         0.58639E-01
         0.55573E-01
         0.61440E-01
         0.66097E-01
         0.68735E-01
         0.75392E-01
         0.72315E-01
         0.74374E-01
         0.66589E-01
         0.63049E-01
         0.67423E-01
         0.65764E-01
         0.67802E-01
         0.67206E-01
         0.92975E-02
         0.43009E-02
         0.38878E-02
         0.16996E-02
         0.97167E-02
         0.57277E-02
         0.83781E-03
         0.91009E-02
         0.45357E-02
         0.84791E-02
         0.24513E-02
         0.21127E-01
         0.15277E-01
         0.59286E-02
         0.22396E-01
         0.58862E-02
         0.14723E-02
         0.00000E+00
         0.29282E-02
         0.12300E-03
         0.15916E-01
         0.14717E-01
         0.14249E-01
         0.13680E-02
         0.43843E-02
         0.00000E+00
         0.55055E-02
         0.00000E+00
         0.94295E-04
         0.49389E-02
         0.45713E-02
         0.94834E-03
         0.18037E-02
         0.11853E-02
         0.13571E-01
         0.67977E-02
         0.97451E-02
         0.17692E-01
         0.12896E-01
         0.11728E-01
         0.17974E-01
         0.15972E-01
         0.16071E-01
         0.11697E-01
         0.10088E-01
         0.15007E-01
         0.87228E-02
         0.69338E-02
         0.51155E-02
         0.66162E-02
         0.12916E-01
         0.78115E-02
         0.68287E-01
         0.70046E-01
         0.73459E-01
         0.72903E-01
         0.77905E-01
         0.83863E-01
         0.80294E-01
         0.71029E-01
         0.69127E-01
         0.74227E-01
         0.72713E-01
         0.71737E-01
         0.58636E-01
         0.55571E-01
         0.61449E-01
         0.66120E-01
         0.68759E-01
         0.75411E-01
         0.72311E-01
         0.74369E-01
         0.66582E-01
         0.63045E-01
         0.67399E-01
         0.65719E-01
         0.67761E-01
         0.67168E-01
         0.93064E-02
         0.43022E-02
         0.38916E-02
         0.17065E-02
         0.97108E-02
         0.57226E-02
         0.84938E-03
         0.91117E-02
         0.45489E-02
         0.85105E-02
         0.24519E-02
         0.21127E-01
         0.15284E-01
         0.59071E-02
         0.22422E-01
         0.58951E-02
         0.14863E-02
         0.00000E+00
         0.29321E-02
         0.11569E-03
         0.15919E-01
         0.14717E-01
         0.14250E-01
         0.13673E-02
         0.44139E-02
         0.00000E+00
         0.55075E-02
         0.00000E+00
         0.10728E-03
         0.49497E-02
         0.45792E-02
         0.94716E-03
         0.17953E-02
         0.11892E-02
         0.13579E-01
         0.67954E-02
         0.97426E-02
         0.17725E-01
         0.12934E-01
         0.11752E-01
         0.17991E-01
         0.15983E-01
         0.16076E-01
         0.11700E-01
         0.10088E-01
         0.15008E-01
         0.87245E-02
         0.69340E-02
         0.51044E-02
         0.66029E-02
         0.12907E-01
         0.77948E-02
         0.68261E-01
         0.70028E-01
         0.73458E-01
         0.72903E-01
         0.77892E-01
         0.83833E-01
         0.80259E-01
         0.71009E-01
         0.69109E-01
         0.74203E-01
         0.72701E-01
         0.71742E-01
         0.58634E-01
         0.55570E-01
         0.61459E-01
         0.66143E-01
         0.68784E-01
         0.75430E-01
         0.72307E-01
         0.74364E-01
         0.66575E-01
         0.63041E-01
         0.67375E-01
         0.65674E-01
         0.67721E-01
         0.67131E-01
         0.93146E-02
         0.43024E-02
         0.38953E-02
         0.17135E-02
         0.97052E-02
         0.57177E-02
         0.86052E-03
         0.91210E-02
         0.45623E-02
         0.85406E-02
         0.24533E-02
         0.21127E-01
         0.15292E-01
         0.58859E-02
         0.22449E-01
         0.59041E-02
         0.15000E-02
         0.00000E+00
         0.29362E-02
         0.10846E-03
         0.15923E-01
         0.14717E-01
         0.14252E-01
         0.13668E-02
         0.44426E-02
         0.00000E+00
         0.55097E-02
         0.00000E+00
         0.12047E-03
         0.49605E-02
         0.45866E-02
         0.94518E-03
         0.17868E-02
         0.11929E-02
         0.13587E-01
         0.67935E-02
         0.97403E-02
         0.17759E-01
         0.12972E-01
         0.11775E-01
         0.18007E-01
         0.15995E-01
         0.16081E-01
         0.11704E-01
         0.10089E-01
         0.15011E-01
         0.87271E-02
         0.69352E-02
         0.50949E-02
         0.65902E-02
         0.12899E-01
         0.77782E-02
         0.68235E-01
         0.70011E-01
         0.73458E-01
         0.72904E-01
         0.77878E-01
         0.83803E-01
         0.80223E-01
         0.70989E-01
         0.69090E-01
         0.74179E-01
         0.72689E-01
         0.71747E-01
         0.58632E-01
         0.55569E-01
         0.61469E-01
         0.66166E-01
         0.68809E-01
         0.75449E-01
         0.72302E-01
         0.74360E-01
         0.66568E-01
         0.63038E-01
         0.67350E-01
         0.65628E-01
         0.67681E-01
         0.67093E-01
         0.93224E-02
         0.43024E-02
         0.38989E-02
         0.17205E-02
         0.96999E-02
         0.57126E-02
         0.87131E-03
         0.91294E-02
         0.45759E-02
         0.85701E-02
         0.24553E-02
         0.21127E-01
         0.15301E-01
         0.58648E-02
         0.22476E-01
         0.59132E-02
         0.15136E-02
         0.00000E+00
         0.29403E-02
         0.10156E-03
         0.15926E-01
         0.14717E-01
         0.14254E-01
         0.13662E-02
         0.44708E-02
         0.00000E+00
         0.55121E-02
         0.00000E+00
         0.13406E-03
         0.49713E-02
         0.45937E-02
         0.94275E-03
         0.17782E-02
         0.11967E-02
         0.13595E-01
         0.67921E-02
         0.97386E-02
         0.17792E-01
         0.13011E-01
         0.11799E-01
         0.18024E-01
         0.16007E-01
         0.16086E-01
         0.11708E-01
         0.10090E-01
         0.15014E-01
         0.87301E-02
         0.69367E-02
         0.50861E-02
         0.65778E-02
         0.12891E-01
         0.77619E-02
         0.68209E-01
         0.69994E-01
         0.73457E-01
         0.72904E-01
         0.77865E-01
         0.83774E-01
         0.80188E-01
         0.70969E-01
         0.69072E-01
         0.74155E-01
         0.72676E-01
         0.71752E-01
         0.58629E-01
         0.55568E-01
         0.61479E-01
         0.66189E-01
         0.68834E-01
         0.75467E-01
         0.72297E-01
         0.74355E-01
         0.66562E-01
         0.63035E-01
         0.67326E-01
         0.65583E-01
         0.67641E-01
         0.67055E-01
         0.93302E-02
         0.43024E-02
         0.39025E-02
         0.17274E-02
         0.96943E-02
         0.57075E-02
         0.88211E-03
         0.91378E-02
         0.45895E-02
         0.85995E-02
         0.24570E-02
         0.21127E-01
         0.15309E-01
         0.58438E-02
         0.22503E-01
         0.59222E-02
         0.15272E-02
         0.00000E+00
         0.29443E-02
         0.94454E-04
         0.15929E-01
         0.14717E-01
         0.14256E-01
         0.13658E-02
         0.44990E-02
         0.00000E+00
         0.55146E-02
         0.00000E+00
         0.14776E-03
         0.49821E-02
         0.46008E-02
         0.94038E-03
         0.17698E-02
         0.12004E-02
         0.13603E-01
         0.67903E-02
         0.97368E-02
         0.17826E-01
         0.13049E-01
         0.11823E-01
         0.18041E-01
         0.16018E-01
         0.16091E-01
         0.11713E-01
         0.10092E-01
         0.15017E-01
         0.87328E-02
         0.69383E-02
         0.50774E-02
         0.65656E-02
         0.12884E-01
         0.77454E-02
         0.68183E-01
         0.69976E-01
         0.73456E-01
         0.72905E-01
         0.77851E-01
         0.83744E-01
         0.80152E-01
         0.70949E-01
         0.69054E-01
         0.74131E-01
         0.72664E-01
         0.71757E-01
         0.58627E-01
         0.55567E-01
         0.61488E-01
         0.66213E-01
         0.68859E-01
         0.75485E-01
         0.72292E-01
         0.74350E-01
         0.66555E-01
         0.63032E-01
         0.67301E-01
         0.65538E-01
         0.67602E-01
         0.67018E-01
         0.93379E-02
         0.43023E-02
         0.39060E-02
         0.17345E-02
         0.96888E-02
         0.57024E-02
         0.89297E-03
         0.91463E-02
         0.46032E-02
         0.86289E-02
         0.24591E-02
         0.21127E-01
         0.15318E-01
         0.58228E-02
         0.22530E-01
         0.59312E-02
         0.15409E-02
         0.00000E+00
         0.29482E-02
         0.87487E-04
         0.15932E-01
         0.14717E-01
         0.14258E-01
         0.13654E-02
         0.45271E-02
         0.00000E+00
         0.55170E-02
         0.00000E+00
         0.16157E-03
         0.49928E-02
         0.46078E-02
         0.93794E-03
         0.17613E-02
         0.12041E-02
         0.13611E-01
         0.67889E-02
         0.97351E-02
         0.17859E-01
         0.13087E-01
         0.11847E-01
         0.18058E-01
         0.16030E-01
         0.16096E-01
         0.11717E-01
         0.10093E-01
         0.15020E-01
         0.87358E-02
         0.69401E-02
         0.50685E-02
         0.65530E-02
         0.12876E-01
         0.77290E-02
         0.68156E-01
         0.69959E-01
         0.73455E-01
         0.72905E-01
         0.77838E-01
         0.83714E-01
         0.80116E-01
         0.70928E-01
         0.69036E-01
         0.74107E-01
         0.72651E-01
         0.71762E-01
         0.58624E-01
         0.55566E-01
         0.61498E-01
         0.66236E-01
         0.68884E-01
         0.75504E-01
         0.72287E-01
         0.74345E-01
         0.66549E-01
         0.63029E-01
         0.67276E-01
         0.65493E-01
         0.67562E-01
         0.66980E-01
         0.93456E-02
         0.43022E-02
         0.39096E-02
         0.17414E-02
         0.96834E-02
         0.56975E-02
         0.90396E-03
         0.91547E-02
         0.46168E-02
         0.86583E-02
         0.24613E-02
         0.21127E-01
         0.15326E-01
         0.58018E-02
         0.22557E-01
         0.59402E-02
         0.15546E-02
         0.00000E+00
         0.29523E-02
         0.80327E-04
         0.15936E-01
         0.14717E-01
         0.14260E-01
         0.13650E-02
         0.45552E-02
         0.00000E+00
         0.55196E-02
         0.00000E+00
         0.17549E-03
         0.50036E-02
         0.46149E-02
         0.93555E-03
         0.17530E-02
         0.12078E-02
         0.13620E-01
         0.67872E-02
         0.97334E-02
         0.17893E-01
         0.13126E-01
         0.11870E-01
         0.18075E-01
         0.16042E-01
         0.16101E-01
         0.11721E-01
         0.10094E-01
         0.15023E-01
         0.87388E-02
         0.69416E-02
         0.50598E-02
         0.65407E-02
         0.12869E-01
         0.77127E-02
         0.68130E-01
         0.69941E-01
         0.73453E-01
         0.72905E-01
         0.77824E-01
         0.83684E-01
         0.80080E-01
         0.70908E-01
         0.69018E-01
         0.74083E-01
         0.72639E-01
         0.71767E-01
         0.58622E-01
         0.55565E-01
         0.61508E-01
         0.66259E-01
         0.68909E-01
         0.75522E-01
         0.72281E-01
         0.74340E-01
         0.66543E-01
         0.63025E-01
         0.67252E-01
         0.65447E-01
         0.67522E-01
         0.66943E-01
         0.93534E-02
         0.43022E-02
         0.39132E-02
         0.17485E-02
         0.96779E-02
         0.56924E-02
         0.91484E-03
         0.91631E-02
         0.46305E-02
         0.86876E-02
         0.24635E-02
         0.21128E-01
         0.15334E-01
         0.57809E-02
         0.22584E-01
         0.59492E-02
         0.15683E-02
         0.00000E+00
         0.29563E-02
         0.73389E-04
         0.15939E-01
         0.14717E-01
         0.14262E-01
         0.13646E-02
         0.45832E-02
         0.00000E+00
         0.55221E-02
         0.00000E+00
         0.18937E-03
         0.50144E-02
         0.46220E-02
         0.93316E-03
         0.17446E-02
         0.12116E-02
         0.13628E-01
         0.67856E-02
         0.97316E-02
         0.17927E-01
         0.13164E-01
         0.11894E-01
         0.18092E-01
         0.16053E-01
         0.16106E-01
         0.11725E-01
         0.10096E-01
         0.15026E-01
         0.87416E-02
         0.69434E-02
         0.50511E-02
         0.65284E-02
         0.12861E-01
         0.76963E-02
         0.68104E-01
         0.69924E-01
         0.73452E-01
         0.72905E-01
         0.77811E-01
         0.83654E-01
         0.80045E-01
         0.70888E-01
         0.68999E-01
         0.74059E-01
         0.72626E-01
         0.71772E-01
         0.58619E-01
         0.55563E-01
         0.61518E-01
         0.66282E-01
         0.68933E-01
         0.75541E-01
         0.72276E-01
         0.74335E-01
         0.66536E-01
         0.63022E-01
         0.67227E-01
         0.65402E-01
         0.67483E-01
         0.66905E-01
         0.93611E-02
         0.43021E-02
         0.39167E-02
         0.17555E-02
         0.96725E-02
         0.56874E-02
         0.92574E-03
         0.91715E-02
         0.46442E-02
         0.87169E-02
         0.24658E-02
         0.21128E-01
         0.15343E-01
         0.57600E-02
         0.22611E-01
         0.59581E-02
         0.15820E-02
         0.00000E+00
         0.29603E-02
         0.66342E-04
         0.15942E-01
         0.14717E-01
         0.14264E-01
         0.13643E-02
         0.46112E-02
         0.00000E+00
         0.55246E-02
         0.00000E+00
         0.20356E-03
         0.50250E-02
         0.46291E-02
         0.93074E-03
         0.17363E-02
         0.12153E-02
         0.13636E-01
         0.67843E-02
         0.97299E-02
         0.17960E-01
         0.13203E-01
         0.11917E-01
         0.18109E-01
         0.16065E-01
         0.16111E-01
         0.11730E-01
         0.10097E-01
         0.15028E-01
         0.87446E-02
         0.69451E-02
         0.50425E-02
         0.65161E-02
         0.12853E-01
         0.76798E-02
         0.68078E-01
         0.69907E-01
         0.73451E-01
         0.72906E-01
         0.77797E-01
         0.83624E-01
         0.80009E-01
         0.70868E-01
         0.68981E-01
         0.74034E-01
         0.72614E-01
         0.71777E-01
         0.58617E-01
         0.55562E-01
         0.61528E-01
         0.66305E-01
         0.68958E-01
         0.75559E-01
         0.72271E-01
         0.74331E-01
         0.66530E-01
         0.63019E-01
         0.67202E-01
         0.65357E-01
         0.67443E-01
         0.66868E-01
         0.93688E-02
         0.43021E-02
         0.39203E-02
         0.17626E-02
         0.96672E-02
         0.56823E-02
         0.93678E-03
         0.91798E-02
         0.46579E-02
         0.87461E-02
         0.24682E-02
         0.21128E-01
         0.15351E-01
         0.57391E-02
         0.22638E-01
         0.59671E-02
         0.15957E-02
         0.00000E+00
         0.29643E-02
         0.59441E-04
         0.15945E-01
         0.14717E-01
         0.14266E-01
         0.13639E-02
         0.46392E-02
         0.00000E+00
         0.55270E-02
         0.00000E+00
         0.21788E-03
         0.50357E-02
         0.46362E-02
         0.92836E-03
         0.17280E-02
         0.12191E-02
         0.13645E-01
         0.67827E-02
         0.97281E-02
         0.17994E-01
         0.13241E-01
         0.11941E-01
         0.18126E-01
         0.16077E-01
         0.16116E-01
         0.11734E-01
         0.10098E-01
         0.15031E-01
         0.87476E-02
         0.69467E-02
         0.50337E-02
         0.65038E-02
         0.12846E-01
         0.76636E-02
         0.68051E-01
         0.69890E-01
         0.73450E-01
         0.72906E-01
         0.77784E-01
         0.83594E-01
         0.79973E-01
         0.70847E-01
         0.68963E-01
         0.74009E-01
         0.72601E-01
         0.71782E-01
         0.58615E-01
         0.55561E-01
         0.61538E-01
         0.66329E-01
         0.68984E-01
         0.75577E-01
         0.72266E-01
         0.74326E-01
         0.66524E-01
         0.63016E-01
         0.67177E-01
         0.65312E-01
         0.67403E-01
         0.66830E-01
         0.93764E-02
         0.43021E-02
         0.39238E-02
         0.17697E-02
         0.96617E-02
         0.56772E-02
         0.94774E-03
         0.91882E-02
         0.46716E-02
         0.87754E-02
         0.24707E-02
         0.21128E-01
         0.15360E-01
         0.57182E-02
         0.22665E-01
         0.59760E-02
         0.16095E-02
         0.00000E+00
         0.29683E-02
         0.52353E-04
         0.15949E-01
         0.14717E-01
         0.14267E-01
         0.13635E-02
         0.46672E-02
         0.00000E+00
         0.55295E-02
         0.00000E+00
         0.23233E-03
         0.50464E-02
         0.46432E-02
         0.92593E-03
         0.17197E-02
         0.12228E-02
         0.13653E-01
         0.67814E-02
         0.97264E-02
         0.18028E-01
         0.13280E-01
         0.11964E-01
         0.18143E-01
         0.16088E-01
         0.16121E-01
         0.11738E-01
         0.10100E-01
         0.15034E-01
         0.87504E-02
         0.69485E-02
         0.50249E-02
         0.64913E-02
         0.12838E-01
         0.76471E-02
         0.68025E-01
         0.69872E-01
         0.73449E-01
         0.72907E-01
         0.77771E-01
         0.83565E-01
         0.79936E-01
         0.70827E-01
         0.68945E-01
         0.73985E-01
         0.72589E-01
         0.71787E-01
         0.58612E-01
         0.55560E-01
         0.61548E-01
         0.66352E-01
         0.69009E-01
         0.75596E-01
         0.72261E-01
         0.74321E-01
         0.66518E-01
         0.63013E-01
         0.67153E-01
         0.65267E-01
         0.67364E-01
         0.66793E-01
         0.93840E-02
         0.43018E-02
         0.39274E-02
         0.17768E-02
         0.96562E-02
         0.56724E-02
         0.95871E-03
         0.91966E-02
         0.46854E-02
         0.88046E-02
         0.24732E-02
         0.21128E-01
         0.15368E-01
         0.56974E-02
         0.22692E-01
         0.59850E-02
         0.16234E-02
         0.00000E+00
         0.29723E-02
         0.45441E-04
         0.15952E-01
         0.14716E-01
         0.14269E-01
         0.13632E-02
         0.46951E-02
         0.00000E+00
         0.55319E-02
         0.00000E+00
         0.24689E-03
         0.50570E-02
         0.46503E-02
         0.92359E-03
         0.17116E-02
         0.12266E-02
         0.13661E-01
         0.67798E-02
         0.97247E-02
         0.18061E-01
         0.13319E-01
         0.11987E-01
         0.18160E-01
         0.16100E-01
         0.16126E-01
         0.11742E-01
         0.10101E-01
         0.15037E-01
         0.87534E-02
         0.69500E-02
         0.50163E-02
         0.64790E-02
         0.12830E-01
         0.76307E-02
         0.67999E-01
         0.69855E-01
         0.73448E-01
         0.72907E-01
         0.77757E-01
         0.83534E-01
         0.79900E-01
         0.70806E-01
         0.68927E-01
         0.73960E-01
         0.72577E-01
         0.71792E-01
         0.58610E-01
         0.55559E-01
         0.61558E-01
         0.66375E-01
         0.69034E-01
         0.75614E-01
         0.72256E-01
         0.74316E-01
         0.66512E-01
         0.63010E-01
         0.67128E-01
         0.65221E-01
         0.67324E-01
         0.66755E-01
         0.93916E-02
         0.43018E-02
         0.39309E-02
         0.17839E-02
         0.96510E-02
         0.56673E-02
         0.96982E-03
         0.92050E-02
         0.46992E-02
         0.88338E-02
         0.24758E-02
         0.21128E-01
         0.15377E-01
         0.56765E-02
         0.22719E-01
         0.59940E-02
         0.16372E-02
         0.00000E+00
         0.29763E-02
         0.38428E-04
         0.15955E-01
         0.14716E-01
         0.14271E-01
         0.13630E-02
         0.47230E-02
         0.00000E+00
         0.55342E-02
         0.00000E+00
         0.26139E-03
         0.50674E-02
         0.46574E-02
         0.92128E-03
         0.17035E-02
         0.12305E-02
         0.13670E-01
         0.67782E-02
         0.97228E-02
         0.18095E-01
         0.13357E-01
         0.12011E-01
         0.18177E-01
         0.16111E-01
         0.16131E-01
         0.11746E-01
         0.10103E-01
         0.15040E-01
         0.87565E-02
         0.69519E-02
         0.50077E-02
         0.64666E-02
         0.12822E-01
         0.76145E-02
         0.67972E-01
         0.69838E-01
         0.73447E-01
         0.72907E-01
         0.77744E-01
         0.83504E-01
         0.79863E-01
         0.70786E-01
         0.68909E-01
         0.73935E-01
         0.72564E-01
         0.71798E-01
         0.58608E-01
         0.55558E-01
         0.61567E-01
         0.66398E-01
         0.69059E-01
         0.75632E-01
         0.72251E-01
         0.74311E-01
         0.66505E-01
         0.63007E-01
         0.67103E-01
         0.65176E-01
         0.67285E-01
         0.66717E-01
         0.93992E-02
         0.43017E-02
         0.39345E-02
         0.17910E-02
         0.96455E-02
         0.56623E-02
         0.98082E-03
         0.92132E-02
         0.47130E-02
         0.88627E-02
         0.24785E-02
         0.21129E-01
         0.15385E-01
         0.56555E-02
         0.22746E-01
         0.60030E-02
         0.16511E-02
         0.00000E+00
         0.29804E-02
         0.31744E-04
         0.15959E-01
         0.14716E-01
         0.14273E-01
         0.13626E-02
         0.47508E-02
         0.00000E+00
         0.55357E-02
         0.00000E+00
         0.27616E-03
         0.50774E-02
         0.46645E-02
         0.91883E-03
         0.16953E-02
         0.12343E-02
         0.13678E-01
         0.67770E-02
         0.97212E-02
         0.18129E-01
         0.13396E-01
         0.12033E-01
         0.18192E-01
         0.16122E-01
         0.16135E-01
         0.11751E-01
         0.10104E-01
         0.15043E-01
         0.87593E-02
         0.69536E-02
         0.49990E-02
         0.64543E-02
         0.12815E-01
         0.75981E-02
         0.67946E-01
         0.69821E-01
         0.73445E-01
         0.72907E-01
         0.77730E-01
         0.83474E-01
         0.79827E-01
         0.70766E-01
         0.68890E-01
         0.73909E-01
         0.72552E-01
         0.71805E-01
         0.58607E-01
         0.55557E-01
         0.61577E-01
         0.66421E-01
         0.69084E-01
         0.75650E-01
         0.72246E-01
         0.74306E-01
         0.66499E-01
         0.63004E-01
         0.67078E-01
         0.65131E-01
         0.67245E-01
         0.66680E-01
         0.94068E-02
         0.43017E-02
         0.39380E-02
         0.17982E-02
         0.96400E-02
         0.56572E-02
         0.99186E-03
         0.92214E-02
         0.47270E-02
         0.88914E-02
         0.24812E-02
         0.21129E-01
         0.15394E-01
         0.56344E-02
         0.22773E-01
         0.60119E-02
         0.16650E-02
         0.00000E+00
         0.29844E-02
         0.25008E-04
         0.15962E-01
         0.14716E-01
         0.14275E-01
         0.13623E-02
         0.47784E-02
         0.00000E+00
         0.55366E-02
         0.00000E+00
         0.29104E-03
         0.50869E-02
         0.46715E-02
         0.91648E-03
         0.16872E-02
         0.12381E-02
         0.13687E-01
         0.67754E-02
         0.97194E-02
         0.18163E-01
         0.13434E-01
         0.12055E-01
         0.18207E-01
         0.16131E-01
         0.16139E-01
         0.11755E-01
         0.10106E-01
         0.15046E-01
         0.87623E-02
         0.69552E-02
         0.49904E-02
         0.64418E-02
         0.12807E-01
         0.75815E-02
         0.67920E-01
         0.69803E-01
         0.73444E-01
         0.72907E-01
         0.77717E-01
         0.83444E-01
         0.79790E-01
         0.70746E-01
         0.68872E-01
         0.73881E-01
         0.72540E-01
         0.71814E-01
         0.58607E-01
         0.55556E-01
         0.61587E-01
         0.66444E-01
         0.69109E-01
         0.75668E-01
         0.72241E-01
         0.74301E-01
         0.66493E-01
         0.63001E-01
         0.67053E-01
         0.65086E-01
         0.67206E-01
         0.66643E-01
         0.94145E-02
         0.43016E-02
         0.39417E-02
         0.18054E-02
         0.96349E-02
         0.56524E-02
         0.10030E-02
         0.92297E-02
         0.47409E-02
         0.89200E-02
         0.24841E-02
         0.21129E-01
         0.15402E-01
         0.56133E-02
         0.22800E-01
         0.60209E-02
         0.16789E-02
         0.00000E+00
         0.29885E-02
         0.18473E-04
         0.15965E-01
         0.14715E-01
         0.14277E-01
         0.13621E-02
         0.48060E-02
         0.00000E+00
         0.55374E-02
         0.00000E+00
         0.30594E-03
         0.50961E-02
         0.46787E-02
         0.91418E-03
         0.16793E-02
         0.12420E-02
         0.13695E-01
         0.67741E-02
         0.97175E-02
         0.18197E-01
         0.13472E-01
         0.12076E-01
         0.18221E-01
         0.16140E-01
         0.16143E-01
         0.11759E-01
         0.10107E-01
         0.15049E-01
         0.87653E-02
         0.69571E-02
         0.49818E-02
         0.64295E-02
         0.12800E-01
         0.75654E-02
         0.67894E-01
         0.69786E-01
         0.73443E-01
         0.72908E-01
         0.77704E-01
         0.83414E-01
         0.79754E-01
         0.70725E-01
         0.68853E-01
         0.73853E-01
         0.72528E-01
         0.71825E-01
         0.58608E-01
         0.55555E-01
         0.61597E-01
         0.66467E-01
         0.69134E-01
         0.75686E-01
         0.72237E-01
         0.74297E-01
         0.66487E-01
         0.62997E-01
         0.67028E-01
         0.65041E-01
         0.67167E-01
         0.66605E-01
         0.10009E-01
         0.52440E-02
         0.49130E-02
         0.29022E-02
         0.10426E-01
         0.65886E-02
         0.26868E-02
         0.99810E-02
         0.55659E-02
         0.97061E-02
         0.41039E-02
         0.21854E-01
         0.16118E-01
         0.68085E-02
         0.23559E-01
         0.67159E-02
         0.29895E-02
         0.11571E-02
         0.41509E-02
         0.20104E-02
         0.16568E-01
         0.15352E-01
         0.14867E-01
         0.27116E-02
         0.58851E-02
         0.11200E-02
         0.67307E-02
         0.14858E-02
         0.25271E-02
         0.61984E-02
         0.54780E-02
         0.23478E-02
         0.27972E-02
         0.25526E-02
         0.14487E-01
         0.77286E-02
         0.10501E-01
         0.18977E-01
         0.14333E-01
         0.12952E-01
         0.18956E-01
         0.16845E-01
         0.16782E-01
         0.12382E-01
         0.10836E-01
         0.15799E-01
         0.96194E-02
         0.78104E-02
         0.59444E-02
         0.73356E-02
         0.13545E-01
         0.84065E-02
         0.68940E-01
         0.70811E-01
         0.74514E-01
         0.73936E-01
         0.78770E-01
         0.84546E-01
         0.80884E-01
         0.71842E-01
         0.69983E-01
         0.75019E-01
         0.73661E-01
         0.72889E-01
         0.59503E-01
         0.56383E-01
         0.62447E-01
         0.67354E-01
         0.70039E-01
         0.76700E-01
         0.73319E-01
         0.75388E-01
         0.67452E-01
         0.63917E-01
         0.67975E-01
         0.65958E-01
         0.68079E-01
         0.67519E-01
         0.41165E-01
         0.40209E-01
         0.39477E-01
         0.35287E-01
         0.46782E-01
         0.42242E-01
         0.42495E-01
         0.46150E-01
         0.37748E-01
         0.45948E-01
         0.47152E-01
         0.62617E-01
         0.54140E-01
         0.49522E-01
         0.65714E-01
         0.37644E-01
         0.38640E-01
         0.33083E-01
         0.40309E-01
         0.41743E-01
         0.50865E-01
         0.50978E-01
         0.48050E-01
         0.38280E-01
         0.44504E-01
         0.36464E-01
         0.49353E-01
         0.46852E-01
         0.47323E-01
         0.46164E-01
         0.37377E-01
         0.38003E-01
         0.35533E-01
         0.37099E-01
         0.53016E-01
         0.45591E-01
         0.47230E-01
         0.61004E-01
         0.56657E-01
         0.55222E-01
         0.60088E-01
         0.56254E-01
         0.53805E-01
         0.45445E-01
         0.45981E-01
         0.53783E-01
         0.46833E-01
         0.43394E-01
         0.41705E-01
         0.43814E-01
         0.50655E-01
         0.44443E-01
         0.11910E+00
         0.11947E+00
         0.12429E+00
         0.12233E+00
         0.12870E+00
         0.13749E+00
         0.13552E+00
         0.12680E+00
         0.12520E+00
         0.13111E+00
         0.12815E+00
         0.12389E+00
         0.10563E+00
         0.10007E+00
         0.10553E+00
         0.11033E+00
         0.11330E+00
         0.12338E+00
         0.12330E+00
         0.12568E+00
         0.11454E+00
         0.10978E+00
         0.11518E+00
         0.11303E+00
         0.11442E+00
         0.11345E+00
  
SCALARS                            dam  double 1
LOOKUP_TABLE default
         0.00000E+00
         0.00000E+00
         0.00000E+00
         0.00000E+00
         0.00000E+00
         0.00000E+00
         0.00000E+00
         0.00000E+00
         0.00000E+00
         0.00000E+00
         0.00000E+00
         0.00000E+00
         0.00000E+00
         0.00000E+00
         0.00000E+00
         0.00000E+00
         0.00000E+00
         0.00000E+00
         0.00000E+00
         0.00000E+00
         0.00000E+00
         0.00000E+00
         0.00000E+00
         0.00000E+00
         0.00000E+00
         0.00000E+00
         0.00000E+00
         0.00000E+00
         0.00000E+00
         0.00000E+00
         0.00000E+00
         0.00000E+00
         0.00000E+00
         0.00000E+00
         0.00000E+00
         0.00000E+00
         0.00000E+00
         0.00000E+00
         0.00000E+00
         0.00000E+00
         0.00000E+00
         0.00000E+00
         0.00000E+00
         0.00000E+00
         0.00000E+00
         0.00000E+00
         0.00000E+00
         0.00000E+00
         0.00000E+00
         0.00000E+00
         0.00000E+00
         0.00000E+00
         0.00000E+00
         0.00000E+00
         0.00000E+00
         0.00000E+00
         0.00000E+00
         0.00000E+00
         0.00000E+00
         0.00000E+00
         0.00000E+00
         0.00000E+00
         0.00000E+00
         0.00000E+00
         0.00000E+00
         0.00000E+00
         0.00000E+00
         0.00000E+00
         0.00000E+00
         0.00000E+00
         0.00000E+00
         0.00000E+00
         0.00000E+00
         0.00000E+00
         0.00000E+00
         0.00000E+00
         0.00000E+00
         0.00000E+00
         0.00000E+00
         0.00000E+00
         0.00000E+00
         0.00000E+00
         0.00000E+00
         0.00000E+00
         0.00000E+00
         0.00000E+00
         0.00000E+00
         0.00000E+00
         0.00000E+00
         0.00000E+00
         0.00000E+00
         0.00000E+00
         0.00000E+00
         0.00000E+00
         0.00000E+00
         0.00000E+00
         0.00000E+00
         0.00000E+00
         0.00000E+00
         0.00000E+00
         0.00000E+00
         0.00000E+00
         0.00000E+00
         0.00000E+00
         0.00000E+00
         0.00000E+00
         0.00000E+00
         0.00000E+00
         0.00000E+00
         0.00000E+00
         0.00000E+00
         0.00000E+00
         0.00000E+00
         0.00000E+00
         0.00000E+00
         0.00000E+00
         0.00000E+00
         0.00000E+00
         0.00000E+00
         0.00000E+00
         0.00000E+00
         0.00000E+00
         0.00000E+00
         0.00000E+00
         0.00000E+00
         0.00000E+00
         0.00000E+00
         0.00000E+00
         0.00000E+00
         0.00000E+00
         0.00000E+00
         0.00000E+00
         0.00000E+00
         0.00000E+00
         0.00000E+00
         0.00000E+00
         0.00000E+00
         0.00000E+00
         0.00000E+00
         0.00000E+00
         0.00000E+00
         0.00000E+00
         0.00000E+00
         0.00000E+00
         0.00000E+00
         0.00000E+00
         0.00000E+00
         0.00000E+00
         0.00000E+00
         0.00000E+00
         0.00000E+00
         0.00000E+00
         0.00000E+00
         0.00000E+00
         0.00000E+00
         0.00000E+00
         0.00000E+00
         0.00000E+00
         0.00000E+00
         0.00000E+00
         0.00000E+00
         0.00000E+00
         0.00000E+00
         0.00000E+00
         0.00000E+00
         0.00000E+00
         0.00000E+00
         0.00000E+00
         0.00000E+00
         0.00000E+00
         0.00000E+00
         0.00000E+00
         0.00000E+00
         0.00000E+00
         0.00000E+00
         0.00000E+00
         0.00000E+00
         0.00000E+00
         0.00000E+00
         0.00000E+00
         0.00000E+00
         0.00000E+00
         0.00000E+00
         0.00000E+00
         0.00000E+00
         0.00000E+00
         0.00000E+00
         0.00000E+00
         0.00000E+00
         0.00000E+00
         0.00000E+00
         0.00000E+00
         0.00000E+00
         0.00000E+00
         0.00000E+00
         0.00000E+00
         0.00000E+00
         0.00000E+00
         0.00000E+00
         0.00000E+00
         0.00000E+00
         0.00000E+00
         0.00000E+00
         0.00000E+00
         0.00000E+00
         0.00000E+00
         0.00000E+00
         0.00000E+00
         0.00000E+00
         0.00000E+00
         0.00000E+00
         0.00000E+00
         0.00000E+00
         0.00000E+00
         0.00000E+00
         0.00000E+00
         0.00000E+00
         0.00000E+00
         0.00000E+00
         0.00000E+00
         0.00000E+00
         0.00000E+00
         0.00000E+00
         0.00000E+00
         0.00000E+00
         0.00000E+00
         0.00000E+00
         0.00000E+00
         0.00000E+00
         0.00000E+00
         0.00000E+00
         0.00000E+00
         0.00000E+00
         0.00000E+00
         0.00000E+00
         0.00000E+00
         0.00000E+00
         0.00000E+00
         0.00000E+00
         0.00000E+00
         0.00000E+00
         0.00000E+00
         0.00000E+00
         0.00000E+00
         0.00000E+00
         0.00000E+00
         0.00000E+00
         0.00000E+00
         0.00000E+00
         0.00000E+00
         0.00000E+00
         0.00000E+00
         0.00000E+00
         0.00000E+00
         0.00000E+00
         0.00000E+00
         0.00000E+00
         0.00000E+00
         0.00000E+00
         0.00000E+00
         0.00000E+00
         0.00000E+00
         0.00000E+00
         0.00000E+00
         0.00000E+00
         0.00000E+00
         0.00000E+00
         0.00000E+00
         0.00000E+00
         0.00000E+00
         0.00000E+00
         0.00000E+00
         0.00000E+00
         0.00000E+00
         0.00000E+00
         0.00000E+00
         0.00000E+00
         0.00000E+00
         0.00000E+00
         0.00000E+00
         0.00000E+00
         0.00000E+00
         0.00000E+00
         0.00000E+00
         0.00000E+00
         0.00000E+00
         0.00000E+00
         0.00000E+00
         0.00000E+00
         0.00000E+00
         0.00000E+00
         0.00000E+00
         0.00000E+00
         0.00000E+00
         0.00000E+00
         0.00000E+00
         0.00000E+00
         0.00000E+00
         0.00000E+00
         0.00000E+00
         0.00000E+00
         0.00000E+00
         0.00000E+00
         0.00000E+00
         0.00000E+00
         0.00000E+00
         0.00000E+00
         0.00000E+00
         0.00000E+00
         0.00000E+00
         0.00000E+00
         0.00000E+00
         0.00000E+00
         0.00000E+00
         0.00000E+00
         0.00000E+00
         0.00000E+00
         0.00000E+00
         0.00000E+00
         0.00000E+00
         0.00000E+00
         0.00000E+00
         0.00000E+00
         0.00000E+00
         0.00000E+00
         0.00000E+00
         0.00000E+00
         0.00000E+00
         0.00000E+00
         0.00000E+00
         0.00000E+00
         0.00000E+00
         0.00000E+00
         0.00000E+00
         0.00000E+00
         0.00000E+00
         0.00000E+00
         0.00000E+00
         0.00000E+00
         0.00000E+00
         0.00000E+00
         0.00000E+00
         0.00000E+00
         0.00000E+00
         0.00000E+00
         0.00000E+00
         0.00000E+00
         0.00000E+00
         0.00000E+00
         0.00000E+00
         0.00000E+00
         0.00000E+00
         0.00000E+00
         0.00000E+00
         0.00000E+00
         0.00000E+00
         0.00000E+00
         0.00000E+00
         0.00000E+00
         0.00000E+00
         0.00000E+00
         0.00000E+00
         0.00000E+00
         0.00000E+00
         0.00000E+00
         0.00000E+00
         0.00000E+00
         0.00000E+00
         0.00000E+00
         0.00000E+00
         0.00000E+00
         0.00000E+00
         0.00000E+00
         0.00000E+00
         0.00000E+00
         0.00000E+00
         0.00000E+00
         0.00000E+00
         0.00000E+00
         0.00000E+00
         0.00000E+00
         0.00000E+00
         0.00000E+00
         0.00000E+00
         0.00000E+00
         0.00000E+00
         0.00000E+00
         0.00000E+00
         0.00000E+00
         0.00000E+00
         0.00000E+00
         0.00000E+00
         0.00000E+00
         0.00000E+00
         0.00000E+00
         0.00000E+00
         0.00000E+00
         0.00000E+00
         0.00000E+00
         0.00000E+00
         0.00000E+00
         0.00000E+00
         0.00000E+00
         0.00000E+00
         0.00000E+00
         0.00000E+00
         0.00000E+00
         0.00000E+00
         0.00000E+00
         0.00000E+00
         0.00000E+00
         0.00000E+00
         0.00000E+00
         0.00000E+00
         0.00000E+00
         0.00000E+00
         0.00000E+00
         0.00000E+00
         0.00000E+00
         0.00000E+00
         0.00000E+00
         0.00000E+00
         0.00000E+00
         0.00000E+00
         0.00000E+00
         0.00000E+00
         0.00000E+00
         0.00000E+00
         0.00000E+00
         0.00000E+00
         0.00000E+00
         0.00000E+00
         0.00000E+00
         0.00000E+00
         0.00000E+00
         0.00000E+00
         0.00000E+00
         0.00000E+00
         0.00000E+00
         0.00000E+00
         0.00000E+00
         0.00000E+00
         0.00000E+00
         0.00000E+00
         0.00000E+00
         0.00000E+00
         0.00000E+00
         0.00000E+00
         0.00000E+00
         0.00000E+00
         0.00000E+00
         0.00000E+00
         0.00000E+00
         0.00000E+00
         0.00000E+00
         0.00000E+00
         0.00000E+00
         0.00000E+00
         0.00000E+00
         0.00000E+00
         0.00000E+00
         0.00000E+00
         0.00000E+00
         0.00000E+00
         0.00000E+00
         0.00000E+00
         0.00000E+00
         0.00000E+00
         0.00000E+00
         0.00000E+00
         0.00000E+00
         0.00000E+00
         0.00000E+00
         0.00000E+00
         0.00000E+00
         0.00000E+00
         0.00000E+00
         0.00000E+00
         0.00000E+00
         0.00000E+00
         0.00000E+00
         0.00000E+00
         0.00000E+00
         0.00000E+00
         0.00000E+00
         0.00000E+00
         0.00000E+00
         0.00000E+00
         0.00000E+00
         0.00000E+00
         0.00000E+00
         0.00000E+00
         0.00000E+00
         0.00000E+00
         0.00000E+00
         0.00000E+00
         0.00000E+00
         0.00000E+00
         0.00000E+00
         0.00000E+00
         0.00000E+00
         0.00000E+00
         0.00000E+00
         0.00000E+00
         0.00000E+00
         0.00000E+00
         0.00000E+00
         0.00000E+00
         0.00000E+00
         0.00000E+00
         0.00000E+00
         0.00000E+00
         0.00000E+00
         0.00000E+00
         0.00000E+00
         0.00000E+00
         0.00000E+00
         0.00000E+00
         0.00000E+00
         0.00000E+00
         0.00000E+00
         0.00000E+00
         0.00000E+00
         0.00000E+00
         0.00000E+00
         0.00000E+00
         0.00000E+00
         0.00000E+00
         0.00000E+00
         0.00000E+00
         0.00000E+00
         0.00000E+00
         0.00000E+00
         0.00000E+00
         0.00000E+00
         0.00000E+00
         0.00000E+00
         0.00000E+00
         0.00000E+00
         0.00000E+00
         0.00000E+00
         0.00000E+00
         0.00000E+00
         0.00000E+00
         0.00000E+00
         0.00000E+00
         0.00000E+00
         0.00000E+00
         0.00000E+00
         0.00000E+00
         0.00000E+00
         0.00000E+00
         0.00000E+00
         0.00000E+00
         0.00000E+00
         0.00000E+00
         0.00000E+00
         0.00000E+00
         0.00000E+00
         0.00000E+00
         0.00000E+00
         0.00000E+00
         0.00000E+00
         0.00000E+00
         0.00000E+00
         0.00000E+00
         0.00000E+00
         0.00000E+00
         0.00000E+00
         0.00000E+00
         0.00000E+00
         0.00000E+00
         0.00000E+00
         0.00000E+00
         0.00000E+00
         0.00000E+00
         0.00000E+00
         0.00000E+00
         0.00000E+00
         0.00000E+00
         0.00000E+00
         0.00000E+00
         0.00000E+00
         0.00000E+00
         0.00000E+00
         0.00000E+00
         0.00000E+00
         0.00000E+00
         0.00000E+00
         0.00000E+00
         0.00000E+00
         0.00000E+00
         0.00000E+00
         0.00000E+00
         0.00000E+00
         0.00000E+00
         0.00000E+00
         0.00000E+00
         0.00000E+00
         0.00000E+00
         0.00000E+00
         0.00000E+00
         0.00000E+00
         0.00000E+00
         0.00000E+00
         0.00000E+00
         0.00000E+00
         0.00000E+00
         0.00000E+00
         0.00000E+00
         0.00000E+00
         0.00000E+00
         0.00000E+00
         0.00000E+00
         0.00000E+00
         0.00000E+00
         0.00000E+00
         0.00000E+00
         0.00000E+00
         0.00000E+00
         0.00000E+00
         0.00000E+00
         0.00000E+00
         0.00000E+00
         0.00000E+00
         0.00000E+00
         0.00000E+00
         0.00000E+00
         0.00000E+00
         0.00000E+00
         0.00000E+00
         0.00000E+00
         0.00000E+00
         0.00000E+00
         0.00000E+00
         0.00000E+00
         0.00000E+00
         0.00000E+00
         0.00000E+00
         0.00000E+00
         0.00000E+00
         0.00000E+00
         0.00000E+00
         0.00000E+00
         0.00000E+00
         0.00000E+00
         0.00000E+00
         0.00000E+00
         0.00000E+00
         0.00000E+00
         0.00000E+00
         0.00000E+00
         0.00000E+00
         0.00000E+00
         0.00000E+00
         0.00000E+00
         0.00000E+00
         0.00000E+00
         0.00000E+00
         0.00000E+00
         0.00000E+00
         0.00000E+00
         0.00000E+00
         0.00000E+00
         0.00000E+00
         0.00000E+00
         0.00000E+00
         0.00000E+00
         0.00000E+00
         0.00000E+00
         0.00000E+00
         0.00000E+00
         0.00000E+00
         0.00000E+00
         0.00000E+00
         0.00000E+00
         0.00000E+00
         0.00000E+00
         0.00000E+00
         0.00000E+00
         0.00000E+00
         0.00000E+00
         0.00000E+00
         0.00000E+00
         0.00000E+00
         0.00000E+00
         0.00000E+00
         0.00000E+00
         0.00000E+00
         0.00000E+00
         0.00000E+00
         0.00000E+00
         0.00000E+00
         0.00000E+00
         0.00000E+00
         0.00000E+00
         0.00000E+00
         0.00000E+00
         0.00000E+00
         0.00000E+00
         0.00000E+00
         0.00000E+00
         0.00000E+00
         0.00000E+00
         0.00000E+00
         0.00000E+00
         0.00000E+00
         0.00000E+00
         0.00000E+00
         0.00000E+00
         0.00000E+00
         0.00000E+00
         0.00000E+00
         0.00000E+00
         0.00000E+00
         0.00000E+00
         0.00000E+00
         0.00000E+00
         0.00000E+00
         0.00000E+00
         0.00000E+00
         0.00000E+00
         0.00000E+00
         0.00000E+00
         0.00000E+00
         0.00000E+00
         0.00000E+00
         0.00000E+00
         0.00000E+00
         0.00000E+00
         0.00000E+00
         0.00000E+00
         0.00000E+00
         0.00000E+00
         0.00000E+00
         0.00000E+00
         0.00000E+00
         0.00000E+00
         0.00000E+00
         0.00000E+00
         0.00000E+00
         0.00000E+00
         0.00000E+00
         0.00000E+00
         0.00000E+00
         0.00000E+00
         0.00000E+00
         0.00000E+00
         0.00000E+00
         0.00000E+00
         0.00000E+00
         0.00000E+00
         0.00000E+00
         0.00000E+00
         0.00000E+00
         0.00000E+00
         0.00000E+00
         0.00000E+00
         0.00000E+00
         0.00000E+00
         0.00000E+00
         0.00000E+00
         0.00000E+00
         0.00000E+00
         0.00000E+00
         0.00000E+00
         0.00000E+00
         0.00000E+00
         0.00000E+00
         0.00000E+00
         0.00000E+00
         0.00000E+00
         0.00000E+00
         0.00000E+00
         0.00000E+00
         0.00000E+00
         0.00000E+00
         0.00000E+00
         0.00000E+00
         0.00000E+00
         0.00000E+00
         0.00000E+00
         0.00000E+00
         0.00000E+00
         0.00000E+00
         0.00000E+00
         0.00000E+00
         0.00000E+00
         0.00000E+00
         0.00000E+00
         0.00000E+00
         0.00000E+00
         0.00000E+00
         0.00000E+00
         0.00000E+00
         0.00000E+00
         0.00000E+00
         0.00000E+00
         0.00000E+00
         0.00000E+00
         0.00000E+00
         0.00000E+00
         0.00000E+00
         0.00000E+00
         0.00000E+00
         0.00000E+00
         0.00000E+00
         0.00000E+00
         0.00000E+00
         0.00000E+00
         0.00000E+00
         0.00000E+00
         0.00000E+00
         0.00000E+00
         0.00000E+00
         0.00000E+00
         0.00000E+00
         0.00000E+00
         0.00000E+00
         0.00000E+00
         0.00000E+00
         0.00000E+00
         0.00000E+00
         0.00000E+00
         0.00000E+00
         0.00000E+00
         0.00000E+00
         0.00000E+00
         0.00000E+00
         0.00000E+00
         0.00000E+00
         0.00000E+00
         0.00000E+00
         0.00000E+00
         0.00000E+00
         0.00000E+00
         0.00000E+00
         0.00000E+00
         0.00000E+00
         0.00000E+00
         0.00000E+00
         0.00000E+00
         0.00000E+00
         0.00000E+00
         0.00000E+00
         0.00000E+00
         0.00000E+00
         0.00000E+00
         0.00000E+00
         0.00000E+00
         0.00000E+00
         0.00000E+00
         0.00000E+00
         0.00000E+00
         0.00000E+00
         0.00000E+00
         0.00000E+00
         0.00000E+00
         0.00000E+00
         0.00000E+00
         0.00000E+00
         0.00000E+00
         0.00000E+00
         0.00000E+00
         0.00000E+00
         0.00000E+00
         0.00000E+00
         0.00000E+00
         0.00000E+00
         0.00000E+00
         0.00000E+00
         0.00000E+00
         0.00000E+00
         0.00000E+00
         0.00000E+00
         0.00000E+00
         0.00000E+00
         0.00000E+00
         0.00000E+00
         0.00000E+00
         0.00000E+00
         0.00000E+00
         0.00000E+00
         0.00000E+00
         0.00000E+00
         0.00000E+00
         0.00000E+00
         0.00000E+00
         0.00000E+00
         0.00000E+00
         0.00000E+00
         0.00000E+00
         0.00000E+00
         0.00000E+00
         0.00000E+00
         0.00000E+00
         0.00000E+00
         0.00000E+00
         0.00000E+00
         0.00000E+00
         0.00000E+00
         0.00000E+00
         0.00000E+00
         0.00000E+00
         0.00000E+00
         0.00000E+00
         0.00000E+00
         0.00000E+00
         0.00000E+00
         0.00000E+00
         0.00000E+00
         0.00000E+00
         0.00000E+00
         0.00000E+00
         0.00000E+00
         0.00000E+00
         0.00000E+00
         0.00000E+00
         0.00000E+00
         0.00000E+00
         0.00000E+00
         0.00000E+00
         0.00000E+00
         0.00000E+00
         0.00000E+00
         0.00000E+00
         0.00000E+00
         0.00000E+00
         0.00000E+00
         0.00000E+00
         0.00000E+00
         0.00000E+00
         0.00000E+00
         0.00000E+00
         0.00000E+00
         0.00000E+00
         0.00000E+00
         0.00000E+00
         0.00000E+00
         0.00000E+00
         0.00000E+00
         0.00000E+00
         0.00000E+00
         0.00000E+00
         0.00000E+00
         0.00000E+00
         0.00000E+00
         0.00000E+00
         0.00000E+00
         0.00000E+00
         0.00000E+00
         0.00000E+00
         0.00000E+00
         0.00000E+00
         0.00000E+00
         0.00000E+00
         0.00000E+00
         0.00000E+00
         0.00000E+00
         0.00000E+00
         0.00000E+00
         0.00000E+00
         0.00000E+00
         0.00000E+00
         0.00000E+00
         0.00000E+00
         0.00000E+00
         0.00000E+00
         0.00000E+00
         0.00000E+00
         0.00000E+00
         0.00000E+00
         0.00000E+00
         0.00000E+00
         0.00000E+00
         0.00000E+00
         0.00000E+00
         0.00000E+00
         0.00000E+00
         0.00000E+00
         0.00000E+00
         0.00000E+00
         0.00000E+00
         0.00000E+00
         0.00000E+00
         0.00000E+00
         0.00000E+00
         0.00000E+00
         0.00000E+00
         0.00000E+00
         0.00000E+00
         0.00000E+00
         0.00000E+00
         0.00000E+00
         0.00000E+00
         0.00000E+00
         0.00000E+00
         0.00000E+00
         0.00000E+00
         0.00000E+00
         0.00000E+00
         0.00000E+00
         0.00000E+00
         0.00000E+00
         0.00000E+00
         0.00000E+00
         0.00000E+00
         0.00000E+00
         0.00000E+00
         0.00000E+00
         0.00000E+00
         0.00000E+00
         0.00000E+00
         0.00000E+00
         0.00000E+00
         0.00000E+00
         0.00000E+00
         0.00000E+00
         0.00000E+00
         0.00000E+00
         0.00000E+00
         0.00000E+00
         0.00000E+00
         0.00000E+00
         0.00000E+00
         0.00000E+00
         0.00000E+00
         0.00000E+00
         0.00000E+00
         0.00000E+00
         0.00000E+00
         0.00000E+00
         0.00000E+00
         0.00000E+00
         0.00000E+00
         0.00000E+00
         0.00000E+00
         0.00000E+00
         0.00000E+00
         0.00000E+00
         0.00000E+00
         0.00000E+00
         0.00000E+00
         0.00000E+00
         0.00000E+00
         0.00000E+00
         0.00000E+00
         0.00000E+00
         0.00000E+00
         0.00000E+00
         0.00000E+00
         0.00000E+00
         0.00000E+00
         0.00000E+00
         0.00000E+00
         0.00000E+00
         0.00000E+00
         0.00000E+00
         0.00000E+00
         0.00000E+00
         0.00000E+00
         0.00000E+00
         0.00000E+00
         0.00000E+00
         0.00000E+00
         0.00000E+00
         0.00000E+00
         0.00000E+00
         0.00000E+00
         0.00000E+00
         0.00000E+00
         0.00000E+00
         0.00000E+00
         0.00000E+00
         0.00000E+00
         0.00000E+00
         0.00000E+00
         0.00000E+00
         0.00000E+00
         0.00000E+00
         0.00000E+00
         0.00000E+00
         0.00000E+00
         0.00000E+00
         0.00000E+00
         0.00000E+00
         0.00000E+00
         0.00000E+00
         0.00000E+00
         0.00000E+00
         0.00000E+00
         0.00000E+00
         0.00000E+00
         0.00000E+00
         0.00000E+00
         0.00000E+00
         0.00000E+00
         0.00000E+00
         0.00000E+00
         0.00000E+00
         0.00000E+00
         0.00000E+00
         0.00000E+00
         0.00000E+00
         0.00000E+00
         0.00000E+00
         0.00000E+00
         0.00000E+00
         0.00000E+00
         0.00000E+00
         0.00000E+00
         0.00000E+00
         0.00000E+00
         0.00000E+00
         0.00000E+00
         0.00000E+00
         0.00000E+00
         0.00000E+00
         0.00000E+00
         0.00000E+00
         0.00000E+00
         0.00000E+00
         0.00000E+00
         0.00000E+00
         0.00000E+00
         0.00000E+00
         0.00000E+00
         0.00000E+00
         0.00000E+00
         0.00000E+00
         0.00000E+00
         0.00000E+00
         0.00000E+00
         0.00000E+00
         0.00000E+00
         0.00000E+00
         0.00000E+00
         0.00000E+00
         0.00000E+00
         0.00000E+00
         0.00000E+00
         0.00000E+00
         0.00000E+00
         0.00000E+00
         0.00000E+00
         0.00000E+00
         0.00000E+00
         0.00000E+00
         0.00000E+00
         0.00000E+00
         0.00000E+00
         0.00000E+00
         0.00000E+00
         0.00000E+00
         0.00000E+00
         0.00000E+00
         0.00000E+00
         0.00000E+00
         0.00000E+00
         0.00000E+00
         0.00000E+00
         0.00000E+00
         0.00000E+00
         0.00000E+00
         0.00000E+00
         0.00000E+00
         0.00000E+00
         0.00000E+00
         0.00000E+00
         0.00000E+00
         0.00000E+00
         0.00000E+00
         0.00000E+00
         0.00000E+00
         0.00000E+00
         0.00000E+00
         0.00000E+00
         0.00000E+00
         0.00000E+00
         0.00000E+00
         0.00000E+00
         0.00000E+00
         0.00000E+00
         0.00000E+00
         0.00000E+00
         0.00000E+00
         0.00000E+00
         0.00000E+00
         0.00000E+00
         0.00000E+00
         0.00000E+00
         0.00000E+00
         0.00000E+00
         0.00000E+00
         0.00000E+00
         0.00000E+00
         0.00000E+00
         0.00000E+00
         0.00000E+00
         0.00000E+00
         0.00000E+00
         0.00000E+00
         0.00000E+00
         0.00000E+00
         0.00000E+00
         0.00000E+00
         0.00000E+00
         0.00000E+00
         0.00000E+00
         0.00000E+00
         0.00000E+00
         0.00000E+00
         0.00000E+00
         0.00000E+00
         0.00000E+00
         0.00000E+00
         0.00000E+00
         0.00000E+00
         0.00000E+00
         0.00000E+00
         0.00000E+00
         0.00000E+00
         0.00000E+00
         0.00000E+00
         0.00000E+00
         0.00000E+00
         0.00000E+00
         0.00000E+00
         0.00000E+00
         0.00000E+00
         0.00000E+00
         0.00000E+00
         0.00000E+00
         0.00000E+00
         0.00000E+00
         0.00000E+00
         0.00000E+00
         0.00000E+00
         0.00000E+00
         0.00000E+00
         0.00000E+00
         0.00000E+00
         0.00000E+00
         0.00000E+00
         0.00000E+00
         0.00000E+00
         0.00000E+00
         0.00000E+00
         0.00000E+00
         0.00000E+00
         0.00000E+00
         0.00000E+00
         0.00000E+00
         0.00000E+00
         0.00000E+00
         0.00000E+00
         0.00000E+00
         0.00000E+00
         0.00000E+00
         0.00000E+00
         0.00000E+00
         0.00000E+00
         0.00000E+00
         0.00000E+00
         0.00000E+00
         0.00000E+00
         0.00000E+00
         0.00000E+00
         0.00000E+00
         0.00000E+00
         0.00000E+00
         0.00000E+00
         0.00000E+00
         0.00000E+00
         0.00000E+00
         0.00000E+00
         0.00000E+00
         0.00000E+00
         0.00000E+00
         0.00000E+00
         0.00000E+00
         0.00000E+00
         0.00000E+00
         0.00000E+00
         0.00000E+00
         0.00000E+00
         0.00000E+00
         0.00000E+00
         0.00000E+00
         0.00000E+00
         0.00000E+00
         0.00000E+00
         0.00000E+00
         0.00000E+00
         0.00000E+00
         0.00000E+00
         0.00000E+00
         0.00000E+00
         0.00000E+00
         0.00000E+00
         0.00000E+00
         0.00000E+00
         0.00000E+00
         0.00000E+00
         0.00000E+00
         0.00000E+00
         0.00000E+00
         0.00000E+00
         0.00000E+00
         0.00000E+00
         0.00000E+00
         0.00000E+00
         0.00000E+00
         0.00000E+00
         0.00000E+00
         0.00000E+00
         0.00000E+00
         0.00000E+00
         0.00000E+00
         0.00000E+00
         0.00000E+00
         0.00000E+00
         0.00000E+00
         0.00000E+00
         0.00000E+00
         0.00000E+00
         0.00000E+00
         0.00000E+00
         0.00000E+00
         0.00000E+00
         0.00000E+00
         0.00000E+00
         0.00000E+00
         0.00000E+00
         0.00000E+00
         0.00000E+00
         0.00000E+00
         0.00000E+00
         0.00000E+00
         0.00000E+00
         0.00000E+00
         0.00000E+00
         0.00000E+00
         0.00000E+00
         0.00000E+00
         0.00000E+00
         0.00000E+00
         0.00000E+00
         0.00000E+00
         0.00000E+00
         0.00000E+00
         0.00000E+00
         0.00000E+00
         0.00000E+00
         0.00000E+00
         0.00000E+00
         0.00000E+00
         0.00000E+00
         0.00000E+00
         0.00000E+00
         0.00000E+00
         0.00000E+00
         0.00000E+00
         0.00000E+00
         0.00000E+00
         0.00000E+00
         0.00000E+00
         0.00000E+00
         0.00000E+00
         0.00000E+00
         0.00000E+00
         0.00000E+00
         0.00000E+00
         0.00000E+00
         0.00000E+00
         0.00000E+00
         0.00000E+00
         0.00000E+00
         0.00000E+00
         0.00000E+00
         0.00000E+00
         0.00000E+00
         0.00000E+00
         0.00000E+00
         0.00000E+00
         0.00000E+00
         0.00000E+00
         0.00000E+00
         0.00000E+00
         0.00000E+00
         0.00000E+00
         0.00000E+00
         0.00000E+00
         0.00000E+00
         0.00000E+00
         0.00000E+00
         0.00000E+00
         0.00000E+00
         0.00000E+00
         0.00000E+00
         0.00000E+00
         0.00000E+00
         0.00000E+00
         0.00000E+00
         0.00000E+00
         0.00000E+00
         0.00000E+00
         0.00000E+00
         0.00000E+00
         0.00000E+00
         0.00000E+00
         0.00000E+00
         0.00000E+00
         0.00000E+00
         0.00000E+00
         0.00000E+00
         0.00000E+00
         0.00000E+00
         0.00000E+00
         0.00000E+00
         0.00000E+00
         0.00000E+00
         0.00000E+00
         0.00000E+00
         0.00000E+00
         0.00000E+00
         0.00000E+00
         0.00000E+00
         0.00000E+00
         0.00000E+00
         0.00000E+00
         0.00000E+00
         0.00000E+00
         0.00000E+00
         0.00000E+00
         0.00000E+00
         0.00000E+00
         0.00000E+00
         0.00000E+00
         0.00000E+00
         0.00000E+00
         0.00000E+00
         0.00000E+00
         0.00000E+00
         0.00000E+00
         0.00000E+00
         0.00000E+00
         0.00000E+00
         0.00000E+00
         0.00000E+00
         0.00000E+00
         0.00000E+00
         0.00000E+00
         0.00000E+00
         0.00000E+00
         0.00000E+00
         0.00000E+00
         0.00000E+00
         0.00000E+00
         0.00000E+00
         0.00000E+00
         0.00000E+00
         0.00000E+00
         0.00000E+00
         0.00000E+00
         0.00000E+00
         0.00000E+00
         0.00000E+00
         0.00000E+00
         0.00000E+00
         0.00000E+00
         0.00000E+00
         0.00000E+00
         0.00000E+00
         0.00000E+00
         0.00000E+00
         0.00000E+00
         0.00000E+00
         0.00000E+00
         0.00000E+00
         0.00000E+00
         0.00000E+00
         0.00000E+00
         0.00000E+00
         0.00000E+00
         0.00000E+00
         0.00000E+00
         0.00000E+00
         0.00000E+00
         0.00000E+00
         0.00000E+00
         0.00000E+00
         0.00000E+00
         0.00000E+00
         0.00000E+00
         0.00000E+00
         0.00000E+00
         0.00000E+00
         0.00000E+00
         0.00000E+00
         0.00000E+00
         0.00000E+00
         0.00000E+00
         0.00000E+00
         0.00000E+00
         0.00000E+00
         0.00000E+00
         0.00000E+00
         0.00000E+00
         0.00000E+00
         0.00000E+00
         0.00000E+00
         0.00000E+00
         0.00000E+00
         0.00000E+00
         0.00000E+00
         0.00000E+00
         0.00000E+00
         0.00000E+00
         0.00000E+00
         0.00000E+00
         0.00000E+00
         0.00000E+00
         0.00000E+00
         0.00000E+00
         0.00000E+00
         0.00000E+00
         0.00000E+00
         0.00000E+00
         0.00000E+00
         0.00000E+00
         0.00000E+00
         0.00000E+00
         0.00000E+00
         0.00000E+00
         0.00000E+00
         0.00000E+00
         0.00000E+00
         0.00000E+00
         0.00000E+00
         0.00000E+00
         0.00000E+00
         0.00000E+00
         0.00000E+00
         0.00000E+00
         0.00000E+00
         0.00000E+00
         0.00000E+00
         0.00000E+00
         0.00000E+00
         0.00000E+00
         0.00000E+00
         0.00000E+00
         0.00000E+00
         0.00000E+00
         0.00000E+00
         0.00000E+00
         0.00000E+00
         0.00000E+00
         0.00000E+00
         0.00000E+00
         0.00000E+00
         0.00000E+00
         0.00000E+00
         0.00000E+00
         0.00000E+00
         0.00000E+00
         0.00000E+00
         0.00000E+00
         0.00000E+00
         0.00000E+00
         0.00000E+00
         0.00000E+00
         0.00000E+00
         0.00000E+00
         0.00000E+00
         0.00000E+00
         0.00000E+00
         0.00000E+00
         0.00000E+00
         0.00000E+00
         0.00000E+00
         0.00000E+00
         0.00000E+00
         0.00000E+00
         0.00000E+00
         0.00000E+00
         0.00000E+00
         0.00000E+00
         0.00000E+00
         0.00000E+00
         0.00000E+00
         0.00000E+00
         0.00000E+00
         0.00000E+00
         0.00000E+00
         0.00000E+00
         0.00000E+00
         0.00000E+00
         0.00000E+00
         0.00000E+00
         0.00000E+00
         0.00000E+00
         0.00000E+00
         0.00000E+00
         0.00000E+00
         0.00000E+00
         0.00000E+00
         0.00000E+00
         0.00000E+00
         0.00000E+00
         0.00000E+00
         0.00000E+00
         0.00000E+00
         0.00000E+00
         0.00000E+00
         0.00000E+00
         0.00000E+00
         0.00000E+00
         0.00000E+00
         0.00000E+00
         0.00000E+00
         0.00000E+00
         0.00000E+00
         0.00000E+00
         0.00000E+00
         0.00000E+00
         0.00000E+00
         0.00000E+00
         0.00000E+00
         0.00000E+00
         0.00000E+00
         0.00000E+00
         0.00000E+00
         0.00000E+00
         0.00000E+00
         0.00000E+00
         0.00000E+00
         0.00000E+00
         0.00000E+00
         0.00000E+00
         0.00000E+00
         0.00000E+00
         0.00000E+00
         0.00000E+00
         0.00000E+00
         0.00000E+00
         0.00000E+00
         0.00000E+00
         0.00000E+00
         0.00000E+00
         0.00000E+00
         0.00000E+00
         0.00000E+00
         0.00000E+00
         0.00000E+00
         0.00000E+00
         0.00000E+00
         0.00000E+00
         0.00000E+00
         0.00000E+00
         0.00000E+00
         0.00000E+00
         0.00000E+00
         0.00000E+00
         0.00000E+00
         0.00000E+00
         0.00000E+00
         0.00000E+00
         0.00000E+00
         0.00000E+00
         0.00000E+00
         0.00000E+00
         0.00000E+00
         0.00000E+00
         0.00000E+00
         0.00000E+00
         0.00000E+00
         0.00000E+00
         0.00000E+00
         0.00000E+00
         0.00000E+00
         0.00000E+00
         0.00000E+00
         0.00000E+00
         0.00000E+00
         0.00000E+00
         0.00000E+00
         0.00000E+00
         0.00000E+00
         0.00000E+00
         0.00000E+00
         0.00000E+00
         0.00000E+00
         0.00000E+00
         0.00000E+00
         0.00000E+00
         0.00000E+00
         0.00000E+00
         0.00000E+00
         0.00000E+00
         0.00000E+00
         0.00000E+00
         0.00000E+00
         0.00000E+00
         0.00000E+00
         0.00000E+00
         0.00000E+00
         0.00000E+00
         0.00000E+00
         0.00000E+00
         0.00000E+00
         0.00000E+00
         0.00000E+00
         0.00000E+00
         0.00000E+00
         0.00000E+00
         0.00000E+00
         0.00000E+00
         0.00000E+00
         0.00000E+00
         0.00000E+00
         0.00000E+00
         0.00000E+00
         0.00000E+00
         0.00000E+00
         0.00000E+00
         0.00000E+00
         0.00000E+00
         0.00000E+00
         0.00000E+00
         0.00000E+00
         0.00000E+00
         0.00000E+00
         0.00000E+00
         0.00000E+00
         0.00000E+00
         0.00000E+00
         0.00000E+00
         0.00000E+00
         0.00000E+00
         0.00000E+00
         0.00000E+00
         0.00000E+00
         0.00000E+00
         0.00000E+00
         0.00000E+00
         0.00000E+00
         0.00000E+00
         0.00000E+00
         0.00000E+00
         0.00000E+00
         0.00000E+00
         0.00000E+00
         0.00000E+00
         0.00000E+00
         0.00000E+00
         0.00000E+00
         0.00000E+00
         0.00000E+00
         0.00000E+00
         0.00000E+00
         0.00000E+00
         0.00000E+00
         0.00000E+00
         0.00000E+00
         0.00000E+00
         0.00000E+00
         0.00000E+00
         0.00000E+00
         0.00000E+00
         0.00000E+00
         0.00000E+00
         0.00000E+00
         0.00000E+00
         0.00000E+00
         0.00000E+00
         0.00000E+00
         0.00000E+00
         0.00000E+00
         0.00000E+00
         0.00000E+00
         0.00000E+00
         0.00000E+00
         0.00000E+00
         0.00000E+00
         0.00000E+00
         0.00000E+00
         0.00000E+00
         0.00000E+00
         0.00000E+00
         0.00000E+00
         0.00000E+00
         0.00000E+00
         0.00000E+00
         0.00000E+00
         0.00000E+00
         0.00000E+00
         0.00000E+00
         0.00000E+00
         0.00000E+00
         0.00000E+00
         0.00000E+00
         0.00000E+00
         0.00000E+00
         0.00000E+00
         0.00000E+00
         0.00000E+00
         0.00000E+00
         0.00000E+00
         0.00000E+00
         0.00000E+00
         0.00000E+00
         0.00000E+00
         0.00000E+00
         0.00000E+00
         0.00000E+00
         0.00000E+00
         0.00000E+00
         0.00000E+00
         0.00000E+00
         0.00000E+00
         0.00000E+00
         0.00000E+00
         0.00000E+00
         0.00000E+00
         0.00000E+00
         0.00000E+00
         0.00000E+00
         0.00000E+00
         0.00000E+00
         0.00000E+00
         0.00000E+00
         0.00000E+00
         0.00000E+00
         0.00000E+00
         0.00000E+00
         0.00000E+00
         0.00000E+00
         0.00000E+00
         0.00000E+00
         0.00000E+00
         0.00000E+00
         0.00000E+00
         0.00000E+00
         0.00000E+00
         0.00000E+00
         0.00000E+00
         0.00000E+00
         0.00000E+00
         0.00000E+00
         0.00000E+00
         0.00000E+00
         0.00000E+00
         0.00000E+00
         0.00000E+00
         0.00000E+00
         0.00000E+00
         0.00000E+00
         0.00000E+00
         0.00000E+00
         0.00000E+00
         0.00000E+00
         0.00000E+00
         0.00000E+00
         0.00000E+00
         0.00000E+00
         0.00000E+00
         0.00000E+00
         0.00000E+00
         0.00000E+00
         0.00000E+00
         0.00000E+00
         0.00000E+00
         0.00000E+00
         0.00000E+00
         0.00000E+00
         0.00000E+00
         0.00000E+00
         0.00000E+00
         0.00000E+00
         0.00000E+00
         0.00000E+00
         0.00000E+00
         0.00000E+00
         0.00000E+00
         0.00000E+00
         0.00000E+00
         0.00000E+00
         0.00000E+00
         0.00000E+00
         0.00000E+00
         0.00000E+00
         0.00000E+00
         0.00000E+00
         0.00000E+00
         0.00000E+00
         0.00000E+00
         0.00000E+00
         0.00000E+00
         0.00000E+00
         0.00000E+00
         0.00000E+00
         0.00000E+00
         0.00000E+00
         0.00000E+00
         0.00000E+00
         0.00000E+00
         0.00000E+00
         0.00000E+00
         0.00000E+00
         0.00000E+00
         0.00000E+00
         0.00000E+00
         0.00000E+00
         0.00000E+00
         0.00000E+00
         0.00000E+00
         0.00000E+00
         0.00000E+00
         0.00000E+00
         0.00000E+00
         0.00000E+00
         0.00000E+00
         0.00000E+00
         0.00000E+00
         0.00000E+00
         0.00000E+00
         0.00000E+00
         0.00000E+00
         0.00000E+00
         0.00000E+00
         0.00000E+00
         0.00000E+00
         0.00000E+00
         0.00000E+00
         0.00000E+00
         0.00000E+00
         0.00000E+00
         0.00000E+00
         0.00000E+00
         0.00000E+00
         0.00000E+00
         0.00000E+00
         0.00000E+00
         0.00000E+00
         0.00000E+00
         0.00000E+00
         0.00000E+00
         0.00000E+00
  
SCALARS           initial_coordinate_x  double 1
LOOKUP_TABLE default
         0.10378E-02
         0.17452E-02
         0.23177E-02
         0.16698E-02
         0.10379E-02
         0.17453E-02
         0.23178E-02
         0.16700E-02
         0.30377E-02
         0.27791E-02
         0.30377E-02
         0.27788E-02
         0.12850E-02
         0.65139E-03
         0.12851E-02
         0.65164E-03
         0.12757E-03
        -0.12822E-03
         0.12783E-03
        -0.12804E-03
         0.94500E-03
         0.11327E-02
         0.17490E-02
         0.94533E-03
         0.11330E-02
         0.17494E-02
         0.40588E-03
         0.39779E-03
         0.40594E-03
         0.39781E-03
        -0.76303E-03
        -0.86604E-03
         0.46119E-03
        -0.76268E-03
        -0.86593E-03
         0.46164E-03
        -0.18300E-02
        -0.18440E-02
        -0.18297E-02
        -0.18441E-02
        -0.27238E-02
        -0.28028E-02
        -0.27238E-02
        -0.28031E-02
        -0.25365E-02
        -0.19287E-02
        -0.25363E-02
        -0.19283E-02
        -0.99363E-03
        -0.99377E-03
        -0.14380E-02
        -0.14377E-02
        -0.31574E-03
        -0.31594E-03
        -0.11068E-02
        -0.11071E-02
        -0.18845E-02
        -0.18713E-02
        -0.18846E-02
        -0.18714E-02
        -0.15871E-03
        -0.94089E-03
        -0.15844E-03
        -0.94029E-03
         0.78856E-03
         0.78922E-03
         0.17211E-02
         0.17211E-02
         0.32050E-02
         0.28046E-02
         0.32047E-02
         0.28047E-02
         0.23059E-02
         0.23060E-02
        -0.40614E-03
        -0.40627E-03
        -0.12092E-02
        -0.12092E-02
        -0.19448E-02
        -0.19448E-02
        -0.25029E-02
        -0.26371E-02
        -0.25029E-02
        -0.26372E-02
        -0.27671E-02
        -0.27674E-02
        -0.21123E-02
        -0.21122E-02
        -0.16087E-02
        -0.16087E-02
        -0.11939E-02
        -0.58641E-03
        -0.11937E-02
        -0.58606E-03
         0.20912E-03
         0.20952E-03
         0.10586E-02
         0.10589E-02
         0.18413E-02
         0.18413E-02
         0.24544E-02
         0.26022E-02
         0.24543E-02
         0.26021E-02
         0.37964E-02
         0.39100E-02
         0.37964E-02
         0.39100E-02
         0.34621E-02
         0.34621E-02
         0.29267E-02
         0.29267E-02
         0.22211E-02
         0.22211E-02
         0.13865E-02
         0.13865E-02
         0.47130E-03
         0.47130E-03
        -0.47130E-03
        -0.47130E-03
        -0.13865E-02
        -0.13865E-02
        -0.22211E-02
        -0.22211E-02
        -0.29267E-02
        -0.29267E-02
        -0.34621E-02
        -0.34621E-02
        -0.37964E-02
        -0.37964E-02
        -0.39100E-02
        -0.39100E-02
        -0.37964E-02
        -0.37964E-02
        -0.34621E-02
        -0.34621E-02
        -0.29267E-02
        -0.29267E-02
        -0.22211E-02
        -0.22211E-02
        -0.13865E-02
        -0.13865E-02
        -0.47130E-03
        -0.47130E-03
         0.47130E-03
         0.47130E-03
         0.13865E-02
         0.13865E-02
         0.22211E-02
         0.22211E-02
         0.29267E-02
         0.29267E-02
         0.34621E-02
         0.34621E-02
         0.37964E-02
         0.37964E-02
         0.10376E-02
         0.17450E-02
         0.23175E-02
         0.16696E-02
         0.30377E-02
         0.27795E-02
         0.12849E-02
         0.65115E-03
         0.12731E-03
        -0.12841E-03
         0.94467E-03
         0.11323E-02
         0.17487E-02
         0.40583E-03
         0.39777E-03
        -0.76338E-03
        -0.86615E-03
         0.46074E-03
        -0.18303E-02
        -0.18439E-02
        -0.27238E-02
        -0.28025E-02
        -0.25366E-02
        -0.19292E-02
        -0.99349E-03
        -0.14384E-02
        -0.31554E-03
        -0.11064E-02
        -0.18845E-02
        -0.18712E-02
        -0.15899E-03
        -0.94149E-03
         0.78790E-03
         0.17210E-02
         0.32053E-02
         0.28046E-02
         0.23058E-02
        -0.40600E-03
        -0.12092E-02
        -0.19447E-02
        -0.25028E-02
        -0.26370E-02
        -0.27668E-02
        -0.21125E-02
        -0.16088E-02
        -0.11940E-02
        -0.58676E-03
         0.20871E-03
         0.10583E-02
         0.18413E-02
         0.24545E-02
         0.26022E-02
         0.37964E-02
         0.39100E-02
         0.34621E-02
         0.29267E-02
         0.22211E-02
         0.13865E-02
         0.47130E-03
        -0.47130E-03
        -0.13865E-02
        -0.22211E-02
        -0.29267E-02
        -0.34621E-02
        -0.37964E-02
        -0.39100E-02
        -0.37964E-02
        -0.34621E-02
        -0.29267E-02
        -0.22211E-02
        -0.13865E-02
        -0.47130E-03
         0.47130E-03
         0.13865E-02
         0.22211E-02
         0.29267E-02
         0.34621E-02
         0.37964E-02
         0.10375E-02
         0.17448E-02
         0.23174E-02
         0.16694E-02
         0.30377E-02
         0.27798E-02
         0.12848E-02
         0.65090E-03
         0.12705E-03
        -0.12859E-03
         0.94434E-03
         0.11320E-02
         0.17483E-02
         0.40577E-03
         0.39776E-03
        -0.76374E-03
        -0.86626E-03
         0.46029E-03
        -0.18306E-02
        -0.18438E-02
        -0.27238E-02
        -0.28022E-02
        -0.25368E-02
        -0.19296E-02
        -0.99334E-03
        -0.14387E-02
        -0.31534E-03
        -0.11061E-02
        -0.18844E-02
        -0.18710E-02
        -0.15926E-03
        -0.94209E-03
         0.78724E-03
         0.17210E-02
         0.32056E-02
         0.28046E-02
         0.23057E-02
        -0.40586E-03
        -0.12092E-02
        -0.19447E-02
        -0.25028E-02
        -0.26369E-02
        -0.27665E-02
        -0.21126E-02
        -0.16088E-02
        -0.11941E-02
        -0.58711E-03
         0.20830E-03
         0.10580E-02
         0.18414E-02
         0.24546E-02
         0.26023E-02
         0.37964E-02
         0.39100E-02
         0.34621E-02
         0.29267E-02
         0.22211E-02
         0.13865E-02
         0.47130E-03
        -0.47130E-03
        -0.13865E-02
        -0.22211E-02
        -0.29267E-02
        -0.34621E-02
        -0.37964E-02
        -0.39100E-02
        -0.37964E-02
        -0.34621E-02
        -0.29267E-02
        -0.22211E-02
        -0.13865E-02
        -0.47130E-03
         0.47130E-03
         0.13865E-02
         0.22211E-02
         0.29267E-02
         0.34621E-02
         0.37964E-02
         0.10374E-02
         0.17446E-02
         0.23173E-02
         0.16692E-02
         0.30376E-02
         0.27801E-02
         0.12847E-02
         0.65065E-03
         0.12678E-03
        -0.12878E-03
         0.94401E-03
         0.11316E-02
         0.17479E-02
         0.40572E-03
         0.39774E-03
        -0.76409E-03
        -0.86637E-03
         0.45985E-03
        -0.18309E-02
        -0.18437E-02
        -0.27237E-02
        -0.28020E-02
        -0.25369E-02
        -0.19300E-02
        -0.99320E-03
        -0.14391E-02
        -0.31514E-03
        -0.11057E-02
        -0.18844E-02
        -0.18709E-02
        -0.15954E-03
        -0.94269E-03
         0.78658E-03
         0.17209E-02
         0.32060E-02
         0.28046E-02
         0.23056E-02
        -0.40572E-03
        -0.12092E-02
        -0.19446E-02
        -0.25028E-02
        -0.26368E-02
        -0.27662E-02
        -0.21128E-02
        -0.16088E-02
        -0.11942E-02
        -0.58746E-03
         0.20790E-03
         0.10577E-02
         0.18414E-02
         0.24548E-02
         0.26024E-02
         0.37964E-02
         0.39100E-02
         0.34621E-02
         0.29267E-02
         0.22211E-02
         0.13865E-02
         0.47130E-03
        -0.47130E-03
        -0.13865E-02
        -0.22211E-02
        -0.29267E-02
        -0.34621E-02
        -0.37964E-02
        -0.39100E-02
        -0.37964E-02
        -0.34621E-02
        -0.29267E-02
        -0.22211E-02
        -0.13865E-02
        -0.47130E-03
         0.47130E-03
         0.13865E-02
         0.22211E-02
         0.29267E-02
         0.34621E-02
         0.37964E-02
         0.10373E-02
         0.17445E-02
         0.23172E-02
         0.16689E-02
         0.30376E-02
         0.27805E-02
         0.12846E-02
         0.65041E-03
         0.12652E-03
        -0.12896E-03
         0.94367E-03
         0.11313E-02
         0.17475E-02
         0.40566E-03
         0.39772E-03
        -0.76444E-03
        -0.86648E-03
         0.45940E-03
        -0.18312E-02
        -0.18436E-02
        -0.27237E-02
        -0.28017E-02
        -0.25371E-02
        -0.19305E-02
        -0.99305E-03
        -0.14394E-02
        -0.31494E-03
        -0.11054E-02
        -0.18843E-02
        -0.18708E-02
        -0.15981E-03
        -0.94328E-03
         0.78592E-03
         0.17209E-02
         0.32063E-02
         0.28045E-02
         0.23055E-02
        -0.40558E-03
        -0.12092E-02
        -0.19446E-02
        -0.25027E-02
        -0.26367E-02
        -0.27658E-02
        -0.21129E-02
        -0.16089E-02
        -0.11943E-02
        -0.58781E-03
         0.20749E-03
         0.10574E-02
         0.18415E-02
         0.24549E-02
         0.26025E-02
         0.37964E-02
         0.39100E-02
         0.34621E-02
         0.29267E-02
         0.22211E-02
         0.13865E-02
         0.47130E-03
        -0.47130E-03
        -0.13865E-02
        -0.22211E-02
        -0.29267E-02
        -0.34621E-02
        -0.37964E-02
        -0.39100E-02
        -0.37964E-02
        -0.34621E-02
        -0.29267E-02
        -0.22211E-02
        -0.13865E-02
        -0.47130E-03
         0.47130E-03
         0.13865E-02
         0.22211E-02
         0.29267E-02
         0.34621E-02
         0.37964E-02
         0.10372E-02
         0.17443E-02
         0.23171E-02
         0.16687E-02
         0.30376E-02
         0.27808E-02
         0.12845E-02
         0.65016E-03
         0.12626E-03
        -0.12915E-03
         0.94334E-03
         0.11310E-02
         0.17471E-02
         0.40561E-03
         0.39770E-03
        -0.76480E-03
        -0.86659E-03
         0.45895E-03
        -0.18315E-02
        -0.18435E-02
        -0.27237E-02
        -0.28014E-02
        -0.25372E-02
        -0.19309E-02
        -0.99291E-03
        -0.14398E-02
        -0.31474E-03
        -0.11051E-02
        -0.18843E-02
        -0.18706E-02
        -0.16009E-03
        -0.94388E-03
         0.78526E-03
         0.17208E-02
         0.32066E-02
         0.28045E-02
         0.23053E-02
        -0.40545E-03
        -0.12092E-02
        -0.19446E-02
        -0.25027E-02
        -0.26366E-02
        -0.27655E-02
        -0.21130E-02
        -0.16089E-02
        -0.11944E-02
        -0.58816E-03
         0.20709E-03
         0.10571E-02
         0.18415E-02
         0.24550E-02
         0.26025E-02
         0.37964E-02
         0.39100E-02
         0.34621E-02
         0.29267E-02
         0.22211E-02
         0.13865E-02
         0.47130E-03
        -0.47130E-03
        -0.13865E-02
        -0.22211E-02
        -0.29267E-02
        -0.34621E-02
        -0.37964E-02
        -0.39100E-02
        -0.37964E-02
        -0.34621E-02
        -0.29267E-02
        -0.22211E-02
        -0.13865E-02
        -0.47130E-03
         0.47130E-03
         0.13865E-02
         0.22211E-02
         0.29267E-02
         0.34621E-02
         0.37964E-02
         0.10371E-02
         0.17441E-02
         0.23169E-02
         0.16685E-02
         0.30376E-02
         0.27812E-02
         0.12844E-02
         0.64992E-03
         0.12600E-03
        -0.12933E-03
         0.94301E-03
         0.11306E-02
         0.17467E-02
         0.40556E-03
         0.39769E-03
        -0.76515E-03
        -0.86670E-03
         0.45850E-03
        -0.18318E-02
        -0.18434E-02
        -0.27236E-02
        -0.28011E-02
        -0.25374E-02
        -0.19313E-02
        -0.99277E-03
        -0.14401E-02
        -0.31454E-03
        -0.11047E-02
        -0.18842E-02
        -0.18705E-02
        -0.16036E-03
        -0.94448E-03
         0.78460E-03
         0.17208E-02
         0.32070E-02
         0.28045E-02
         0.23052E-02
        -0.40531E-03
        -0.12092E-02
        -0.19445E-02
        -0.25027E-02
        -0.26366E-02
        -0.27652E-02
        -0.21132E-02
        -0.16090E-02
        -0.11946E-02
        -0.58851E-03
         0.20668E-03
         0.10567E-02
         0.18416E-02
         0.24551E-02
         0.26026E-02
         0.37964E-02
         0.39100E-02
         0.34621E-02
         0.29267E-02
         0.22211E-02
         0.13865E-02
         0.47130E-03
        -0.47130E-03
        -0.13865E-02
        -0.22211E-02
        -0.29267E-02
        -0.34621E-02
        -0.37964E-02
        -0.39100E-02
        -0.37964E-02
        -0.34621E-02
        -0.29267E-02
        -0.22211E-02
        -0.13865E-02
        -0.47130E-03
         0.47130E-03
         0.13865E-02
         0.22211E-02
         0.29267E-02
         0.34621E-02
         0.37964E-02
         0.10370E-02
         0.17439E-02
         0.23168E-02
         0.16683E-02
         0.30375E-02
         0.27815E-02
         0.12843E-02
         0.64967E-03
         0.12573E-03
        -0.12952E-03
         0.94268E-03
         0.11303E-02
         0.17463E-02
         0.40550E-03
         0.39767E-03
        -0.76551E-03
        -0.86680E-03
         0.45806E-03
        -0.18321E-02
        -0.18433E-02
        -0.27236E-02
        -0.28009E-02
        -0.25375E-02
        -0.19317E-02
        -0.99262E-03
        -0.14405E-02
        -0.31434E-03
        -0.11044E-02
        -0.18842E-02
        -0.18704E-02
        -0.16064E-03
        -0.94508E-03
         0.78394E-03
         0.17208E-02
         0.32073E-02
         0.28045E-02
         0.23051E-02
        -0.40517E-03
        -0.12092E-02
        -0.19445E-02
        -0.25026E-02
        -0.26365E-02
        -0.27649E-02
        -0.21133E-02
        -0.16090E-02
        -0.11947E-02
        -0.58886E-03
         0.20627E-03
         0.10564E-02
         0.18416E-02
         0.24553E-02
         0.26027E-02
         0.37964E-02
         0.39100E-02
         0.34621E-02
         0.29267E-02
         0.22211E-02
         0.13865E-02
         0.47130E-03
        -0.47130E-03
        -0.13865E-02
        -0.22211E-02
        -0.29267E-02
        -0.34621E-02
        -0.37964E-02
        -0.39100E-02
        -0.37964E-02
        -0.34621E-02
        -0.29267E-02
        -0.22211E-02
        -0.13865E-02
        -0.47130E-03
         0.47130E-03
         0.13865E-02
         0.22211E-02
         0.29267E-02
         0.34621E-02
         0.37964E-02
         0.10368E-02
         0.17438E-02
         0.23167E-02
         0.16681E-02
         0.30375E-02
         0.27819E-02
         0.12842E-02
         0.64943E-03
         0.12547E-03
        -0.12970E-03
         0.94235E-03
         0.11300E-02
         0.17459E-02
         0.40545E-03
         0.39766E-03
        -0.76586E-03
        -0.86691E-03
         0.45761E-03
        -0.18324E-02
        -0.18432E-02
        -0.27236E-02
        -0.28006E-02
        -0.25377E-02
        -0.19322E-02
        -0.99248E-03
        -0.14408E-02
        -0.31414E-03
        -0.11040E-02
        -0.18841E-02
        -0.18703E-02
        -0.16091E-03
        -0.94568E-03
         0.78328E-03
         0.17207E-02
         0.32076E-02
         0.28044E-02
         0.23050E-02
        -0.40503E-03
        -0.12092E-02
        -0.19445E-02
        -0.25026E-02
        -0.26364E-02
        -0.27646E-02
        -0.21134E-02
        -0.16091E-02
        -0.11948E-02
        -0.58921E-03
         0.20587E-03
         0.10561E-02
         0.18416E-02
         0.24554E-02
         0.26027E-02
         0.37964E-02
         0.39100E-02
         0.34621E-02
         0.29267E-02
         0.22211E-02
         0.13865E-02
         0.47130E-03
        -0.47130E-03
        -0.13865E-02
        -0.22211E-02
        -0.29267E-02
        -0.34621E-02
        -0.37964E-02
        -0.39100E-02
        -0.37964E-02
        -0.34621E-02
        -0.29267E-02
        -0.22211E-02
        -0.13865E-02
        -0.47130E-03
         0.47130E-03
         0.13865E-02
         0.22211E-02
         0.29267E-02
         0.34621E-02
         0.37964E-02
         0.10367E-02
         0.17436E-02
         0.23166E-02
         0.16679E-02
         0.30375E-02
         0.27822E-02
         0.12841E-02
         0.64918E-03
         0.12521E-03
        -0.12989E-03
         0.94202E-03
         0.11296E-02
         0.17455E-02
         0.40539E-03
         0.39764E-03
        -0.76621E-03
        -0.86702E-03
         0.45716E-03
        -0.18326E-02
        -0.18431E-02
        -0.27235E-02
        -0.28003E-02
        -0.25379E-02
        -0.19326E-02
        -0.99233E-03
        -0.14412E-02
        -0.31394E-03
        -0.11037E-02
        -0.18841E-02
        -0.18701E-02
        -0.16119E-03
        -0.94628E-03
         0.78262E-03
         0.17207E-02
         0.32079E-02
         0.28044E-02
         0.23049E-02
        -0.40490E-03
        -0.12093E-02
        -0.19444E-02
        -0.25026E-02
        -0.26363E-02
        -0.27643E-02
        -0.21136E-02
        -0.16091E-02
        -0.11949E-02
        -0.58956E-03
         0.20546E-03
         0.10558E-02
         0.18417E-02
         0.24555E-02
         0.26028E-02
         0.37964E-02
         0.39100E-02
         0.34621E-02
         0.29267E-02
         0.22211E-02
         0.13865E-02
         0.47130E-03
        -0.47130E-03
        -0.13865E-02
        -0.22211E-02
        -0.29267E-02
        -0.34621E-02
        -0.37964E-02
        -0.39100E-02
        -0.37964E-02
        -0.34621E-02
        -0.29267E-02
        -0.22211E-02
        -0.13865E-02
        -0.47130E-03
         0.47130E-03
         0.13865E-02
         0.22211E-02
         0.29267E-02
         0.34621E-02
         0.37964E-02
         0.10366E-02
         0.17434E-02
         0.23164E-02
         0.16677E-02
         0.30375E-02
         0.27825E-02
         0.12840E-02
         0.64894E-03
         0.12495E-03
        -0.13007E-03
         0.94169E-03
         0.11293E-02
         0.17451E-02
         0.40534E-03
         0.39762E-03
        -0.76657E-03
        -0.86713E-03
         0.45671E-03
        -0.18329E-02
        -0.18430E-02
        -0.27235E-02
        -0.28001E-02
        -0.25380E-02
        -0.19330E-02
        -0.99219E-03
        -0.14415E-02
        -0.31374E-03
        -0.11033E-02
        -0.18840E-02
        -0.18700E-02
        -0.16146E-03
        -0.94687E-03
         0.78195E-03
         0.17207E-02
         0.32083E-02
         0.28044E-02
         0.23048E-02
        -0.40476E-03
        -0.12093E-02
        -0.19444E-02
        -0.25026E-02
        -0.26362E-02
        -0.27640E-02
        -0.21137E-02
        -0.16091E-02
        -0.11950E-02
        -0.58991E-03
         0.20505E-03
         0.10555E-02
         0.18417E-02
         0.24556E-02
         0.26029E-02
         0.37964E-02
         0.39100E-02
         0.34621E-02
         0.29267E-02
         0.22211E-02
         0.13865E-02
         0.47130E-03
        -0.47130E-03
        -0.13865E-02
        -0.22211E-02
        -0.29267E-02
        -0.34621E-02
        -0.37964E-02
        -0.39100E-02
        -0.37964E-02
        -0.34621E-02
        -0.29267E-02
        -0.22211E-02
        -0.13865E-02
        -0.47130E-03
         0.47130E-03
         0.13865E-02
         0.22211E-02
         0.29267E-02
         0.34621E-02
         0.37964E-02
         0.10365E-02
         0.17432E-02
         0.23163E-02
         0.16675E-02
         0.30374E-02
         0.27829E-02
         0.12839E-02
         0.64869E-03
         0.12468E-03
        -0.13026E-03
         0.94135E-03
         0.11289E-02
         0.17447E-02
         0.40528E-03
         0.39760E-03
        -0.76692E-03
        -0.86724E-03
         0.45626E-03
        -0.18332E-02
        -0.18430E-02
        -0.27235E-02
        -0.27998E-02
        -0.25382E-02
        -0.19334E-02
        -0.99205E-03
        -0.14419E-02
        -0.31354E-03
        -0.11030E-02
        -0.18840E-02
        -0.18699E-02
        -0.16174E-03
        -0.94747E-03
         0.78129E-03
         0.17206E-02
         0.32086E-02
         0.28044E-02
         0.23047E-02
        -0.40462E-03
        -0.12093E-02
        -0.19444E-02
        -0.25025E-02
        -0.26361E-02
        -0.27637E-02
        -0.21139E-02
        -0.16092E-02
        -0.11951E-02
        -0.59025E-03
         0.20465E-03
         0.10552E-02
         0.18418E-02
         0.24558E-02
         0.26030E-02
         0.37964E-02
         0.39100E-02
         0.34621E-02
         0.29267E-02
         0.22211E-02
         0.13865E-02
         0.47130E-03
        -0.47130E-03
        -0.13865E-02
        -0.22211E-02
        -0.29267E-02
        -0.34621E-02
        -0.37964E-02
        -0.39100E-02
        -0.37964E-02
        -0.34621E-02
        -0.29267E-02
        -0.22211E-02
        -0.13865E-02
        -0.47130E-03
         0.47130E-03
         0.13865E-02
         0.22211E-02
         0.29267E-02
         0.34621E-02
         0.37964E-02
         0.10364E-02
         0.17430E-02
         0.23162E-02
         0.16672E-02
         0.30374E-02
         0.27832E-02
         0.12838E-02
         0.64845E-03
         0.12442E-03
        -0.13044E-03
         0.94102E-03
         0.11286E-02
         0.17443E-02
         0.40523E-03
         0.39759E-03
        -0.76727E-03
        -0.86735E-03
         0.45582E-03
        -0.18335E-02
        -0.18429E-02
        -0.27235E-02
        -0.27995E-02
        -0.25383E-02
        -0.19339E-02
        -0.99190E-03
        -0.14422E-02
        -0.31334E-03
        -0.11026E-02
        -0.18839E-02
        -0.18697E-02
        -0.16201E-03
        -0.94807E-03
         0.78063E-03
         0.17206E-02
         0.32089E-02
         0.28043E-02
         0.23046E-02
        -0.40448E-03
        -0.12093E-02
        -0.19443E-02
        -0.25025E-02
        -0.26360E-02
        -0.27633E-02
        -0.21140E-02
        -0.16092E-02
        -0.11953E-02
        -0.59060E-03
         0.20424E-03
         0.10549E-02
         0.18418E-02
         0.24559E-02
         0.26030E-02
         0.37964E-02
         0.39100E-02
         0.34621E-02
         0.29267E-02
         0.22211E-02
         0.13865E-02
         0.47130E-03
        -0.47130E-03
        -0.13865E-02
        -0.22211E-02
        -0.29267E-02
        -0.34621E-02
        -0.37964E-02
        -0.39100E-02
        -0.37964E-02
        -0.34621E-02
        -0.29267E-02
        -0.22211E-02
        -0.13865E-02
        -0.47130E-03
         0.47130E-03
         0.13865E-02
         0.22211E-02
         0.29267E-02
         0.34621E-02
         0.37964E-02
         0.10363E-02
         0.17429E-02
         0.23161E-02
         0.16670E-02
         0.30374E-02
         0.27836E-02
         0.12837E-02
         0.64820E-03
         0.12416E-03
        -0.13063E-03
         0.94069E-03
         0.11282E-02
         0.17439E-02
         0.40518E-03
         0.39757E-03
        -0.76763E-03
        -0.86746E-03
         0.45537E-03
        -0.18338E-02
        -0.18428E-02
        -0.27234E-02
        -0.27992E-02
        -0.25385E-02
        -0.19343E-02
        -0.99176E-03
        -0.14425E-02
        -0.31314E-03
        -0.11023E-02
        -0.18839E-02
        -0.18696E-02
        -0.16229E-03
        -0.94867E-03
         0.77997E-03
         0.17205E-02
         0.32092E-02
         0.28043E-02
         0.23044E-02
        -0.40434E-03
        -0.12093E-02
        -0.19443E-02
        -0.25025E-02
        -0.26359E-02
        -0.27630E-02
        -0.21141E-02
        -0.16093E-02
        -0.11954E-02
        -0.59095E-03
         0.20384E-03
         0.10546E-02
         0.18419E-02
         0.24560E-02
         0.26031E-02
         0.37964E-02
         0.39100E-02
         0.34621E-02
         0.29267E-02
         0.22211E-02
         0.13865E-02
         0.47130E-03
        -0.47130E-03
        -0.13865E-02
        -0.22211E-02
        -0.29267E-02
        -0.34621E-02
        -0.37964E-02
        -0.39100E-02
        -0.37964E-02
        -0.34621E-02
        -0.29267E-02
        -0.22211E-02
        -0.13865E-02
        -0.47130E-03
         0.47130E-03
         0.13865E-02
         0.22211E-02
         0.29267E-02
         0.34621E-02
         0.37964E-02
         0.10362E-02
         0.17427E-02
         0.23160E-02
         0.16668E-02
         0.30373E-02
         0.27839E-02
         0.12836E-02
         0.64796E-03
         0.12390E-03
        -0.13082E-03
         0.94036E-03
         0.11279E-02
         0.17435E-02
         0.40512E-03
         0.39755E-03
        -0.76798E-03
        -0.86756E-03
         0.45492E-03
        -0.18341E-02
        -0.18427E-02
        -0.27234E-02
        -0.27990E-02
        -0.25386E-02
        -0.19347E-02
        -0.99161E-03
        -0.14429E-02
        -0.31294E-03
        -0.11019E-02
        -0.18838E-02
        -0.18695E-02
        -0.16256E-03
        -0.94927E-03
         0.77931E-03
         0.17205E-02
         0.32096E-02
         0.28043E-02
         0.23043E-02
        -0.40420E-03
        -0.12093E-02
        -0.19443E-02
        -0.25024E-02
        -0.26358E-02
        -0.27627E-02
        -0.21143E-02
        -0.16093E-02
        -0.11955E-02
        -0.59130E-03
         0.20343E-03
         0.10543E-02
         0.18419E-02
         0.24561E-02
         0.26032E-02
         0.37964E-02
         0.39100E-02
         0.34621E-02
         0.29267E-02
         0.22211E-02
         0.13865E-02
         0.47130E-03
        -0.47130E-03
        -0.13865E-02
        -0.22211E-02
        -0.29267E-02
        -0.34621E-02
        -0.37964E-02
        -0.39100E-02
        -0.37964E-02
        -0.34621E-02
        -0.29267E-02
        -0.22211E-02
        -0.13865E-02
        -0.47130E-03
         0.47130E-03
         0.13865E-02
         0.22211E-02
         0.29267E-02
         0.34621E-02
         0.37964E-02
         0.10360E-02
         0.17425E-02
         0.23158E-02
         0.16666E-02
         0.30373E-02
         0.27842E-02
         0.12835E-02
         0.64771E-03
         0.12363E-03
        -0.13100E-03
         0.94003E-03
         0.11276E-02
         0.17432E-02
         0.40507E-03
         0.39754E-03
        -0.76834E-03
        -0.86767E-03
         0.45447E-03
        -0.18344E-02
        -0.18426E-02
        -0.27234E-02
        -0.27987E-02
        -0.25388E-02
        -0.19352E-02
        -0.99147E-03
        -0.14433E-02
        -0.31274E-03
        -0.11016E-02
        -0.18838E-02
        -0.18694E-02
        -0.16284E-03
        -0.94986E-03
         0.77865E-03
         0.17205E-02
         0.32099E-02
         0.28042E-02
         0.23042E-02
        -0.40407E-03
        -0.12093E-02
        -0.19442E-02
        -0.25024E-02
        -0.26358E-02
        -0.27624E-02
        -0.21144E-02
        -0.16094E-02
        -0.11956E-02
        -0.59165E-03
         0.20302E-03
         0.10540E-02
         0.18419E-02
         0.24563E-02
         0.26033E-02
         0.37964E-02
         0.39100E-02
         0.34621E-02
         0.29267E-02
         0.22211E-02
         0.13865E-02
         0.47130E-03
        -0.47130E-03
        -0.13865E-02
        -0.22211E-02
        -0.29267E-02
        -0.34621E-02
        -0.37964E-02
        -0.39100E-02
        -0.37964E-02
        -0.34621E-02
        -0.29267E-02
        -0.22211E-02
        -0.13865E-02
        -0.47130E-03
         0.47130E-03
         0.13865E-02
         0.22211E-02
         0.29267E-02
         0.34621E-02
         0.37964E-02
         0.10359E-02
         0.17423E-02
         0.23157E-02
         0.16664E-02
         0.30373E-02
         0.27846E-02
         0.12834E-02
         0.64747E-03
         0.12337E-03
        -0.13118E-03
         0.93970E-03
         0.11272E-02
         0.17428E-02
         0.40501E-03
         0.39752E-03
        -0.76869E-03
        -0.86778E-03
         0.45402E-03
        -0.18347E-02
        -0.18425E-02
        -0.27234E-02
        -0.27984E-02
        -0.25389E-02
        -0.19356E-02
        -0.99133E-03
        -0.14436E-02
        -0.31254E-03
        -0.11013E-02
        -0.18837E-02
        -0.18692E-02
        -0.16311E-03
        -0.95046E-03
         0.77799E-03
         0.17204E-02
         0.32102E-02
         0.28042E-02
         0.23041E-02
        -0.40393E-03
        -0.12093E-02
        -0.19442E-02
        -0.25024E-02
        -0.26357E-02
        -0.27621E-02
        -0.21146E-02
        -0.16094E-02
        -0.11957E-02
        -0.59200E-03
         0.20262E-03
         0.10536E-02
         0.18420E-02
         0.24564E-02
         0.26033E-02
         0.37964E-02
         0.39100E-02
         0.34621E-02
         0.29267E-02
         0.22211E-02
         0.13865E-02
         0.47130E-03
        -0.47130E-03
        -0.13865E-02
        -0.22211E-02
        -0.29267E-02
        -0.34621E-02
        -0.37964E-02
        -0.39100E-02
        -0.37964E-02
        -0.34621E-02
        -0.29267E-02
        -0.22211E-02
        -0.13865E-02
        -0.47130E-03
         0.47130E-03
         0.13865E-02
         0.22211E-02
         0.29267E-02
         0.34621E-02
         0.37964E-02
         0.10358E-02
         0.17422E-02
         0.23156E-02
         0.16662E-02
         0.30373E-02
         0.27849E-02
         0.12833E-02
         0.64722E-03
         0.12311E-03
        -0.13137E-03
         0.93937E-03
         0.11269E-02
         0.17424E-02
         0.40496E-03
         0.39750E-03
        -0.76904E-03
        -0.86789E-03
         0.45358E-03
        -0.18350E-02
        -0.18424E-02
        -0.27233E-02
        -0.27981E-02
        -0.25391E-02
        -0.19360E-02
        -0.99118E-03
        -0.14440E-02
        -0.31234E-03
        -0.11009E-02
        -0.18836E-02
        -0.18691E-02
        -0.16339E-03
        -0.95106E-03
         0.77733E-03
         0.17204E-02
         0.32105E-02
         0.28042E-02
         0.23040E-02
        -0.40379E-03
        -0.12093E-02
        -0.19441E-02
        -0.25023E-02
        -0.26356E-02
        -0.27618E-02
        -0.21147E-02
        -0.16094E-02
        -0.11958E-02
        -0.59235E-03
         0.20221E-03
         0.10533E-02
         0.18420E-02
         0.24565E-02
         0.26034E-02
         0.37964E-02
         0.39100E-02
         0.34621E-02
         0.29267E-02
         0.22211E-02
         0.13865E-02
         0.47130E-03
        -0.47130E-03
        -0.13865E-02
        -0.22211E-02
        -0.29267E-02
        -0.34621E-02
        -0.37964E-02
        -0.39100E-02
        -0.37964E-02
        -0.34621E-02
        -0.29267E-02
        -0.22211E-02
        -0.13865E-02
        -0.47130E-03
         0.47130E-03
         0.13865E-02
         0.22211E-02
         0.29267E-02
         0.34621E-02
         0.37964E-02
         0.10357E-02
         0.17420E-02
         0.23155E-02
         0.16660E-02
         0.30372E-02
         0.27853E-02
         0.12832E-02
         0.64698E-03
         0.12285E-03
        -0.13155E-03
         0.93903E-03
         0.11266E-02
         0.17420E-02
         0.40490E-03
         0.39749E-03
        -0.76940E-03
        -0.86800E-03
         0.45313E-03
        -0.18353E-02
        -0.18423E-02
        -0.27233E-02
        -0.27979E-02
        -0.25393E-02
        -0.19365E-02
        -0.99104E-03
        -0.14443E-02
        -0.31214E-03
        -0.11006E-02
        -0.18836E-02
        -0.18690E-02
        -0.16366E-03
        -0.95166E-03
         0.77667E-03
         0.17203E-02
         0.32109E-02
         0.28042E-02
         0.23039E-02
        -0.40365E-03
        -0.12093E-02
        -0.19441E-02
        -0.25023E-02
        -0.26355E-02
        -0.27615E-02
        -0.21148E-02
        -0.16095E-02
        -0.11960E-02
        -0.59270E-03
         0.20180E-03
         0.10530E-02
         0.18421E-02
         0.24566E-02
         0.26035E-02
         0.37964E-02
         0.39100E-02
         0.34621E-02
         0.29267E-02
         0.22211E-02
         0.13865E-02
         0.47130E-03
        -0.47130E-03
        -0.13865E-02
        -0.22211E-02
        -0.29267E-02
        -0.34621E-02
        -0.37964E-02
        -0.39100E-02
        -0.37964E-02
        -0.34621E-02
        -0.29267E-02
        -0.22211E-02
        -0.13865E-02
        -0.47130E-03
         0.47130E-03
         0.13865E-02
         0.22211E-02
         0.29267E-02
         0.34621E-02
         0.37964E-02
         0.10356E-02
         0.17418E-02
         0.23153E-02
         0.16657E-02
         0.30372E-02
         0.27856E-02
         0.12830E-02
         0.64673E-03
         0.12259E-03
        -0.13174E-03
         0.93870E-03
         0.11262E-02
         0.17416E-02
         0.40485E-03
         0.39747E-03
        -0.76975E-03
        -0.86811E-03
         0.45268E-03
        -0.18356E-02
        -0.18422E-02
        -0.27233E-02
        -0.27976E-02
        -0.25394E-02
        -0.19369E-02
        -0.99090E-03
        -0.14446E-02
        -0.31194E-03
        -0.11002E-02
        -0.18835E-02
        -0.18689E-02
        -0.16394E-03
        -0.95226E-03
         0.77601E-03
         0.17203E-02
         0.32112E-02
         0.28042E-02
         0.23038E-02
        -0.40352E-03
        -0.12093E-02
        -0.19441E-02
        -0.25023E-02
        -0.26354E-02
        -0.27612E-02
        -0.21150E-02
        -0.16095E-02
        -0.11961E-02
        -0.59305E-03
         0.20140E-03
         0.10527E-02
         0.18421E-02
         0.24568E-02
         0.26036E-02
         0.37964E-02
         0.39100E-02
         0.34621E-02
         0.29267E-02
         0.22211E-02
         0.13865E-02
         0.47130E-03
        -0.47130E-03
        -0.13865E-02
        -0.22211E-02
        -0.29267E-02
        -0.34621E-02
        -0.37964E-02
        -0.39100E-02
        -0.37964E-02
        -0.34621E-02
        -0.29267E-02
        -0.22211E-02
        -0.13865E-02
        -0.47130E-03
         0.47130E-03
         0.13865E-02
         0.22211E-02
         0.29267E-02
         0.34621E-02
         0.37964E-02
         0.10355E-02
         0.17416E-02
         0.23152E-02
         0.16655E-02
         0.30372E-02
         0.27860E-02
         0.12829E-02
         0.64649E-03
         0.12232E-03
        -0.13193E-03
         0.93837E-03
         0.11259E-02
         0.17412E-02
         0.40480E-03
         0.39745E-03
        -0.77011E-03
        -0.86822E-03
         0.45223E-03
        -0.18359E-02
        -0.18421E-02
        -0.27232E-02
        -0.27973E-02
        -0.25396E-02
        -0.19373E-02
        -0.99075E-03
        -0.14450E-02
        -0.31173E-03
        -0.10999E-02
        -0.18835E-02
        -0.18687E-02
        -0.16421E-03
        -0.95285E-03
         0.77535E-03
         0.17202E-02
         0.32115E-02
         0.28041E-02
         0.23037E-02
        -0.40338E-03
        -0.12093E-02
        -0.19440E-02
        -0.25023E-02
        -0.26353E-02
        -0.27609E-02
        -0.21151E-02
        -0.16096E-02
        -0.11962E-02
        -0.59340E-03
         0.20099E-03
         0.10524E-02
         0.18422E-02
         0.24569E-02
         0.26036E-02
         0.37964E-02
         0.39100E-02
         0.34621E-02
         0.29267E-02
         0.22211E-02
         0.13865E-02
         0.47130E-03
        -0.47130E-03
        -0.13865E-02
        -0.22211E-02
        -0.29267E-02
        -0.34621E-02
        -0.37964E-02
        -0.39100E-02
        -0.37964E-02
        -0.34621E-02
        -0.29267E-02
        -0.22211E-02
        -0.13865E-02
        -0.47130E-03
         0.47130E-03
         0.13865E-02
         0.22211E-02
         0.29267E-02
         0.34621E-02
         0.37964E-02
         0.10354E-02
         0.17414E-02
         0.23151E-02
         0.16653E-02
         0.30372E-02
         0.27863E-02
         0.12829E-02
         0.64624E-03
         0.12206E-03
        -0.13211E-03
         0.93804E-03
         0.11255E-02
         0.17408E-02
         0.40474E-03
         0.39744E-03
        -0.77046E-03
        -0.86832E-03
         0.45179E-03
        -0.18362E-02
        -0.18420E-02
        -0.27232E-02
        -0.27970E-02
        -0.25397E-02
        -0.19377E-02
        -0.99061E-03
        -0.14453E-02
        -0.31153E-03
        -0.10995E-02
        -0.18834E-02
        -0.18686E-02
        -0.16449E-03
        -0.95345E-03
         0.77469E-03
         0.17202E-02
         0.32119E-02
         0.28041E-02
         0.23036E-02
        -0.40324E-03
        -0.12093E-02
        -0.19440E-02
        -0.25022E-02
        -0.26352E-02
        -0.27606E-02
        -0.21152E-02
        -0.16096E-02
        -0.11963E-02
        -0.59375E-03
         0.20059E-03
         0.10521E-02
         0.18422E-02
         0.24570E-02
         0.26037E-02
         0.37964E-02
         0.39100E-02
         0.34621E-02
         0.29267E-02
         0.22211E-02
         0.13865E-02
         0.47130E-03
        -0.47130E-03
        -0.13865E-02
        -0.22211E-02
        -0.29267E-02
        -0.34621E-02
        -0.37964E-02
        -0.39100E-02
        -0.37964E-02
        -0.34621E-02
        -0.29267E-02
        -0.22211E-02
        -0.13865E-02
        -0.47130E-03
         0.47130E-03
         0.13865E-02
         0.22211E-02
         0.29267E-02
         0.34621E-02
         0.37964E-02
         0.10352E-02
         0.17413E-02
         0.23150E-02
         0.16651E-02
         0.30371E-02
         0.27866E-02
         0.12827E-02
         0.64600E-03
         0.12180E-03
        -0.13230E-03
         0.93771E-03
         0.11252E-02
         0.17404E-02
         0.40469E-03
         0.39742E-03
        -0.77081E-03
        -0.86843E-03
         0.45134E-03
        -0.18365E-02
        -0.18419E-02
        -0.27232E-02
        -0.27968E-02
        -0.25399E-02
        -0.19382E-02
        -0.99046E-03
        -0.14457E-02
        -0.31133E-03
        -0.10992E-02
        -0.18834E-02
        -0.18685E-02
        -0.16476E-03
        -0.95405E-03
         0.77402E-03
         0.17202E-02
         0.32122E-02
         0.28041E-02
         0.23034E-02
        -0.40310E-03
        -0.12093E-02
        -0.19440E-02
        -0.25022E-02
        -0.26351E-02
        -0.27602E-02
        -0.21154E-02
        -0.16097E-02
        -0.11964E-02
        -0.59409E-03
         0.20018E-03
         0.10518E-02
         0.18422E-02
         0.24571E-02
         0.26038E-02
         0.37964E-02
         0.39100E-02
         0.34621E-02
         0.29267E-02
         0.22211E-02
         0.13865E-02
         0.47130E-03
        -0.47130E-03
        -0.13865E-02
        -0.22211E-02
        -0.29267E-02
        -0.34621E-02
        -0.37964E-02
        -0.39100E-02
        -0.37964E-02
        -0.34621E-02
        -0.29267E-02
        -0.22211E-02
        -0.13865E-02
        -0.47130E-03
         0.47130E-03
         0.13865E-02
         0.22211E-02
         0.29267E-02
         0.34621E-02
         0.37964E-02
         0.10351E-02
         0.17411E-02
         0.23149E-02
         0.16649E-02
         0.30371E-02
         0.27870E-02
         0.12826E-02
         0.64575E-03
         0.12154E-03
        -0.13248E-03
         0.93738E-03
         0.11249E-02
         0.17400E-02
         0.40463E-03
         0.39740E-03
        -0.77117E-03
        -0.86854E-03
         0.45089E-03
        -0.18368E-02
        -0.18418E-02
        -0.27232E-02
        -0.27965E-02
        -0.25400E-02
        -0.19386E-02
        -0.99032E-03
        -0.14460E-02
        -0.31113E-03
        -0.10988E-02
        -0.18833E-02
        -0.18683E-02
        -0.16504E-03
        -0.95465E-03
         0.77336E-03
         0.17201E-02
         0.32125E-02
         0.28041E-02
         0.23033E-02
        -0.40296E-03
        -0.12093E-02
        -0.19439E-02
        -0.25022E-02
        -0.26350E-02
        -0.27599E-02
        -0.21155E-02
        -0.16097E-02
        -0.11965E-02
        -0.59444E-03
         0.19977E-03
         0.10515E-02
         0.18423E-02
         0.24573E-02
         0.26039E-02
         0.37964E-02
         0.39100E-02
         0.34621E-02
         0.29267E-02
         0.22211E-02
         0.13865E-02
         0.47130E-03
        -0.47130E-03
        -0.13865E-02
        -0.22211E-02
        -0.29267E-02
        -0.34621E-02
        -0.37964E-02
        -0.39100E-02
        -0.37964E-02
        -0.34621E-02
        -0.29267E-02
        -0.22211E-02
        -0.13865E-02
        -0.47130E-03
         0.47130E-03
         0.13865E-02
         0.22211E-02
         0.29267E-02
         0.34621E-02
         0.37964E-02
  
SCALARS           initial_coordinate_y  double 1
LOOKUP_TABLE default
         0.67292E-03
         0.12308E-02
         0.59151E-03
        -0.33775E-03
         0.67237E-03
         0.12301E-02
         0.59098E-03
        -0.33851E-03
         0.14882E-03
        -0.67643E-03
         0.14846E-03
        -0.67692E-03
         0.18412E-02
         0.14576E-02
         0.18410E-02
         0.14566E-02
         0.29933E-03
         0.11672E-02
         0.29819E-03
         0.11655E-02
         0.22748E-02
         0.28286E-02
         0.24238E-02
         0.22746E-02
         0.28291E-02
         0.24236E-02
         0.21685E-02
         0.29366E-02
         0.21684E-02
         0.29369E-02
        -0.10033E-02
         0.78969E-04
        -0.70318E-03
        -0.10032E-02
         0.78160E-04
        -0.70391E-03
        -0.71196E-03
         0.82749E-04
        -0.71210E-03
         0.82626E-04
        -0.77865E-03
         0.40713E-04
        -0.77882E-03
         0.40439E-04
        -0.15195E-02
        -0.13230E-02
        -0.15195E-02
        -0.13231E-02
         0.98847E-03
         0.98712E-03
        -0.17325E-02
        -0.17325E-02
         0.20220E-02
         0.20217E-02
         0.18615E-02
         0.18616E-02
         0.17175E-02
         0.90940E-03
         0.17175E-02
         0.90916E-03
        -0.19800E-02
        -0.23489E-02
        -0.19800E-02
        -0.23489E-02
        -0.17074E-02
        -0.17074E-02
        -0.14894E-02
        -0.14892E-02
         0.76036E-03
         0.12477E-02
         0.75936E-03
         0.12473E-02
         0.18665E-02
         0.18664E-02
         0.29038E-02
         0.29049E-02
         0.27207E-02
         0.27212E-02
         0.24642E-02
         0.24645E-02
         0.22359E-02
         0.16503E-02
         0.22359E-02
         0.16503E-02
         0.87493E-03
         0.87466E-03
        -0.21373E-02
        -0.21373E-02
        -0.26931E-02
        -0.26931E-02
        -0.31291E-02
        -0.30382E-02
        -0.31291E-02
        -0.30382E-02
        -0.28748E-02
        -0.28748E-02
        -0.26423E-02
        -0.26420E-02
        -0.23707E-02
        -0.23705E-02
        -0.21445E-02
        -0.15105E-02
        -0.21439E-02
        -0.15106E-02
         0.93572E-03
         0.00000E+00
         0.93572E-03
         0.00000E+00
         0.18171E-02
         0.18171E-02
         0.25928E-02
         0.25928E-02
         0.32179E-02
         0.32179E-02
         0.36559E-02
         0.36559E-02
         0.38815E-02
         0.38815E-02
         0.38815E-02
         0.38815E-02
         0.36559E-02
         0.36559E-02
         0.32179E-02
         0.32179E-02
         0.25928E-02
         0.25928E-02
         0.18171E-02
         0.18171E-02
         0.93572E-03
         0.93572E-03
         0.22152E-17
        -0.47884E-18
        -0.93572E-03
        -0.93572E-03
        -0.18171E-02
        -0.18171E-02
        -0.25928E-02
        -0.25928E-02
        -0.32179E-02
        -0.32179E-02
        -0.36559E-02
        -0.36559E-02
        -0.38815E-02
        -0.38815E-02
        -0.38815E-02
        -0.38815E-02
        -0.36559E-02
        -0.36559E-02
        -0.32179E-02
        -0.32179E-02
        -0.25928E-02
        -0.25928E-02
        -0.18171E-02
        -0.18171E-02
        -0.93572E-03
        -0.93572E-03
         0.67348E-03
         0.12314E-02
         0.59203E-03
        -0.33700E-03
         0.14918E-03
        -0.67594E-03
         0.18414E-02
         0.14586E-02
         0.30048E-03
         0.11690E-02
         0.22749E-02
         0.28282E-02
         0.24239E-02
         0.21685E-02
         0.29364E-02
        -0.10035E-02
         0.79778E-04
        -0.70245E-03
        -0.71182E-03
         0.82873E-04
        -0.77848E-03
         0.40986E-04
        -0.15194E-02
        -0.13228E-02
         0.98983E-03
        -0.17324E-02
         0.20223E-02
         0.18614E-02
         0.17175E-02
         0.90964E-03
        -0.19800E-02
        -0.23489E-02
        -0.17074E-02
        -0.14896E-02
         0.76137E-03
         0.12481E-02
         0.18665E-02
         0.29027E-02
         0.27202E-02
         0.24640E-02
         0.22359E-02
         0.16503E-02
         0.87519E-03
        -0.21373E-02
        -0.26932E-02
        -0.31291E-02
        -0.30382E-02
        -0.28748E-02
        -0.26426E-02
        -0.23709E-02
        -0.21450E-02
        -0.15104E-02
         0.93572E-03
         0.00000E+00
         0.18171E-02
         0.25928E-02
         0.32179E-02
         0.36559E-02
         0.38815E-02
         0.38815E-02
         0.36559E-02
         0.32179E-02
         0.25928E-02
         0.18171E-02
         0.93572E-03
        -0.47884E-18
        -0.93572E-03
        -0.18171E-02
        -0.25928E-02
        -0.32179E-02
        -0.36559E-02
        -0.38815E-02
        -0.38815E-02
        -0.36559E-02
        -0.32179E-02
        -0.25928E-02
        -0.18171E-02
        -0.93572E-03
         0.67403E-03
         0.12321E-02
         0.59255E-03
        -0.33624E-03
         0.14955E-03
        -0.67544E-03
         0.18415E-02
         0.14596E-02
         0.30163E-03
         0.11707E-02
         0.22750E-02
         0.28277E-02
         0.24241E-02
         0.21685E-02
         0.29361E-02
        -0.10036E-02
         0.80588E-04
        -0.70173E-03
        -0.71168E-03
         0.82996E-04
        -0.77831E-03
         0.41259E-04
        -0.15194E-02
        -0.13227E-02
         0.99119E-03
        -0.17324E-02
         0.20226E-02
         0.18613E-02
         0.17175E-02
         0.90988E-03
        -0.19801E-02
        -0.23490E-02
        -0.17074E-02
        -0.14899E-02
         0.76237E-03
         0.12485E-02
         0.18666E-02
         0.29017E-02
         0.27198E-02
         0.24638E-02
         0.22359E-02
         0.16503E-02
         0.87545E-03
        -0.21374E-02
        -0.26932E-02
        -0.31291E-02
        -0.30382E-02
        -0.28748E-02
        -0.26428E-02
        -0.23711E-02
        -0.21456E-02
        -0.15103E-02
         0.93572E-03
         0.00000E+00
         0.18171E-02
         0.25928E-02
         0.32179E-02
         0.36559E-02
         0.38815E-02
         0.38815E-02
         0.36559E-02
         0.32179E-02
         0.25928E-02
         0.18171E-02
         0.93572E-03
         0.39516E-17
        -0.93572E-03
        -0.18171E-02
        -0.25928E-02
        -0.32179E-02
        -0.36559E-02
        -0.38815E-02
        -0.38815E-02
        -0.36559E-02
        -0.32179E-02
        -0.25928E-02
        -0.18171E-02
        -0.93572E-03
         0.67459E-03
         0.12328E-02
         0.59308E-03
        -0.33549E-03
         0.14991E-03
        -0.67495E-03
         0.18417E-02
         0.14606E-02
         0.30278E-03
         0.11725E-02
         0.22752E-02
         0.28273E-02
         0.24242E-02
         0.21686E-02
         0.29359E-02
        -0.10038E-02
         0.81397E-04
        -0.70100E-03
        -0.71154E-03
         0.83120E-04
        -0.77814E-03
         0.41533E-04
        -0.15193E-02
        -0.13227E-02
         0.99254E-03
        -0.17324E-02
         0.20228E-02
         0.18611E-02
         0.17175E-02
         0.91012E-03
        -0.19801E-02
        -0.23490E-02
        -0.17074E-02
        -0.14901E-02
         0.76338E-03
         0.12490E-02
         0.18666E-02
         0.29006E-02
         0.27193E-02
         0.24636E-02
         0.22359E-02
         0.16503E-02
         0.87571E-03
        -0.21374E-02
        -0.26932E-02
        -0.31291E-02
        -0.30382E-02
        -0.28748E-02
        -0.26431E-02
        -0.23713E-02
        -0.21461E-02
        -0.15102E-02
         0.93572E-03
         0.00000E+00
         0.18171E-02
         0.25928E-02
         0.32179E-02
         0.36559E-02
         0.38815E-02
         0.38815E-02
         0.36559E-02
         0.32179E-02
         0.25928E-02
         0.18171E-02
         0.93572E-03
        -0.47884E-18
        -0.93572E-03
        -0.18171E-02
        -0.25928E-02
        -0.32179E-02
        -0.36559E-02
        -0.38815E-02
        -0.38815E-02
        -0.36559E-02
        -0.32179E-02
        -0.25928E-02
        -0.18171E-02
        -0.93572E-03
         0.67514E-03
         0.12334E-02
         0.59360E-03
        -0.33474E-03
         0.15027E-03
        -0.67446E-03
         0.18419E-02
         0.14616E-02
         0.30393E-03
         0.11742E-02
         0.22753E-02
         0.28269E-02
         0.24244E-02
         0.21686E-02
         0.29356E-02
        -0.10039E-02
         0.82206E-04
        -0.70028E-03
        -0.71140E-03
         0.83243E-04
        -0.77797E-03
         0.41806E-04
        -0.15193E-02
        -0.13226E-02
         0.99390E-03
        -0.17323E-02
         0.20231E-02
         0.18610E-02
         0.17175E-02
         0.91036E-03
        -0.19801E-02
        -0.23490E-02
        -0.17074E-02
        -0.14904E-02
         0.76439E-03
         0.12494E-02
         0.18666E-02
         0.28995E-02
         0.27188E-02
         0.24633E-02
         0.22359E-02
         0.16503E-02
         0.87597E-03
        -0.21374E-02
        -0.26932E-02
        -0.31291E-02
        -0.30382E-02
        -0.28748E-02
        -0.26434E-02
        -0.23715E-02
        -0.21467E-02
        -0.15101E-02
         0.93572E-03
         0.00000E+00
         0.18171E-02
         0.25928E-02
         0.32179E-02
         0.36559E-02
         0.38815E-02
         0.38815E-02
         0.36559E-02
         0.32179E-02
         0.25928E-02
         0.18171E-02
         0.93572E-03
        -0.47884E-18
        -0.93572E-03
        -0.18171E-02
        -0.25928E-02
        -0.32179E-02
        -0.36559E-02
        -0.38815E-02
        -0.38815E-02
        -0.36559E-02
        -0.32179E-02
        -0.25928E-02
        -0.18171E-02
        -0.93572E-03
         0.67570E-03
         0.12341E-02
         0.59412E-03
        -0.33398E-03
         0.15064E-03
        -0.67396E-03
         0.18421E-02
         0.14626E-02
         0.30507E-03
         0.11760E-02
         0.22754E-02
         0.28264E-02
         0.24245E-02
         0.21686E-02
         0.29353E-02
        -0.10040E-02
         0.83015E-04
        -0.69955E-03
        -0.71126E-03
         0.83367E-04
        -0.77780E-03
         0.42080E-04
        -0.15192E-02
        -0.13224E-02
         0.99526E-03
        -0.17323E-02
         0.20234E-02
         0.18609E-02
         0.17175E-02
         0.91060E-03
        -0.19801E-02
        -0.23490E-02
        -0.17074E-02
        -0.14906E-02
         0.76539E-03
         0.12498E-02
         0.18667E-02
         0.28984E-02
         0.27184E-02
         0.24631E-02
         0.22359E-02
         0.16503E-02
         0.87623E-03
        -0.21374E-02
        -0.26932E-02
        -0.31291E-02
        -0.30382E-02
        -0.28748E-02
        -0.26436E-02
        -0.23717E-02
        -0.21472E-02
        -0.15100E-02
         0.93572E-03
         0.00000E+00
         0.18171E-02
         0.25928E-02
         0.32179E-02
         0.36559E-02
         0.38815E-02
         0.38815E-02
         0.36559E-02
         0.32179E-02
         0.25928E-02
         0.18171E-02
         0.93572E-03
        -0.47884E-18
        -0.93572E-03
        -0.18171E-02
        -0.25928E-02
        -0.32179E-02
        -0.36559E-02
        -0.38815E-02
        -0.38815E-02
        -0.36559E-02
        -0.32179E-02
        -0.25928E-02
        -0.18171E-02
        -0.93572E-03
         0.67625E-03
         0.12348E-02
         0.59465E-03
        -0.33323E-03
         0.15100E-03
        -0.67347E-03
         0.18423E-02
         0.14636E-02
         0.30622E-03
         0.11777E-02
         0.22755E-02
         0.28260E-02
         0.24247E-02
         0.21687E-02
         0.29351E-02
        -0.10042E-02
         0.83825E-04
        -0.69882E-03
        -0.71112E-03
         0.83490E-04
        -0.77763E-03
         0.42353E-04
        -0.15192E-02
        -0.13223E-02
         0.99661E-03
        -0.17322E-02
         0.20237E-02
         0.18607E-02
         0.17175E-02
         0.91084E-03
        -0.19801E-02
        -0.23491E-02
        -0.17074E-02
        -0.14909E-02
         0.76640E-03
         0.12503E-02
         0.18667E-02
         0.28974E-02
         0.27179E-02
         0.24629E-02
         0.22359E-02
         0.16503E-02
         0.87650E-03
        -0.21374E-02
        -0.26933E-02
        -0.31291E-02
        -0.30382E-02
        -0.28749E-02
        -0.26439E-02
        -0.23719E-02
        -0.21478E-02
        -0.15099E-02
         0.93572E-03
         0.00000E+00
         0.18171E-02
         0.25928E-02
         0.32179E-02
         0.36559E-02
         0.38815E-02
         0.38815E-02
         0.36559E-02
         0.32179E-02
         0.25928E-02
         0.18171E-02
         0.93572E-03
        -0.47884E-18
        -0.93572E-03
        -0.18171E-02
        -0.25928E-02
        -0.32179E-02
        -0.36559E-02
        -0.38815E-02
        -0.38815E-02
        -0.36559E-02
        -0.32179E-02
        -0.25928E-02
        -0.18171E-02
        -0.93572E-03
         0.67680E-03
         0.12354E-02
         0.59517E-03
        -0.33247E-03
         0.15136E-03
        -0.67298E-03
         0.18425E-02
         0.14646E-02
         0.30737E-03
         0.11795E-02
         0.22757E-02
         0.28255E-02
         0.24248E-02
         0.21687E-02
         0.29348E-02
        -0.10043E-02
         0.84634E-04
        -0.69810E-03
        -0.71098E-03
         0.83614E-04
        -0.77746E-03
         0.42626E-04
        -0.15191E-02
        -0.13223E-02
         0.99797E-03
        -0.17322E-02
         0.20240E-02
         0.18606E-02
         0.17175E-02
         0.91108E-03
        -0.19802E-02
        -0.23491E-02
        -0.17074E-02
        -0.14911E-02
         0.76740E-03
         0.12507E-02
         0.18668E-02
         0.28963E-02
         0.27174E-02
         0.24627E-02
         0.22358E-02
         0.16503E-02
         0.87676E-03
        -0.21374E-02
        -0.26933E-02
        -0.31291E-02
        -0.30382E-02
        -0.28749E-02
        -0.26442E-02
        -0.23721E-02
        -0.21483E-02
        -0.15097E-02
         0.93572E-03
         0.00000E+00
         0.18171E-02
         0.25928E-02
         0.32179E-02
         0.36559E-02
         0.38815E-02
         0.38815E-02
         0.36559E-02
         0.32179E-02
         0.25928E-02
         0.18171E-02
         0.93572E-03
        -0.47884E-18
        -0.93572E-03
        -0.18171E-02
        -0.25928E-02
        -0.32179E-02
        -0.36559E-02
        -0.38815E-02
        -0.38815E-02
        -0.36559E-02
        -0.32179E-02
        -0.25928E-02
        -0.18171E-02
        -0.93572E-03
         0.67736E-03
         0.12361E-02
         0.59570E-03
        -0.33172E-03
         0.15173E-03
        -0.67248E-03
         0.18427E-02
         0.14656E-02
         0.30852E-03
         0.11812E-02
         0.22758E-02
         0.28251E-02
         0.24249E-02
         0.21688E-02
         0.29345E-02
        -0.10044E-02
         0.85443E-04
        -0.69737E-03
        -0.71084E-03
         0.83737E-04
        -0.77729E-03
         0.42899E-04
        -0.15191E-02
        -0.13222E-02
         0.99932E-03
        -0.17322E-02
         0.20243E-02
         0.18605E-02
         0.17175E-02
         0.91132E-03
        -0.19802E-02
        -0.23491E-02
        -0.17074E-02
        -0.14914E-02
         0.76841E-03
         0.12511E-02
         0.18668E-02
         0.28952E-02
         0.27170E-02
         0.24624E-02
         0.22358E-02
         0.16503E-02
         0.87702E-03
        -0.21374E-02
        -0.26933E-02
        -0.31291E-02
        -0.30382E-02
        -0.28749E-02
        -0.26444E-02
        -0.23723E-02
        -0.21489E-02
        -0.15096E-02
         0.93572E-03
         0.00000E+00
         0.18171E-02
         0.25928E-02
         0.32179E-02
         0.36559E-02
         0.38815E-02
         0.38815E-02
         0.36559E-02
         0.32179E-02
         0.25928E-02
         0.18171E-02
         0.93572E-03
        -0.47884E-18
        -0.93572E-03
        -0.18171E-02
        -0.25928E-02
        -0.32179E-02
        -0.36559E-02
        -0.38815E-02
        -0.38815E-02
        -0.36559E-02
        -0.32179E-02
        -0.25928E-02
        -0.18171E-02
        -0.93572E-03
         0.67791E-03
         0.12368E-02
         0.59622E-03
        -0.33096E-03
         0.15209E-03
        -0.67199E-03
         0.18429E-02
         0.14666E-02
         0.30967E-03
         0.11830E-02
         0.22759E-02
         0.28247E-02
         0.24251E-02
         0.21688E-02
         0.29343E-02
        -0.10046E-02
         0.86253E-04
        -0.69665E-03
        -0.71070E-03
         0.83861E-04
        -0.77712E-03
         0.43173E-04
        -0.15190E-02
        -0.13220E-02
         0.10007E-02
        -0.17321E-02
         0.20245E-02
         0.18603E-02
         0.17175E-02
         0.91156E-03
        -0.19802E-02
        -0.23491E-02
        -0.17074E-02
        -0.14916E-02
         0.76941E-03
         0.12515E-02
         0.18668E-02
         0.28942E-02
         0.27165E-02
         0.24622E-02
         0.22358E-02
         0.16503E-02
         0.87728E-03
        -0.21374E-02
        -0.26933E-02
        -0.31291E-02
        -0.30382E-02
        -0.28749E-02
        -0.26447E-02
        -0.23725E-02
        -0.21494E-02
        -0.15095E-02
         0.93572E-03
         0.00000E+00
         0.18171E-02
         0.25928E-02
         0.32179E-02
         0.36559E-02
         0.38815E-02
         0.38815E-02
         0.36559E-02
         0.32179E-02
         0.25928E-02
         0.18171E-02
         0.93572E-03
        -0.47884E-18
        -0.93572E-03
        -0.18171E-02
        -0.25928E-02
        -0.32179E-02
        -0.36559E-02
        -0.38815E-02
        -0.38815E-02
        -0.36559E-02
        -0.32179E-02
        -0.25928E-02
        -0.18171E-02
        -0.93572E-03
         0.67847E-03
         0.12374E-02
         0.59674E-03
        -0.33021E-03
         0.15245E-03
        -0.67150E-03
         0.18430E-02
         0.14676E-02
         0.31081E-03
         0.11847E-02
         0.22761E-02
         0.28242E-02
         0.24252E-02
         0.21688E-02
         0.29340E-02
        -0.10047E-02
         0.87062E-04
        -0.69592E-03
        -0.71056E-03
         0.83985E-04
        -0.77695E-03
         0.43446E-04
        -0.15190E-02
        -0.13219E-02
         0.10020E-02
        -0.17321E-02
         0.20248E-02
         0.18602E-02
         0.17175E-02
         0.91180E-03
        -0.19803E-02
        -0.23491E-02
        -0.17073E-02
        -0.14919E-02
         0.77042E-03
         0.12520E-02
         0.18669E-02
         0.28931E-02
         0.27160E-02
         0.24620E-02
         0.22358E-02
         0.16503E-02
         0.87754E-03
        -0.21374E-02
        -0.26933E-02
        -0.31291E-02
        -0.30382E-02
        -0.28749E-02
        -0.26450E-02
        -0.23727E-02
        -0.21500E-02
        -0.15094E-02
         0.93572E-03
         0.00000E+00
         0.18171E-02
         0.25928E-02
         0.32179E-02
         0.36559E-02
         0.38815E-02
         0.38815E-02
         0.36559E-02
         0.32179E-02
         0.25928E-02
         0.18171E-02
         0.93572E-03
         0.39516E-17
        -0.93572E-03
        -0.18171E-02
        -0.25928E-02
        -0.32179E-02
        -0.36559E-02
        -0.38815E-02
        -0.38815E-02
        -0.36559E-02
        -0.32179E-02
        -0.25928E-02
        -0.18171E-02
        -0.93572E-03
         0.67902E-03
         0.12381E-02
         0.59727E-03
        -0.32945E-03
         0.15282E-03
        -0.67100E-03
         0.18432E-02
         0.14686E-02
         0.31196E-03
         0.11865E-02
         0.22762E-02
         0.28238E-02
         0.24254E-02
         0.21688E-02
         0.29337E-02
        -0.10049E-02
         0.87871E-04
        -0.69519E-03
        -0.71042E-03
         0.84108E-04
        -0.77678E-03
         0.43720E-04
        -0.15189E-02
        -0.13219E-02
         0.10034E-02
        -0.17320E-02
         0.20251E-02
         0.18601E-02
         0.17175E-02
         0.91204E-03
        -0.19803E-02
        -0.23492E-02
        -0.17073E-02
        -0.14921E-02
         0.77142E-03
         0.12524E-02
         0.18669E-02
         0.28920E-02
         0.27155E-02
         0.24618E-02
         0.22358E-02
         0.16503E-02
         0.87781E-03
        -0.21374E-02
        -0.26934E-02
        -0.31291E-02
        -0.30382E-02
        -0.28749E-02
        -0.26452E-02
        -0.23729E-02
        -0.21505E-02
        -0.15093E-02
         0.93572E-03
         0.00000E+00
         0.18171E-02
         0.25928E-02
         0.32179E-02
         0.36559E-02
         0.38815E-02
         0.38815E-02
         0.36559E-02
         0.32179E-02
         0.25928E-02
         0.18171E-02
         0.93572E-03
        -0.47884E-18
        -0.93572E-03
        -0.18171E-02
        -0.25928E-02
        -0.32179E-02
        -0.36559E-02
        -0.38815E-02
        -0.38815E-02
        -0.36559E-02
        -0.32179E-02
        -0.25928E-02
        -0.18171E-02
        -0.93572E-03
         0.67958E-03
         0.12387E-02
         0.59779E-03
        -0.32870E-03
         0.15318E-03
        -0.67051E-03
         0.18434E-02
         0.14696E-02
         0.31311E-03
         0.11882E-02
         0.22763E-02
         0.28233E-02
         0.24255E-02
         0.21689E-02
         0.29335E-02
        -0.10050E-02
         0.88681E-04
        -0.69447E-03
        -0.71028E-03
         0.84232E-04
        -0.77661E-03
         0.43993E-04
        -0.15189E-02
        -0.13218E-02
         0.10048E-02
        -0.17320E-02
         0.20254E-02
         0.18599E-02
         0.17175E-02
         0.91228E-03
        -0.19803E-02
        -0.23492E-02
        -0.17073E-02
        -0.14923E-02
         0.77243E-03
         0.12528E-02
         0.18670E-02
         0.28910E-02
         0.27151E-02
         0.24615E-02
         0.22358E-02
         0.16503E-02
         0.87807E-03
        -0.21374E-02
        -0.26934E-02
        -0.31291E-02
        -0.30382E-02
        -0.28749E-02
        -0.26455E-02
        -0.23732E-02
        -0.21511E-02
        -0.15092E-02
         0.93572E-03
         0.00000E+00
         0.18171E-02
         0.25928E-02
         0.32179E-02
         0.36559E-02
         0.38815E-02
         0.38815E-02
         0.36559E-02
         0.32179E-02
         0.25928E-02
         0.18171E-02
         0.93572E-03
         0.22152E-17
        -0.93572E-03
        -0.18171E-02
        -0.25928E-02
        -0.32179E-02
        -0.36559E-02
        -0.38815E-02
        -0.38815E-02
        -0.36559E-02
        -0.32179E-02
        -0.25928E-02
        -0.18171E-02
        -0.93572E-03
         0.68013E-03
         0.12394E-02
         0.59831E-03
        -0.32794E-03
         0.15354E-03
        -0.67002E-03
         0.18436E-02
         0.14706E-02
         0.31426E-03
         0.11900E-02
         0.22765E-02
         0.28229E-02
         0.24257E-02
         0.21689E-02
         0.29332E-02
        -0.10051E-02
         0.89490E-04
        -0.69374E-03
        -0.71013E-03
         0.84355E-04
        -0.77644E-03
         0.44266E-04
        -0.15188E-02
        -0.13216E-02
         0.10061E-02
        -0.17320E-02
         0.20257E-02
         0.18598E-02
         0.17175E-02
         0.91252E-03
        -0.19803E-02
        -0.23492E-02
        -0.17073E-02
        -0.14926E-02
         0.77343E-03
         0.12533E-02
         0.18670E-02
         0.28899E-02
         0.27146E-02
         0.24613E-02
         0.22358E-02
         0.16503E-02
         0.87833E-03
        -0.21374E-02
        -0.26934E-02
        -0.31291E-02
        -0.30382E-02
        -0.28750E-02
        -0.26458E-02
        -0.23734E-02
        -0.21516E-02
        -0.15091E-02
         0.93572E-03
         0.00000E+00
         0.18171E-02
         0.25928E-02
         0.32179E-02
         0.36559E-02
         0.38815E-02
         0.38815E-02
         0.36559E-02
         0.32179E-02
         0.25928E-02
         0.18171E-02
         0.93572E-03
        -0.47884E-18
        -0.93572E-03
        -0.18171E-02
        -0.25928E-02
        -0.32179E-02
        -0.36559E-02
        -0.38815E-02
        -0.38815E-02
        -0.36559E-02
        -0.32179E-02
        -0.25928E-02
        -0.18171E-02
        -0.93572E-03
         0.68068E-03
         0.12401E-02
         0.59884E-03
        -0.32719E-03
         0.15391E-03
        -0.66953E-03
         0.18438E-02
         0.14716E-02
         0.31541E-03
         0.11917E-02
         0.22766E-02
         0.28225E-02
         0.24258E-02
         0.21690E-02
         0.29330E-02
        -0.10053E-02
         0.90299E-04
        -0.69302E-03
        -0.70999E-03
         0.84479E-04
        -0.77627E-03
         0.44540E-04
        -0.15188E-02
        -0.13215E-02
         0.10075E-02
        -0.17319E-02
         0.20260E-02
         0.18597E-02
         0.17175E-02
         0.91276E-03
        -0.19804E-02
        -0.23493E-02
        -0.17073E-02
        -0.14928E-02
         0.77444E-03
         0.12537E-02
         0.18670E-02
         0.28888E-02
         0.27141E-02
         0.24611E-02
         0.22358E-02
         0.16503E-02
         0.87859E-03
        -0.21374E-02
        -0.26934E-02
        -0.31291E-02
        -0.30382E-02
        -0.28750E-02
        -0.26460E-02
        -0.23736E-02
        -0.21521E-02
        -0.15090E-02
         0.93572E-03
         0.00000E+00
         0.18171E-02
         0.25928E-02
         0.32179E-02
         0.36559E-02
         0.38815E-02
         0.38815E-02
         0.36559E-02
         0.32179E-02
         0.25928E-02
         0.18171E-02
         0.93572E-03
         0.22152E-17
        -0.93572E-03
        -0.18171E-02
        -0.25928E-02
        -0.32179E-02
        -0.36559E-02
        -0.38815E-02
        -0.38815E-02
        -0.36559E-02
        -0.32179E-02
        -0.25928E-02
        -0.18171E-02
        -0.93572E-03
         0.68124E-03
         0.12407E-02
         0.59936E-03
        -0.32643E-03
         0.15427E-03
        -0.66903E-03
         0.18440E-02
         0.14727E-02
         0.31656E-03
         0.11935E-02
         0.22767E-02
         0.28220E-02
         0.24260E-02
         0.21690E-02
         0.29327E-02
        -0.10054E-02
         0.91108E-04
        -0.69229E-03
        -0.70985E-03
         0.84602E-04
        -0.77610E-03
         0.44813E-04
        -0.15187E-02
        -0.13215E-02
         0.10088E-02
        -0.17319E-02
         0.20262E-02
         0.18595E-02
         0.17175E-02
         0.91300E-03
        -0.19804E-02
        -0.23493E-02
        -0.17073E-02
        -0.14931E-02
         0.77544E-03
         0.12541E-02
         0.18671E-02
         0.28877E-02
         0.27137E-02
         0.24609E-02
         0.22358E-02
         0.16503E-02
         0.87885E-03
        -0.21374E-02
        -0.26934E-02
        -0.31291E-02
        -0.30382E-02
        -0.28750E-02
        -0.26463E-02
        -0.23738E-02
        -0.21527E-02
        -0.15088E-02
         0.93572E-03
         0.00000E+00
         0.18171E-02
         0.25928E-02
         0.32179E-02
         0.36559E-02
         0.38815E-02
         0.38815E-02
         0.36559E-02
         0.32179E-02
         0.25928E-02
         0.18171E-02
         0.93572E-03
        -0.47884E-18
        -0.93572E-03
        -0.18171E-02
        -0.25928E-02
        -0.32179E-02
        -0.36559E-02
        -0.38815E-02
        -0.38815E-02
        -0.36559E-02
        -0.32179E-02
        -0.25928E-02
        -0.18171E-02
        -0.93572E-03
         0.68179E-03
         0.12414E-02
         0.59988E-03
        -0.32568E-03
         0.15463E-03
        -0.66854E-03
         0.18442E-02
         0.14736E-02
         0.31770E-03
         0.11952E-02
         0.22768E-02
         0.28216E-02
         0.24261E-02
         0.21690E-02
         0.29324E-02
        -0.10056E-02
         0.91918E-04
        -0.69156E-03
        -0.70971E-03
         0.84726E-04
        -0.77593E-03
         0.45086E-04
        -0.15187E-02
        -0.13213E-02
         0.10102E-02
        -0.17318E-02
         0.20265E-02
         0.18594E-02
         0.17175E-02
         0.91324E-03
        -0.19804E-02
        -0.23493E-02
        -0.17073E-02
        -0.14933E-02
         0.77645E-03
         0.12545E-02
         0.18671E-02
         0.28867E-02
         0.27132E-02
         0.24606E-02
         0.22358E-02
         0.16503E-02
         0.87912E-03
        -0.21374E-02
        -0.26935E-02
        -0.31291E-02
        -0.30381E-02
        -0.28750E-02
        -0.26466E-02
        -0.23740E-02
        -0.21533E-02
        -0.15087E-02
         0.93572E-03
         0.00000E+00
         0.18171E-02
         0.25928E-02
         0.32179E-02
         0.36559E-02
         0.38815E-02
         0.38815E-02
         0.36559E-02
         0.32179E-02
         0.25928E-02
         0.18171E-02
         0.93572E-03
        -0.47884E-18
        -0.93572E-03
        -0.18171E-02
        -0.25928E-02
        -0.32179E-02
        -0.36559E-02
        -0.38815E-02
        -0.38815E-02
        -0.36559E-02
        -0.32179E-02
        -0.25928E-02
        -0.18171E-02
        -0.93572E-03
         0.68235E-03
         0.12421E-02
         0.60041E-03
        -0.32493E-03
         0.15500E-03
        -0.66805E-03
         0.18444E-02
         0.14747E-02
         0.31885E-03
         0.11970E-02
         0.22770E-02
         0.28211E-02
         0.24262E-02
         0.21691E-02
         0.29322E-02
        -0.10057E-02
         0.92727E-04
        -0.69084E-03
        -0.70957E-03
         0.84849E-04
        -0.77576E-03
         0.45359E-04
        -0.15186E-02
        -0.13212E-02
         0.10115E-02
        -0.17318E-02
         0.20268E-02
         0.18593E-02
         0.17175E-02
         0.91347E-03
        -0.19804E-02
        -0.23493E-02
        -0.17073E-02
        -0.14936E-02
         0.77745E-03
         0.12550E-02
         0.18671E-02
         0.28856E-02
         0.27127E-02
         0.24604E-02
         0.22358E-02
         0.16503E-02
         0.87938E-03
        -0.21374E-02
        -0.26935E-02
        -0.31291E-02
        -0.30381E-02
        -0.28750E-02
        -0.26468E-02
        -0.23742E-02
        -0.21538E-02
        -0.15086E-02
         0.93572E-03
         0.00000E+00
         0.18171E-02
         0.25928E-02
         0.32179E-02
         0.36559E-02
         0.38815E-02
         0.38815E-02
         0.36559E-02
         0.32179E-02
         0.25928E-02
         0.18171E-02
         0.93572E-03
        -0.47884E-18
        -0.93572E-03
        -0.18171E-02
        -0.25928E-02
        -0.32179E-02
        -0.36559E-02
        -0.38815E-02
        -0.38815E-02
        -0.36559E-02
        -0.32179E-02
        -0.25928E-02
        -0.18171E-02
        -0.93572E-03
         0.68290E-03
         0.12427E-02
         0.60093E-03
        -0.32417E-03
         0.15536E-03
        -0.66755E-03
         0.18445E-02
         0.14757E-02
         0.32000E-03
         0.11987E-02
         0.22771E-02
         0.28207E-02
         0.24264E-02
         0.21691E-02
         0.29319E-02
        -0.10058E-02
         0.93536E-04
        -0.69011E-03
        -0.70943E-03
         0.84973E-04
        -0.77559E-03
         0.45633E-04
        -0.15186E-02
        -0.13212E-02
         0.10129E-02
        -0.17318E-02
         0.20271E-02
         0.18592E-02
         0.17175E-02
         0.91371E-03
        -0.19805E-02
        -0.23493E-02
        -0.17073E-02
        -0.14938E-02
         0.77846E-03
         0.12554E-02
         0.18672E-02
         0.28845E-02
         0.27122E-02
         0.24602E-02
         0.22358E-02
         0.16502E-02
         0.87964E-03
        -0.21374E-02
        -0.26935E-02
        -0.31291E-02
        -0.30381E-02
        -0.28750E-02
        -0.26471E-02
        -0.23744E-02
        -0.21543E-02
        -0.15085E-02
         0.93572E-03
         0.00000E+00
         0.18171E-02
         0.25928E-02
         0.32179E-02
         0.36559E-02
         0.38815E-02
         0.38815E-02
         0.36559E-02
         0.32179E-02
         0.25928E-02
         0.18171E-02
         0.93572E-03
        -0.47884E-18
        -0.93572E-03
        -0.18171E-02
        -0.25928E-02
        -0.32179E-02
        -0.36559E-02
        -0.38815E-02
        -0.38815E-02
        -0.36559E-02
        -0.32179E-02
        -0.25928E-02
        -0.18171E-02
        -0.93572E-03
         0.68346E-03
         0.12434E-02
         0.60145E-03
        -0.32342E-03
         0.15572E-03
        -0.66706E-03
         0.18447E-02
         0.14767E-02
         0.32115E-03
         0.12005E-02
         0.22772E-02
         0.28203E-02
         0.24265E-02
         0.21691E-02
         0.29316E-02
        -0.10060E-02
         0.94345E-04
        -0.68939E-03
        -0.70929E-03
         0.85096E-04
        -0.77542E-03
         0.45906E-04
        -0.15185E-02
        -0.13211E-02
         0.10142E-02
        -0.17317E-02
         0.20274E-02
         0.18590E-02
         0.17175E-02
         0.91395E-03
        -0.19805E-02
        -0.23494E-02
        -0.17073E-02
        -0.14941E-02
         0.77946E-03
         0.12558E-02
         0.18672E-02
         0.28835E-02
         0.27118E-02
         0.24600E-02
         0.22358E-02
         0.16502E-02
         0.87990E-03
        -0.21374E-02
        -0.26935E-02
        -0.31291E-02
        -0.30381E-02
        -0.28750E-02
        -0.26474E-02
        -0.23746E-02
        -0.21549E-02
        -0.15084E-02
         0.93572E-03
         0.00000E+00
         0.18171E-02
         0.25928E-02
         0.32179E-02
         0.36559E-02
         0.38815E-02
         0.38815E-02
         0.36559E-02
         0.32179E-02
         0.25928E-02
         0.18171E-02
         0.93572E-03
         0.22152E-17
        -0.93572E-03
        -0.18171E-02
        -0.25928E-02
        -0.32179E-02
        -0.36559E-02
        -0.38815E-02
        -0.38815E-02
        -0.36559E-02
        -0.32179E-02
        -0.25928E-02
        -0.18171E-02
        -0.93572E-03
         0.68401E-03
         0.12440E-02
         0.60198E-03
        -0.32266E-03
         0.15609E-03
        -0.66657E-03
         0.18449E-02
         0.14777E-02
         0.32230E-03
         0.12022E-02
         0.22774E-02
         0.28198E-02
         0.24267E-02
         0.21692E-02
         0.29314E-02
        -0.10061E-02
         0.95155E-04
        -0.68866E-03
        -0.70915E-03
         0.85220E-04
        -0.77525E-03
         0.46180E-04
        -0.15185E-02
        -0.13210E-02
         0.10156E-02
        -0.17317E-02
         0.20277E-02
         0.18589E-02
         0.17175E-02
         0.91419E-03
        -0.19805E-02
        -0.23494E-02
        -0.17073E-02
        -0.14943E-02
         0.78047E-03
         0.12563E-02
         0.18672E-02
         0.28824E-02
         0.27113E-02
         0.24597E-02
         0.22358E-02
         0.16502E-02
         0.88016E-03
        -0.21374E-02
        -0.26935E-02
        -0.31291E-02
        -0.30381E-02
        -0.28751E-02
        -0.26476E-02
        -0.23748E-02
        -0.21554E-02
        -0.15083E-02
         0.93572E-03
         0.00000E+00
         0.18171E-02
         0.25928E-02
         0.32179E-02
         0.36559E-02
         0.38815E-02
         0.38815E-02
         0.36559E-02
         0.32179E-02
         0.25928E-02
         0.18171E-02
         0.93572E-03
        -0.47884E-18
        -0.93572E-03
        -0.18171E-02
        -0.25928E-02
        -0.32179E-02
        -0.36559E-02
        -0.38815E-02
        -0.38815E-02
        -0.36559E-02
        -0.32179E-02
        -0.25928E-02
        -0.18171E-02
        -0.93572E-03
         0.68457E-03
         0.12447E-02
         0.60250E-03
        -0.32191E-03
         0.15645E-03
        -0.66607E-03
         0.18451E-02
         0.14787E-02
         0.32345E-03
         0.12040E-02
         0.22775E-02
         0.28194E-02
         0.24268E-02
         0.21692E-02
         0.29311E-02
        -0.10062E-02
         0.95964E-04
        -0.68793E-03
        -0.70901E-03
         0.85343E-04
        -0.77507E-03
         0.46453E-04
        -0.15184E-02
        -0.13209E-02
         0.10169E-02
        -0.17316E-02
         0.20280E-02
         0.18588E-02
         0.17175E-02
         0.91443E-03
        -0.19806E-02
        -0.23494E-02
        -0.17073E-02
        -0.14945E-02
         0.78148E-03
         0.12567E-02
         0.18673E-02
         0.28813E-02
         0.27108E-02
         0.24595E-02
         0.22358E-02
         0.16502E-02
         0.88043E-03
        -0.21374E-02
        -0.26936E-02
        -0.31291E-02
        -0.30381E-02
        -0.28751E-02
        -0.26479E-02
        -0.23750E-02
        -0.21560E-02
        -0.15082E-02
         0.93572E-03
         0.00000E+00
         0.18171E-02
         0.25928E-02
         0.32179E-02
         0.36559E-02
         0.38815E-02
         0.38815E-02
         0.36559E-02
         0.32179E-02
         0.25928E-02
         0.18171E-02
         0.93572E-03
        -0.47884E-18
        -0.93572E-03
        -0.18171E-02
        -0.25928E-02
        -0.32179E-02
        -0.36559E-02
        -0.38815E-02
        -0.38815E-02
        -0.36559E-02
        -0.32179E-02
        -0.25928E-02
        -0.18171E-02
        -0.93572E-03
         0.68512E-03
         0.12454E-02
         0.60302E-03
        -0.32115E-03
         0.15681E-03
        -0.66558E-03
         0.18453E-02
         0.14797E-02
         0.32459E-03
         0.12058E-02
         0.22776E-02
         0.28189E-02
         0.24270E-02
         0.21693E-02
         0.29308E-02
        -0.10064E-02
         0.96773E-04
        -0.68721E-03
        -0.70887E-03
         0.85467E-04
        -0.77490E-03
         0.46726E-04
        -0.15184E-02
        -0.13208E-02
         0.10183E-02
        -0.17316E-02
         0.20283E-02
         0.18586E-02
         0.17175E-02
         0.91467E-03
        -0.19806E-02
        -0.23494E-02
        -0.17073E-02
        -0.14948E-02
         0.78248E-03
         0.12571E-02
         0.18673E-02
         0.28802E-02
         0.27103E-02
         0.24593E-02
         0.22358E-02
         0.16502E-02
         0.88069E-03
        -0.21374E-02
        -0.26936E-02
        -0.31291E-02
        -0.30381E-02
        -0.28751E-02
        -0.26482E-02
        -0.23752E-02
        -0.21565E-02
        -0.15081E-02
         0.93572E-03
         0.00000E+00
         0.18171E-02
         0.25928E-02
         0.32179E-02
         0.36559E-02
         0.38815E-02
         0.38815E-02
         0.36559E-02
         0.32179E-02
         0.25928E-02
         0.18171E-02
         0.93572E-03
        -0.47884E-18
        -0.93572E-03
        -0.18171E-02
        -0.25928E-02
        -0.32179E-02
        -0.36559E-02
        -0.38815E-02
        -0.38815E-02
        -0.36559E-02
        -0.32179E-02
        -0.25928E-02
        -0.18171E-02
        -0.93572E-03
         0.68567E-03
         0.12460E-02
         0.60355E-03
        -0.32040E-03
         0.15718E-03
        -0.66509E-03
         0.18455E-02
         0.14807E-02
         0.32574E-03
         0.12075E-02
         0.22777E-02
         0.28185E-02
         0.24271E-02
         0.21693E-02
         0.29306E-02
        -0.10065E-02
         0.97583E-04
        -0.68648E-03
        -0.70873E-03
         0.85591E-04
        -0.77474E-03
         0.47000E-04
        -0.15183E-02
        -0.13207E-02
         0.10197E-02
        -0.17316E-02
         0.20285E-02
         0.18585E-02
         0.17175E-02
         0.91491E-03
        -0.19806E-02
        -0.23495E-02
        -0.17073E-02
        -0.14950E-02
         0.78348E-03
         0.12576E-02
         0.18674E-02
         0.28792E-02
         0.27099E-02
         0.24591E-02
         0.22358E-02
         0.16502E-02
         0.88095E-03
        -0.21374E-02
        -0.26936E-02
        -0.31290E-02
        -0.30381E-02
        -0.28751E-02
        -0.26484E-02
        -0.23754E-02
        -0.21571E-02
        -0.15080E-02
         0.93572E-03
         0.00000E+00
         0.18171E-02
         0.25928E-02
         0.32179E-02
         0.36559E-02
         0.38815E-02
         0.38815E-02
         0.36559E-02
         0.32179E-02
         0.25928E-02
         0.18171E-02
         0.93572E-03
         0.47884E-18
        -0.93572E-03
        -0.18171E-02
        -0.25928E-02
        -0.32179E-02
        -0.36559E-02
        -0.38815E-02
        -0.38815E-02
        -0.36559E-02
        -0.32179E-02
        -0.25928E-02
        -0.18171E-02
        -0.93572E-03
  
SCALARS           initial_coordinate_z  double 1
LOOKUP_TABLE default
        -0.10771E-01
        -0.10771E-01
        -0.10771E-01
        -0.10771E-01
        -0.11750E-01
        -0.11750E-01
        -0.11750E-01
        -0.11750E-01
        -0.10771E-01
        -0.10771E-01
        -0.11750E-01
        -0.11750E-01
        -0.10771E-01
        -0.10771E-01
        -0.11750E-01
        -0.11750E-01
        -0.10771E-01
        -0.10771E-01
        -0.11750E-01
        -0.11750E-01
        -0.10771E-01
        -0.10771E-01
        -0.10771E-01
        -0.11750E-01
        -0.11750E-01
        -0.11750E-01
        -0.10771E-01
        -0.10771E-01
        -0.11750E-01
        -0.11750E-01
        -0.10771E-01
        -0.10771E-01
        -0.10771E-01
        -0.11750E-01
        -0.11750E-01
        -0.11750E-01
        -0.10771E-01
        -0.10771E-01
        -0.11750E-01
        -0.11750E-01
        -0.10771E-01
        -0.10771E-01
        -0.11750E-01
        -0.11750E-01
        -0.10771E-01
        -0.10771E-01
        -0.11750E-01
        -0.11750E-01
        -0.10771E-01
        -0.11750E-01
        -0.10771E-01
        -0.11750E-01
        -0.10771E-01
        -0.11750E-01
        -0.10771E-01
        -0.11750E-01
        -0.10771E-01
        -0.10771E-01
        -0.11750E-01
        -0.11750E-01
        -0.10771E-01
        -0.10771E-01
        -0.11750E-01
        -0.11750E-01
        -0.10771E-01
        -0.11750E-01
        -0.10771E-01
        -0.11750E-01
        -0.10771E-01
        -0.10771E-01
        -0.11750E-01
        -0.11750E-01
        -0.10771E-01
        -0.11750E-01
        -0.10771E-01
        -0.11750E-01
        -0.10771E-01
        -0.11750E-01
        -0.10771E-01
        -0.11750E-01
        -0.10771E-01
        -0.10771E-01
        -0.11750E-01
        -0.11750E-01
        -0.10771E-01
        -0.11750E-01
        -0.10771E-01
        -0.11750E-01
        -0.10771E-01
        -0.11750E-01
        -0.10771E-01
        -0.10771E-01
        -0.11750E-01
        -0.11750E-01
        -0.10771E-01
        -0.11750E-01
        -0.10771E-01
        -0.11750E-01
        -0.10771E-01
        -0.11750E-01
        -0.10771E-01
        -0.10771E-01
        -0.11750E-01
        -0.11750E-01
        -0.10771E-01
        -0.10771E-01
        -0.11750E-01
        -0.11750E-01
        -0.10771E-01
        -0.11750E-01
        -0.10771E-01
        -0.11750E-01
        -0.10771E-01
        -0.11750E-01
        -0.10771E-01
        -0.11750E-01
        -0.10771E-01
        -0.11750E-01
        -0.10771E-01
        -0.11750E-01
        -0.10771E-01
        -0.11750E-01
        -0.10771E-01
        -0.11750E-01
        -0.10771E-01
        -0.11750E-01
        -0.10771E-01
        -0.11750E-01
        -0.10771E-01
        -0.11750E-01
        -0.10771E-01
        -0.11750E-01
        -0.10771E-01
        -0.11750E-01
        -0.10771E-01
        -0.11750E-01
        -0.10771E-01
        -0.11750E-01
        -0.10771E-01
        -0.11750E-01
        -0.10771E-01
        -0.11750E-01
        -0.10771E-01
        -0.11750E-01
        -0.10771E-01
        -0.11750E-01
        -0.10771E-01
        -0.11750E-01
        -0.10771E-01
        -0.11750E-01
        -0.10771E-01
        -0.11750E-01
        -0.10771E-01
        -0.11750E-01
        -0.10771E-01
        -0.11750E-01
        -0.97917E-02
        -0.97917E-02
        -0.97917E-02
        -0.97917E-02
        -0.97917E-02
        -0.97917E-02
        -0.97917E-02
        -0.97917E-02
        -0.97917E-02
        -0.97917E-02
        -0.97917E-02
        -0.97917E-02
        -0.97917E-02
        -0.97917E-02
        -0.97917E-02
        -0.97917E-02
        -0.97917E-02
        -0.97917E-02
        -0.97917E-02
        -0.97917E-02
        -0.97917E-02
        -0.97917E-02
        -0.97917E-02
        -0.97917E-02
        -0.97917E-02
        -0.97917E-02
        -0.97917E-02
        -0.97917E-02
        -0.97917E-02
        -0.97917E-02
        -0.97917E-02
        -0.97917E-02
        -0.97917E-02
        -0.97917E-02
        -0.97917E-02
        -0.97917E-02
        -0.97917E-02
        -0.97917E-02
        -0.97917E-02
        -0.97917E-02
        -0.97917E-02
        -0.97917E-02
        -0.97917E-02
        -0.97917E-02
        -0.97917E-02
        -0.97917E-02
        -0.97917E-02
        -0.97917E-02
        -0.97917E-02
        -0.97917E-02
        -0.97917E-02
        -0.97917E-02
        -0.97917E-02
        -0.97917E-02
        -0.97917E-02
        -0.97917E-02
        -0.97917E-02
        -0.97917E-02
        -0.97917E-02
        -0.97917E-02
        -0.97917E-02
        -0.97917E-02
        -0.97917E-02
        -0.97917E-02
        -0.97917E-02
        -0.97917E-02
        -0.97917E-02
        -0.97917E-02
        -0.97917E-02
        -0.97917E-02
        -0.97917E-02
        -0.97917E-02
        -0.97917E-02
        -0.97917E-02
        -0.97917E-02
        -0.97917E-02
        -0.97917E-02
        -0.97917E-02
        -0.88125E-02
        -0.88125E-02
        -0.88125E-02
        -0.88125E-02
        -0.88125E-02
        -0.88125E-02
        -0.88125E-02
        -0.88125E-02
        -0.88125E-02
        -0.88125E-02
        -0.88125E-02
        -0.88125E-02
        -0.88125E-02
        -0.88125E-02
        -0.88125E-02
        -0.88125E-02
        -0.88125E-02
        -0.88125E-02
        -0.88125E-02
        -0.88125E-02
        -0.88125E-02
        -0.88125E-02
        -0.88125E-02
        -0.88125E-02
        -0.88125E-02
        -0.88125E-02
        -0.88125E-02
        -0.88125E-02
        -0.88125E-02
        -0.88125E-02
        -0.88125E-02
        -0.88125E-02
        -0.88125E-02
        -0.88125E-02
        -0.88125E-02
        -0.88125E-02
        -0.88125E-02
        -0.88125E-02
        -0.88125E-02
        -0.88125E-02
        -0.88125E-02
        -0.88125E-02
        -0.88125E-02
        -0.88125E-02
        -0.88125E-02
        -0.88125E-02
        -0.88125E-02
        -0.88125E-02
        -0.88125E-02
        -0.88125E-02
        -0.88125E-02
        -0.88125E-02
        -0.88125E-02
        -0.88125E-02
        -0.88125E-02
        -0.88125E-02
        -0.88125E-02
        -0.88125E-02
        -0.88125E-02
        -0.88125E-02
        -0.88125E-02
        -0.88125E-02
        -0.88125E-02
        -0.88125E-02
        -0.88125E-02
        -0.88125E-02
        -0.88125E-02
        -0.88125E-02
        -0.88125E-02
        -0.88125E-02
        -0.88125E-02
        -0.88125E-02
        -0.88125E-02
        -0.88125E-02
        -0.88125E-02
        -0.88125E-02
        -0.88125E-02
        -0.88125E-02
        -0.78333E-02
        -0.78333E-02
        -0.78333E-02
        -0.78333E-02
        -0.78333E-02
        -0.78333E-02
        -0.78333E-02
        -0.78333E-02
        -0.78333E-02
        -0.78333E-02
        -0.78333E-02
        -0.78333E-02
        -0.78333E-02
        -0.78333E-02
        -0.78333E-02
        -0.78333E-02
        -0.78333E-02
        -0.78333E-02
        -0.78333E-02
        -0.78333E-02
        -0.78333E-02
        -0.78333E-02
        -0.78333E-02
        -0.78333E-02
        -0.78333E-02
        -0.78333E-02
        -0.78333E-02
        -0.78333E-02
        -0.78333E-02
        -0.78333E-02
        -0.78333E-02
        -0.78333E-02
        -0.78333E-02
        -0.78333E-02
        -0.78333E-02
        -0.78333E-02
        -0.78333E-02
        -0.78333E-02
        -0.78333E-02
        -0.78333E-02
        -0.78333E-02
        -0.78333E-02
        -0.78333E-02
        -0.78333E-02
        -0.78333E-02
        -0.78333E-02
        -0.78333E-02
        -0.78333E-02
        -0.78333E-02
        -0.78333E-02
        -0.78333E-02
        -0.78333E-02
        -0.78333E-02
        -0.78333E-02
        -0.78333E-02
        -0.78333E-02
        -0.78333E-02
        -0.78333E-02
        -0.78333E-02
        -0.78333E-02
        -0.78333E-02
        -0.78333E-02
        -0.78333E-02
        -0.78333E-02
        -0.78333E-02
        -0.78333E-02
        -0.78333E-02
        -0.78333E-02
        -0.78333E-02
        -0.78333E-02
        -0.78333E-02
        -0.78333E-02
        -0.78333E-02
        -0.78333E-02
        -0.78333E-02
        -0.78333E-02
        -0.78333E-02
        -0.78333E-02
        -0.68542E-02
        -0.68542E-02
        -0.68542E-02
        -0.68542E-02
        -0.68542E-02
        -0.68542E-02
        -0.68542E-02
        -0.68542E-02
        -0.68542E-02
        -0.68542E-02
        -0.68542E-02
        -0.68542E-02
        -0.68542E-02
        -0.68542E-02
        -0.68542E-02
        -0.68542E-02
        -0.68542E-02
        -0.68542E-02
        -0.68542E-02
        -0.68542E-02
        -0.68542E-02
        -0.68542E-02
        -0.68542E-02
        -0.68542E-02
        -0.68542E-02
        -0.68542E-02
        -0.68542E-02
        -0.68542E-02
        -0.68542E-02
        -0.68542E-02
        -0.68542E-02
        -0.68542E-02
        -0.68542E-02
        -0.68542E-02
        -0.68542E-02
        -0.68542E-02
        -0.68542E-02
        -0.68542E-02
        -0.68542E-02
        -0.68542E-02
        -0.68542E-02
        -0.68542E-02
        -0.68542E-02
        -0.68542E-02
        -0.68542E-02
        -0.68542E-02
        -0.68542E-02
        -0.68542E-02
        -0.68542E-02
        -0.68542E-02
        -0.68542E-02
        -0.68542E-02
        -0.68542E-02
        -0.68542E-02
        -0.68542E-02
        -0.68542E-02
        -0.68542E-02
        -0.68542E-02
        -0.68542E-02
        -0.68542E-02
        -0.68542E-02
        -0.68542E-02
        -0.68542E-02
        -0.68542E-02
        -0.68542E-02
        -0.68542E-02
        -0.68542E-02
        -0.68542E-02
        -0.68542E-02
        -0.68542E-02
        -0.68542E-02
        -0.68542E-02
        -0.68542E-02
        -0.68542E-02
        -0.68542E-02
        -0.68542E-02
        -0.68542E-02
        -0.68542E-02
        -0.58750E-02
        -0.58750E-02
        -0.58750E-02
        -0.58750E-02
        -0.58750E-02
        -0.58750E-02
        -0.58750E-02
        -0.58750E-02
        -0.58750E-02
        -0.58750E-02
        -0.58750E-02
        -0.58750E-02
        -0.58750E-02
        -0.58750E-02
        -0.58750E-02
        -0.58750E-02
        -0.58750E-02
        -0.58750E-02
        -0.58750E-02
        -0.58750E-02
        -0.58750E-02
        -0.58750E-02
        -0.58750E-02
        -0.58750E-02
        -0.58750E-02
        -0.58750E-02
        -0.58750E-02
        -0.58750E-02
        -0.58750E-02
        -0.58750E-02
        -0.58750E-02
        -0.58750E-02
        -0.58750E-02
        -0.58750E-02
        -0.58750E-02
        -0.58750E-02
        -0.58750E-02
        -0.58750E-02
        -0.58750E-02
        -0.58750E-02
        -0.58750E-02
        -0.58750E-02
        -0.58750E-02
        -0.58750E-02
        -0.58750E-02
        -0.58750E-02
        -0.58750E-02
        -0.58750E-02
        -0.58750E-02
        -0.58750E-02
        -0.58750E-02
        -0.58750E-02
        -0.58750E-02
        -0.58750E-02
        -0.58750E-02
        -0.58750E-02
        -0.58750E-02
        -0.58750E-02
        -0.58750E-02
        -0.58750E-02
        -0.58750E-02
        -0.58750E-02
        -0.58750E-02
        -0.58750E-02
        -0.58750E-02
        -0.58750E-02
        -0.58750E-02
        -0.58750E-02
        -0.58750E-02
        -0.58750E-02
        -0.58750E-02
        -0.58750E-02
        -0.58750E-02
        -0.58750E-02
        -0.58750E-02
        -0.58750E-02
        -0.58750E-02
        -0.58750E-02
        -0.48958E-02
        -0.48958E-02
        -0.48958E-02
        -0.48958E-02
        -0.48958E-02
        -0.48958E-02
        -0.48958E-02
        -0.48958E-02
        -0.48958E-02
        -0.48958E-02
        -0.48958E-02
        -0.48958E-02
        -0.48958E-02
        -0.48958E-02
        -0.48958E-02
        -0.48958E-02
        -0.48958E-02
        -0.48958E-02
        -0.48958E-02
        -0.48958E-02
        -0.48958E-02
        -0.48958E-02
        -0.48958E-02
        -0.48958E-02
        -0.48958E-02
        -0.48958E-02
        -0.48958E-02
        -0.48958E-02
        -0.48958E-02
        -0.48958E-02
        -0.48958E-02
        -0.48958E-02
        -0.48958E-02
        -0.48958E-02
        -0.48958E-02
        -0.48958E-02
        -0.48958E-02
        -0.48958E-02
        -0.48958E-02
        -0.48958E-02
        -0.48958E-02
        -0.48958E-02
        -0.48958E-02
        -0.48958E-02
        -0.48958E-02
        -0.48958E-02
        -0.48958E-02
        -0.48958E-02
        -0.48958E-02
        -0.48958E-02
        -0.48958E-02
        -0.48958E-02
        -0.48958E-02
        -0.48958E-02
        -0.48958E-02
        -0.48958E-02
        -0.48958E-02
        -0.48958E-02
        -0.48958E-02
        -0.48958E-02
        -0.48958E-02
        -0.48958E-02
        -0.48958E-02
        -0.48958E-02
        -0.48958E-02
        -0.48958E-02
        -0.48958E-02
        -0.48958E-02
        -0.48958E-02
        -0.48958E-02
        -0.48958E-02
        -0.48958E-02
        -0.48958E-02
        -0.48958E-02
        -0.48958E-02
        -0.48958E-02
        -0.48958E-02
        -0.48958E-02
        -0.39167E-02
        -0.39167E-02
        -0.39167E-02
        -0.39167E-02
        -0.39167E-02
        -0.39167E-02
        -0.39167E-02
        -0.39167E-02
        -0.39167E-02
        -0.39167E-02
        -0.39167E-02
        -0.39167E-02
        -0.39167E-02
        -0.39167E-02
        -0.39167E-02
        -0.39167E-02
        -0.39167E-02
        -0.39167E-02
        -0.39167E-02
        -0.39167E-02
        -0.39167E-02
        -0.39167E-02
        -0.39167E-02
        -0.39167E-02
        -0.39167E-02
        -0.39167E-02
        -0.39167E-02
        -0.39167E-02
        -0.39167E-02
        -0.39167E-02
        -0.39167E-02
        -0.39167E-02
        -0.39167E-02
        -0.39167E-02
        -0.39167E-02
        -0.39167E-02
        -0.39167E-02
        -0.39167E-02
        -0.39167E-02
        -0.39167E-02
        -0.39167E-02
        -0.39167E-02
        -0.39167E-02
        -0.39167E-02
        -0.39167E-02
        -0.39167E-02
        -0.39167E-02
        -0.39167E-02
        -0.39167E-02
        -0.39167E-02
        -0.39167E-02
        -0.39167E-02
        -0.39167E-02
        -0.39167E-02
        -0.39167E-02
        -0.39167E-02
        -0.39167E-02
        -0.39167E-02
        -0.39167E-02
        -0.39167E-02
        -0.39167E-02
        -0.39167E-02
        -0.39167E-02
        -0.39167E-02
        -0.39167E-02
        -0.39167E-02
        -0.39167E-02
        -0.39167E-02
        -0.39167E-02
        -0.39167E-02
        -0.39167E-02
        -0.39167E-02
        -0.39167E-02
        -0.39167E-02
        -0.39167E-02
        -0.39167E-02
        -0.39167E-02
        -0.39167E-02
        -0.29375E-02
        -0.29375E-02
        -0.29375E-02
        -0.29375E-02
        -0.29375E-02
        -0.29375E-02
        -0.29375E-02
        -0.29375E-02
        -0.29375E-02
        -0.29375E-02
        -0.29375E-02
        -0.29375E-02
        -0.29375E-02
        -0.29375E-02
        -0.29375E-02
        -0.29375E-02
        -0.29375E-02
        -0.29375E-02
        -0.29375E-02
        -0.29375E-02
        -0.29375E-02
        -0.29375E-02
        -0.29375E-02
        -0.29375E-02
        -0.29375E-02
        -0.29375E-02
        -0.29375E-02
        -0.29375E-02
        -0.29375E-02
        -0.29375E-02
        -0.29375E-02
        -0.29375E-02
        -0.29375E-02
        -0.29375E-02
        -0.29375E-02
        -0.29375E-02
        -0.29375E-02
        -0.29375E-02
        -0.29375E-02
        -0.29375E-02
        -0.29375E-02
        -0.29375E-02
        -0.29375E-02
        -0.29375E-02
        -0.29375E-02
        -0.29375E-02
        -0.29375E-02
        -0.29375E-02
        -0.29375E-02
        -0.29375E-02
        -0.29375E-02
        -0.29375E-02
        -0.29375E-02
        -0.29375E-02
        -0.29375E-02
        -0.29375E-02
        -0.29375E-02
        -0.29375E-02
        -0.29375E-02
        -0.29375E-02
        -0.29375E-02
        -0.29375E-02
        -0.29375E-02
        -0.29375E-02
        -0.29375E-02
        -0.29375E-02
        -0.29375E-02
        -0.29375E-02
        -0.29375E-02
        -0.29375E-02
        -0.29375E-02
        -0.29375E-02
        -0.29375E-02
        -0.29375E-02
        -0.29375E-02
        -0.29375E-02
        -0.29375E-02
        -0.29375E-02
        -0.19583E-02
        -0.19583E-02
        -0.19583E-02
        -0.19583E-02
        -0.19583E-02
        -0.19583E-02
        -0.19583E-02
        -0.19583E-02
        -0.19583E-02
        -0.19583E-02
        -0.19583E-02
        -0.19583E-02
        -0.19583E-02
        -0.19583E-02
        -0.19583E-02
        -0.19583E-02
        -0.19583E-02
        -0.19583E-02
        -0.19583E-02
        -0.19583E-02
        -0.19583E-02
        -0.19583E-02
        -0.19583E-02
        -0.19583E-02
        -0.19583E-02
        -0.19583E-02
        -0.19583E-02
        -0.19583E-02
        -0.19583E-02
        -0.19583E-02
        -0.19583E-02
        -0.19583E-02
        -0.19583E-02
        -0.19583E-02
        -0.19583E-02
        -0.19583E-02
        -0.19583E-02
        -0.19583E-02
        -0.19583E-02
        -0.19583E-02
        -0.19583E-02
        -0.19583E-02
        -0.19583E-02
        -0.19583E-02
        -0.19583E-02
        -0.19583E-02
        -0.19583E-02
        -0.19583E-02
        -0.19583E-02
        -0.19583E-02
        -0.19583E-02
        -0.19583E-02
        -0.19583E-02
        -0.19583E-02
        -0.19583E-02
        -0.19583E-02
        -0.19583E-02
        -0.19583E-02
        -0.19583E-02
        -0.19583E-02
        -0.19583E-02
        -0.19583E-02
        -0.19583E-02
        -0.19583E-02
        -0.19583E-02
        -0.19583E-02
        -0.19583E-02
        -0.19583E-02
        -0.19583E-02
        -0.19583E-02
        -0.19583E-02
        -0.19583E-02
        -0.19583E-02
        -0.19583E-02
        -0.19583E-02
        -0.19583E-02
        -0.19583E-02
        -0.19583E-02
        -0.97917E-03
        -0.97917E-03
        -0.97917E-03
        -0.97917E-03
        -0.97917E-03
        -0.97917E-03
        -0.97917E-03
        -0.97917E-03
        -0.97917E-03
        -0.97917E-03
        -0.97917E-03
        -0.97917E-03
        -0.97917E-03
        -0.97917E-03
        -0.97917E-03
        -0.97917E-03
        -0.97917E-03
        -0.97917E-03
        -0.97917E-03
        -0.97917E-03
        -0.97917E-03
        -0.97917E-03
        -0.97917E-03
        -0.97917E-03
        -0.97917E-03
        -0.97917E-03
        -0.97917E-03
        -0.97917E-03
        -0.97917E-03
        -0.97917E-03
        -0.97917E-03
        -0.97917E-03
        -0.97917E-03
        -0.97917E-03
        -0.97917E-03
        -0.97917E-03
        -0.97917E-03
        -0.97917E-03
        -0.97917E-03
        -0.97917E-03
        -0.97917E-03
        -0.97917E-03
        -0.97917E-03
        -0.97917E-03
        -0.97917E-03
        -0.97917E-03
        -0.97917E-03
        -0.97917E-03
        -0.97917E-03
        -0.97917E-03
        -0.97917E-03
        -0.97917E-03
        -0.97917E-03
        -0.97917E-03
        -0.97917E-03
        -0.97917E-03
        -0.97917E-03
        -0.97917E-03
        -0.97917E-03
        -0.97917E-03
        -0.97917E-03
        -0.97917E-03
        -0.97917E-03
        -0.97917E-03
        -0.97917E-03
        -0.97917E-03
        -0.97917E-03
        -0.97917E-03
        -0.97917E-03
        -0.97917E-03
        -0.97917E-03
        -0.97917E-03
        -0.97917E-03
        -0.97917E-03
        -0.97917E-03
        -0.97917E-03
        -0.97917E-03
        -0.97917E-03
         0.38917E-18
         0.44621E-18
         0.34485E-18
         0.23671E-18
         0.26613E-18
         0.16162E-18
         0.53980E-18
         0.50579E-18
         0.36337E-18
         0.48798E-18
         0.60712E-18
         0.67611E-18
         0.60634E-18
         0.60658E-18
         0.70997E-18
         0.20892E-18
         0.35894E-18
         0.21887E-18
         0.27638E-18
         0.38382E-18
         0.29058E-18
         0.40326E-18
         0.18564E-18
         0.19650E-18
         0.48570E-18
         0.12837E-18
         0.60589E-18
         0.60416E-18
         0.60524E-18
         0.49621E-18
         0.61582E-19
         0.32255E-19
         0.73874E-19
         0.78478E-19
         0.34514E-18
         0.42054E-18
         0.51644E-18
         0.72521E-18
         0.72233E-18
         0.70722E-18
         0.69126E-18
         0.61573E-18
         0.51484E-18
         0.91170E-19
         0.30347E-20
        -0.66516E-19
        -0.69988E-19
        -0.68643E-19
        -0.59779E-19
        -0.43507E-19
        -0.29471E-19
         0.53205E-19
         0.86819E-18
         0.00000E+00
         0.86819E-18
         0.86819E-18
         0.00000E+00
         0.00000E+00
         0.00000E+00
         0.17364E-17
         0.17364E-17
         0.17364E-17
         0.43410E-18
         0.43410E-18
         0.43410E-18
         0.00000E+00
         0.00000E+00
         0.00000E+00
         0.00000E+00
         0.00000E+00
         0.21705E-18
        -0.21705E-18
         0.00000E+00
         0.00000E+00
         0.00000E+00
        -0.32557E-18
         0.54262E-19
        -0.40697E-18
         0.97917E-03
         0.97917E-03
         0.97917E-03
         0.97917E-03
         0.97917E-03
         0.97917E-03
         0.97917E-03
         0.97917E-03
         0.97917E-03
         0.97917E-03
         0.97917E-03
         0.97917E-03
         0.97917E-03
         0.97917E-03
         0.97917E-03
         0.97917E-03
         0.97917E-03
         0.97917E-03
         0.97917E-03
         0.97917E-03
         0.97917E-03
         0.97917E-03
         0.97917E-03
         0.97917E-03
         0.97917E-03
         0.97917E-03
         0.97917E-03
         0.97917E-03
         0.97917E-03
         0.97917E-03
         0.97917E-03
         0.97917E-03
         0.97917E-03
         0.97917E-03
         0.97917E-03
         0.97917E-03
         0.97917E-03
         0.97917E-03
         0.97917E-03
         0.97917E-03
         0.97917E-03
         0.97917E-03
         0.97917E-03
         0.97917E-03
         0.97917E-03
         0.97917E-03
         0.97917E-03
         0.97917E-03
         0.97917E-03
         0.97917E-03
         0.97917E-03
         0.97917E-03
         0.97917E-03
         0.97917E-03
         0.97917E-03
         0.97917E-03
         0.97917E-03
         0.97917E-03
         0.97917E-03
         0.97917E-03
         0.97917E-03
         0.97917E-03
         0.97917E-03
         0.97917E-03
         0.97917E-03
         0.97917E-03
         0.97917E-03
         0.97917E-03
         0.97917E-03
         0.97917E-03
         0.97917E-03
         0.97917E-03
         0.97917E-03
         0.97917E-03
         0.97917E-03
         0.97917E-03
         0.97917E-03
         0.97917E-03
         0.19583E-02
         0.19583E-02
         0.19583E-02
         0.19583E-02
         0.19583E-02
         0.19583E-02
         0.19583E-02
         0.19583E-02
         0.19583E-02
         0.19583E-02
         0.19583E-02
         0.19583E-02
         0.19583E-02
         0.19583E-02
         0.19583E-02
         0.19583E-02
         0.19583E-02
         0.19583E-02
         0.19583E-02
         0.19583E-02
         0.19583E-02
         0.19583E-02
         0.19583E-02
         0.19583E-02
         0.19583E-02
         0.19583E-02
         0.19583E-02
         0.19583E-02
         0.19583E-02
         0.19583E-02
         0.19583E-02
         0.19583E-02
         0.19583E-02
         0.19583E-02
         0.19583E-02
         0.19583E-02
         0.19583E-02
         0.19583E-02
         0.19583E-02
         0.19583E-02
         0.19583E-02
         0.19583E-02
         0.19583E-02
         0.19583E-02
         0.19583E-02
         0.19583E-02
         0.19583E-02
         0.19583E-02
         0.19583E-02
         0.19583E-02
         0.19583E-02
         0.19583E-02
         0.19583E-02
         0.19583E-02
         0.19583E-02
         0.19583E-02
         0.19583E-02
         0.19583E-02
         0.19583E-02
         0.19583E-02
         0.19583E-02
         0.19583E-02
         0.19583E-02
         0.19583E-02
         0.19583E-02
         0.19583E-02
         0.19583E-02
         0.19583E-02
         0.19583E-02
         0.19583E-02
         0.19583E-02
         0.19583E-02
         0.19583E-02
         0.19583E-02
         0.19583E-02
         0.19583E-02
         0.19583E-02
         0.19583E-02
         0.29375E-02
         0.29375E-02
         0.29375E-02
         0.29375E-02
         0.29375E-02
         0.29375E-02
         0.29375E-02
         0.29375E-02
         0.29375E-02
         0.29375E-02
         0.29375E-02
         0.29375E-02
         0.29375E-02
         0.29375E-02
         0.29375E-02
         0.29375E-02
         0.29375E-02
         0.29375E-02
         0.29375E-02
         0.29375E-02
         0.29375E-02
         0.29375E-02
         0.29375E-02
         0.29375E-02
         0.29375E-02
         0.29375E-02
         0.29375E-02
         0.29375E-02
         0.29375E-02
         0.29375E-02
         0.29375E-02
         0.29375E-02
         0.29375E-02
         0.29375E-02
         0.29375E-02
         0.29375E-02
         0.29375E-02
         0.29375E-02
         0.29375E-02
         0.29375E-02
         0.29375E-02
         0.29375E-02
         0.29375E-02
         0.29375E-02
         0.29375E-02
         0.29375E-02
         0.29375E-02
         0.29375E-02
         0.29375E-02
         0.29375E-02
         0.29375E-02
         0.29375E-02
         0.29375E-02
         0.29375E-02
         0.29375E-02
         0.29375E-02
         0.29375E-02
         0.29375E-02
         0.29375E-02
         0.29375E-02
         0.29375E-02
         0.29375E-02
         0.29375E-02
         0.29375E-02
         0.29375E-02
         0.29375E-02
         0.29375E-02
         0.29375E-02
         0.29375E-02
         0.29375E-02
         0.29375E-02
         0.29375E-02
         0.29375E-02
         0.29375E-02
         0.29375E-02
         0.29375E-02
         0.29375E-02
         0.29375E-02
         0.39167E-02
         0.39167E-02
         0.39167E-02
         0.39167E-02
         0.39167E-02
         0.39167E-02
         0.39167E-02
         0.39167E-02
         0.39167E-02
         0.39167E-02
         0.39167E-02
         0.39167E-02
         0.39167E-02
         0.39167E-02
         0.39167E-02
         0.39167E-02
         0.39167E-02
         0.39167E-02
         0.39167E-02
         0.39167E-02
         0.39167E-02
         0.39167E-02
         0.39167E-02
         0.39167E-02
         0.39167E-02
         0.39167E-02
         0.39167E-02
         0.39167E-02
         0.39167E-02
         0.39167E-02
         0.39167E-02
         0.39167E-02
         0.39167E-02
         0.39167E-02
         0.39167E-02
         0.39167E-02
         0.39167E-02
         0.39167E-02
         0.39167E-02
         0.39167E-02
         0.39167E-02
         0.39167E-02
         0.39167E-02
         0.39167E-02
         0.39167E-02
         0.39167E-02
         0.39167E-02
         0.39167E-02
         0.39167E-02
         0.39167E-02
         0.39167E-02
         0.39167E-02
         0.39167E-02
         0.39167E-02
         0.39167E-02
         0.39167E-02
         0.39167E-02
         0.39167E-02
         0.39167E-02
         0.39167E-02
         0.39167E-02
         0.39167E-02
         0.39167E-02
         0.39167E-02
         0.39167E-02
         0.39167E-02
         0.39167E-02
         0.39167E-02
         0.39167E-02
         0.39167E-02
         0.39167E-02
         0.39167E-02
         0.39167E-02
         0.39167E-02
         0.39167E-02
         0.39167E-02
         0.39167E-02
         0.39167E-02
         0.48958E-02
         0.48958E-02
         0.48958E-02
         0.48958E-02
         0.48958E-02
         0.48958E-02
         0.48958E-02
         0.48958E-02
         0.48958E-02
         0.48958E-02
         0.48958E-02
         0.48958E-02
         0.48958E-02
         0.48958E-02
         0.48958E-02
         0.48958E-02
         0.48958E-02
         0.48958E-02
         0.48958E-02
         0.48958E-02
         0.48958E-02
         0.48958E-02
         0.48958E-02
         0.48958E-02
         0.48958E-02
         0.48958E-02
         0.48958E-02
         0.48958E-02
         0.48958E-02
         0.48958E-02
         0.48958E-02
         0.48958E-02
         0.48958E-02
         0.48958E-02
         0.48958E-02
         0.48958E-02
         0.48958E-02
         0.48958E-02
         0.48958E-02
         0.48958E-02
         0.48958E-02
         0.48958E-02
         0.48958E-02
         0.48958E-02
         0.48958E-02
         0.48958E-02
         0.48958E-02
         0.48958E-02
         0.48958E-02
         0.48958E-02
         0.48958E-02
         0.48958E-02
         0.48958E-02
         0.48958E-02
         0.48958E-02
         0.48958E-02
         0.48958E-02
         0.48958E-02
         0.48958E-02
         0.48958E-02
         0.48958E-02
         0.48958E-02
         0.48958E-02
         0.48958E-02
         0.48958E-02
         0.48958E-02
         0.48958E-02
         0.48958E-02
         0.48958E-02
         0.48958E-02
         0.48958E-02
         0.48958E-02
         0.48958E-02
         0.48958E-02
         0.48958E-02
         0.48958E-02
         0.48958E-02
         0.48958E-02
         0.58750E-02
         0.58750E-02
         0.58750E-02
         0.58750E-02
         0.58750E-02
         0.58750E-02
         0.58750E-02
         0.58750E-02
         0.58750E-02
         0.58750E-02
         0.58750E-02
         0.58750E-02
         0.58750E-02
         0.58750E-02
         0.58750E-02
         0.58750E-02
         0.58750E-02
         0.58750E-02
         0.58750E-02
         0.58750E-02
         0.58750E-02
         0.58750E-02
         0.58750E-02
         0.58750E-02
         0.58750E-02
         0.58750E-02
         0.58750E-02
         0.58750E-02
         0.58750E-02
         0.58750E-02
         0.58750E-02
         0.58750E-02
         0.58750E-02
         0.58750E-02
         0.58750E-02
         0.58750E-02
         0.58750E-02
         0.58750E-02
         0.58750E-02
         0.58750E-02
         0.58750E-02
         0.58750E-02
         0.58750E-02
         0.58750E-02
         0.58750E-02
         0.58750E-02
         0.58750E-02
         0.58750E-02
         0.58750E-02
         0.58750E-02
         0.58750E-02
         0.58750E-02
         0.58750E-02
         0.58750E-02
         0.58750E-02
         0.58750E-02
         0.58750E-02
         0.58750E-02
         0.58750E-02
         0.58750E-02
         0.58750E-02
         0.58750E-02
         0.58750E-02
         0.58750E-02
         0.58750E-02
         0.58750E-02
         0.58750E-02
         0.58750E-02
         0.58750E-02
         0.58750E-02
         0.58750E-02
         0.58750E-02
         0.58750E-02
         0.58750E-02
         0.58750E-02
         0.58750E-02
         0.58750E-02
         0.58750E-02
         0.68542E-02
         0.68542E-02
         0.68542E-02
         0.68542E-02
         0.68542E-02
         0.68542E-02
         0.68542E-02
         0.68542E-02
         0.68542E-02
         0.68542E-02
         0.68542E-02
         0.68542E-02
         0.68542E-02
         0.68542E-02
         0.68542E-02
         0.68542E-02
         0.68542E-02
         0.68542E-02
         0.68542E-02
         0.68542E-02
         0.68542E-02
         0.68542E-02
         0.68542E-02
         0.68542E-02
         0.68542E-02
         0.68542E-02
         0.68542E-02
         0.68542E-02
         0.68542E-02
         0.68542E-02
         0.68542E-02
         0.68542E-02
         0.68542E-02
         0.68542E-02
         0.68542E-02
         0.68542E-02
         0.68542E-02
         0.68542E-02
         0.68542E-02
         0.68542E-02
         0.68542E-02
         0.68542E-02
         0.68542E-02
         0.68542E-02
         0.68542E-02
         0.68542E-02
         0.68542E-02
         0.68542E-02
         0.68542E-02
         0.68542E-02
         0.68542E-02
         0.68542E-02
         0.68542E-02
         0.68542E-02
         0.68542E-02
         0.68542E-02
         0.68542E-02
         0.68542E-02
         0.68542E-02
         0.68542E-02
         0.68542E-02
         0.68542E-02
         0.68542E-02
         0.68542E-02
         0.68542E-02
         0.68542E-02
         0.68542E-02
         0.68542E-02
         0.68542E-02
         0.68542E-02
         0.68542E-02
         0.68542E-02
         0.68542E-02
         0.68542E-02
         0.68542E-02
         0.68542E-02
         0.68542E-02
         0.68542E-02
         0.78333E-02
         0.78333E-02
         0.78333E-02
         0.78333E-02
         0.78333E-02
         0.78333E-02
         0.78333E-02
         0.78333E-02
         0.78333E-02
         0.78333E-02
         0.78333E-02
         0.78333E-02
         0.78333E-02
         0.78333E-02
         0.78333E-02
         0.78333E-02
         0.78333E-02
         0.78333E-02
         0.78333E-02
         0.78333E-02
         0.78333E-02
         0.78333E-02
         0.78333E-02
         0.78333E-02
         0.78333E-02
         0.78333E-02
         0.78333E-02
         0.78333E-02
         0.78333E-02
         0.78333E-02
         0.78333E-02
         0.78333E-02
         0.78333E-02
         0.78333E-02
         0.78333E-02
         0.78333E-02
         0.78333E-02
         0.78333E-02
         0.78333E-02
         0.78333E-02
         0.78333E-02
         0.78333E-02
         0.78333E-02
         0.78333E-02
         0.78333E-02
         0.78333E-02
         0.78333E-02
         0.78333E-02
         0.78333E-02
         0.78333E-02
         0.78333E-02
         0.78333E-02
         0.78333E-02
         0.78333E-02
         0.78333E-02
         0.78333E-02
         0.78333E-02
         0.78333E-02
         0.78333E-02
         0.78333E-02
         0.78333E-02
         0.78333E-02
         0.78333E-02
         0.78333E-02
         0.78333E-02
         0.78333E-02
         0.78333E-02
         0.78333E-02
         0.78333E-02
         0.78333E-02
         0.78333E-02
         0.78333E-02
         0.78333E-02
         0.78333E-02
         0.78333E-02
         0.78333E-02
         0.78333E-02
         0.78333E-02
         0.88125E-02
         0.88125E-02
         0.88125E-02
         0.88125E-02
         0.88125E-02
         0.88125E-02
         0.88125E-02
         0.88125E-02
         0.88125E-02
         0.88125E-02
         0.88125E-02
         0.88125E-02
         0.88125E-02
         0.88125E-02
         0.88125E-02
         0.88125E-02
         0.88125E-02
         0.88125E-02
         0.88125E-02
         0.88125E-02
         0.88125E-02
         0.88125E-02
         0.88125E-02
         0.88125E-02
         0.88125E-02
         0.88125E-02
         0.88125E-02
         0.88125E-02
         0.88125E-02
         0.88125E-02
         0.88125E-02
         0.88125E-02
         0.88125E-02
         0.88125E-02
         0.88125E-02
         0.88125E-02
         0.88125E-02
         0.88125E-02
         0.88125E-02
         0.88125E-02
         0.88125E-02
         0.88125E-02
         0.88125E-02
         0.88125E-02
         0.88125E-02
         0.88125E-02
         0.88125E-02
         0.88125E-02
         0.88125E-02
         0.88125E-02
         0.88125E-02
         0.88125E-02
         0.88125E-02
         0.88125E-02
         0.88125E-02
         0.88125E-02
         0.88125E-02
         0.88125E-02
         0.88125E-02
         0.88125E-02
         0.88125E-02
         0.88125E-02
         0.88125E-02
         0.88125E-02
         0.88125E-02
         0.88125E-02
         0.88125E-02
         0.88125E-02
         0.88125E-02
         0.88125E-02
         0.88125E-02
         0.88125E-02
         0.88125E-02
         0.88125E-02
         0.88125E-02
         0.88125E-02
         0.88125E-02
         0.88125E-02
         0.97917E-02
         0.97917E-02
         0.97917E-02
         0.97917E-02
         0.97917E-02
         0.97917E-02
         0.97917E-02
         0.97917E-02
         0.97917E-02
         0.97917E-02
         0.97917E-02
         0.97917E-02
         0.97917E-02
         0.97917E-02
         0.97917E-02
         0.97917E-02
         0.97917E-02
         0.97917E-02
         0.97917E-02
         0.97917E-02
         0.97917E-02
         0.97917E-02
         0.97917E-02
         0.97917E-02
         0.97917E-02
         0.97917E-02
         0.97917E-02
         0.97917E-02
         0.97917E-02
         0.97917E-02
         0.97917E-02
         0.97917E-02
         0.97917E-02
         0.97917E-02
         0.97917E-02
         0.97917E-02
         0.97917E-02
         0.97917E-02
         0.97917E-02
         0.97917E-02
         0.97917E-02
         0.97917E-02
         0.97917E-02
         0.97917E-02
         0.97917E-02
         0.97917E-02
         0.97917E-02
         0.97917E-02
         0.97917E-02
         0.97917E-02
         0.97917E-02
         0.97917E-02
         0.97917E-02
         0.97917E-02
         0.97917E-02
         0.97917E-02
         0.97917E-02
         0.97917E-02
         0.97917E-02
         0.97917E-02
         0.97917E-02
         0.97917E-02
         0.97917E-02
         0.97917E-02
         0.97917E-02
         0.97917E-02
         0.97917E-02
         0.97917E-02
         0.97917E-02
         0.97917E-02
         0.97917E-02
         0.97917E-02
         0.97917E-02
         0.97917E-02
         0.97917E-02
         0.97917E-02
         0.97917E-02
         0.97917E-02
         0.10771E-01
         0.10771E-01
         0.10771E-01
         0.10771E-01
         0.10771E-01
         0.10771E-01
         0.10771E-01
         0.10771E-01
         0.10771E-01
         0.10771E-01
         0.10771E-01
         0.10771E-01
         0.10771E-01
         0.10771E-01
         0.10771E-01
         0.10771E-01
         0.10771E-01
         0.10771E-01
         0.10771E-01
         0.10771E-01
         0.10771E-01
         0.10771E-01
         0.10771E-01
         0.10771E-01
         0.10771E-01
         0.10771E-01
         0.10771E-01
         0.10771E-01
         0.10771E-01
         0.10771E-01
         0.10771E-01
         0.10771E-01
         0.10771E-01
         0.10771E-01
         0.10771E-01
         0.10771E-01
         0.10771E-01
         0.10771E-01
         0.10771E-01
         0.10771E-01
         0.10771E-01
         0.10771E-01
         0.10771E-01
         0.10771E-01
         0.10771E-01
         0.10771E-01
         0.10771E-01
         0.10771E-01
         0.10771E-01
         0.10771E-01
         0.10771E-01
         0.10771E-01
         0.10771E-01
         0.10771E-01
         0.10771E-01
         0.10771E-01
         0.10771E-01
         0.10771E-01
         0.10771E-01
         0.10771E-01
         0.10771E-01
         0.10771E-01
         0.10771E-01
         0.10771E-01
         0.10771E-01
         0.10771E-01
         0.10771E-01
         0.10771E-01
         0.10771E-01
         0.10771E-01
         0.10771E-01
         0.10771E-01
         0.10771E-01
         0.10771E-01
         0.10771E-01
         0.10771E-01
         0.10771E-01
         0.10771E-01
         0.11750E-01
         0.11750E-01
         0.11750E-01
         0.11750E-01
         0.11750E-01
         0.11750E-01
         0.11750E-01
         0.11750E-01
         0.11750E-01
         0.11750E-01
         0.11750E-01
         0.11750E-01
         0.11750E-01
         0.11750E-01
         0.11750E-01
         0.11750E-01
         0.11750E-01
         0.11750E-01
         0.11750E-01
         0.11750E-01
         0.11750E-01
         0.11750E-01
         0.11750E-01
         0.11750E-01
         0.11750E-01
         0.11750E-01
         0.11750E-01
         0.11750E-01
         0.11750E-01
         0.11750E-01
         0.11750E-01
         0.11750E-01
         0.11750E-01
         0.11750E-01
         0.11750E-01
         0.11750E-01
         0.11750E-01
         0.11750E-01
         0.11750E-01
         0.11750E-01
         0.11750E-01
         0.11750E-01
         0.11750E-01
         0.11750E-01
         0.11750E-01
         0.11750E-01
         0.11750E-01
         0.11750E-01
         0.11750E-01
         0.11750E-01
         0.11750E-01
         0.11750E-01
         0.11750E-01
         0.11750E-01
         0.11750E-01
         0.11750E-01
         0.11750E-01
         0.11750E-01
         0.11750E-01
         0.11750E-01
         0.11750E-01
         0.11750E-01
         0.11750E-01
         0.11750E-01
         0.11750E-01
         0.11750E-01
         0.11750E-01
         0.11750E-01
         0.11750E-01
         0.11750E-01
         0.11750E-01
         0.11750E-01
         0.11750E-01
         0.11750E-01
         0.11750E-01
         0.11750E-01
         0.11750E-01
         0.11750E-01
  
SCALARS                init_velocity_x  double 1
LOOKUP_TABLE default
         0.00000E+00
         0.00000E+00
         0.00000E+00
         0.00000E+00
         0.00000E+00
         0.00000E+00
         0.00000E+00
         0.00000E+00
         0.00000E+00
         0.00000E+00
         0.00000E+00
         0.00000E+00
         0.00000E+00
         0.00000E+00
         0.00000E+00
         0.00000E+00
         0.00000E+00
         0.00000E+00
         0.00000E+00
         0.00000E+00
         0.00000E+00
         0.00000E+00
         0.00000E+00
         0.00000E+00
         0.00000E+00
         0.00000E+00
         0.00000E+00
         0.00000E+00
         0.00000E+00
         0.00000E+00
         0.00000E+00
         0.00000E+00
         0.00000E+00
         0.00000E+00
         0.00000E+00
         0.00000E+00
         0.00000E+00
         0.00000E+00
         0.00000E+00
         0.00000E+00
         0.00000E+00
         0.00000E+00
         0.00000E+00
         0.00000E+00
         0.00000E+00
         0.00000E+00
         0.00000E+00
         0.00000E+00
         0.00000E+00
         0.00000E+00
         0.00000E+00
         0.00000E+00
         0.00000E+00
         0.00000E+00
         0.00000E+00
         0.00000E+00
         0.00000E+00
         0.00000E+00
         0.00000E+00
         0.00000E+00
         0.00000E+00
         0.00000E+00
         0.00000E+00
         0.00000E+00
         0.00000E+00
         0.00000E+00
         0.00000E+00
         0.00000E+00
         0.00000E+00
         0.00000E+00
         0.00000E+00
         0.00000E+00
         0.00000E+00
         0.00000E+00
         0.00000E+00
         0.00000E+00
         0.00000E+00
         0.00000E+00
         0.00000E+00
         0.00000E+00
         0.00000E+00
         0.00000E+00
         0.00000E+00
         0.00000E+00
         0.00000E+00
         0.00000E+00
         0.00000E+00
         0.00000E+00
         0.00000E+00
         0.00000E+00
         0.00000E+00
         0.00000E+00
         0.00000E+00
         0.00000E+00
         0.00000E+00
         0.00000E+00
         0.00000E+00
         0.00000E+00
         0.00000E+00
         0.00000E+00
         0.00000E+00
         0.00000E+00
         0.00000E+00
         0.00000E+00
         0.00000E+00
         0.00000E+00
         0.00000E+00
         0.00000E+00
         0.00000E+00
         0.00000E+00
         0.00000E+00
         0.00000E+00
         0.00000E+00
         0.00000E+00
         0.00000E+00
         0.00000E+00
         0.00000E+00
         0.00000E+00
         0.00000E+00
         0.00000E+00
         0.00000E+00
         0.00000E+00
         0.00000E+00
         0.00000E+00
         0.00000E+00
         0.00000E+00
         0.00000E+00
         0.00000E+00
         0.00000E+00
         0.00000E+00
         0.00000E+00
         0.00000E+00
         0.00000E+00
         0.00000E+00
         0.00000E+00
         0.00000E+00
         0.00000E+00
         0.00000E+00
         0.00000E+00
         0.00000E+00
         0.00000E+00
         0.00000E+00
         0.00000E+00
         0.00000E+00
         0.00000E+00
         0.00000E+00
         0.00000E+00
         0.00000E+00
         0.00000E+00
         0.00000E+00
         0.00000E+00
         0.00000E+00
         0.00000E+00
         0.00000E+00
         0.00000E+00
         0.00000E+00
         0.00000E+00
         0.00000E+00
         0.00000E+00
         0.00000E+00
         0.00000E+00
         0.00000E+00
         0.00000E+00
         0.00000E+00
         0.00000E+00
         0.00000E+00
         0.00000E+00
         0.00000E+00
         0.00000E+00
         0.00000E+00
         0.00000E+00
         0.00000E+00
         0.00000E+00
         0.00000E+00
         0.00000E+00
         0.00000E+00
         0.00000E+00
         0.00000E+00
         0.00000E+00
         0.00000E+00
         0.00000E+00
         0.00000E+00
         0.00000E+00
         0.00000E+00
         0.00000E+00
         0.00000E+00
         0.00000E+00
         0.00000E+00
         0.00000E+00
         0.00000E+00
         0.00000E+00
         0.00000E+00
         0.00000E+00
         0.00000E+00
         0.00000E+00
         0.00000E+00
         0.00000E+00
         0.00000E+00
         0.00000E+00
         0.00000E+00
         0.00000E+00
         0.00000E+00
         0.00000E+00
         0.00000E+00
         0.00000E+00
         0.00000E+00
         0.00000E+00
         0.00000E+00
         0.00000E+00
         0.00000E+00
         0.00000E+00
         0.00000E+00
         0.00000E+00
         0.00000E+00
         0.00000E+00
         0.00000E+00
         0.00000E+00
         0.00000E+00
         0.00000E+00
         0.00000E+00
         0.00000E+00
         0.00000E+00
         0.00000E+00
         0.00000E+00
         0.00000E+00
         0.00000E+00
         0.00000E+00
         0.00000E+00
         0.00000E+00
         0.00000E+00
         0.00000E+00
         0.00000E+00
         0.00000E+00
         0.00000E+00
         0.00000E+00
         0.00000E+00
         0.00000E+00
         0.00000E+00
         0.00000E+00
         0.00000E+00
         0.00000E+00
         0.00000E+00
         0.00000E+00
         0.00000E+00
         0.00000E+00
         0.00000E+00
         0.00000E+00
         0.00000E+00
         0.00000E+00
         0.00000E+00
         0.00000E+00
         0.00000E+00
         0.00000E+00
         0.00000E+00
         0.00000E+00
         0.00000E+00
         0.00000E+00
         0.00000E+00
         0.00000E+00
         0.00000E+00
         0.00000E+00
         0.00000E+00
         0.00000E+00
         0.00000E+00
         0.00000E+00
         0.00000E+00
         0.00000E+00
         0.00000E+00
         0.00000E+00
         0.00000E+00
         0.00000E+00
         0.00000E+00
         0.00000E+00
         0.00000E+00
         0.00000E+00
         0.00000E+00
         0.00000E+00
         0.00000E+00
         0.00000E+00
         0.00000E+00
         0.00000E+00
         0.00000E+00
         0.00000E+00
         0.00000E+00
         0.00000E+00
         0.00000E+00
         0.00000E+00
         0.00000E+00
         0.00000E+00
         0.00000E+00
         0.00000E+00
         0.00000E+00
         0.00000E+00
         0.00000E+00
         0.00000E+00
         0.00000E+00
         0.00000E+00
         0.00000E+00
         0.00000E+00
         0.00000E+00
         0.00000E+00
         0.00000E+00
         0.00000E+00
         0.00000E+00
         0.00000E+00
         0.00000E+00
         0.00000E+00
         0.00000E+00
         0.00000E+00
         0.00000E+00
         0.00000E+00
         0.00000E+00
         0.00000E+00
         0.00000E+00
         0.00000E+00
         0.00000E+00
         0.00000E+00
         0.00000E+00
         0.00000E+00
         0.00000E+00
         0.00000E+00
         0.00000E+00
         0.00000E+00
         0.00000E+00
         0.00000E+00
         0.00000E+00
         0.00000E+00
         0.00000E+00
         0.00000E+00
         0.00000E+00
         0.00000E+00
         0.00000E+00
         0.00000E+00
         0.00000E+00
         0.00000E+00
         0.00000E+00
         0.00000E+00
         0.00000E+00
         0.00000E+00
         0.00000E+00
         0.00000E+00
         0.00000E+00
         0.00000E+00
         0.00000E+00
         0.00000E+00
         0.00000E+00
         0.00000E+00
         0.00000E+00
         0.00000E+00
         0.00000E+00
         0.00000E+00
         0.00000E+00
         0.00000E+00
         0.00000E+00
         0.00000E+00
         0.00000E+00
         0.00000E+00
         0.00000E+00
         0.00000E+00
         0.00000E+00
         0.00000E+00
         0.00000E+00
         0.00000E+00
         0.00000E+00
         0.00000E+00
         0.00000E+00
         0.00000E+00
         0.00000E+00
         0.00000E+00
         0.00000E+00
         0.00000E+00
         0.00000E+00
         0.00000E+00
         0.00000E+00
         0.00000E+00
         0.00000E+00
         0.00000E+00
         0.00000E+00
         0.00000E+00
         0.00000E+00
         0.00000E+00
         0.00000E+00
         0.00000E+00
         0.00000E+00
         0.00000E+00
         0.00000E+00
         0.00000E+00
         0.00000E+00
         0.00000E+00
         0.00000E+00
         0.00000E+00
         0.00000E+00
         0.00000E+00
         0.00000E+00
         0.00000E+00
         0.00000E+00
         0.00000E+00
         0.00000E+00
         0.00000E+00
         0.00000E+00
         0.00000E+00
         0.00000E+00
         0.00000E+00
         0.00000E+00
         0.00000E+00
         0.00000E+00
         0.00000E+00
         0.00000E+00
         0.00000E+00
         0.00000E+00
         0.00000E+00
         0.00000E+00
         0.00000E+00
         0.00000E+00
         0.00000E+00
         0.00000E+00
         0.00000E+00
         0.00000E+00
         0.00000E+00
         0.00000E+00
         0.00000E+00
         0.00000E+00
         0.00000E+00
         0.00000E+00
         0.00000E+00
         0.00000E+00
         0.00000E+00
         0.00000E+00
         0.00000E+00
         0.00000E+00
         0.00000E+00
         0.00000E+00
         0.00000E+00
         0.00000E+00
         0.00000E+00
         0.00000E+00
         0.00000E+00
         0.00000E+00
         0.00000E+00
         0.00000E+00
         0.00000E+00
         0.00000E+00
         0.00000E+00
         0.00000E+00
         0.00000E+00
         0.00000E+00
         0.00000E+00
         0.00000E+00
         0.00000E+00
         0.00000E+00
         0.00000E+00
         0.00000E+00
         0.00000E+00
         0.00000E+00
         0.00000E+00
         0.00000E+00
         0.00000E+00
         0.00000E+00
         0.00000E+00
         0.00000E+00
         0.00000E+00
         0.00000E+00
         0.00000E+00
         0.00000E+00
         0.00000E+00
         0.00000E+00
         0.00000E+00
         0.00000E+00
         0.00000E+00
         0.00000E+00
         0.00000E+00
         0.00000E+00
         0.00000E+00
         0.00000E+00
         0.00000E+00
         0.00000E+00
         0.00000E+00
         0.00000E+00
         0.00000E+00
         0.00000E+00
         0.00000E+00
         0.00000E+00
         0.00000E+00
         0.00000E+00
         0.00000E+00
         0.00000E+00
         0.00000E+00
         0.00000E+00
         0.00000E+00
         0.00000E+00
         0.00000E+00
         0.00000E+00
         0.00000E+00
         0.00000E+00
         0.00000E+00
         0.00000E+00
         0.00000E+00
         0.00000E+00
         0.00000E+00
         0.00000E+00
         0.00000E+00
         0.00000E+00
         0.00000E+00
         0.00000E+00
         0.00000E+00
         0.00000E+00
         0.00000E+00
         0.00000E+00
         0.00000E+00
         0.00000E+00
         0.00000E+00
         0.00000E+00
         0.00000E+00
         0.00000E+00
         0.00000E+00
         0.00000E+00
         0.00000E+00
         0.00000E+00
         0.00000E+00
         0.00000E+00
         0.00000E+00
         0.00000E+00
         0.00000E+00
         0.00000E+00
         0.00000E+00
         0.00000E+00
         0.00000E+00
         0.00000E+00
         0.00000E+00
         0.00000E+00
         0.00000E+00
         0.00000E+00
         0.00000E+00
         0.00000E+00
         0.00000E+00
         0.00000E+00
         0.00000E+00
         0.00000E+00
         0.00000E+00
         0.00000E+00
         0.00000E+00
         0.00000E+00
         0.00000E+00
         0.00000E+00
         0.00000E+00
         0.00000E+00
         0.00000E+00
         0.00000E+00
         0.00000E+00
         0.00000E+00
         0.00000E+00
         0.00000E+00
         0.00000E+00
         0.00000E+00
         0.00000E+00
         0.00000E+00
         0.00000E+00
         0.00000E+00
         0.00000E+00
         0.00000E+00
         0.00000E+00
         0.00000E+00
         0.00000E+00
         0.00000E+00
         0.00000E+00
         0.00000E+00
         0.00000E+00
         0.00000E+00
         0.00000E+00
         0.00000E+00
         0.00000E+00
         0.00000E+00
         0.00000E+00
         0.00000E+00
         0.00000E+00
         0.00000E+00
         0.00000E+00
         0.00000E+00
         0.00000E+00
         0.00000E+00
         0.00000E+00
         0.00000E+00
         0.00000E+00
         0.00000E+00
         0.00000E+00
         0.00000E+00
         0.00000E+00
         0.00000E+00
         0.00000E+00
         0.00000E+00
         0.00000E+00
         0.00000E+00
         0.00000E+00
         0.00000E+00
         0.00000E+00
         0.00000E+00
         0.00000E+00
         0.00000E+00
         0.00000E+00
         0.00000E+00
         0.00000E+00
         0.00000E+00
         0.00000E+00
         0.00000E+00
         0.00000E+00
         0.00000E+00
         0.00000E+00
         0.00000E+00
         0.00000E+00
         0.00000E+00
         0.00000E+00
         0.00000E+00
         0.00000E+00
         0.00000E+00
         0.00000E+00
         0.00000E+00
         0.00000E+00
         0.00000E+00
         0.00000E+00
         0.00000E+00
         0.00000E+00
         0.00000E+00
         0.00000E+00
         0.00000E+00
         0.00000E+00
         0.00000E+00
         0.00000E+00
         0.00000E+00
         0.00000E+00
         0.00000E+00
         0.00000E+00
         0.00000E+00
         0.00000E+00
         0.00000E+00
         0.00000E+00
         0.00000E+00
         0.00000E+00
         0.00000E+00
         0.00000E+00
         0.00000E+00
         0.00000E+00
         0.00000E+00
         0.00000E+00
         0.00000E+00
         0.00000E+00
         0.00000E+00
         0.00000E+00
         0.00000E+00
         0.00000E+00
         0.00000E+00
         0.00000E+00
         0.00000E+00
         0.00000E+00
         0.00000E+00
         0.00000E+00
         0.00000E+00
         0.00000E+00
         0.00000E+00
         0.00000E+00
         0.00000E+00
         0.00000E+00
         0.00000E+00
         0.00000E+00
         0.00000E+00
         0.00000E+00
         0.00000E+00
         0.00000E+00
         0.00000E+00
         0.00000E+00
         0.00000E+00
         0.00000E+00
         0.00000E+00
         0.00000E+00
         0.00000E+00
         0.00000E+00
         0.00000E+00
         0.00000E+00
         0.00000E+00
         0.00000E+00
         0.00000E+00
         0.00000E+00
         0.00000E+00
         0.00000E+00
         0.00000E+00
         0.00000E+00
         0.00000E+00
         0.00000E+00
         0.00000E+00
         0.00000E+00
         0.00000E+00
         0.00000E+00
         0.00000E+00
         0.00000E+00
         0.00000E+00
         0.00000E+00
         0.00000E+00
         0.00000E+00
         0.00000E+00
         0.00000E+00
         0.00000E+00
         0.00000E+00
         0.00000E+00
         0.00000E+00
         0.00000E+00
         0.00000E+00
         0.00000E+00
         0.00000E+00
         0.00000E+00
         0.00000E+00
         0.00000E+00
         0.00000E+00
         0.00000E+00
         0.00000E+00
         0.00000E+00
         0.00000E+00
         0.00000E+00
         0.00000E+00
         0.00000E+00
         0.00000E+00
         0.00000E+00
         0.00000E+00
         0.00000E+00
         0.00000E+00
         0.00000E+00
         0.00000E+00
         0.00000E+00
         0.00000E+00
         0.00000E+00
         0.00000E+00
         0.00000E+00
         0.00000E+00
         0.00000E+00
         0.00000E+00
         0.00000E+00
         0.00000E+00
         0.00000E+00
         0.00000E+00
         0.00000E+00
         0.00000E+00
         0.00000E+00
         0.00000E+00
         0.00000E+00
         0.00000E+00
         0.00000E+00
         0.00000E+00
         0.00000E+00
         0.00000E+00
         0.00000E+00
         0.00000E+00
         0.00000E+00
         0.00000E+00
         0.00000E+00
         0.00000E+00
         0.00000E+00
         0.00000E+00
         0.00000E+00
         0.00000E+00
         0.00000E+00
         0.00000E+00
         0.00000E+00
         0.00000E+00
         0.00000E+00
         0.00000E+00
         0.00000E+00
         0.00000E+00
         0.00000E+00
         0.00000E+00
         0.00000E+00
         0.00000E+00
         0.00000E+00
         0.00000E+00
         0.00000E+00
         0.00000E+00
         0.00000E+00
         0.00000E+00
         0.00000E+00
         0.00000E+00
         0.00000E+00
         0.00000E+00
         0.00000E+00
         0.00000E+00
         0.00000E+00
         0.00000E+00
         0.00000E+00
         0.00000E+00
         0.00000E+00
         0.00000E+00
         0.00000E+00
         0.00000E+00
         0.00000E+00
         0.00000E+00
         0.00000E+00
         0.00000E+00
         0.00000E+00
         0.00000E+00
         0.00000E+00
         0.00000E+00
         0.00000E+00
         0.00000E+00
         0.00000E+00
         0.00000E+00
         0.00000E+00
         0.00000E+00
         0.00000E+00
         0.00000E+00
         0.00000E+00
         0.00000E+00
         0.00000E+00
         0.00000E+00
         0.00000E+00
         0.00000E+00
         0.00000E+00
         0.00000E+00
         0.00000E+00
         0.00000E+00
         0.00000E+00
         0.00000E+00
         0.00000E+00
         0.00000E+00
         0.00000E+00
         0.00000E+00
         0.00000E+00
         0.00000E+00
         0.00000E+00
         0.00000E+00
         0.00000E+00
         0.00000E+00
         0.00000E+00
         0.00000E+00
         0.00000E+00
         0.00000E+00
         0.00000E+00
         0.00000E+00
         0.00000E+00
         0.00000E+00
         0.00000E+00
         0.00000E+00
         0.00000E+00
         0.00000E+00
         0.00000E+00
         0.00000E+00
         0.00000E+00
         0.00000E+00
         0.00000E+00
         0.00000E+00
         0.00000E+00
         0.00000E+00
         0.00000E+00
         0.00000E+00
         0.00000E+00
         0.00000E+00
         0.00000E+00
         0.00000E+00
         0.00000E+00
         0.00000E+00
         0.00000E+00
         0.00000E+00
         0.00000E+00
         0.00000E+00
         0.00000E+00
         0.00000E+00
         0.00000E+00
         0.00000E+00
         0.00000E+00
         0.00000E+00
         0.00000E+00
         0.00000E+00
         0.00000E+00
         0.00000E+00
         0.00000E+00
         0.00000E+00
         0.00000E+00
         0.00000E+00
         0.00000E+00
         0.00000E+00
         0.00000E+00
         0.00000E+00
         0.00000E+00
         0.00000E+00
         0.00000E+00
         0.00000E+00
         0.00000E+00
         0.00000E+00
         0.00000E+00
         0.00000E+00
         0.00000E+00
         0.00000E+00
         0.00000E+00
         0.00000E+00
         0.00000E+00
         0.00000E+00
         0.00000E+00
         0.00000E+00
         0.00000E+00
         0.00000E+00
         0.00000E+00
         0.00000E+00
         0.00000E+00
         0.00000E+00
         0.00000E+00
         0.00000E+00
         0.00000E+00
         0.00000E+00
         0.00000E+00
         0.00000E+00
         0.00000E+00
         0.00000E+00
         0.00000E+00
         0.00000E+00
         0.00000E+00
         0.00000E+00
         0.00000E+00
         0.00000E+00
         0.00000E+00
         0.00000E+00
         0.00000E+00
         0.00000E+00
         0.00000E+00
         0.00000E+00
         0.00000E+00
         0.00000E+00
         0.00000E+00
         0.00000E+00
         0.00000E+00
         0.00000E+00
         0.00000E+00
         0.00000E+00
         0.00000E+00
         0.00000E+00
         0.00000E+00
         0.00000E+00
         0.00000E+00
         0.00000E+00
         0.00000E+00
         0.00000E+00
         0.00000E+00
         0.00000E+00
         0.00000E+00
         0.00000E+00
         0.00000E+00
         0.00000E+00
         0.00000E+00
         0.00000E+00
         0.00000E+00
         0.00000E+00
         0.00000E+00
         0.00000E+00
         0.00000E+00
         0.00000E+00
         0.00000E+00
         0.00000E+00
         0.00000E+00
         0.00000E+00
         0.00000E+00
         0.00000E+00
         0.00000E+00
         0.00000E+00
         0.00000E+00
         0.00000E+00
         0.00000E+00
         0.00000E+00
         0.00000E+00
         0.00000E+00
         0.00000E+00
         0.00000E+00
         0.00000E+00
         0.00000E+00
         0.00000E+00
         0.00000E+00
         0.00000E+00
         0.00000E+00
         0.00000E+00
         0.00000E+00
         0.00000E+00
         0.00000E+00
         0.00000E+00
         0.00000E+00
         0.00000E+00
         0.00000E+00
         0.00000E+00
         0.00000E+00
         0.00000E+00
         0.00000E+00
         0.00000E+00
         0.00000E+00
         0.00000E+00
         0.00000E+00
         0.00000E+00
         0.00000E+00
         0.00000E+00
         0.00000E+00
         0.00000E+00
         0.00000E+00
         0.00000E+00
         0.00000E+00
         0.00000E+00
         0.00000E+00
         0.00000E+00
         0.00000E+00
         0.00000E+00
         0.00000E+00
         0.00000E+00
         0.00000E+00
         0.00000E+00
         0.00000E+00
         0.00000E+00
         0.00000E+00
         0.00000E+00
         0.00000E+00
         0.00000E+00
         0.00000E+00
         0.00000E+00
         0.00000E+00
         0.00000E+00
         0.00000E+00
         0.00000E+00
         0.00000E+00
         0.00000E+00
         0.00000E+00
         0.00000E+00
         0.00000E+00
         0.00000E+00
         0.00000E+00
         0.00000E+00
         0.00000E+00
         0.00000E+00
         0.00000E+00
         0.00000E+00
         0.00000E+00
         0.00000E+00
         0.00000E+00
         0.00000E+00
         0.00000E+00
         0.00000E+00
         0.00000E+00
         0.00000E+00
         0.00000E+00
         0.00000E+00
         0.00000E+00
         0.00000E+00
         0.00000E+00
         0.00000E+00
         0.00000E+00
         0.00000E+00
         0.00000E+00
         0.00000E+00
         0.00000E+00
         0.00000E+00
         0.00000E+00
         0.00000E+00
         0.00000E+00
         0.00000E+00
         0.00000E+00
         0.00000E+00
         0.00000E+00
         0.00000E+00
         0.00000E+00
         0.00000E+00
         0.00000E+00
         0.00000E+00
         0.00000E+00
         0.00000E+00
         0.00000E+00
         0.00000E+00
         0.00000E+00
         0.00000E+00
         0.00000E+00
         0.00000E+00
         0.00000E+00
         0.00000E+00
         0.00000E+00
         0.00000E+00
         0.00000E+00
         0.00000E+00
         0.00000E+00
         0.00000E+00
         0.00000E+00
         0.00000E+00
         0.00000E+00
         0.00000E+00
         0.00000E+00
         0.00000E+00
         0.00000E+00
         0.00000E+00
         0.00000E+00
         0.00000E+00
         0.00000E+00
         0.00000E+00
         0.00000E+00
         0.00000E+00
         0.00000E+00
         0.00000E+00
         0.00000E+00
         0.00000E+00
         0.00000E+00
         0.00000E+00
         0.00000E+00
         0.00000E+00
         0.00000E+00
         0.00000E+00
         0.00000E+00
         0.00000E+00
         0.00000E+00
         0.00000E+00
         0.00000E+00
         0.00000E+00
         0.00000E+00
         0.00000E+00
         0.00000E+00
         0.00000E+00
         0.00000E+00
         0.00000E+00
         0.00000E+00
         0.00000E+00
         0.00000E+00
         0.00000E+00
         0.00000E+00
         0.00000E+00
         0.00000E+00
         0.00000E+00
         0.00000E+00
         0.00000E+00
         0.00000E+00
         0.00000E+00
         0.00000E+00
         0.00000E+00
         0.00000E+00
         0.00000E+00
         0.00000E+00
         0.00000E+00
         0.00000E+00
         0.00000E+00
         0.00000E+00
         0.00000E+00
         0.00000E+00
         0.00000E+00
         0.00000E+00
         0.00000E+00
         0.00000E+00
         0.00000E+00
         0.00000E+00
         0.00000E+00
         0.00000E+00
         0.00000E+00
         0.00000E+00
         0.00000E+00
         0.00000E+00
         0.00000E+00
         0.00000E+00
         0.00000E+00
         0.00000E+00
         0.00000E+00
         0.00000E+00
         0.00000E+00
         0.00000E+00
         0.00000E+00
         0.00000E+00
         0.00000E+00
         0.00000E+00
         0.00000E+00
         0.00000E+00
         0.00000E+00
         0.00000E+00
         0.00000E+00
         0.00000E+00
         0.00000E+00
         0.00000E+00
         0.00000E+00
         0.00000E+00
         0.00000E+00
         0.00000E+00
         0.00000E+00
         0.00000E+00
         0.00000E+00
         0.00000E+00
         0.00000E+00
         0.00000E+00
         0.00000E+00
         0.00000E+00
         0.00000E+00
         0.00000E+00
         0.00000E+00
         0.00000E+00
         0.00000E+00
         0.00000E+00
         0.00000E+00
         0.00000E+00
         0.00000E+00
         0.00000E+00
         0.00000E+00
         0.00000E+00
         0.00000E+00
         0.00000E+00
         0.00000E+00
         0.00000E+00
         0.00000E+00
         0.00000E+00
         0.00000E+00
         0.00000E+00
         0.00000E+00
         0.00000E+00
         0.00000E+00
         0.00000E+00
         0.00000E+00
         0.00000E+00
         0.00000E+00
         0.00000E+00
         0.00000E+00
         0.00000E+00
         0.00000E+00
         0.00000E+00
         0.00000E+00
         0.00000E+00
         0.00000E+00
         0.00000E+00
         0.00000E+00
         0.00000E+00
         0.00000E+00
         0.00000E+00
         0.00000E+00
         0.00000E+00
         0.00000E+00
         0.00000E+00
         0.00000E+00
         0.00000E+00
         0.00000E+00
         0.00000E+00
         0.00000E+00
         0.00000E+00
         0.00000E+00
         0.00000E+00
         0.00000E+00
         0.00000E+00
         0.00000E+00
         0.00000E+00
         0.00000E+00
         0.00000E+00
         0.00000E+00
         0.00000E+00
         0.00000E+00
         0.00000E+00
         0.00000E+00
         0.00000E+00
         0.00000E+00
         0.00000E+00
         0.00000E+00
         0.00000E+00
         0.00000E+00
         0.00000E+00
         0.00000E+00
         0.00000E+00
         0.00000E+00
         0.00000E+00
         0.00000E+00
         0.00000E+00
         0.00000E+00
         0.00000E+00
         0.00000E+00
         0.00000E+00
         0.00000E+00
         0.00000E+00
         0.00000E+00
         0.00000E+00
         0.00000E+00
         0.00000E+00
         0.00000E+00
         0.00000E+00
         0.00000E+00
         0.00000E+00
         0.00000E+00
         0.00000E+00
         0.00000E+00
         0.00000E+00
         0.00000E+00
         0.00000E+00
         0.00000E+00
         0.00000E+00
         0.00000E+00
         0.00000E+00
         0.00000E+00
         0.00000E+00
         0.00000E+00
         0.00000E+00
         0.00000E+00
         0.00000E+00
         0.00000E+00
         0.00000E+00
         0.00000E+00
         0.00000E+00
         0.00000E+00
         0.00000E+00
         0.00000E+00
         0.00000E+00
         0.00000E+00
         0.00000E+00
         0.00000E+00
         0.00000E+00
         0.00000E+00
         0.00000E+00
         0.00000E+00
         0.00000E+00
         0.00000E+00
         0.00000E+00
         0.00000E+00
         0.00000E+00
         0.00000E+00
         0.00000E+00
         0.00000E+00
         0.00000E+00
         0.00000E+00
         0.00000E+00
         0.00000E+00
         0.00000E+00
         0.00000E+00
         0.00000E+00
         0.00000E+00
         0.00000E+00
         0.00000E+00
         0.00000E+00
         0.00000E+00
         0.00000E+00
         0.00000E+00
         0.00000E+00
         0.00000E+00
         0.00000E+00
         0.00000E+00
         0.00000E+00
         0.00000E+00
         0.00000E+00
         0.00000E+00
         0.00000E+00
         0.00000E+00
         0.00000E+00
         0.00000E+00
         0.00000E+00
         0.00000E+00
         0.00000E+00
         0.00000E+00
         0.00000E+00
         0.00000E+00
         0.00000E+00
         0.00000E+00
         0.00000E+00
         0.00000E+00
         0.00000E+00
         0.00000E+00
         0.00000E+00
         0.00000E+00
         0.00000E+00
         0.00000E+00
         0.00000E+00
         0.00000E+00
         0.00000E+00
         0.00000E+00
         0.00000E+00
         0.00000E+00
         0.00000E+00
         0.00000E+00
         0.00000E+00
         0.00000E+00
         0.00000E+00
         0.00000E+00
         0.00000E+00
         0.00000E+00
         0.00000E+00
         0.00000E+00
         0.00000E+00
         0.00000E+00
         0.00000E+00
         0.00000E+00
         0.00000E+00
         0.00000E+00
         0.00000E+00
         0.00000E+00
         0.00000E+00
         0.00000E+00
         0.00000E+00
         0.00000E+00
         0.00000E+00
         0.00000E+00
         0.00000E+00
         0.00000E+00
         0.00000E+00
         0.00000E+00
         0.00000E+00
         0.00000E+00
         0.00000E+00
         0.00000E+00
         0.00000E+00
         0.00000E+00
         0.00000E+00
         0.00000E+00
         0.00000E+00
         0.00000E+00
         0.00000E+00
         0.00000E+00
         0.00000E+00
         0.00000E+00
         0.00000E+00
         0.00000E+00
         0.00000E+00
         0.00000E+00
         0.00000E+00
         0.00000E+00
         0.00000E+00
         0.00000E+00
         0.00000E+00
         0.00000E+00
         0.00000E+00
         0.00000E+00
         0.00000E+00
         0.00000E+00
         0.00000E+00
         0.00000E+00
         0.00000E+00
         0.00000E+00
         0.00000E+00
         0.00000E+00
         0.00000E+00
         0.00000E+00
         0.00000E+00
         0.00000E+00
         0.00000E+00
         0.00000E+00
         0.00000E+00
         0.00000E+00
         0.00000E+00
         0.00000E+00
         0.00000E+00
         0.00000E+00
         0.00000E+00
         0.00000E+00
         0.00000E+00
         0.00000E+00
         0.00000E+00
         0.00000E+00
         0.00000E+00
         0.00000E+00
         0.00000E+00
         0.00000E+00
         0.00000E+00
         0.00000E+00
         0.00000E+00
         0.00000E+00
         0.00000E+00
         0.00000E+00
         0.00000E+00
         0.00000E+00
         0.00000E+00
         0.00000E+00
         0.00000E+00
         0.00000E+00
         0.00000E+00
         0.00000E+00
         0.00000E+00
         0.00000E+00
         0.00000E+00
         0.00000E+00
         0.00000E+00
         0.00000E+00
         0.00000E+00
         0.00000E+00
         0.00000E+00
         0.00000E+00
         0.00000E+00
         0.00000E+00
         0.00000E+00
         0.00000E+00
         0.00000E+00
         0.00000E+00
         0.00000E+00
         0.00000E+00
         0.00000E+00
         0.00000E+00
         0.00000E+00
         0.00000E+00
         0.00000E+00
         0.00000E+00
         0.00000E+00
         0.00000E+00
         0.00000E+00
         0.00000E+00
         0.00000E+00
         0.00000E+00
         0.00000E+00
         0.00000E+00
         0.00000E+00
         0.00000E+00
         0.00000E+00
         0.00000E+00
         0.00000E+00
         0.00000E+00
         0.00000E+00
         0.00000E+00
         0.00000E+00
         0.00000E+00
         0.00000E+00
         0.00000E+00
         0.00000E+00
         0.00000E+00
         0.00000E+00
         0.00000E+00
         0.00000E+00
         0.00000E+00
         0.00000E+00
         0.00000E+00
         0.00000E+00
         0.00000E+00
         0.00000E+00
         0.00000E+00
         0.00000E+00
         0.00000E+00
         0.00000E+00
         0.00000E+00
         0.00000E+00
         0.00000E+00
         0.00000E+00
         0.00000E+00
         0.00000E+00
         0.00000E+00
         0.00000E+00
         0.00000E+00
         0.00000E+00
         0.00000E+00
         0.00000E+00
         0.00000E+00
         0.00000E+00
         0.00000E+00
         0.00000E+00
         0.00000E+00
         0.00000E+00
         0.00000E+00
         0.00000E+00
         0.00000E+00
         0.00000E+00
         0.00000E+00
         0.00000E+00
         0.00000E+00
         0.00000E+00
         0.00000E+00
         0.00000E+00
         0.00000E+00
         0.00000E+00
         0.00000E+00
         0.00000E+00
         0.00000E+00
         0.00000E+00
         0.00000E+00
         0.00000E+00
         0.00000E+00
         0.00000E+00
         0.00000E+00
         0.00000E+00
         0.00000E+00
         0.00000E+00
         0.00000E+00
         0.00000E+00
         0.00000E+00
         0.00000E+00
         0.00000E+00
         0.00000E+00
         0.00000E+00
         0.00000E+00
         0.00000E+00
         0.00000E+00
         0.00000E+00
         0.00000E+00
         0.00000E+00
         0.00000E+00
         0.00000E+00
         0.00000E+00
         0.00000E+00
         0.00000E+00
         0.00000E+00
         0.00000E+00
         0.00000E+00
         0.00000E+00
         0.00000E+00
         0.00000E+00
         0.00000E+00
         0.00000E+00
         0.00000E+00
         0.00000E+00
         0.00000E+00
         0.00000E+00
         0.00000E+00
         0.00000E+00
         0.00000E+00
         0.00000E+00
         0.00000E+00
         0.00000E+00
         0.00000E+00
         0.00000E+00
         0.00000E+00
         0.00000E+00
         0.00000E+00
         0.00000E+00
         0.00000E+00
         0.00000E+00
         0.00000E+00
         0.00000E+00
         0.00000E+00
         0.00000E+00
         0.00000E+00
         0.00000E+00
         0.00000E+00
         0.00000E+00
         0.00000E+00
         0.00000E+00
         0.00000E+00
         0.00000E+00
         0.00000E+00
         0.00000E+00
         0.00000E+00
         0.00000E+00
         0.00000E+00
         0.00000E+00
         0.00000E+00
         0.00000E+00
         0.00000E+00
         0.00000E+00
         0.00000E+00
         0.00000E+00
         0.00000E+00
         0.00000E+00
         0.00000E+00
         0.00000E+00
         0.00000E+00
         0.00000E+00
         0.00000E+00
         0.00000E+00
         0.00000E+00
         0.00000E+00
         0.00000E+00
         0.00000E+00
         0.00000E+00
         0.00000E+00
         0.00000E+00
         0.00000E+00
         0.00000E+00
         0.00000E+00
         0.00000E+00
         0.00000E+00
         0.00000E+00
         0.00000E+00
         0.00000E+00
         0.00000E+00
         0.00000E+00
         0.00000E+00
         0.00000E+00
         0.00000E+00
         0.00000E+00
         0.00000E+00
         0.00000E+00
         0.00000E+00
         0.00000E+00
         0.00000E+00
         0.00000E+00
         0.00000E+00
         0.00000E+00
         0.00000E+00
         0.00000E+00
         0.00000E+00
         0.00000E+00
         0.00000E+00
         0.00000E+00
         0.00000E+00
         0.00000E+00
         0.00000E+00
         0.00000E+00
         0.00000E+00
         0.00000E+00
         0.00000E+00
         0.00000E+00
         0.00000E+00
         0.00000E+00
         0.00000E+00
         0.00000E+00
         0.00000E+00
         0.00000E+00
         0.00000E+00
         0.00000E+00
         0.00000E+00
         0.00000E+00
         0.00000E+00
         0.00000E+00
         0.00000E+00
         0.00000E+00
         0.00000E+00
         0.00000E+00
         0.00000E+00
         0.00000E+00
         0.00000E+00
         0.00000E+00
         0.00000E+00
         0.00000E+00
         0.00000E+00
         0.00000E+00
         0.00000E+00
         0.00000E+00
         0.00000E+00
         0.00000E+00
         0.00000E+00
         0.00000E+00
         0.00000E+00
         0.00000E+00
         0.00000E+00
         0.00000E+00
         0.00000E+00
         0.00000E+00
         0.00000E+00
         0.00000E+00
         0.00000E+00
         0.00000E+00
         0.00000E+00
         0.00000E+00
         0.00000E+00
         0.00000E+00
         0.00000E+00
         0.00000E+00
         0.00000E+00
         0.00000E+00
         0.00000E+00
         0.00000E+00
         0.00000E+00
         0.00000E+00
         0.00000E+00
         0.00000E+00
         0.00000E+00
         0.00000E+00
         0.00000E+00
         0.00000E+00
         0.00000E+00
         0.00000E+00
         0.00000E+00
         0.00000E+00
         0.00000E+00
         0.00000E+00
         0.00000E+00
         0.00000E+00
         0.00000E+00
         0.00000E+00
         0.00000E+00
         0.00000E+00
         0.00000E+00
         0.00000E+00
         0.00000E+00
         0.00000E+00
         0.00000E+00
         0.00000E+00
         0.00000E+00
         0.00000E+00
         0.00000E+00
         0.00000E+00
         0.00000E+00
         0.00000E+00
         0.00000E+00
         0.00000E+00
         0.00000E+00
         0.00000E+00
         0.00000E+00
         0.00000E+00
         0.00000E+00
         0.00000E+00
         0.00000E+00
         0.00000E+00
         0.00000E+00
         0.00000E+00
         0.00000E+00
         0.00000E+00
         0.00000E+00
         0.00000E+00
         0.00000E+00
         0.00000E+00
         0.00000E+00
         0.00000E+00
         0.00000E+00
         0.00000E+00
         0.00000E+00
         0.00000E+00
         0.00000E+00
         0.00000E+00
         0.00000E+00
         0.00000E+00
         0.00000E+00
         0.00000E+00
         0.00000E+00
         0.00000E+00
         0.00000E+00
         0.00000E+00
         0.00000E+00
         0.00000E+00
         0.00000E+00
         0.00000E+00
         0.00000E+00
         0.00000E+00
         0.00000E+00
         0.00000E+00
         0.00000E+00
         0.00000E+00
         0.00000E+00
         0.00000E+00
         0.00000E+00
         0.00000E+00
         0.00000E+00
         0.00000E+00
         0.00000E+00
         0.00000E+00
         0.00000E+00
         0.00000E+00
         0.00000E+00
         0.00000E+00
         0.00000E+00
         0.00000E+00
         0.00000E+00
         0.00000E+00
         0.00000E+00
         0.00000E+00
         0.00000E+00
         0.00000E+00
         0.00000E+00
         0.00000E+00
         0.00000E+00
         0.00000E+00
         0.00000E+00
         0.00000E+00
         0.00000E+00
         0.00000E+00
         0.00000E+00
         0.00000E+00
         0.00000E+00
         0.00000E+00
         0.00000E+00
         0.00000E+00
         0.00000E+00
         0.00000E+00
         0.00000E+00
         0.00000E+00
         0.00000E+00
         0.00000E+00
         0.00000E+00
         0.00000E+00
         0.00000E+00
         0.00000E+00
         0.00000E+00
         0.00000E+00
         0.00000E+00
         0.00000E+00
         0.00000E+00
         0.00000E+00
         0.00000E+00
         0.00000E+00
         0.00000E+00
         0.00000E+00
         0.00000E+00
         0.00000E+00
         0.00000E+00
         0.00000E+00
         0.00000E+00
         0.00000E+00
         0.00000E+00
         0.00000E+00
         0.00000E+00
         0.00000E+00
         0.00000E+00
         0.00000E+00
         0.00000E+00
         0.00000E+00
         0.00000E+00
         0.00000E+00
         0.00000E+00
         0.00000E+00
         0.00000E+00
         0.00000E+00
         0.00000E+00
         0.00000E+00
         0.00000E+00
         0.00000E+00
         0.00000E+00
         0.00000E+00
         0.00000E+00
         0.00000E+00
         0.00000E+00
         0.00000E+00
         0.00000E+00
         0.00000E+00
         0.00000E+00
         0.00000E+00
         0.00000E+00
         0.00000E+00
         0.00000E+00
         0.00000E+00
         0.00000E+00
         0.00000E+00
         0.00000E+00
         0.00000E+00
         0.00000E+00
         0.00000E+00
         0.00000E+00
         0.00000E+00
         0.00000E+00
         0.00000E+00
         0.00000E+00
         0.00000E+00
         0.00000E+00
         0.00000E+00
         0.00000E+00
         0.00000E+00
         0.00000E+00
         0.00000E+00
         0.00000E+00
         0.00000E+00
         0.00000E+00
         0.00000E+00
         0.00000E+00
         0.00000E+00
         0.00000E+00
         0.00000E+00
         0.00000E+00
         0.00000E+00
         0.00000E+00
         0.00000E+00
         0.00000E+00
         0.00000E+00
         0.00000E+00
         0.00000E+00
         0.00000E+00
         0.00000E+00
         0.00000E+00
         0.00000E+00
         0.00000E+00
         0.00000E+00
         0.00000E+00
         0.00000E+00
         0.00000E+00
         0.00000E+00
         0.00000E+00
         0.00000E+00
         0.00000E+00
         0.00000E+00
         0.00000E+00
         0.00000E+00
         0.00000E+00
         0.00000E+00
         0.00000E+00
         0.00000E+00
         0.00000E+00
         0.00000E+00
         0.00000E+00
         0.00000E+00
  
SCALARS                init_velocity_y  double 1
LOOKUP_TABLE default
         0.00000E+00
         0.00000E+00
         0.00000E+00
         0.00000E+00
         0.00000E+00
         0.00000E+00
         0.00000E+00
         0.00000E+00
         0.00000E+00
         0.00000E+00
         0.00000E+00
         0.00000E+00
         0.00000E+00
         0.00000E+00
         0.00000E+00
         0.00000E+00
         0.00000E+00
         0.00000E+00
         0.00000E+00
         0.00000E+00
         0.00000E+00
         0.00000E+00
         0.00000E+00
         0.00000E+00
         0.00000E+00
         0.00000E+00
         0.00000E+00
         0.00000E+00
         0.00000E+00
         0.00000E+00
         0.00000E+00
         0.00000E+00
         0.00000E+00
         0.00000E+00
         0.00000E+00
         0.00000E+00
         0.00000E+00
         0.00000E+00
         0.00000E+00
         0.00000E+00
         0.00000E+00
         0.00000E+00
         0.00000E+00
         0.00000E+00
         0.00000E+00
         0.00000E+00
         0.00000E+00
         0.00000E+00
         0.00000E+00
         0.00000E+00
         0.00000E+00
         0.00000E+00
         0.00000E+00
         0.00000E+00
         0.00000E+00
         0.00000E+00
         0.00000E+00
         0.00000E+00
         0.00000E+00
         0.00000E+00
         0.00000E+00
         0.00000E+00
         0.00000E+00
         0.00000E+00
         0.00000E+00
         0.00000E+00
         0.00000E+00
         0.00000E+00
         0.00000E+00
         0.00000E+00
         0.00000E+00
         0.00000E+00
         0.00000E+00
         0.00000E+00
         0.00000E+00
         0.00000E+00
         0.00000E+00
         0.00000E+00
         0.00000E+00
         0.00000E+00
         0.00000E+00
         0.00000E+00
         0.00000E+00
         0.00000E+00
         0.00000E+00
         0.00000E+00
         0.00000E+00
         0.00000E+00
         0.00000E+00
         0.00000E+00
         0.00000E+00
         0.00000E+00
         0.00000E+00
         0.00000E+00
         0.00000E+00
         0.00000E+00
         0.00000E+00
         0.00000E+00
         0.00000E+00
         0.00000E+00
         0.00000E+00
         0.00000E+00
         0.00000E+00
         0.00000E+00
         0.00000E+00
         0.00000E+00
         0.00000E+00
         0.00000E+00
         0.00000E+00
         0.00000E+00
         0.00000E+00
         0.00000E+00
         0.00000E+00
         0.00000E+00
         0.00000E+00
         0.00000E+00
         0.00000E+00
         0.00000E+00
         0.00000E+00
         0.00000E+00
         0.00000E+00
         0.00000E+00
         0.00000E+00
         0.00000E+00
         0.00000E+00
         0.00000E+00
         0.00000E+00
         0.00000E+00
         0.00000E+00
         0.00000E+00
         0.00000E+00
         0.00000E+00
         0.00000E+00
         0.00000E+00
         0.00000E+00
         0.00000E+00
         0.00000E+00
         0.00000E+00
         0.00000E+00
         0.00000E+00
         0.00000E+00
         0.00000E+00
         0.00000E+00
         0.00000E+00
         0.00000E+00
         0.00000E+00
         0.00000E+00
         0.00000E+00
         0.00000E+00
         0.00000E+00
         0.00000E+00
         0.00000E+00
         0.00000E+00
         0.00000E+00
         0.00000E+00
         0.00000E+00
         0.00000E+00
         0.00000E+00
         0.00000E+00
         0.00000E+00
         0.00000E+00
         0.00000E+00
         0.00000E+00
         0.00000E+00
         0.00000E+00
         0.00000E+00
         0.00000E+00
         0.00000E+00
         0.00000E+00
         0.00000E+00
         0.00000E+00
         0.00000E+00
         0.00000E+00
         0.00000E+00
         0.00000E+00
         0.00000E+00
         0.00000E+00
         0.00000E+00
         0.00000E+00
         0.00000E+00
         0.00000E+00
         0.00000E+00
         0.00000E+00
         0.00000E+00
         0.00000E+00
         0.00000E+00
         0.00000E+00
         0.00000E+00
         0.00000E+00
         0.00000E+00
         0.00000E+00
         0.00000E+00
         0.00000E+00
         0.00000E+00
         0.00000E+00
         0.00000E+00
         0.00000E+00
         0.00000E+00
         0.00000E+00
         0.00000E+00
         0.00000E+00
         0.00000E+00
         0.00000E+00
         0.00000E+00
         0.00000E+00
         0.00000E+00
         0.00000E+00
         0.00000E+00
         0.00000E+00
         0.00000E+00
         0.00000E+00
         0.00000E+00
         0.00000E+00
         0.00000E+00
         0.00000E+00
         0.00000E+00
         0.00000E+00
         0.00000E+00
         0.00000E+00
         0.00000E+00
         0.00000E+00
         0.00000E+00
         0.00000E+00
         0.00000E+00
         0.00000E+00
         0.00000E+00
         0.00000E+00
         0.00000E+00
         0.00000E+00
         0.00000E+00
         0.00000E+00
         0.00000E+00
         0.00000E+00
         0.00000E+00
         0.00000E+00
         0.00000E+00
         0.00000E+00
         0.00000E+00
         0.00000E+00
         0.00000E+00
         0.00000E+00
         0.00000E+00
         0.00000E+00
         0.00000E+00
         0.00000E+00
         0.00000E+00
         0.00000E+00
         0.00000E+00
         0.00000E+00
         0.00000E+00
         0.00000E+00
         0.00000E+00
         0.00000E+00
         0.00000E+00
         0.00000E+00
         0.00000E+00
         0.00000E+00
         0.00000E+00
         0.00000E+00
         0.00000E+00
         0.00000E+00
         0.00000E+00
         0.00000E+00
         0.00000E+00
         0.00000E+00
         0.00000E+00
         0.00000E+00
         0.00000E+00
         0.00000E+00
         0.00000E+00
         0.00000E+00
         0.00000E+00
         0.00000E+00
         0.00000E+00
         0.00000E+00
         0.00000E+00
         0.00000E+00
         0.00000E+00
         0.00000E+00
         0.00000E+00
         0.00000E+00
         0.00000E+00
         0.00000E+00
         0.00000E+00
         0.00000E+00
         0.00000E+00
         0.00000E+00
         0.00000E+00
         0.00000E+00
         0.00000E+00
         0.00000E+00
         0.00000E+00
         0.00000E+00
         0.00000E+00
         0.00000E+00
         0.00000E+00
         0.00000E+00
         0.00000E+00
         0.00000E+00
         0.00000E+00
         0.00000E+00
         0.00000E+00
         0.00000E+00
         0.00000E+00
         0.00000E+00
         0.00000E+00
         0.00000E+00
         0.00000E+00
         0.00000E+00
         0.00000E+00
         0.00000E+00
         0.00000E+00
         0.00000E+00
         0.00000E+00
         0.00000E+00
         0.00000E+00
         0.00000E+00
         0.00000E+00
         0.00000E+00
         0.00000E+00
         0.00000E+00
         0.00000E+00
         0.00000E+00
         0.00000E+00
         0.00000E+00
         0.00000E+00
         0.00000E+00
         0.00000E+00
         0.00000E+00
         0.00000E+00
         0.00000E+00
         0.00000E+00
         0.00000E+00
         0.00000E+00
         0.00000E+00
         0.00000E+00
         0.00000E+00
         0.00000E+00
         0.00000E+00
         0.00000E+00
         0.00000E+00
         0.00000E+00
         0.00000E+00
         0.00000E+00
         0.00000E+00
         0.00000E+00
         0.00000E+00
         0.00000E+00
         0.00000E+00
         0.00000E+00
         0.00000E+00
         0.00000E+00
         0.00000E+00
         0.00000E+00
         0.00000E+00
         0.00000E+00
         0.00000E+00
         0.00000E+00
         0.00000E+00
         0.00000E+00
         0.00000E+00
         0.00000E+00
         0.00000E+00
         0.00000E+00
         0.00000E+00
         0.00000E+00
         0.00000E+00
         0.00000E+00
         0.00000E+00
         0.00000E+00
         0.00000E+00
         0.00000E+00
         0.00000E+00
         0.00000E+00
         0.00000E+00
         0.00000E+00
         0.00000E+00
         0.00000E+00
         0.00000E+00
         0.00000E+00
         0.00000E+00
         0.00000E+00
         0.00000E+00
         0.00000E+00
         0.00000E+00
         0.00000E+00
         0.00000E+00
         0.00000E+00
         0.00000E+00
         0.00000E+00
         0.00000E+00
         0.00000E+00
         0.00000E+00
         0.00000E+00
         0.00000E+00
         0.00000E+00
         0.00000E+00
         0.00000E+00
         0.00000E+00
         0.00000E+00
         0.00000E+00
         0.00000E+00
         0.00000E+00
         0.00000E+00
         0.00000E+00
         0.00000E+00
         0.00000E+00
         0.00000E+00
         0.00000E+00
         0.00000E+00
         0.00000E+00
         0.00000E+00
         0.00000E+00
         0.00000E+00
         0.00000E+00
         0.00000E+00
         0.00000E+00
         0.00000E+00
         0.00000E+00
         0.00000E+00
         0.00000E+00
         0.00000E+00
         0.00000E+00
         0.00000E+00
         0.00000E+00
         0.00000E+00
         0.00000E+00
         0.00000E+00
         0.00000E+00
         0.00000E+00
         0.00000E+00
         0.00000E+00
         0.00000E+00
         0.00000E+00
         0.00000E+00
         0.00000E+00
         0.00000E+00
         0.00000E+00
         0.00000E+00
         0.00000E+00
         0.00000E+00
         0.00000E+00
         0.00000E+00
         0.00000E+00
         0.00000E+00
         0.00000E+00
         0.00000E+00
         0.00000E+00
         0.00000E+00
         0.00000E+00
         0.00000E+00
         0.00000E+00
         0.00000E+00
         0.00000E+00
         0.00000E+00
         0.00000E+00
         0.00000E+00
         0.00000E+00
         0.00000E+00
         0.00000E+00
         0.00000E+00
         0.00000E+00
         0.00000E+00
         0.00000E+00
         0.00000E+00
         0.00000E+00
         0.00000E+00
         0.00000E+00
         0.00000E+00
         0.00000E+00
         0.00000E+00
         0.00000E+00
         0.00000E+00
         0.00000E+00
         0.00000E+00
         0.00000E+00
         0.00000E+00
         0.00000E+00
         0.00000E+00
         0.00000E+00
         0.00000E+00
         0.00000E+00
         0.00000E+00
         0.00000E+00
         0.00000E+00
         0.00000E+00
         0.00000E+00
         0.00000E+00
         0.00000E+00
         0.00000E+00
         0.00000E+00
         0.00000E+00
         0.00000E+00
         0.00000E+00
         0.00000E+00
         0.00000E+00
         0.00000E+00
         0.00000E+00
         0.00000E+00
         0.00000E+00
         0.00000E+00
         0.00000E+00
         0.00000E+00
         0.00000E+00
         0.00000E+00
         0.00000E+00
         0.00000E+00
         0.00000E+00
         0.00000E+00
         0.00000E+00
         0.00000E+00
         0.00000E+00
         0.00000E+00
         0.00000E+00
         0.00000E+00
         0.00000E+00
         0.00000E+00
         0.00000E+00
         0.00000E+00
         0.00000E+00
         0.00000E+00
         0.00000E+00
         0.00000E+00
         0.00000E+00
         0.00000E+00
         0.00000E+00
         0.00000E+00
         0.00000E+00
         0.00000E+00
         0.00000E+00
         0.00000E+00
         0.00000E+00
         0.00000E+00
         0.00000E+00
         0.00000E+00
         0.00000E+00
         0.00000E+00
         0.00000E+00
         0.00000E+00
         0.00000E+00
         0.00000E+00
         0.00000E+00
         0.00000E+00
         0.00000E+00
         0.00000E+00
         0.00000E+00
         0.00000E+00
         0.00000E+00
         0.00000E+00
         0.00000E+00
         0.00000E+00
         0.00000E+00
         0.00000E+00
         0.00000E+00
         0.00000E+00
         0.00000E+00
         0.00000E+00
         0.00000E+00
         0.00000E+00
         0.00000E+00
         0.00000E+00
         0.00000E+00
         0.00000E+00
         0.00000E+00
         0.00000E+00
         0.00000E+00
         0.00000E+00
         0.00000E+00
         0.00000E+00
         0.00000E+00
         0.00000E+00
         0.00000E+00
         0.00000E+00
         0.00000E+00
         0.00000E+00
         0.00000E+00
         0.00000E+00
         0.00000E+00
         0.00000E+00
         0.00000E+00
         0.00000E+00
         0.00000E+00
         0.00000E+00
         0.00000E+00
         0.00000E+00
         0.00000E+00
         0.00000E+00
         0.00000E+00
         0.00000E+00
         0.00000E+00
         0.00000E+00
         0.00000E+00
         0.00000E+00
         0.00000E+00
         0.00000E+00
         0.00000E+00
         0.00000E+00
         0.00000E+00
         0.00000E+00
         0.00000E+00
         0.00000E+00
         0.00000E+00
         0.00000E+00
         0.00000E+00
         0.00000E+00
         0.00000E+00
         0.00000E+00
         0.00000E+00
         0.00000E+00
         0.00000E+00
         0.00000E+00
         0.00000E+00
         0.00000E+00
         0.00000E+00
         0.00000E+00
         0.00000E+00
         0.00000E+00
         0.00000E+00
         0.00000E+00
         0.00000E+00
         0.00000E+00
         0.00000E+00
         0.00000E+00
         0.00000E+00
         0.00000E+00
         0.00000E+00
         0.00000E+00
         0.00000E+00
         0.00000E+00
         0.00000E+00
         0.00000E+00
         0.00000E+00
         0.00000E+00
         0.00000E+00
         0.00000E+00
         0.00000E+00
         0.00000E+00
         0.00000E+00
         0.00000E+00
         0.00000E+00
         0.00000E+00
         0.00000E+00
         0.00000E+00
         0.00000E+00
         0.00000E+00
         0.00000E+00
         0.00000E+00
         0.00000E+00
         0.00000E+00
         0.00000E+00
         0.00000E+00
         0.00000E+00
         0.00000E+00
         0.00000E+00
         0.00000E+00
         0.00000E+00
         0.00000E+00
         0.00000E+00
         0.00000E+00
         0.00000E+00
         0.00000E+00
         0.00000E+00
         0.00000E+00
         0.00000E+00
         0.00000E+00
         0.00000E+00
         0.00000E+00
         0.00000E+00
         0.00000E+00
         0.00000E+00
         0.00000E+00
         0.00000E+00
         0.00000E+00
         0.00000E+00
         0.00000E+00
         0.00000E+00
         0.00000E+00
         0.00000E+00
         0.00000E+00
         0.00000E+00
         0.00000E+00
         0.00000E+00
         0.00000E+00
         0.00000E+00
         0.00000E+00
         0.00000E+00
         0.00000E+00
         0.00000E+00
         0.00000E+00
         0.00000E+00
         0.00000E+00
         0.00000E+00
         0.00000E+00
         0.00000E+00
         0.00000E+00
         0.00000E+00
         0.00000E+00
         0.00000E+00
         0.00000E+00
         0.00000E+00
         0.00000E+00
         0.00000E+00
         0.00000E+00
         0.00000E+00
         0.00000E+00
         0.00000E+00
         0.00000E+00
         0.00000E+00
         0.00000E+00
         0.00000E+00
         0.00000E+00
         0.00000E+00
         0.00000E+00
         0.00000E+00
         0.00000E+00
         0.00000E+00
         0.00000E+00
         0.00000E+00
         0.00000E+00
         0.00000E+00
         0.00000E+00
         0.00000E+00
         0.00000E+00
         0.00000E+00
         0.00000E+00
         0.00000E+00
         0.00000E+00
         0.00000E+00
         0.00000E+00
         0.00000E+00
         0.00000E+00
         0.00000E+00
         0.00000E+00
         0.00000E+00
         0.00000E+00
         0.00000E+00
         0.00000E+00
         0.00000E+00
         0.00000E+00
         0.00000E+00
         0.00000E+00
         0.00000E+00
         0.00000E+00
         0.00000E+00
         0.00000E+00
         0.00000E+00
         0.00000E+00
         0.00000E+00
         0.00000E+00
         0.00000E+00
         0.00000E+00
         0.00000E+00
         0.00000E+00
         0.00000E+00
         0.00000E+00
         0.00000E+00
         0.00000E+00
         0.00000E+00
         0.00000E+00
         0.00000E+00
         0.00000E+00
         0.00000E+00
         0.00000E+00
         0.00000E+00
         0.00000E+00
         0.00000E+00
         0.00000E+00
         0.00000E+00
         0.00000E+00
         0.00000E+00
         0.00000E+00
         0.00000E+00
         0.00000E+00
         0.00000E+00
         0.00000E+00
         0.00000E+00
         0.00000E+00
         0.00000E+00
         0.00000E+00
         0.00000E+00
         0.00000E+00
         0.00000E+00
         0.00000E+00
         0.00000E+00
         0.00000E+00
         0.00000E+00
         0.00000E+00
         0.00000E+00
         0.00000E+00
         0.00000E+00
         0.00000E+00
         0.00000E+00
         0.00000E+00
         0.00000E+00
         0.00000E+00
         0.00000E+00
         0.00000E+00
         0.00000E+00
         0.00000E+00
         0.00000E+00
         0.00000E+00
         0.00000E+00
         0.00000E+00
         0.00000E+00
         0.00000E+00
         0.00000E+00
         0.00000E+00
         0.00000E+00
         0.00000E+00
         0.00000E+00
         0.00000E+00
         0.00000E+00
         0.00000E+00
         0.00000E+00
         0.00000E+00
         0.00000E+00
         0.00000E+00
         0.00000E+00
         0.00000E+00
         0.00000E+00
         0.00000E+00
         0.00000E+00
         0.00000E+00
         0.00000E+00
         0.00000E+00
         0.00000E+00
         0.00000E+00
         0.00000E+00
         0.00000E+00
         0.00000E+00
         0.00000E+00
         0.00000E+00
         0.00000E+00
         0.00000E+00
         0.00000E+00
         0.00000E+00
         0.00000E+00
         0.00000E+00
         0.00000E+00
         0.00000E+00
         0.00000E+00
         0.00000E+00
         0.00000E+00
         0.00000E+00
         0.00000E+00
         0.00000E+00
         0.00000E+00
         0.00000E+00
         0.00000E+00
         0.00000E+00
         0.00000E+00
         0.00000E+00
         0.00000E+00
         0.00000E+00
         0.00000E+00
         0.00000E+00
         0.00000E+00
         0.00000E+00
         0.00000E+00
         0.00000E+00
         0.00000E+00
         0.00000E+00
         0.00000E+00
         0.00000E+00
         0.00000E+00
         0.00000E+00
         0.00000E+00
         0.00000E+00
         0.00000E+00
         0.00000E+00
         0.00000E+00
         0.00000E+00
         0.00000E+00
         0.00000E+00
         0.00000E+00
         0.00000E+00
         0.00000E+00
         0.00000E+00
         0.00000E+00
         0.00000E+00
         0.00000E+00
         0.00000E+00
         0.00000E+00
         0.00000E+00
         0.00000E+00
         0.00000E+00
         0.00000E+00
         0.00000E+00
         0.00000E+00
         0.00000E+00
         0.00000E+00
         0.00000E+00
         0.00000E+00
         0.00000E+00
         0.00000E+00
         0.00000E+00
         0.00000E+00
         0.00000E+00
         0.00000E+00
         0.00000E+00
         0.00000E+00
         0.00000E+00
         0.00000E+00
         0.00000E+00
         0.00000E+00
         0.00000E+00
         0.00000E+00
         0.00000E+00
         0.00000E+00
         0.00000E+00
         0.00000E+00
         0.00000E+00
         0.00000E+00
         0.00000E+00
         0.00000E+00
         0.00000E+00
         0.00000E+00
         0.00000E+00
         0.00000E+00
         0.00000E+00
         0.00000E+00
         0.00000E+00
         0.00000E+00
         0.00000E+00
         0.00000E+00
         0.00000E+00
         0.00000E+00
         0.00000E+00
         0.00000E+00
         0.00000E+00
         0.00000E+00
         0.00000E+00
         0.00000E+00
         0.00000E+00
         0.00000E+00
         0.00000E+00
         0.00000E+00
         0.00000E+00
         0.00000E+00
         0.00000E+00
         0.00000E+00
         0.00000E+00
         0.00000E+00
         0.00000E+00
         0.00000E+00
         0.00000E+00
         0.00000E+00
         0.00000E+00
         0.00000E+00
         0.00000E+00
         0.00000E+00
         0.00000E+00
         0.00000E+00
         0.00000E+00
         0.00000E+00
         0.00000E+00
         0.00000E+00
         0.00000E+00
         0.00000E+00
         0.00000E+00
         0.00000E+00
         0.00000E+00
         0.00000E+00
         0.00000E+00
         0.00000E+00
         0.00000E+00
         0.00000E+00
         0.00000E+00
         0.00000E+00
         0.00000E+00
         0.00000E+00
         0.00000E+00
         0.00000E+00
         0.00000E+00
         0.00000E+00
         0.00000E+00
         0.00000E+00
         0.00000E+00
         0.00000E+00
         0.00000E+00
         0.00000E+00
         0.00000E+00
         0.00000E+00
         0.00000E+00
         0.00000E+00
         0.00000E+00
         0.00000E+00
         0.00000E+00
         0.00000E+00
         0.00000E+00
         0.00000E+00
         0.00000E+00
         0.00000E+00
         0.00000E+00
         0.00000E+00
         0.00000E+00
         0.00000E+00
         0.00000E+00
         0.00000E+00
         0.00000E+00
         0.00000E+00
         0.00000E+00
         0.00000E+00
         0.00000E+00
         0.00000E+00
         0.00000E+00
         0.00000E+00
         0.00000E+00
         0.00000E+00
         0.00000E+00
         0.00000E+00
         0.00000E+00
         0.00000E+00
         0.00000E+00
         0.00000E+00
         0.00000E+00
         0.00000E+00
         0.00000E+00
         0.00000E+00
         0.00000E+00
         0.00000E+00
         0.00000E+00
         0.00000E+00
         0.00000E+00
         0.00000E+00
         0.00000E+00
         0.00000E+00
         0.00000E+00
         0.00000E+00
         0.00000E+00
         0.00000E+00
         0.00000E+00
         0.00000E+00
         0.00000E+00
         0.00000E+00
         0.00000E+00
         0.00000E+00
         0.00000E+00
         0.00000E+00
         0.00000E+00
         0.00000E+00
         0.00000E+00
         0.00000E+00
         0.00000E+00
         0.00000E+00
         0.00000E+00
         0.00000E+00
         0.00000E+00
         0.00000E+00
         0.00000E+00
         0.00000E+00
         0.00000E+00
         0.00000E+00
         0.00000E+00
         0.00000E+00
         0.00000E+00
         0.00000E+00
         0.00000E+00
         0.00000E+00
         0.00000E+00
         0.00000E+00
         0.00000E+00
         0.00000E+00
         0.00000E+00
         0.00000E+00
         0.00000E+00
         0.00000E+00
         0.00000E+00
         0.00000E+00
         0.00000E+00
         0.00000E+00
         0.00000E+00
         0.00000E+00
         0.00000E+00
         0.00000E+00
         0.00000E+00
         0.00000E+00
         0.00000E+00
         0.00000E+00
         0.00000E+00
         0.00000E+00
         0.00000E+00
         0.00000E+00
         0.00000E+00
         0.00000E+00
         0.00000E+00
         0.00000E+00
         0.00000E+00
         0.00000E+00
         0.00000E+00
         0.00000E+00
         0.00000E+00
         0.00000E+00
         0.00000E+00
         0.00000E+00
         0.00000E+00
         0.00000E+00
         0.00000E+00
         0.00000E+00
         0.00000E+00
         0.00000E+00
         0.00000E+00
         0.00000E+00
         0.00000E+00
         0.00000E+00
         0.00000E+00
         0.00000E+00
         0.00000E+00
         0.00000E+00
         0.00000E+00
         0.00000E+00
         0.00000E+00
         0.00000E+00
         0.00000E+00
         0.00000E+00
         0.00000E+00
         0.00000E+00
         0.00000E+00
         0.00000E+00
         0.00000E+00
         0.00000E+00
         0.00000E+00
         0.00000E+00
         0.00000E+00
         0.00000E+00
         0.00000E+00
         0.00000E+00
         0.00000E+00
         0.00000E+00
         0.00000E+00
         0.00000E+00
         0.00000E+00
         0.00000E+00
         0.00000E+00
         0.00000E+00
         0.00000E+00
         0.00000E+00
         0.00000E+00
         0.00000E+00
         0.00000E+00
         0.00000E+00
         0.00000E+00
         0.00000E+00
         0.00000E+00
         0.00000E+00
         0.00000E+00
         0.00000E+00
         0.00000E+00
         0.00000E+00
         0.00000E+00
         0.00000E+00
         0.00000E+00
         0.00000E+00
         0.00000E+00
         0.00000E+00
         0.00000E+00
         0.00000E+00
         0.00000E+00
         0.00000E+00
         0.00000E+00
         0.00000E+00
         0.00000E+00
         0.00000E+00
         0.00000E+00
         0.00000E+00
         0.00000E+00
         0.00000E+00
         0.00000E+00
         0.00000E+00
         0.00000E+00
         0.00000E+00
         0.00000E+00
         0.00000E+00
         0.00000E+00
         0.00000E+00
         0.00000E+00
         0.00000E+00
         0.00000E+00
         0.00000E+00
         0.00000E+00
         0.00000E+00
         0.00000E+00
         0.00000E+00
         0.00000E+00
         0.00000E+00
         0.00000E+00
         0.00000E+00
         0.00000E+00
         0.00000E+00
         0.00000E+00
         0.00000E+00
         0.00000E+00
         0.00000E+00
         0.00000E+00
         0.00000E+00
         0.00000E+00
         0.00000E+00
         0.00000E+00
         0.00000E+00
         0.00000E+00
         0.00000E+00
         0.00000E+00
         0.00000E+00
         0.00000E+00
         0.00000E+00
         0.00000E+00
         0.00000E+00
         0.00000E+00
         0.00000E+00
         0.00000E+00
         0.00000E+00
         0.00000E+00
         0.00000E+00
         0.00000E+00
         0.00000E+00
         0.00000E+00
         0.00000E+00
         0.00000E+00
         0.00000E+00
         0.00000E+00
         0.00000E+00
         0.00000E+00
         0.00000E+00
         0.00000E+00
         0.00000E+00
         0.00000E+00
         0.00000E+00
         0.00000E+00
         0.00000E+00
         0.00000E+00
         0.00000E+00
         0.00000E+00
         0.00000E+00
         0.00000E+00
         0.00000E+00
         0.00000E+00
         0.00000E+00
         0.00000E+00
         0.00000E+00
         0.00000E+00
         0.00000E+00
         0.00000E+00
         0.00000E+00
         0.00000E+00
         0.00000E+00
         0.00000E+00
         0.00000E+00
         0.00000E+00
         0.00000E+00
         0.00000E+00
         0.00000E+00
         0.00000E+00
         0.00000E+00
         0.00000E+00
         0.00000E+00
         0.00000E+00
         0.00000E+00
         0.00000E+00
         0.00000E+00
         0.00000E+00
         0.00000E+00
         0.00000E+00
         0.00000E+00
         0.00000E+00
         0.00000E+00
         0.00000E+00
         0.00000E+00
         0.00000E+00
         0.00000E+00
         0.00000E+00
         0.00000E+00
         0.00000E+00
         0.00000E+00
         0.00000E+00
         0.00000E+00
         0.00000E+00
         0.00000E+00
         0.00000E+00
         0.00000E+00
         0.00000E+00
         0.00000E+00
         0.00000E+00
         0.00000E+00
         0.00000E+00
         0.00000E+00
         0.00000E+00
         0.00000E+00
         0.00000E+00
         0.00000E+00
         0.00000E+00
         0.00000E+00
         0.00000E+00
         0.00000E+00
         0.00000E+00
         0.00000E+00
         0.00000E+00
         0.00000E+00
         0.00000E+00
         0.00000E+00
         0.00000E+00
         0.00000E+00
         0.00000E+00
         0.00000E+00
         0.00000E+00
         0.00000E+00
         0.00000E+00
         0.00000E+00
         0.00000E+00
         0.00000E+00
         0.00000E+00
         0.00000E+00
         0.00000E+00
         0.00000E+00
         0.00000E+00
         0.00000E+00
         0.00000E+00
         0.00000E+00
         0.00000E+00
         0.00000E+00
         0.00000E+00
         0.00000E+00
         0.00000E+00
         0.00000E+00
         0.00000E+00
         0.00000E+00
         0.00000E+00
         0.00000E+00
         0.00000E+00
         0.00000E+00
         0.00000E+00
         0.00000E+00
         0.00000E+00
         0.00000E+00
         0.00000E+00
         0.00000E+00
         0.00000E+00
         0.00000E+00
         0.00000E+00
         0.00000E+00
         0.00000E+00
         0.00000E+00
         0.00000E+00
         0.00000E+00
         0.00000E+00
         0.00000E+00
         0.00000E+00
         0.00000E+00
         0.00000E+00
         0.00000E+00
         0.00000E+00
         0.00000E+00
         0.00000E+00
         0.00000E+00
         0.00000E+00
         0.00000E+00
         0.00000E+00
         0.00000E+00
         0.00000E+00
         0.00000E+00
         0.00000E+00
         0.00000E+00
         0.00000E+00
         0.00000E+00
         0.00000E+00
         0.00000E+00
         0.00000E+00
         0.00000E+00
         0.00000E+00
         0.00000E+00
         0.00000E+00
         0.00000E+00
         0.00000E+00
         0.00000E+00
         0.00000E+00
         0.00000E+00
         0.00000E+00
         0.00000E+00
         0.00000E+00
         0.00000E+00
         0.00000E+00
         0.00000E+00
         0.00000E+00
         0.00000E+00
         0.00000E+00
         0.00000E+00
         0.00000E+00
         0.00000E+00
         0.00000E+00
         0.00000E+00
         0.00000E+00
         0.00000E+00
         0.00000E+00
         0.00000E+00
         0.00000E+00
         0.00000E+00
         0.00000E+00
         0.00000E+00
         0.00000E+00
         0.00000E+00
         0.00000E+00
         0.00000E+00
         0.00000E+00
         0.00000E+00
         0.00000E+00
         0.00000E+00
         0.00000E+00
         0.00000E+00
         0.00000E+00
         0.00000E+00
         0.00000E+00
         0.00000E+00
         0.00000E+00
         0.00000E+00
         0.00000E+00
         0.00000E+00
         0.00000E+00
         0.00000E+00
         0.00000E+00
         0.00000E+00
         0.00000E+00
         0.00000E+00
         0.00000E+00
         0.00000E+00
         0.00000E+00
         0.00000E+00
         0.00000E+00
         0.00000E+00
         0.00000E+00
         0.00000E+00
         0.00000E+00
         0.00000E+00
         0.00000E+00
         0.00000E+00
         0.00000E+00
         0.00000E+00
         0.00000E+00
         0.00000E+00
         0.00000E+00
         0.00000E+00
         0.00000E+00
         0.00000E+00
         0.00000E+00
         0.00000E+00
         0.00000E+00
         0.00000E+00
         0.00000E+00
         0.00000E+00
         0.00000E+00
         0.00000E+00
         0.00000E+00
         0.00000E+00
         0.00000E+00
         0.00000E+00
         0.00000E+00
         0.00000E+00
         0.00000E+00
         0.00000E+00
         0.00000E+00
         0.00000E+00
         0.00000E+00
         0.00000E+00
         0.00000E+00
         0.00000E+00
         0.00000E+00
         0.00000E+00
         0.00000E+00
         0.00000E+00
         0.00000E+00
         0.00000E+00
         0.00000E+00
         0.00000E+00
         0.00000E+00
         0.00000E+00
         0.00000E+00
         0.00000E+00
         0.00000E+00
         0.00000E+00
         0.00000E+00
         0.00000E+00
         0.00000E+00
         0.00000E+00
         0.00000E+00
         0.00000E+00
         0.00000E+00
         0.00000E+00
         0.00000E+00
         0.00000E+00
         0.00000E+00
         0.00000E+00
         0.00000E+00
         0.00000E+00
         0.00000E+00
         0.00000E+00
         0.00000E+00
         0.00000E+00
         0.00000E+00
         0.00000E+00
         0.00000E+00
         0.00000E+00
         0.00000E+00
         0.00000E+00
         0.00000E+00
         0.00000E+00
         0.00000E+00
         0.00000E+00
         0.00000E+00
         0.00000E+00
         0.00000E+00
         0.00000E+00
         0.00000E+00
         0.00000E+00
         0.00000E+00
         0.00000E+00
         0.00000E+00
         0.00000E+00
         0.00000E+00
         0.00000E+00
         0.00000E+00
         0.00000E+00
         0.00000E+00
         0.00000E+00
         0.00000E+00
         0.00000E+00
         0.00000E+00
         0.00000E+00
         0.00000E+00
         0.00000E+00
         0.00000E+00
         0.00000E+00
         0.00000E+00
         0.00000E+00
         0.00000E+00
         0.00000E+00
         0.00000E+00
         0.00000E+00
         0.00000E+00
         0.00000E+00
         0.00000E+00
         0.00000E+00
         0.00000E+00
         0.00000E+00
         0.00000E+00
         0.00000E+00
         0.00000E+00
         0.00000E+00
         0.00000E+00
         0.00000E+00
         0.00000E+00
         0.00000E+00
         0.00000E+00
         0.00000E+00
         0.00000E+00
         0.00000E+00
         0.00000E+00
         0.00000E+00
         0.00000E+00
         0.00000E+00
         0.00000E+00
         0.00000E+00
         0.00000E+00
         0.00000E+00
         0.00000E+00
         0.00000E+00
         0.00000E+00
         0.00000E+00
         0.00000E+00
         0.00000E+00
         0.00000E+00
         0.00000E+00
         0.00000E+00
         0.00000E+00
         0.00000E+00
         0.00000E+00
         0.00000E+00
         0.00000E+00
         0.00000E+00
         0.00000E+00
         0.00000E+00
         0.00000E+00
         0.00000E+00
         0.00000E+00
         0.00000E+00
         0.00000E+00
         0.00000E+00
         0.00000E+00
         0.00000E+00
         0.00000E+00
         0.00000E+00
         0.00000E+00
         0.00000E+00
         0.00000E+00
         0.00000E+00
         0.00000E+00
         0.00000E+00
         0.00000E+00
         0.00000E+00
         0.00000E+00
         0.00000E+00
         0.00000E+00
         0.00000E+00
         0.00000E+00
         0.00000E+00
         0.00000E+00
         0.00000E+00
         0.00000E+00
         0.00000E+00
         0.00000E+00
         0.00000E+00
         0.00000E+00
         0.00000E+00
         0.00000E+00
         0.00000E+00
         0.00000E+00
         0.00000E+00
         0.00000E+00
         0.00000E+00
         0.00000E+00
         0.00000E+00
         0.00000E+00
         0.00000E+00
         0.00000E+00
         0.00000E+00
         0.00000E+00
         0.00000E+00
         0.00000E+00
         0.00000E+00
         0.00000E+00
         0.00000E+00
         0.00000E+00
         0.00000E+00
         0.00000E+00
         0.00000E+00
         0.00000E+00
         0.00000E+00
         0.00000E+00
         0.00000E+00
         0.00000E+00
         0.00000E+00
         0.00000E+00
         0.00000E+00
         0.00000E+00
         0.00000E+00
         0.00000E+00
         0.00000E+00
         0.00000E+00
         0.00000E+00
         0.00000E+00
         0.00000E+00
         0.00000E+00
         0.00000E+00
         0.00000E+00
         0.00000E+00
         0.00000E+00
         0.00000E+00
         0.00000E+00
         0.00000E+00
         0.00000E+00
         0.00000E+00
         0.00000E+00
         0.00000E+00
         0.00000E+00
         0.00000E+00
         0.00000E+00
         0.00000E+00
         0.00000E+00
         0.00000E+00
         0.00000E+00
         0.00000E+00
         0.00000E+00
         0.00000E+00
         0.00000E+00
         0.00000E+00
         0.00000E+00
         0.00000E+00
         0.00000E+00
         0.00000E+00
         0.00000E+00
         0.00000E+00
         0.00000E+00
         0.00000E+00
         0.00000E+00
         0.00000E+00
         0.00000E+00
         0.00000E+00
         0.00000E+00
         0.00000E+00
         0.00000E+00
         0.00000E+00
         0.00000E+00
         0.00000E+00
         0.00000E+00
         0.00000E+00
         0.00000E+00
         0.00000E+00
         0.00000E+00
         0.00000E+00
         0.00000E+00
         0.00000E+00
         0.00000E+00
         0.00000E+00
         0.00000E+00
         0.00000E+00
         0.00000E+00
         0.00000E+00
         0.00000E+00
         0.00000E+00
         0.00000E+00
         0.00000E+00
         0.00000E+00
         0.00000E+00
         0.00000E+00
         0.00000E+00
         0.00000E+00
         0.00000E+00
         0.00000E+00
         0.00000E+00
         0.00000E+00
         0.00000E+00
         0.00000E+00
         0.00000E+00
         0.00000E+00
         0.00000E+00
         0.00000E+00
         0.00000E+00
         0.00000E+00
         0.00000E+00
         0.00000E+00
         0.00000E+00
         0.00000E+00
         0.00000E+00
         0.00000E+00
         0.00000E+00
         0.00000E+00
         0.00000E+00
         0.00000E+00
         0.00000E+00
         0.00000E+00
         0.00000E+00
         0.00000E+00
         0.00000E+00
         0.00000E+00
         0.00000E+00
         0.00000E+00
         0.00000E+00
         0.00000E+00
         0.00000E+00
         0.00000E+00
         0.00000E+00
         0.00000E+00
         0.00000E+00
         0.00000E+00
         0.00000E+00
         0.00000E+00
         0.00000E+00
         0.00000E+00
         0.00000E+00
         0.00000E+00
         0.00000E+00
         0.00000E+00
         0.00000E+00
         0.00000E+00
         0.00000E+00
         0.00000E+00
         0.00000E+00
         0.00000E+00
         0.00000E+00
         0.00000E+00
         0.00000E+00
         0.00000E+00
         0.00000E+00
         0.00000E+00
         0.00000E+00
         0.00000E+00
         0.00000E+00
         0.00000E+00
         0.00000E+00
         0.00000E+00
         0.00000E+00
         0.00000E+00
         0.00000E+00
         0.00000E+00
         0.00000E+00
         0.00000E+00
         0.00000E+00
         0.00000E+00
         0.00000E+00
         0.00000E+00
         0.00000E+00
         0.00000E+00
         0.00000E+00
         0.00000E+00
         0.00000E+00
         0.00000E+00
         0.00000E+00
         0.00000E+00
         0.00000E+00
         0.00000E+00
         0.00000E+00
         0.00000E+00
         0.00000E+00
         0.00000E+00
         0.00000E+00
         0.00000E+00
         0.00000E+00
         0.00000E+00
         0.00000E+00
         0.00000E+00
         0.00000E+00
         0.00000E+00
         0.00000E+00
         0.00000E+00
         0.00000E+00
         0.00000E+00
         0.00000E+00
         0.00000E+00
         0.00000E+00
         0.00000E+00
         0.00000E+00
         0.00000E+00
         0.00000E+00
         0.00000E+00
         0.00000E+00
         0.00000E+00
         0.00000E+00
         0.00000E+00
         0.00000E+00
         0.00000E+00
         0.00000E+00
         0.00000E+00
         0.00000E+00
         0.00000E+00
         0.00000E+00
         0.00000E+00
         0.00000E+00
         0.00000E+00
         0.00000E+00
         0.00000E+00
         0.00000E+00
         0.00000E+00
         0.00000E+00
         0.00000E+00
         0.00000E+00
         0.00000E+00
         0.00000E+00
         0.00000E+00
         0.00000E+00
         0.00000E+00
         0.00000E+00
         0.00000E+00
         0.00000E+00
         0.00000E+00
         0.00000E+00
         0.00000E+00
         0.00000E+00
         0.00000E+00
         0.00000E+00
         0.00000E+00
         0.00000E+00
         0.00000E+00
         0.00000E+00
         0.00000E+00
         0.00000E+00
         0.00000E+00
         0.00000E+00
         0.00000E+00
         0.00000E+00
         0.00000E+00
         0.00000E+00
         0.00000E+00
         0.00000E+00
         0.00000E+00
         0.00000E+00
         0.00000E+00
         0.00000E+00
         0.00000E+00
         0.00000E+00
         0.00000E+00
         0.00000E+00
         0.00000E+00
         0.00000E+00
         0.00000E+00
         0.00000E+00
         0.00000E+00
         0.00000E+00
         0.00000E+00
         0.00000E+00
         0.00000E+00
         0.00000E+00
         0.00000E+00
         0.00000E+00
         0.00000E+00
         0.00000E+00
         0.00000E+00
         0.00000E+00
         0.00000E+00
         0.00000E+00
         0.00000E+00
         0.00000E+00
         0.00000E+00
         0.00000E+00
         0.00000E+00
         0.00000E+00
         0.00000E+00
         0.00000E+00
         0.00000E+00
         0.00000E+00
         0.00000E+00
         0.00000E+00
         0.00000E+00
         0.00000E+00
         0.00000E+00
         0.00000E+00
         0.00000E+00
         0.00000E+00
         0.00000E+00
         0.00000E+00
         0.00000E+00
         0.00000E+00
         0.00000E+00
         0.00000E+00
         0.00000E+00
         0.00000E+00
         0.00000E+00
         0.00000E+00
         0.00000E+00
         0.00000E+00
         0.00000E+00
         0.00000E+00
         0.00000E+00
         0.00000E+00
         0.00000E+00
         0.00000E+00
         0.00000E+00
         0.00000E+00
         0.00000E+00
         0.00000E+00
         0.00000E+00
         0.00000E+00
         0.00000E+00
         0.00000E+00
         0.00000E+00
         0.00000E+00
         0.00000E+00
         0.00000E+00
         0.00000E+00
         0.00000E+00
         0.00000E+00
         0.00000E+00
         0.00000E+00
         0.00000E+00
  
SCALARS                init_velocity_z  double 1
LOOKUP_TABLE default
        -0.37300E+03
        -0.37300E+03
        -0.37300E+03
        -0.37300E+03
        -0.37300E+03
        -0.37300E+03
        -0.37300E+03
        -0.37300E+03
        -0.37300E+03
        -0.37300E+03
        -0.37300E+03
        -0.37300E+03
        -0.37300E+03
        -0.37300E+03
        -0.37300E+03
        -0.37300E+03
        -0.37300E+03
        -0.37300E+03
        -0.37300E+03
        -0.37300E+03
        -0.37300E+03
        -0.37300E+03
        -0.37300E+03
        -0.37300E+03
        -0.37300E+03
        -0.37300E+03
        -0.37300E+03
        -0.37300E+03
        -0.37300E+03
        -0.37300E+03
        -0.37300E+03
        -0.37300E+03
        -0.37300E+03
        -0.37300E+03
        -0.37300E+03
        -0.37300E+03
        -0.37300E+03
        -0.37300E+03
        -0.37300E+03
        -0.37300E+03
        -0.37300E+03
        -0.37300E+03
        -0.37300E+03
        -0.37300E+03
        -0.37300E+03
        -0.37300E+03
        -0.37300E+03
        -0.37300E+03
        -0.37300E+03
        -0.37300E+03
        -0.37300E+03
        -0.37300E+03
        -0.37300E+03
        -0.37300E+03
        -0.37300E+03
        -0.37300E+03
        -0.37300E+03
        -0.37300E+03
        -0.37300E+03
        -0.37300E+03
        -0.37300E+03
        -0.37300E+03
        -0.37300E+03
        -0.37300E+03
        -0.37300E+03
        -0.37300E+03
        -0.37300E+03
        -0.37300E+03
        -0.37300E+03
        -0.37300E+03
        -0.37300E+03
        -0.37300E+03
        -0.37300E+03
        -0.37300E+03
        -0.37300E+03
        -0.37300E+03
        -0.37300E+03
        -0.37300E+03
        -0.37300E+03
        -0.37300E+03
        -0.37300E+03
        -0.37300E+03
        -0.37300E+03
        -0.37300E+03
        -0.37300E+03
        -0.37300E+03
        -0.37300E+03
        -0.37300E+03
        -0.37300E+03
        -0.37300E+03
        -0.37300E+03
        -0.37300E+03
        -0.37300E+03
        -0.37300E+03
        -0.37300E+03
        -0.37300E+03
        -0.37300E+03
        -0.37300E+03
        -0.37300E+03
        -0.37300E+03
        -0.37300E+03
        -0.37300E+03
        -0.37300E+03
        -0.37300E+03
        -0.37300E+03
        -0.37300E+03
        -0.37300E+03
        -0.37300E+03
        -0.37300E+03
        -0.37300E+03
        -0.37300E+03
        -0.37300E+03
        -0.37300E+03
        -0.37300E+03
        -0.37300E+03
        -0.37300E+03
        -0.37300E+03
        -0.37300E+03
        -0.37300E+03
        -0.37300E+03
        -0.37300E+03
        -0.37300E+03
        -0.37300E+03
        -0.37300E+03
        -0.37300E+03
        -0.37300E+03
        -0.37300E+03
        -0.37300E+03
        -0.37300E+03
        -0.37300E+03
        -0.37300E+03
        -0.37300E+03
        -0.37300E+03
        -0.37300E+03
        -0.37300E+03
        -0.37300E+03
        -0.37300E+03
        -0.37300E+03
        -0.37300E+03
        -0.37300E+03
        -0.37300E+03
        -0.37300E+03
        -0.37300E+03
        -0.37300E+03
        -0.37300E+03
        -0.37300E+03
        -0.37300E+03
        -0.37300E+03
        -0.37300E+03
        -0.37300E+03
        -0.37300E+03
        -0.37300E+03
        -0.37300E+03
        -0.37300E+03
        -0.37300E+03
        -0.37300E+03
        -0.37300E+03
        -0.37300E+03
        -0.37300E+03
        -0.37300E+03
        -0.37300E+03
        -0.37300E+03
        -0.37300E+03
        -0.37300E+03
        -0.37300E+03
        -0.37300E+03
        -0.37300E+03
        -0.37300E+03
        -0.37300E+03
        -0.37300E+03
        -0.37300E+03
        -0.37300E+03
        -0.37300E+03
        -0.37300E+03
        -0.37300E+03
        -0.37300E+03
        -0.37300E+03
        -0.37300E+03
        -0.37300E+03
        -0.37300E+03
        -0.37300E+03
        -0.37300E+03
        -0.37300E+03
        -0.37300E+03
        -0.37300E+03
        -0.37300E+03
        -0.37300E+03
        -0.37300E+03
        -0.37300E+03
        -0.37300E+03
        -0.37300E+03
        -0.37300E+03
        -0.37300E+03
        -0.37300E+03
        -0.37300E+03
        -0.37300E+03
        -0.37300E+03
        -0.37300E+03
        -0.37300E+03
        -0.37300E+03
        -0.37300E+03
        -0.37300E+03
        -0.37300E+03
        -0.37300E+03
        -0.37300E+03
        -0.37300E+03
        -0.37300E+03
        -0.37300E+03
        -0.37300E+03
        -0.37300E+03
        -0.37300E+03
        -0.37300E+03
        -0.37300E+03
        -0.37300E+03
        -0.37300E+03
        -0.37300E+03
        -0.37300E+03
        -0.37300E+03
        -0.37300E+03
        -0.37300E+03
        -0.37300E+03
        -0.37300E+03
        -0.37300E+03
        -0.37300E+03
        -0.37300E+03
        -0.37300E+03
        -0.37300E+03
        -0.37300E+03
        -0.37300E+03
        -0.37300E+03
        -0.37300E+03
        -0.37300E+03
        -0.37300E+03
        -0.37300E+03
        -0.37300E+03
        -0.37300E+03
        -0.37300E+03
        -0.37300E+03
        -0.37300E+03
        -0.37300E+03
        -0.37300E+03
        -0.37300E+03
        -0.37300E+03
        -0.37300E+03
        -0.37300E+03
        -0.37300E+03
        -0.37300E+03
        -0.37300E+03
        -0.37300E+03
        -0.37300E+03
        -0.37300E+03
        -0.37300E+03
        -0.37300E+03
        -0.37300E+03
        -0.37300E+03
        -0.37300E+03
        -0.37300E+03
        -0.37300E+03
        -0.37300E+03
        -0.37300E+03
        -0.37300E+03
        -0.37300E+03
        -0.37300E+03
        -0.37300E+03
        -0.37300E+03
        -0.37300E+03
        -0.37300E+03
        -0.37300E+03
        -0.37300E+03
        -0.37300E+03
        -0.37300E+03
        -0.37300E+03
        -0.37300E+03
        -0.37300E+03
        -0.37300E+03
        -0.37300E+03
        -0.37300E+03
        -0.37300E+03
        -0.37300E+03
        -0.37300E+03
        -0.37300E+03
        -0.37300E+03
        -0.37300E+03
        -0.37300E+03
        -0.37300E+03
        -0.37300E+03
        -0.37300E+03
        -0.37300E+03
        -0.37300E+03
        -0.37300E+03
        -0.37300E+03
        -0.37300E+03
        -0.37300E+03
        -0.37300E+03
        -0.37300E+03
        -0.37300E+03
        -0.37300E+03
        -0.37300E+03
        -0.37300E+03
        -0.37300E+03
        -0.37300E+03
        -0.37300E+03
        -0.37300E+03
        -0.37300E+03
        -0.37300E+03
        -0.37300E+03
        -0.37300E+03
        -0.37300E+03
        -0.37300E+03
        -0.37300E+03
        -0.37300E+03
        -0.37300E+03
        -0.37300E+03
        -0.37300E+03
        -0.37300E+03
        -0.37300E+03
        -0.37300E+03
        -0.37300E+03
        -0.37300E+03
        -0.37300E+03
        -0.37300E+03
        -0.37300E+03
        -0.37300E+03
        -0.37300E+03
        -0.37300E+03
        -0.37300E+03
        -0.37300E+03
        -0.37300E+03
        -0.37300E+03
        -0.37300E+03
        -0.37300E+03
        -0.37300E+03
        -0.37300E+03
        -0.37300E+03
        -0.37300E+03
        -0.37300E+03
        -0.37300E+03
        -0.37300E+03
        -0.37300E+03
        -0.37300E+03
        -0.37300E+03
        -0.37300E+03
        -0.37300E+03
        -0.37300E+03
        -0.37300E+03
        -0.37300E+03
        -0.37300E+03
        -0.37300E+03
        -0.37300E+03
        -0.37300E+03
        -0.37300E+03
        -0.37300E+03
        -0.37300E+03
        -0.37300E+03
        -0.37300E+03
        -0.37300E+03
        -0.37300E+03
        -0.37300E+03
        -0.37300E+03
        -0.37300E+03
        -0.37300E+03
        -0.37300E+03
        -0.37300E+03
        -0.37300E+03
        -0.37300E+03
        -0.37300E+03
        -0.37300E+03
        -0.37300E+03
        -0.37300E+03
        -0.37300E+03
        -0.37300E+03
        -0.37300E+03
        -0.37300E+03
        -0.37300E+03
        -0.37300E+03
        -0.37300E+03
        -0.37300E+03
        -0.37300E+03
        -0.37300E+03
        -0.37300E+03
        -0.37300E+03
        -0.37300E+03
        -0.37300E+03
        -0.37300E+03
        -0.37300E+03
        -0.37300E+03
        -0.37300E+03
        -0.37300E+03
        -0.37300E+03
        -0.37300E+03
        -0.37300E+03
        -0.37300E+03
        -0.37300E+03
        -0.37300E+03
        -0.37300E+03
        -0.37300E+03
        -0.37300E+03
        -0.37300E+03
        -0.37300E+03
        -0.37300E+03
        -0.37300E+03
        -0.37300E+03
        -0.37300E+03
        -0.37300E+03
        -0.37300E+03
        -0.37300E+03
        -0.37300E+03
        -0.37300E+03
        -0.37300E+03
        -0.37300E+03
        -0.37300E+03
        -0.37300E+03
        -0.37300E+03
        -0.37300E+03
        -0.37300E+03
        -0.37300E+03
        -0.37300E+03
        -0.37300E+03
        -0.37300E+03
        -0.37300E+03
        -0.37300E+03
        -0.37300E+03
        -0.37300E+03
        -0.37300E+03
        -0.37300E+03
        -0.37300E+03
        -0.37300E+03
        -0.37300E+03
        -0.37300E+03
        -0.37300E+03
        -0.37300E+03
        -0.37300E+03
        -0.37300E+03
        -0.37300E+03
        -0.37300E+03
        -0.37300E+03
        -0.37300E+03
        -0.37300E+03
        -0.37300E+03
        -0.37300E+03
        -0.37300E+03
        -0.37300E+03
        -0.37300E+03
        -0.37300E+03
        -0.37300E+03
        -0.37300E+03
        -0.37300E+03
        -0.37300E+03
        -0.37300E+03
        -0.37300E+03
        -0.37300E+03
        -0.37300E+03
        -0.37300E+03
        -0.37300E+03
        -0.37300E+03
        -0.37300E+03
        -0.37300E+03
        -0.37300E+03
        -0.37300E+03
        -0.37300E+03
        -0.37300E+03
        -0.37300E+03
        -0.37300E+03
        -0.37300E+03
        -0.37300E+03
        -0.37300E+03
        -0.37300E+03
        -0.37300E+03
        -0.37300E+03
        -0.37300E+03
        -0.37300E+03
        -0.37300E+03
        -0.37300E+03
        -0.37300E+03
        -0.37300E+03
        -0.37300E+03
        -0.37300E+03
        -0.37300E+03
        -0.37300E+03
        -0.37300E+03
        -0.37300E+03
        -0.37300E+03
        -0.37300E+03
        -0.37300E+03
        -0.37300E+03
        -0.37300E+03
        -0.37300E+03
        -0.37300E+03
        -0.37300E+03
        -0.37300E+03
        -0.37300E+03
        -0.37300E+03
        -0.37300E+03
        -0.37300E+03
        -0.37300E+03
        -0.37300E+03
        -0.37300E+03
        -0.37300E+03
        -0.37300E+03
        -0.37300E+03
        -0.37300E+03
        -0.37300E+03
        -0.37300E+03
        -0.37300E+03
        -0.37300E+03
        -0.37300E+03
        -0.37300E+03
        -0.37300E+03
        -0.37300E+03
        -0.37300E+03
        -0.37300E+03
        -0.37300E+03
        -0.37300E+03
        -0.37300E+03
        -0.37300E+03
        -0.37300E+03
        -0.37300E+03
        -0.37300E+03
        -0.37300E+03
        -0.37300E+03
        -0.37300E+03
        -0.37300E+03
        -0.37300E+03
        -0.37300E+03
        -0.37300E+03
        -0.37300E+03
        -0.37300E+03
        -0.37300E+03
        -0.37300E+03
        -0.37300E+03
        -0.37300E+03
        -0.37300E+03
        -0.37300E+03
        -0.37300E+03
        -0.37300E+03
        -0.37300E+03
        -0.37300E+03
        -0.37300E+03
        -0.37300E+03
        -0.37300E+03
        -0.37300E+03
        -0.37300E+03
        -0.37300E+03
        -0.37300E+03
        -0.37300E+03
        -0.37300E+03
        -0.37300E+03
        -0.37300E+03
        -0.37300E+03
        -0.37300E+03
        -0.37300E+03
        -0.37300E+03
        -0.37300E+03
        -0.37300E+03
        -0.37300E+03
        -0.37300E+03
        -0.37300E+03
        -0.37300E+03
        -0.37300E+03
        -0.37300E+03
        -0.37300E+03
        -0.37300E+03
        -0.37300E+03
        -0.37300E+03
        -0.37300E+03
        -0.37300E+03
        -0.37300E+03
        -0.37300E+03
        -0.37300E+03
        -0.37300E+03
        -0.37300E+03
        -0.37300E+03
        -0.37300E+03
        -0.37300E+03
        -0.37300E+03
        -0.37300E+03
        -0.37300E+03
        -0.37300E+03
        -0.37300E+03
        -0.37300E+03
        -0.37300E+03
        -0.37300E+03
        -0.37300E+03
        -0.37300E+03
        -0.37300E+03
        -0.37300E+03
        -0.37300E+03
        -0.37300E+03
        -0.37300E+03
        -0.37300E+03
        -0.37300E+03
        -0.37300E+03
        -0.37300E+03
        -0.37300E+03
        -0.37300E+03
        -0.37300E+03
        -0.37300E+03
        -0.37300E+03
        -0.37300E+03
        -0.37300E+03
        -0.37300E+03
        -0.37300E+03
        -0.37300E+03
        -0.37300E+03
        -0.37300E+03
        -0.37300E+03
        -0.37300E+03
        -0.37300E+03
        -0.37300E+03
        -0.37300E+03
        -0.37300E+03
        -0.37300E+03
        -0.37300E+03
        -0.37300E+03
        -0.37300E+03
        -0.37300E+03
        -0.37300E+03
        -0.37300E+03
        -0.37300E+03
        -0.37300E+03
        -0.37300E+03
        -0.37300E+03
        -0.37300E+03
        -0.37300E+03
        -0.37300E+03
        -0.37300E+03
        -0.37300E+03
        -0.37300E+03
        -0.37300E+03
        -0.37300E+03
        -0.37300E+03
        -0.37300E+03
        -0.37300E+03
        -0.37300E+03
        -0.37300E+03
        -0.37300E+03
        -0.37300E+03
        -0.37300E+03
        -0.37300E+03
        -0.37300E+03
        -0.37300E+03
        -0.37300E+03
        -0.37300E+03
        -0.37300E+03
        -0.37300E+03
        -0.37300E+03
        -0.37300E+03
        -0.37300E+03
        -0.37300E+03
        -0.37300E+03
        -0.37300E+03
        -0.37300E+03
        -0.37300E+03
        -0.37300E+03
        -0.37300E+03
        -0.37300E+03
        -0.37300E+03
        -0.37300E+03
        -0.37300E+03
        -0.37300E+03
        -0.37300E+03
        -0.37300E+03
        -0.37300E+03
        -0.37300E+03
        -0.37300E+03
        -0.37300E+03
        -0.37300E+03
        -0.37300E+03
        -0.37300E+03
        -0.37300E+03
        -0.37300E+03
        -0.37300E+03
        -0.37300E+03
        -0.37300E+03
        -0.37300E+03
        -0.37300E+03
        -0.37300E+03
        -0.37300E+03
        -0.37300E+03
        -0.37300E+03
        -0.37300E+03
        -0.37300E+03
        -0.37300E+03
        -0.37300E+03
        -0.37300E+03
        -0.37300E+03
        -0.37300E+03
        -0.37300E+03
        -0.37300E+03
        -0.37300E+03
        -0.37300E+03
        -0.37300E+03
        -0.37300E+03
        -0.37300E+03
        -0.37300E+03
        -0.37300E+03
        -0.37300E+03
        -0.37300E+03
        -0.37300E+03
        -0.37300E+03
        -0.37300E+03
        -0.37300E+03
        -0.37300E+03
        -0.37300E+03
        -0.37300E+03
        -0.37300E+03
        -0.37300E+03
        -0.37300E+03
        -0.37300E+03
        -0.37300E+03
        -0.37300E+03
        -0.37300E+03
        -0.37300E+03
        -0.37300E+03
        -0.37300E+03
        -0.37300E+03
        -0.37300E+03
        -0.37300E+03
        -0.37300E+03
        -0.37300E+03
        -0.37300E+03
        -0.37300E+03
        -0.37300E+03
        -0.37300E+03
        -0.37300E+03
        -0.37300E+03
        -0.37300E+03
        -0.37300E+03
        -0.37300E+03
        -0.37300E+03
        -0.37300E+03
        -0.37300E+03
        -0.37300E+03
        -0.37300E+03
        -0.37300E+03
        -0.37300E+03
        -0.37300E+03
        -0.37300E+03
        -0.37300E+03
        -0.37300E+03
        -0.37300E+03
        -0.37300E+03
        -0.37300E+03
        -0.37300E+03
        -0.37300E+03
        -0.37300E+03
        -0.37300E+03
        -0.37300E+03
        -0.37300E+03
        -0.37300E+03
        -0.37300E+03
        -0.37300E+03
        -0.37300E+03
        -0.37300E+03
        -0.37300E+03
        -0.37300E+03
        -0.37300E+03
        -0.37300E+03
        -0.37300E+03
        -0.37300E+03
        -0.37300E+03
        -0.37300E+03
        -0.37300E+03
        -0.37300E+03
        -0.37300E+03
        -0.37300E+03
        -0.37300E+03
        -0.37300E+03
        -0.37300E+03
        -0.37300E+03
        -0.37300E+03
        -0.37300E+03
        -0.37300E+03
        -0.37300E+03
        -0.37300E+03
        -0.37300E+03
        -0.37300E+03
        -0.37300E+03
        -0.37300E+03
        -0.37300E+03
        -0.37300E+03
        -0.37300E+03
        -0.37300E+03
        -0.37300E+03
        -0.37300E+03
        -0.37300E+03
        -0.37300E+03
        -0.37300E+03
        -0.37300E+03
        -0.37300E+03
        -0.37300E+03
        -0.37300E+03
        -0.37300E+03
        -0.37300E+03
        -0.37300E+03
        -0.37300E+03
        -0.37300E+03
        -0.37300E+03
        -0.37300E+03
        -0.37300E+03
        -0.37300E+03
        -0.37300E+03
        -0.37300E+03
        -0.37300E+03
        -0.37300E+03
        -0.37300E+03
        -0.37300E+03
        -0.37300E+03
        -0.37300E+03
        -0.37300E+03
        -0.37300E+03
        -0.37300E+03
        -0.37300E+03
        -0.37300E+03
        -0.37300E+03
        -0.37300E+03
        -0.37300E+03
        -0.37300E+03
        -0.37300E+03
        -0.37300E+03
        -0.37300E+03
        -0.37300E+03
        -0.37300E+03
        -0.37300E+03
        -0.37300E+03
        -0.37300E+03
        -0.37300E+03
        -0.37300E+03
        -0.37300E+03
        -0.37300E+03
        -0.37300E+03
        -0.37300E+03
        -0.37300E+03
        -0.37300E+03
        -0.37300E+03
        -0.37300E+03
        -0.37300E+03
        -0.37300E+03
        -0.37300E+03
        -0.37300E+03
        -0.37300E+03
        -0.37300E+03
        -0.37300E+03
        -0.37300E+03
        -0.37300E+03
        -0.37300E+03
        -0.37300E+03
        -0.37300E+03
        -0.37300E+03
        -0.37300E+03
        -0.37300E+03
        -0.37300E+03
        -0.37300E+03
        -0.37300E+03
        -0.37300E+03
        -0.37300E+03
        -0.37300E+03
        -0.37300E+03
        -0.37300E+03
        -0.37300E+03
        -0.37300E+03
        -0.37300E+03
        -0.37300E+03
        -0.37300E+03
        -0.37300E+03
        -0.37300E+03
        -0.37300E+03
        -0.37300E+03
        -0.37300E+03
        -0.37300E+03
        -0.37300E+03
        -0.37300E+03
        -0.37300E+03
        -0.37300E+03
        -0.37300E+03
        -0.37300E+03
        -0.37300E+03
        -0.37300E+03
        -0.37300E+03
        -0.37300E+03
        -0.37300E+03
        -0.37300E+03
        -0.37300E+03
        -0.37300E+03
        -0.37300E+03
        -0.37300E+03
        -0.37300E+03
        -0.37300E+03
        -0.37300E+03
        -0.37300E+03
        -0.37300E+03
        -0.37300E+03
        -0.37300E+03
        -0.37300E+03
        -0.37300E+03
        -0.37300E+03
        -0.37300E+03
        -0.37300E+03
        -0.37300E+03
        -0.37300E+03
        -0.37300E+03
        -0.37300E+03
        -0.37300E+03
        -0.37300E+03
        -0.37300E+03
        -0.37300E+03
        -0.37300E+03
        -0.37300E+03
        -0.37300E+03
        -0.37300E+03
        -0.37300E+03
        -0.37300E+03
        -0.37300E+03
        -0.37300E+03
        -0.37300E+03
        -0.37300E+03
        -0.37300E+03
        -0.37300E+03
        -0.37300E+03
        -0.37300E+03
        -0.37300E+03
        -0.37300E+03
        -0.37300E+03
        -0.37300E+03
        -0.37300E+03
        -0.37300E+03
        -0.37300E+03
        -0.37300E+03
        -0.37300E+03
        -0.37300E+03
        -0.37300E+03
        -0.37300E+03
        -0.37300E+03
        -0.37300E+03
        -0.37300E+03
        -0.37300E+03
        -0.37300E+03
        -0.37300E+03
        -0.37300E+03
        -0.37300E+03
        -0.37300E+03
        -0.37300E+03
        -0.37300E+03
        -0.37300E+03
        -0.37300E+03
        -0.37300E+03
        -0.37300E+03
        -0.37300E+03
        -0.37300E+03
        -0.37300E+03
        -0.37300E+03
        -0.37300E+03
        -0.37300E+03
        -0.37300E+03
        -0.37300E+03
        -0.37300E+03
        -0.37300E+03
        -0.37300E+03
        -0.37300E+03
        -0.37300E+03
        -0.37300E+03
        -0.37300E+03
        -0.37300E+03
        -0.37300E+03
        -0.37300E+03
        -0.37300E+03
        -0.37300E+03
        -0.37300E+03
        -0.37300E+03
        -0.37300E+03
        -0.37300E+03
        -0.37300E+03
        -0.37300E+03
        -0.37300E+03
        -0.37300E+03
        -0.37300E+03
        -0.37300E+03
        -0.37300E+03
        -0.37300E+03
        -0.37300E+03
        -0.37300E+03
        -0.37300E+03
        -0.37300E+03
        -0.37300E+03
        -0.37300E+03
        -0.37300E+03
        -0.37300E+03
        -0.37300E+03
        -0.37300E+03
        -0.37300E+03
        -0.37300E+03
        -0.37300E+03
        -0.37300E+03
        -0.37300E+03
        -0.37300E+03
        -0.37300E+03
        -0.37300E+03
        -0.37300E+03
        -0.37300E+03
        -0.37300E+03
        -0.37300E+03
        -0.37300E+03
        -0.37300E+03
        -0.37300E+03
        -0.37300E+03
        -0.37300E+03
        -0.37300E+03
        -0.37300E+03
        -0.37300E+03
        -0.37300E+03
        -0.37300E+03
        -0.37300E+03
        -0.37300E+03
        -0.37300E+03
        -0.37300E+03
        -0.37300E+03
        -0.37300E+03
        -0.37300E+03
        -0.37300E+03
        -0.37300E+03
        -0.37300E+03
        -0.37300E+03
        -0.37300E+03
        -0.37300E+03
        -0.37300E+03
        -0.37300E+03
        -0.37300E+03
        -0.37300E+03
        -0.37300E+03
        -0.37300E+03
        -0.37300E+03
        -0.37300E+03
        -0.37300E+03
        -0.37300E+03
        -0.37300E+03
        -0.37300E+03
        -0.37300E+03
        -0.37300E+03
        -0.37300E+03
        -0.37300E+03
        -0.37300E+03
        -0.37300E+03
        -0.37300E+03
        -0.37300E+03
        -0.37300E+03
        -0.37300E+03
        -0.37300E+03
        -0.37300E+03
        -0.37300E+03
        -0.37300E+03
        -0.37300E+03
        -0.37300E+03
        -0.37300E+03
        -0.37300E+03
        -0.37300E+03
        -0.37300E+03
        -0.37300E+03
        -0.37300E+03
        -0.37300E+03
        -0.37300E+03
        -0.37300E+03
        -0.37300E+03
        -0.37300E+03
        -0.37300E+03
        -0.37300E+03
        -0.37300E+03
        -0.37300E+03
        -0.37300E+03
        -0.37300E+03
        -0.37300E+03
        -0.37300E+03
        -0.37300E+03
        -0.37300E+03
        -0.37300E+03
        -0.37300E+03
        -0.37300E+03
        -0.37300E+03
        -0.37300E+03
        -0.37300E+03
        -0.37300E+03
        -0.37300E+03
        -0.37300E+03
        -0.37300E+03
        -0.37300E+03
        -0.37300E+03
        -0.37300E+03
        -0.37300E+03
        -0.37300E+03
        -0.37300E+03
        -0.37300E+03
        -0.37300E+03
        -0.37300E+03
        -0.37300E+03
        -0.37300E+03
        -0.37300E+03
        -0.37300E+03
        -0.37300E+03
        -0.37300E+03
        -0.37300E+03
        -0.37300E+03
        -0.37300E+03
        -0.37300E+03
        -0.37300E+03
        -0.37300E+03
        -0.37300E+03
        -0.37300E+03
        -0.37300E+03
        -0.37300E+03
        -0.37300E+03
        -0.37300E+03
        -0.37300E+03
        -0.37300E+03
        -0.37300E+03
        -0.37300E+03
        -0.37300E+03
        -0.37300E+03
        -0.37300E+03
        -0.37300E+03
        -0.37300E+03
        -0.37300E+03
        -0.37300E+03
        -0.37300E+03
        -0.37300E+03
        -0.37300E+03
        -0.37300E+03
        -0.37300E+03
        -0.37300E+03
        -0.37300E+03
        -0.37300E+03
        -0.37300E+03
        -0.37300E+03
        -0.37300E+03
        -0.37300E+03
        -0.37300E+03
        -0.37300E+03
        -0.37300E+03
        -0.37300E+03
        -0.37300E+03
        -0.37300E+03
        -0.37300E+03
        -0.37300E+03
        -0.37300E+03
        -0.37300E+03
        -0.37300E+03
        -0.37300E+03
        -0.37300E+03
        -0.37300E+03
        -0.37300E+03
        -0.37300E+03
        -0.37300E+03
        -0.37300E+03
        -0.37300E+03
        -0.37300E+03
        -0.37300E+03
        -0.37300E+03
        -0.37300E+03
        -0.37300E+03
        -0.37300E+03
        -0.37300E+03
        -0.37300E+03
        -0.37300E+03
        -0.37300E+03
        -0.37300E+03
        -0.37300E+03
        -0.37300E+03
        -0.37300E+03
        -0.37300E+03
        -0.37300E+03
        -0.37300E+03
        -0.37300E+03
        -0.37300E+03
        -0.37300E+03
        -0.37300E+03
        -0.37300E+03
        -0.37300E+03
        -0.37300E+03
        -0.37300E+03
        -0.37300E+03
        -0.37300E+03
        -0.37300E+03
        -0.37300E+03
        -0.37300E+03
        -0.37300E+03
        -0.37300E+03
        -0.37300E+03
        -0.37300E+03
        -0.37300E+03
        -0.37300E+03
        -0.37300E+03
        -0.37300E+03
        -0.37300E+03
        -0.37300E+03
        -0.37300E+03
        -0.37300E+03
        -0.37300E+03
        -0.37300E+03
        -0.37300E+03
        -0.37300E+03
        -0.37300E+03
        -0.37300E+03
        -0.37300E+03
        -0.37300E+03
        -0.37300E+03
        -0.37300E+03
        -0.37300E+03
        -0.37300E+03
        -0.37300E+03
        -0.37300E+03
        -0.37300E+03
        -0.37300E+03
        -0.37300E+03
        -0.37300E+03
        -0.37300E+03
        -0.37300E+03
        -0.37300E+03
        -0.37300E+03
        -0.37300E+03
        -0.37300E+03
        -0.37300E+03
        -0.37300E+03
        -0.37300E+03
        -0.37300E+03
        -0.37300E+03
        -0.37300E+03
        -0.37300E+03
        -0.37300E+03
        -0.37300E+03
        -0.37300E+03
        -0.37300E+03
        -0.37300E+03
        -0.37300E+03
        -0.37300E+03
        -0.37300E+03
        -0.37300E+03
        -0.37300E+03
        -0.37300E+03
        -0.37300E+03
        -0.37300E+03
        -0.37300E+03
        -0.37300E+03
        -0.37300E+03
        -0.37300E+03
        -0.37300E+03
        -0.37300E+03
        -0.37300E+03
        -0.37300E+03
        -0.37300E+03
        -0.37300E+03
        -0.37300E+03
        -0.37300E+03
        -0.37300E+03
        -0.37300E+03
        -0.37300E+03
        -0.37300E+03
        -0.37300E+03
        -0.37300E+03
        -0.37300E+03
        -0.37300E+03
        -0.37300E+03
        -0.37300E+03
        -0.37300E+03
        -0.37300E+03
        -0.37300E+03
        -0.37300E+03
        -0.37300E+03
        -0.37300E+03
        -0.37300E+03
        -0.37300E+03
        -0.37300E+03
        -0.37300E+03
        -0.37300E+03
        -0.37300E+03
        -0.37300E+03
        -0.37300E+03
        -0.37300E+03
        -0.37300E+03
        -0.37300E+03
        -0.37300E+03
        -0.37300E+03
        -0.37300E+03
        -0.37300E+03
        -0.37300E+03
        -0.37300E+03
        -0.37300E+03
        -0.37300E+03
        -0.37300E+03
        -0.37300E+03
        -0.37300E+03
        -0.37300E+03
        -0.37300E+03
        -0.37300E+03
        -0.37300E+03
        -0.37300E+03
        -0.37300E+03
        -0.37300E+03
        -0.37300E+03
        -0.37300E+03
        -0.37300E+03
        -0.37300E+03
        -0.37300E+03
        -0.37300E+03
        -0.37300E+03
        -0.37300E+03
        -0.37300E+03
        -0.37300E+03
        -0.37300E+03
        -0.37300E+03
        -0.37300E+03
        -0.37300E+03
        -0.37300E+03
        -0.37300E+03
        -0.37300E+03
        -0.37300E+03
        -0.37300E+03
        -0.37300E+03
        -0.37300E+03
        -0.37300E+03
        -0.37300E+03
        -0.37300E+03
        -0.37300E+03
        -0.37300E+03
        -0.37300E+03
        -0.37300E+03
        -0.37300E+03
        -0.37300E+03
        -0.37300E+03
        -0.37300E+03
        -0.37300E+03
        -0.37300E+03
        -0.37300E+03
        -0.37300E+03
        -0.37300E+03
        -0.37300E+03
        -0.37300E+03
        -0.37300E+03
        -0.37300E+03
        -0.37300E+03
        -0.37300E+03
        -0.37300E+03
        -0.37300E+03
        -0.37300E+03
        -0.37300E+03
        -0.37300E+03
        -0.37300E+03
        -0.37300E+03
        -0.37300E+03
        -0.37300E+03
        -0.37300E+03
        -0.37300E+03
        -0.37300E+03
        -0.37300E+03
        -0.37300E+03
        -0.37300E+03
        -0.37300E+03
        -0.37300E+03
        -0.37300E+03
        -0.37300E+03
        -0.37300E+03
        -0.37300E+03
        -0.37300E+03
        -0.37300E+03
        -0.37300E+03
        -0.37300E+03
        -0.37300E+03
        -0.37300E+03
        -0.37300E+03
        -0.37300E+03
        -0.37300E+03
        -0.37300E+03
        -0.37300E+03
        -0.37300E+03
        -0.37300E+03
        -0.37300E+03
        -0.37300E+03
        -0.37300E+03
        -0.37300E+03
        -0.37300E+03
        -0.37300E+03
        -0.37300E+03
        -0.37300E+03
        -0.37300E+03
        -0.37300E+03
        -0.37300E+03
        -0.37300E+03
        -0.37300E+03
        -0.37300E+03
        -0.37300E+03
        -0.37300E+03
        -0.37300E+03
        -0.37300E+03
        -0.37300E+03
        -0.37300E+03
        -0.37300E+03
        -0.37300E+03
        -0.37300E+03
        -0.37300E+03
        -0.37300E+03
        -0.37300E+03
        -0.37300E+03
        -0.37300E+03
        -0.37300E+03
        -0.37300E+03
        -0.37300E+03
        -0.37300E+03
        -0.37300E+03
        -0.37300E+03
        -0.37300E+03
        -0.37300E+03
        -0.37300E+03
        -0.37300E+03
        -0.37300E+03
        -0.37300E+03
        -0.37300E+03
        -0.37300E+03
        -0.37300E+03
        -0.37300E+03
        -0.37300E+03
        -0.37300E+03
        -0.37300E+03
        -0.37300E+03
        -0.37300E+03
        -0.37300E+03
        -0.37300E+03
        -0.37300E+03
        -0.37300E+03
        -0.37300E+03
        -0.37300E+03
        -0.37300E+03
        -0.37300E+03
        -0.37300E+03
        -0.37300E+03
        -0.37300E+03
        -0.37300E+03
        -0.37300E+03
        -0.37300E+03
        -0.37300E+03
        -0.37300E+03
        -0.37300E+03
        -0.37300E+03
        -0.37300E+03
        -0.37300E+03
        -0.37300E+03
        -0.37300E+03
        -0.37300E+03
        -0.37300E+03
        -0.37300E+03
        -0.37300E+03
        -0.37300E+03
        -0.37300E+03
        -0.37300E+03
        -0.37300E+03
        -0.37300E+03
        -0.37300E+03
        -0.37300E+03
        -0.37300E+03
        -0.37300E+03
        -0.37300E+03
        -0.37300E+03
        -0.37300E+03
        -0.37300E+03
        -0.37300E+03
        -0.37300E+03
        -0.37300E+03
        -0.37300E+03
        -0.37300E+03
        -0.37300E+03
        -0.37300E+03
        -0.37300E+03
        -0.37300E+03
        -0.37300E+03
        -0.37300E+03
        -0.37300E+03
        -0.37300E+03
        -0.37300E+03
        -0.37300E+03
        -0.37300E+03
        -0.37300E+03
        -0.37300E+03
        -0.37300E+03
        -0.37300E+03
        -0.37300E+03
        -0.37300E+03
        -0.37300E+03
        -0.37300E+03
        -0.37300E+03
        -0.37300E+03
        -0.37300E+03
        -0.37300E+03
        -0.37300E+03
        -0.37300E+03
        -0.37300E+03
        -0.37300E+03
        -0.37300E+03
        -0.37300E+03
        -0.37300E+03
        -0.37300E+03
        -0.37300E+03
        -0.37300E+03
        -0.37300E+03
        -0.37300E+03
        -0.37300E+03
        -0.37300E+03
        -0.37300E+03
        -0.37300E+03
        -0.37300E+03
        -0.37300E+03
        -0.37300E+03
        -0.37300E+03
        -0.37300E+03
        -0.37300E+03
        -0.37300E+03
        -0.37300E+03
        -0.37300E+03
        -0.37300E+03
        -0.37300E+03
        -0.37300E+03
        -0.37300E+03
        -0.37300E+03
        -0.37300E+03
        -0.37300E+03
        -0.37300E+03
        -0.37300E+03
        -0.37300E+03
        -0.37300E+03
        -0.37300E+03
        -0.37300E+03
        -0.37300E+03
        -0.37300E+03
        -0.37300E+03
        -0.37300E+03
        -0.37300E+03
        -0.37300E+03
        -0.37300E+03
        -0.37300E+03
        -0.37300E+03
        -0.37300E+03
        -0.37300E+03
        -0.37300E+03
        -0.37300E+03
        -0.37300E+03
        -0.37300E+03
        -0.37300E+03
        -0.37300E+03
        -0.37300E+03
        -0.37300E+03
        -0.37300E+03
        -0.37300E+03
        -0.37300E+03
        -0.37300E+03
        -0.37300E+03
        -0.37300E+03
        -0.37300E+03
        -0.37300E+03
        -0.37300E+03
        -0.37300E+03
        -0.37300E+03
        -0.37300E+03
        -0.37300E+03
        -0.37300E+03
        -0.37300E+03
        -0.37300E+03
        -0.37300E+03
        -0.37300E+03
        -0.37300E+03
        -0.37300E+03
        -0.37300E+03
        -0.37300E+03
        -0.37300E+03
        -0.37300E+03
        -0.37300E+03
        -0.37300E+03
        -0.37300E+03
        -0.37300E+03
        -0.37300E+03
        -0.37300E+03
        -0.37300E+03
        -0.37300E+03
        -0.37300E+03
        -0.37300E+03
        -0.37300E+03
        -0.37300E+03
        -0.37300E+03
        -0.37300E+03
        -0.37300E+03
        -0.37300E+03
        -0.37300E+03
        -0.37300E+03
        -0.37300E+03
        -0.37300E+03
        -0.37300E+03
        -0.37300E+03
        -0.37300E+03
        -0.37300E+03
        -0.37300E+03
        -0.37300E+03
        -0.37300E+03
        -0.37300E+03
        -0.37300E+03
        -0.37300E+03
        -0.37300E+03
        -0.37300E+03
        -0.37300E+03
        -0.37300E+03
        -0.37300E+03
        -0.37300E+03
        -0.37300E+03
        -0.37300E+03
        -0.37300E+03
        -0.37300E+03
        -0.37300E+03
        -0.37300E+03
        -0.37300E+03
        -0.37300E+03
        -0.37300E+03
        -0.37300E+03
        -0.37300E+03
        -0.37300E+03
        -0.37300E+03
        -0.37300E+03
        -0.37300E+03
        -0.37300E+03
        -0.37300E+03
        -0.37300E+03
        -0.37300E+03
        -0.37300E+03
        -0.37300E+03
        -0.37300E+03
        -0.37300E+03
        -0.37300E+03
        -0.37300E+03
        -0.37300E+03
        -0.37300E+03
        -0.37300E+03
        -0.37300E+03
        -0.37300E+03
        -0.37300E+03
        -0.37300E+03
        -0.37300E+03
        -0.37300E+03
        -0.37300E+03
        -0.37300E+03
        -0.37300E+03
        -0.37300E+03
        -0.37300E+03
        -0.37300E+03
        -0.37300E+03
        -0.37300E+03
        -0.37300E+03
        -0.37300E+03
        -0.37300E+03
        -0.37300E+03
        -0.37300E+03
        -0.37300E+03
        -0.37300E+03
        -0.37300E+03
        -0.37300E+03
        -0.37300E+03
        -0.37300E+03
        -0.37300E+03
        -0.37300E+03
        -0.37300E+03
        -0.37300E+03
        -0.37300E+03
        -0.37300E+03
        -0.37300E+03
        -0.37300E+03
        -0.37300E+03
        -0.37300E+03
        -0.37300E+03
        -0.37300E+03
        -0.37300E+03
        -0.37300E+03
        -0.37300E+03
        -0.37300E+03
        -0.37300E+03
        -0.37300E+03
        -0.37300E+03
        -0.37300E+03
        -0.37300E+03
        -0.37300E+03
        -0.37300E+03
        -0.37300E+03
        -0.37300E+03
        -0.37300E+03
        -0.37300E+03
        -0.37300E+03
        -0.37300E+03
        -0.37300E+03
        -0.37300E+03
        -0.37300E+03
        -0.37300E+03
        -0.37300E+03
        -0.37300E+03
        -0.37300E+03
        -0.37300E+03
        -0.37300E+03
        -0.37300E+03
        -0.37300E+03
        -0.37300E+03
        -0.37300E+03
        -0.37300E+03
        -0.37300E+03
        -0.37300E+03
        -0.37300E+03
        -0.37300E+03
        -0.37300E+03
        -0.37300E+03
        -0.37300E+03
        -0.37300E+03
        -0.37300E+03
        -0.37300E+03
        -0.37300E+03
        -0.37300E+03
        -0.37300E+03
        -0.37300E+03
        -0.37300E+03
        -0.37300E+03
        -0.37300E+03
        -0.37300E+03
        -0.37300E+03
        -0.37300E+03
        -0.37300E+03
        -0.37300E+03
        -0.37300E+03
        -0.37300E+03
        -0.37300E+03
        -0.37300E+03
        -0.37300E+03
        -0.37300E+03
        -0.37300E+03
        -0.37300E+03
        -0.37300E+03
        -0.37300E+03
        -0.37300E+03
        -0.37300E+03
        -0.37300E+03
        -0.37300E+03
        -0.37300E+03
        -0.37300E+03
        -0.37300E+03
        -0.37300E+03
        -0.37300E+03
        -0.37300E+03
        -0.37300E+03
        -0.37300E+03
        -0.37300E+03
        -0.37300E+03
        -0.37300E+03
        -0.37300E+03
        -0.37300E+03
        -0.37300E+03
        -0.37300E+03
        -0.37300E+03
        -0.37300E+03
        -0.37300E+03
        -0.37300E+03
        -0.37300E+03
        -0.37300E+03
        -0.37300E+03
        -0.37300E+03
        -0.37300E+03
        -0.37300E+03
        -0.37300E+03
        -0.37300E+03
        -0.37300E+03
        -0.37300E+03
        -0.37300E+03
        -0.37300E+03
        -0.37300E+03
        -0.37300E+03
        -0.37300E+03
        -0.37300E+03
        -0.37300E+03
        -0.37300E+03
        -0.37300E+03
        -0.37300E+03
        -0.37300E+03
        -0.37300E+03
        -0.37300E+03
        -0.37300E+03
        -0.37300E+03
        -0.37300E+03
        -0.37300E+03
        -0.37300E+03
        -0.37300E+03
        -0.37300E+03
        -0.37300E+03
        -0.37300E+03
        -0.37300E+03
        -0.37300E+03
        -0.37300E+03
        -0.37300E+03
        -0.37300E+03
        -0.37300E+03
        -0.37300E+03
        -0.37300E+03
        -0.37300E+03
        -0.37300E+03
        -0.37300E+03
        -0.37300E+03
        -0.37300E+03
        -0.37300E+03
        -0.37300E+03
        -0.37300E+03
        -0.37300E+03
        -0.37300E+03
        -0.37300E+03
        -0.37300E+03
        -0.37300E+03
        -0.37300E+03
        -0.37300E+03
        -0.37300E+03
        -0.37300E+03
        -0.37300E+03
        -0.37300E+03
        -0.37300E+03
        -0.37300E+03
        -0.37300E+03
        -0.37300E+03
        -0.37300E+03
        -0.37300E+03
        -0.37300E+03
        -0.37300E+03
        -0.37300E+03
        -0.37300E+03
        -0.37300E+03
        -0.37300E+03
        -0.37300E+03
        -0.37300E+03
        -0.37300E+03
        -0.37300E+03
        -0.37300E+03
        -0.37300E+03
        -0.37300E+03
        -0.37300E+03
        -0.37300E+03
        -0.37300E+03
        -0.37300E+03
        -0.37300E+03
        -0.37300E+03
        -0.37300E+03
        -0.37300E+03
        -0.37300E+03
        -0.37300E+03
        -0.37300E+03
        -0.37300E+03
        -0.37300E+03
        -0.37300E+03
        -0.37300E+03
        -0.37300E+03
        -0.37300E+03
        -0.37300E+03
        -0.37300E+03
        -0.37300E+03
        -0.37300E+03
        -0.37300E+03
        -0.37300E+03
        -0.37300E+03
        -0.37300E+03
        -0.37300E+03
        -0.37300E+03
        -0.37300E+03
        -0.37300E+03
        -0.37300E+03
        -0.37300E+03
        -0.37300E+03
        -0.37300E+03
        -0.37300E+03
        -0.37300E+03
        -0.37300E+03
        -0.37300E+03
        -0.37300E+03
        -0.37300E+03
        -0.37300E+03
        -0.37300E+03
        -0.37300E+03
        -0.37300E+03
        -0.37300E+03
        -0.37300E+03
        -0.37300E+03
        -0.37300E+03
        -0.37300E+03
        -0.37300E+03
        -0.37300E+03
        -0.37300E+03
        -0.37300E+03
        -0.37300E+03
        -0.37300E+03
        -0.37300E+03
        -0.37300E+03
        -0.37300E+03
        -0.37300E+03
        -0.37300E+03
        -0.37300E+03
        -0.37300E+03
        -0.37300E+03
        -0.37300E+03
        -0.37300E+03
        -0.37300E+03
        -0.37300E+03
        -0.37300E+03
        -0.37300E+03
        -0.37300E+03
        -0.37300E+03
        -0.37300E+03
        -0.37300E+03
        -0.37300E+03
        -0.37300E+03
        -0.37300E+03
        -0.37300E+03
        -0.37300E+03
        -0.37300E+03
        -0.37300E+03
        -0.37300E+03
        -0.37300E+03
        -0.37300E+03
        -0.37300E+03
        -0.37300E+03
        -0.37300E+03
        -0.37300E+03
        -0.37300E+03
        -0.37300E+03
        -0.37300E+03
        -0.37300E+03
        -0.37300E+03
        -0.37300E+03
        -0.37300E+03
        -0.37300E+03
        -0.37300E+03
        -0.37300E+03
        -0.37300E+03
        -0.37300E+03
        -0.37300E+03
        -0.37300E+03
        -0.37300E+03
        -0.37300E+03
        -0.37300E+03
        -0.37300E+03
        -0.37300E+03
        -0.37300E+03
        -0.37300E+03
        -0.37300E+03
        -0.37300E+03
        -0.37300E+03
        -0.37300E+03
        -0.37300E+03
        -0.37300E+03
        -0.37300E+03
        -0.37300E+03
        -0.37300E+03
  
SCALARS              normalized_window  double 1
LOOKUP_TABLE default
         0.27500E+01
         0.27500E+01
         0.27500E+01
         0.27500E+01
         0.27500E+01
         0.27500E+01
         0.27500E+01
         0.27500E+01
         0.27500E+01
         0.27500E+01
         0.27500E+01
         0.27500E+01
         0.27500E+01
         0.27500E+01
         0.27500E+01
         0.27500E+01
         0.27500E+01
         0.27500E+01
         0.27500E+01
         0.27500E+01
         0.27500E+01
         0.27500E+01
         0.27500E+01
         0.27500E+01
         0.27500E+01
         0.27500E+01
         0.27500E+01
         0.27500E+01
         0.27500E+01
         0.27500E+01
         0.27500E+01
         0.27500E+01
         0.27500E+01
         0.27500E+01
         0.27500E+01
         0.27500E+01
         0.27500E+01
         0.27500E+01
         0.27500E+01
         0.27500E+01
         0.27500E+01
         0.27500E+01
         0.27500E+01
         0.27500E+01
         0.27500E+01
         0.27500E+01
         0.27500E+01
         0.27500E+01
         0.27500E+01
         0.27500E+01
         0.27500E+01
         0.27500E+01
         0.27500E+01
         0.27500E+01
         0.27500E+01
         0.27500E+01
         0.27500E+01
         0.27500E+01
         0.27500E+01
         0.27500E+01
         0.27500E+01
         0.27500E+01
         0.27500E+01
         0.27500E+01
         0.27500E+01
         0.27500E+01
         0.27500E+01
         0.27500E+01
         0.27500E+01
         0.27500E+01
         0.27500E+01
         0.27500E+01
         0.27500E+01
         0.27500E+01
         0.27500E+01
         0.27500E+01
         0.27500E+01
         0.27500E+01
         0.27500E+01
         0.27500E+01
         0.27500E+01
         0.27500E+01
         0.27500E+01
         0.27500E+01
         0.27500E+01
         0.27500E+01
         0.27500E+01
         0.27500E+01
         0.27500E+01
         0.27500E+01
         0.27500E+01
         0.27500E+01
         0.27500E+01
         0.27500E+01
         0.27500E+01
         0.27500E+01
         0.27500E+01
         0.27500E+01
         0.27500E+01
         0.27500E+01
         0.27500E+01
         0.27500E+01
         0.27500E+01
         0.27500E+01
         0.27500E+01
         0.27500E+01
         0.27500E+01
         0.27500E+01
         0.27500E+01
         0.27500E+01
         0.27500E+01
         0.27500E+01
         0.27500E+01
         0.27500E+01
         0.27500E+01
         0.27500E+01
         0.27500E+01
         0.27500E+01
         0.27500E+01
         0.27500E+01
         0.27500E+01
         0.27500E+01
         0.27500E+01
         0.27500E+01
         0.27500E+01
         0.27500E+01
         0.27500E+01
         0.27500E+01
         0.27500E+01
         0.27500E+01
         0.27500E+01
         0.27500E+01
         0.27500E+01
         0.27500E+01
         0.27500E+01
         0.27500E+01
         0.27500E+01
         0.27500E+01
         0.27500E+01
         0.27500E+01
         0.27500E+01
         0.27500E+01
         0.27500E+01
         0.27500E+01
         0.27500E+01
         0.27500E+01
         0.27500E+01
         0.27500E+01
         0.27500E+01
         0.27500E+01
         0.27500E+01
         0.27500E+01
         0.27500E+01
         0.27500E+01
         0.27500E+01
         0.27500E+01
         0.27500E+01
         0.27500E+01
         0.27500E+01
         0.27500E+01
         0.27500E+01
         0.27500E+01
         0.27500E+01
         0.27500E+01
         0.27500E+01
         0.27500E+01
         0.27500E+01
         0.27500E+01
         0.27500E+01
         0.27500E+01
         0.27500E+01
         0.27500E+01
         0.27500E+01
         0.27500E+01
         0.27500E+01
         0.27500E+01
         0.27500E+01
         0.27500E+01
         0.27500E+01
         0.27500E+01
         0.27500E+01
         0.27500E+01
         0.27500E+01
         0.27500E+01
         0.27500E+01
         0.27500E+01
         0.27500E+01
         0.27500E+01
         0.27500E+01
         0.27500E+01
         0.27500E+01
         0.27500E+01
         0.27500E+01
         0.27500E+01
         0.27500E+01
         0.27500E+01
         0.27500E+01
         0.27500E+01
         0.27500E+01
         0.27500E+01
         0.27500E+01
         0.27500E+01
         0.27500E+01
         0.27500E+01
         0.27500E+01
         0.27500E+01
         0.27500E+01
         0.27500E+01
         0.27500E+01
         0.27500E+01
         0.27500E+01
         0.27500E+01
         0.27500E+01
         0.27500E+01
         0.27500E+01
         0.27500E+01
         0.27500E+01
         0.27500E+01
         0.27500E+01
         0.27500E+01
         0.27500E+01
         0.27500E+01
         0.27500E+01
         0.27500E+01
         0.27500E+01
         0.27500E+01
         0.27500E+01
         0.27500E+01
         0.27500E+01
         0.27500E+01
         0.27500E+01
         0.27500E+01
         0.27500E+01
         0.27500E+01
         0.27500E+01
         0.27500E+01
         0.27500E+01
         0.27500E+01
         0.27500E+01
         0.27500E+01
         0.27500E+01
         0.27500E+01
         0.27500E+01
         0.27500E+01
         0.27500E+01
         0.27500E+01
         0.27500E+01
         0.27500E+01
         0.27500E+01
         0.27500E+01
         0.27500E+01
         0.27500E+01
         0.27500E+01
         0.27500E+01
         0.27500E+01
         0.27500E+01
         0.27500E+01
         0.27500E+01
         0.27500E+01
         0.27500E+01
         0.27500E+01
         0.27500E+01
         0.27500E+01
         0.27500E+01
         0.27500E+01
         0.27500E+01
         0.27500E+01
         0.27500E+01
         0.27500E+01
         0.27500E+01
         0.27500E+01
         0.27500E+01
         0.27500E+01
         0.27500E+01
         0.27500E+01
         0.27500E+01
         0.27500E+01
         0.27500E+01
         0.27500E+01
         0.27500E+01
         0.27500E+01
         0.27500E+01
         0.27500E+01
         0.27500E+01
         0.27500E+01
         0.27500E+01
         0.27500E+01
         0.27500E+01
         0.27500E+01
         0.27500E+01
         0.27500E+01
         0.27500E+01
         0.27500E+01
         0.27500E+01
         0.27500E+01
         0.27500E+01
         0.27500E+01
         0.27500E+01
         0.27500E+01
         0.27500E+01
         0.27500E+01
         0.27500E+01
         0.27500E+01
         0.27500E+01
         0.27500E+01
         0.27500E+01
         0.27500E+01
         0.27500E+01
         0.27500E+01
         0.27500E+01
         0.27500E+01
         0.27500E+01
         0.27500E+01
         0.27500E+01
         0.27500E+01
         0.27500E+01
         0.27500E+01
         0.27500E+01
         0.27500E+01
         0.27500E+01
         0.27500E+01
         0.27500E+01
         0.27500E+01
         0.27500E+01
         0.27500E+01
         0.27500E+01
         0.27500E+01
         0.27500E+01
         0.27500E+01
         0.27500E+01
         0.27500E+01
         0.27500E+01
         0.27500E+01
         0.27500E+01
         0.27500E+01
         0.27500E+01
         0.27500E+01
         0.27500E+01
         0.27500E+01
         0.27500E+01
         0.27500E+01
         0.27500E+01
         0.27500E+01
         0.27500E+01
         0.27500E+01
         0.27500E+01
         0.27500E+01
         0.27500E+01
         0.27500E+01
         0.27500E+01
         0.27500E+01
         0.27500E+01
         0.27500E+01
         0.27500E+01
         0.27500E+01
         0.27500E+01
         0.27500E+01
         0.27500E+01
         0.27500E+01
         0.27500E+01
         0.27500E+01
         0.27500E+01
         0.27500E+01
         0.27500E+01
         0.27500E+01
         0.27500E+01
         0.27500E+01
         0.27500E+01
         0.27500E+01
         0.27500E+01
         0.27500E+01
         0.27500E+01
         0.27500E+01
         0.27500E+01
         0.27500E+01
         0.27500E+01
         0.27500E+01
         0.27500E+01
         0.27500E+01
         0.27500E+01
         0.27500E+01
         0.27500E+01
         0.27500E+01
         0.27500E+01
         0.27500E+01
         0.27500E+01
         0.27500E+01
         0.27500E+01
         0.27500E+01
         0.27500E+01
         0.27500E+01
         0.27500E+01
         0.27500E+01
         0.27500E+01
         0.27500E+01
         0.27500E+01
         0.27500E+01
         0.27500E+01
         0.27500E+01
         0.27500E+01
         0.27500E+01
         0.27500E+01
         0.27500E+01
         0.27500E+01
         0.27500E+01
         0.27500E+01
         0.27500E+01
         0.27500E+01
         0.27500E+01
         0.27500E+01
         0.27500E+01
         0.27500E+01
         0.27500E+01
         0.27500E+01
         0.27500E+01
         0.27500E+01
         0.27500E+01
         0.27500E+01
         0.27500E+01
         0.27500E+01
         0.27500E+01
         0.27500E+01
         0.27500E+01
         0.27500E+01
         0.27500E+01
         0.27500E+01
         0.27500E+01
         0.27500E+01
         0.27500E+01
         0.27500E+01
         0.27500E+01
         0.27500E+01
         0.27500E+01
         0.27500E+01
         0.27500E+01
         0.27500E+01
         0.27500E+01
         0.27500E+01
         0.27500E+01
         0.27500E+01
         0.27500E+01
         0.27500E+01
         0.27500E+01
         0.27500E+01
         0.27500E+01
         0.27500E+01
         0.27500E+01
         0.27500E+01
         0.27500E+01
         0.27500E+01
         0.27500E+01
         0.27500E+01
         0.27500E+01
         0.27500E+01
         0.27500E+01
         0.27500E+01
         0.27500E+01
         0.27500E+01
         0.27500E+01
         0.27500E+01
         0.27500E+01
         0.27500E+01
         0.27500E+01
         0.27500E+01
         0.27500E+01
         0.27500E+01
         0.27500E+01
         0.27500E+01
         0.27500E+01
         0.27500E+01
         0.27500E+01
         0.27500E+01
         0.27500E+01
         0.27500E+01
         0.27500E+01
         0.27500E+01
         0.27500E+01
         0.27500E+01
         0.27500E+01
         0.27500E+01
         0.27500E+01
         0.27500E+01
         0.27500E+01
         0.27500E+01
         0.27500E+01
         0.27500E+01
         0.27500E+01
         0.27500E+01
         0.27500E+01
         0.27500E+01
         0.27500E+01
         0.27500E+01
         0.27500E+01
         0.27500E+01
         0.27500E+01
         0.27500E+01
         0.27500E+01
         0.27500E+01
         0.27500E+01
         0.27500E+01
         0.27500E+01
         0.27500E+01
         0.27500E+01
         0.27500E+01
         0.27500E+01
         0.27500E+01
         0.27500E+01
         0.27500E+01
         0.27500E+01
         0.27500E+01
         0.27500E+01
         0.27500E+01
         0.27500E+01
         0.27500E+01
         0.27500E+01
         0.27500E+01
         0.27500E+01
         0.27500E+01
         0.27500E+01
         0.27500E+01
         0.27500E+01
         0.27500E+01
         0.27500E+01
         0.27500E+01
         0.27500E+01
         0.27500E+01
         0.27500E+01
         0.27500E+01
         0.27500E+01
         0.27500E+01
         0.27500E+01
         0.27500E+01
         0.27500E+01
         0.27500E+01
         0.27500E+01
         0.27500E+01
         0.27500E+01
         0.27500E+01
         0.27500E+01
         0.27500E+01
         0.27500E+01
         0.27500E+01
         0.27500E+01
         0.27500E+01
         0.27500E+01
         0.27500E+01
         0.27500E+01
         0.27500E+01
         0.27500E+01
         0.27500E+01
         0.27500E+01
         0.27500E+01
         0.27500E+01
         0.27500E+01
         0.27500E+01
         0.27500E+01
         0.27500E+01
         0.27500E+01
         0.27500E+01
         0.27500E+01
         0.27500E+01
         0.27500E+01
         0.27500E+01
         0.27500E+01
         0.27500E+01
         0.27500E+01
         0.27500E+01
         0.27500E+01
         0.27500E+01
         0.27500E+01
         0.27500E+01
         0.27500E+01
         0.27500E+01
         0.27500E+01
         0.27500E+01
         0.27500E+01
         0.27500E+01
         0.27500E+01
         0.27500E+01
         0.27500E+01
         0.27500E+01
         0.27500E+01
         0.27500E+01
         0.27500E+01
         0.27500E+01
         0.27500E+01
         0.27500E+01
         0.27500E+01
         0.27500E+01
         0.27500E+01
         0.27500E+01
         0.27500E+01
         0.27500E+01
         0.27500E+01
         0.27500E+01
         0.27500E+01
         0.27500E+01
         0.27500E+01
         0.27500E+01
         0.27500E+01
         0.27500E+01
         0.27500E+01
         0.27500E+01
         0.27500E+01
         0.27500E+01
         0.27500E+01
         0.27500E+01
         0.27500E+01
         0.27500E+01
         0.27500E+01
         0.27500E+01
         0.27500E+01
         0.27500E+01
         0.27500E+01
         0.27500E+01
         0.27500E+01
         0.27500E+01
         0.27500E+01
         0.27500E+01
         0.27500E+01
         0.27500E+01
         0.27500E+01
         0.27500E+01
         0.27500E+01
         0.27500E+01
         0.27500E+01
         0.27500E+01
         0.27500E+01
         0.27500E+01
         0.27500E+01
         0.27500E+01
         0.27500E+01
         0.27500E+01
         0.27500E+01
         0.27500E+01
         0.27500E+01
         0.27500E+01
         0.27500E+01
         0.27500E+01
         0.27500E+01
         0.27500E+01
         0.27500E+01
         0.27500E+01
         0.27500E+01
         0.27500E+01
         0.27500E+01
         0.27500E+01
         0.27500E+01
         0.27500E+01
         0.27500E+01
         0.27500E+01
         0.27500E+01
         0.27500E+01
         0.27500E+01
         0.27500E+01
         0.27500E+01
         0.27500E+01
         0.27500E+01
         0.27500E+01
         0.27500E+01
         0.27500E+01
         0.27500E+01
         0.27500E+01
         0.27500E+01
         0.27500E+01
         0.27500E+01
         0.27500E+01
         0.27500E+01
         0.27500E+01
         0.27500E+01
         0.27500E+01
         0.27500E+01
         0.27500E+01
         0.27500E+01
         0.27500E+01
         0.27500E+01
         0.27500E+01
         0.27500E+01
         0.27500E+01
         0.27500E+01
         0.27500E+01
         0.27500E+01
         0.27500E+01
         0.27500E+01
         0.27500E+01
         0.27500E+01
         0.27500E+01
         0.27500E+01
         0.27500E+01
         0.27500E+01
         0.27500E+01
         0.27500E+01
         0.27500E+01
         0.27500E+01
         0.27500E+01
         0.27500E+01
         0.27500E+01
         0.27500E+01
         0.27500E+01
         0.27500E+01
         0.27500E+01
         0.27500E+01
         0.27500E+01
         0.27500E+01
         0.27500E+01
         0.27500E+01
         0.27500E+01
         0.27500E+01
         0.27500E+01
         0.27500E+01
         0.27500E+01
         0.27500E+01
         0.27500E+01
         0.27500E+01
         0.27500E+01
         0.27500E+01
         0.27500E+01
         0.27500E+01
         0.27500E+01
         0.27500E+01
         0.27500E+01
         0.27500E+01
         0.27500E+01
         0.27500E+01
         0.27500E+01
         0.27500E+01
         0.27500E+01
         0.27500E+01
         0.27500E+01
         0.27500E+01
         0.27500E+01
         0.27500E+01
         0.27500E+01
         0.27500E+01
         0.27500E+01
         0.27500E+01
         0.27500E+01
         0.27500E+01
         0.27500E+01
         0.27500E+01
         0.27500E+01
         0.27500E+01
         0.27500E+01
         0.27500E+01
         0.27500E+01
         0.27500E+01
         0.27500E+01
         0.27500E+01
         0.27500E+01
         0.27500E+01
         0.27500E+01
         0.27500E+01
         0.27500E+01
         0.27500E+01
         0.27500E+01
         0.27500E+01
         0.27500E+01
         0.27500E+01
         0.27500E+01
         0.27500E+01
         0.27500E+01
         0.27500E+01
         0.27500E+01
         0.27500E+01
         0.27500E+01
         0.27500E+01
         0.27500E+01
         0.27500E+01
         0.27500E+01
         0.27500E+01
         0.27500E+01
         0.27500E+01
         0.27500E+01
         0.27500E+01
         0.27500E+01
         0.27500E+01
         0.27500E+01
         0.27500E+01
         0.27500E+01
         0.27500E+01
         0.27500E+01
         0.27500E+01
         0.27500E+01
         0.27500E+01
         0.27500E+01
         0.27500E+01
         0.27500E+01
         0.27500E+01
         0.27500E+01
         0.27500E+01
         0.27500E+01
         0.27500E+01
         0.27500E+01
         0.27500E+01
         0.27500E+01
         0.27500E+01
         0.27500E+01
         0.27500E+01
         0.27500E+01
         0.27500E+01
         0.27500E+01
         0.27500E+01
         0.27500E+01
         0.27500E+01
         0.27500E+01
         0.27500E+01
         0.27500E+01
         0.27500E+01
         0.27500E+01
         0.27500E+01
         0.27500E+01
         0.27500E+01
         0.27500E+01
         0.27500E+01
         0.27500E+01
         0.27500E+01
         0.27500E+01
         0.27500E+01
         0.27500E+01
         0.27500E+01
         0.27500E+01
         0.27500E+01
         0.27500E+01
         0.27500E+01
         0.27500E+01
         0.27500E+01
         0.27500E+01
         0.27500E+01
         0.27500E+01
         0.27500E+01
         0.27500E+01
         0.27500E+01
         0.27500E+01
         0.27500E+01
         0.27500E+01
         0.27500E+01
         0.27500E+01
         0.27500E+01
         0.27500E+01
         0.27500E+01
         0.27500E+01
         0.27500E+01
         0.27500E+01
         0.27500E+01
         0.27500E+01
         0.27500E+01
         0.27500E+01
         0.27500E+01
         0.27500E+01
         0.27500E+01
         0.27500E+01
         0.27500E+01
         0.27500E+01
         0.27500E+01
         0.27500E+01
         0.27500E+01
         0.27500E+01
         0.27500E+01
         0.27500E+01
         0.27500E+01
         0.27500E+01
         0.27500E+01
         0.27500E+01
         0.27500E+01
         0.27500E+01
         0.27500E+01
         0.27500E+01
         0.27500E+01
         0.27500E+01
         0.27500E+01
         0.27500E+01
         0.27500E+01
         0.27500E+01
         0.27500E+01
         0.27500E+01
         0.27500E+01
         0.27500E+01
         0.27500E+01
         0.27500E+01
         0.27500E+01
         0.27500E+01
         0.27500E+01
         0.27500E+01
         0.27500E+01
         0.27500E+01
         0.27500E+01
         0.27500E+01
         0.27500E+01
         0.27500E+01
         0.27500E+01
         0.27500E+01
         0.27500E+01
         0.27500E+01
         0.27500E+01
         0.27500E+01
         0.27500E+01
         0.27500E+01
         0.27500E+01
         0.27500E+01
         0.27500E+01
         0.27500E+01
         0.27500E+01
         0.27500E+01
         0.27500E+01
         0.27500E+01
         0.27500E+01
         0.27500E+01
         0.27500E+01
         0.27500E+01
         0.27500E+01
         0.27500E+01
         0.27500E+01
         0.27500E+01
         0.27500E+01
         0.27500E+01
         0.27500E+01
         0.27500E+01
         0.27500E+01
         0.27500E+01
         0.27500E+01
         0.27500E+01
         0.27500E+01
         0.27500E+01
         0.27500E+01
         0.27500E+01
         0.27500E+01
         0.27500E+01
         0.27500E+01
         0.27500E+01
         0.27500E+01
         0.27500E+01
         0.27500E+01
         0.27500E+01
         0.27500E+01
         0.27500E+01
         0.27500E+01
         0.27500E+01
         0.27500E+01
         0.27500E+01
         0.27500E+01
         0.27500E+01
         0.27500E+01
         0.27500E+01
         0.27500E+01
         0.27500E+01
         0.27500E+01
         0.27500E+01
         0.27500E+01
         0.27500E+01
         0.27500E+01
         0.27500E+01
         0.27500E+01
         0.27500E+01
         0.27500E+01
         0.27500E+01
         0.27500E+01
         0.27500E+01
         0.27500E+01
         0.27500E+01
         0.27500E+01
         0.27500E+01
         0.27500E+01
         0.27500E+01
         0.27500E+01
         0.27500E+01
         0.27500E+01
         0.27500E+01
         0.27500E+01
         0.27500E+01
         0.27500E+01
         0.27500E+01
         0.27500E+01
         0.27500E+01
         0.27500E+01
         0.27500E+01
         0.27500E+01
         0.27500E+01
         0.27500E+01
         0.27500E+01
         0.27500E+01
         0.27500E+01
         0.27500E+01
         0.27500E+01
         0.27500E+01
         0.27500E+01
         0.27500E+01
         0.27500E+01
         0.27500E+01
         0.27500E+01
         0.27500E+01
         0.27500E+01
         0.27500E+01
         0.27500E+01
         0.27500E+01
         0.27500E+01
         0.27500E+01
         0.27500E+01
         0.27500E+01
         0.27500E+01
         0.27500E+01
         0.27500E+01
         0.27500E+01
         0.27500E+01
         0.27500E+01
         0.27500E+01
         0.27500E+01
         0.27500E+01
         0.27500E+01
         0.27500E+01
         0.27500E+01
         0.27500E+01
         0.27500E+01
         0.27500E+01
         0.27500E+01
         0.27500E+01
         0.27500E+01
         0.27500E+01
         0.27500E+01
         0.27500E+01
         0.27500E+01
         0.27500E+01
         0.27500E+01
         0.27500E+01
         0.27500E+01
         0.27500E+01
         0.27500E+01
         0.27500E+01
         0.27500E+01
         0.27500E+01
         0.27500E+01
         0.27500E+01
         0.27500E+01
         0.27500E+01
         0.27500E+01
         0.27500E+01
         0.27500E+01
         0.27500E+01
         0.27500E+01
         0.27500E+01
         0.27500E+01
         0.27500E+01
         0.27500E+01
         0.27500E+01
         0.27500E+01
         0.27500E+01
         0.27500E+01
         0.27500E+01
         0.27500E+01
         0.27500E+01
         0.27500E+01
         0.27500E+01
         0.27500E+01
         0.27500E+01
         0.27500E+01
         0.27500E+01
         0.27500E+01
         0.27500E+01
         0.27500E+01
         0.27500E+01
         0.27500E+01
         0.27500E+01
         0.27500E+01
         0.27500E+01
         0.27500E+01
         0.27500E+01
         0.27500E+01
         0.27500E+01
         0.27500E+01
         0.27500E+01
         0.27500E+01
         0.27500E+01
         0.27500E+01
         0.27500E+01
         0.27500E+01
         0.27500E+01
         0.27500E+01
         0.27500E+01
         0.27500E+01
         0.27500E+01
         0.27500E+01
         0.27500E+01
         0.27500E+01
         0.27500E+01
         0.27500E+01
         0.27500E+01
         0.27500E+01
         0.27500E+01
         0.27500E+01
         0.27500E+01
         0.27500E+01
         0.27500E+01
         0.27500E+01
         0.27500E+01
         0.27500E+01
         0.27500E+01
         0.27500E+01
         0.27500E+01
         0.27500E+01
         0.27500E+01
         0.27500E+01
         0.27500E+01
         0.27500E+01
         0.27500E+01
         0.27500E+01
         0.27500E+01
         0.27500E+01
         0.27500E+01
         0.27500E+01
         0.27500E+01
         0.27500E+01
         0.27500E+01
         0.27500E+01
         0.27500E+01
         0.27500E+01
         0.27500E+01
         0.27500E+01
         0.27500E+01
         0.27500E+01
         0.27500E+01
         0.27500E+01
         0.27500E+01
         0.27500E+01
         0.27500E+01
         0.27500E+01
         0.27500E+01
         0.27500E+01
         0.27500E+01
         0.27500E+01
         0.27500E+01
         0.27500E+01
         0.27500E+01
         0.27500E+01
         0.27500E+01
         0.27500E+01
         0.27500E+01
         0.27500E+01
         0.27500E+01
         0.27500E+01
         0.27500E+01
         0.27500E+01
         0.27500E+01
         0.27500E+01
         0.27500E+01
         0.27500E+01
         0.27500E+01
         0.27500E+01
         0.27500E+01
         0.27500E+01
         0.27500E+01
         0.27500E+01
         0.27500E+01
         0.27500E+01
         0.27500E+01
         0.27500E+01
         0.27500E+01
         0.27500E+01
         0.27500E+01
         0.27500E+01
         0.27500E+01
         0.27500E+01
         0.27500E+01
         0.27500E+01
         0.27500E+01
         0.27500E+01
         0.27500E+01
         0.27500E+01
         0.27500E+01
         0.27500E+01
         0.27500E+01
         0.27500E+01
         0.27500E+01
         0.27500E+01
         0.27500E+01
         0.27500E+01
         0.27500E+01
         0.27500E+01
         0.27500E+01
         0.27500E+01
         0.27500E+01
         0.27500E+01
         0.27500E+01
         0.27500E+01
         0.27500E+01
         0.27500E+01
         0.27500E+01
         0.27500E+01
         0.27500E+01
         0.27500E+01
         0.27500E+01
         0.27500E+01
         0.27500E+01
         0.27500E+01
         0.27500E+01
         0.27500E+01
         0.27500E+01
         0.27500E+01
         0.27500E+01
         0.27500E+01
         0.27500E+01
         0.27500E+01
         0.27500E+01
         0.27500E+01
         0.27500E+01
         0.27500E+01
         0.27500E+01
         0.27500E+01
         0.27500E+01
         0.27500E+01
         0.27500E+01
         0.27500E+01
         0.27500E+01
         0.27500E+01
         0.27500E+01
         0.27500E+01
         0.27500E+01
         0.27500E+01
         0.27500E+01
         0.27500E+01
         0.27500E+01
         0.27500E+01
         0.27500E+01
         0.27500E+01
         0.27500E+01
         0.27500E+01
         0.27500E+01
         0.27500E+01
         0.27500E+01
         0.27500E+01
         0.27500E+01
         0.27500E+01
         0.27500E+01
         0.27500E+01
         0.27500E+01
         0.27500E+01
         0.27500E+01
         0.27500E+01
         0.27500E+01
         0.27500E+01
         0.27500E+01
         0.27500E+01
         0.27500E+01
         0.27500E+01
         0.27500E+01
         0.27500E+01
         0.27500E+01
         0.27500E+01
         0.27500E+01
         0.27500E+01
         0.27500E+01
         0.27500E+01
         0.27500E+01
         0.27500E+01
         0.27500E+01
         0.27500E+01
         0.27500E+01
         0.27500E+01
         0.27500E+01
         0.27500E+01
         0.27500E+01
         0.27500E+01
         0.27500E+01
         0.27500E+01
         0.27500E+01
         0.27500E+01
         0.27500E+01
         0.27500E+01
         0.27500E+01
         0.27500E+01
         0.27500E+01
         0.27500E+01
         0.27500E+01
         0.27500E+01
         0.27500E+01
         0.27500E+01
         0.27500E+01
         0.27500E+01
         0.27500E+01
         0.27500E+01
         0.27500E+01
         0.27500E+01
         0.27500E+01
         0.27500E+01
         0.27500E+01
         0.27500E+01
         0.27500E+01
         0.27500E+01
         0.27500E+01
         0.27500E+01
         0.27500E+01
         0.27500E+01
         0.27500E+01
         0.27500E+01
         0.27500E+01
         0.27500E+01
         0.27500E+01
         0.27500E+01
         0.27500E+01
         0.27500E+01
         0.27500E+01
         0.27500E+01
         0.27500E+01
         0.27500E+01
         0.27500E+01
         0.27500E+01
         0.27500E+01
         0.27500E+01
         0.27500E+01
         0.27500E+01
         0.27500E+01
         0.27500E+01
         0.27500E+01
         0.27500E+01
         0.27500E+01
         0.27500E+01
         0.27500E+01
         0.27500E+01
         0.27500E+01
         0.27500E+01
         0.27500E+01
         0.27500E+01
         0.27500E+01
         0.27500E+01
         0.27500E+01
         0.27500E+01
         0.27500E+01
         0.27500E+01
         0.27500E+01
         0.27500E+01
         0.27500E+01
         0.27500E+01
         0.27500E+01
         0.27500E+01
         0.27500E+01
         0.27500E+01
         0.27500E+01
         0.27500E+01
         0.27500E+01
         0.27500E+01
         0.27500E+01
         0.27500E+01
         0.27500E+01
         0.27500E+01
         0.27500E+01
         0.27500E+01
         0.27500E+01
         0.27500E+01
         0.27500E+01
         0.27500E+01
         0.27500E+01
         0.27500E+01
         0.27500E+01
         0.27500E+01
         0.27500E+01
         0.27500E+01
         0.27500E+01
         0.27500E+01
         0.27500E+01
         0.27500E+01
         0.27500E+01
         0.27500E+01
         0.27500E+01
         0.27500E+01
         0.27500E+01
         0.27500E+01
         0.27500E+01
         0.27500E+01
         0.27500E+01
         0.27500E+01
         0.27500E+01
         0.27500E+01
         0.27500E+01
         0.27500E+01
         0.27500E+01
         0.27500E+01
         0.27500E+01
         0.27500E+01
         0.27500E+01
         0.27500E+01
         0.27500E+01
         0.27500E+01
         0.27500E+01
         0.27500E+01
         0.27500E+01
         0.27500E+01
         0.27500E+01
         0.27500E+01
         0.27500E+01
         0.27500E+01
         0.27500E+01
         0.27500E+01
         0.27500E+01
         0.27500E+01
         0.27500E+01
         0.27500E+01
         0.27500E+01
         0.27500E+01
         0.27500E+01
         0.27500E+01
         0.27500E+01
         0.27500E+01
         0.27500E+01
         0.27500E+01
         0.27500E+01
         0.27500E+01
         0.27500E+01
         0.27500E+01
         0.27500E+01
         0.27500E+01
         0.27500E+01
         0.27500E+01
         0.27500E+01
         0.27500E+01
         0.27500E+01
         0.27500E+01
         0.27500E+01
         0.27500E+01
         0.27500E+01
         0.27500E+01
         0.27500E+01
         0.27500E+01
         0.27500E+01
         0.27500E+01
         0.27500E+01
         0.27500E+01
         0.27500E+01
         0.27500E+01
         0.27500E+01
         0.27500E+01
         0.27500E+01
         0.27500E+01
         0.27500E+01
         0.27500E+01
         0.27500E+01
         0.27500E+01
         0.27500E+01
         0.27500E+01
         0.27500E+01
         0.27500E+01
         0.27500E+01
         0.27500E+01
         0.27500E+01
         0.27500E+01
         0.27500E+01
         0.27500E+01
         0.27500E+01
         0.27500E+01
         0.27500E+01
         0.27500E+01
         0.27500E+01
         0.27500E+01
         0.27500E+01
         0.27500E+01
         0.27500E+01
         0.27500E+01
         0.27500E+01
         0.27500E+01
         0.27500E+01
         0.27500E+01
         0.27500E+01
         0.27500E+01
         0.27500E+01
         0.27500E+01
         0.27500E+01
         0.27500E+01
         0.27500E+01
         0.27500E+01
         0.27500E+01
         0.27500E+01
         0.27500E+01
         0.27500E+01
         0.27500E+01
         0.27500E+01
         0.27500E+01
         0.27500E+01
         0.27500E+01
         0.27500E+01
         0.27500E+01
         0.27500E+01
         0.27500E+01
         0.27500E+01
         0.27500E+01
         0.27500E+01
         0.27500E+01
         0.27500E+01
         0.27500E+01
         0.27500E+01
         0.27500E+01
         0.27500E+01
         0.27500E+01
         0.27500E+01
         0.27500E+01
         0.27500E+01
         0.27500E+01
         0.27500E+01
         0.27500E+01
         0.27500E+01
         0.27500E+01
         0.27500E+01
         0.27500E+01
         0.27500E+01
         0.27500E+01
         0.27500E+01
         0.27500E+01
         0.27500E+01
         0.27500E+01
         0.27500E+01
         0.27500E+01
         0.27500E+01
         0.27500E+01
         0.27500E+01
         0.27500E+01
         0.27500E+01
         0.27500E+01
         0.27500E+01
         0.27500E+01
         0.27500E+01
         0.27500E+01
         0.27500E+01
         0.27500E+01
         0.27500E+01
         0.27500E+01
         0.27500E+01
         0.27500E+01
         0.27500E+01
         0.27500E+01
         0.27500E+01
         0.27500E+01
         0.27500E+01
         0.27500E+01
         0.27500E+01
         0.27500E+01
         0.27500E+01
         0.27500E+01
         0.27500E+01
         0.27500E+01
         0.27500E+01
         0.27500E+01
         0.27500E+01
         0.27500E+01
         0.27500E+01
         0.27500E+01
         0.27500E+01
         0.27500E+01
         0.27500E+01
         0.27500E+01
         0.27500E+01
         0.27500E+01
         0.27500E+01
         0.27500E+01
         0.27500E+01
         0.27500E+01
         0.27500E+01
         0.27500E+01
         0.27500E+01
         0.27500E+01
         0.27500E+01
         0.27500E+01
         0.27500E+01
         0.27500E+01
         0.27500E+01
         0.27500E+01
         0.27500E+01
         0.27500E+01
         0.27500E+01
         0.27500E+01
         0.27500E+01
         0.27500E+01
         0.27500E+01
         0.27500E+01
         0.27500E+01
         0.27500E+01
         0.27500E+01
         0.27500E+01
         0.27500E+01
         0.27500E+01
         0.27500E+01
         0.27500E+01
         0.27500E+01
         0.27500E+01
         0.27500E+01
         0.27500E+01
         0.27500E+01
         0.27500E+01
         0.27500E+01
         0.27500E+01
         0.27500E+01
         0.27500E+01
         0.27500E+01
         0.27500E+01
         0.27500E+01
         0.27500E+01
         0.27500E+01
         0.27500E+01
         0.27500E+01
         0.27500E+01
         0.27500E+01
         0.27500E+01
         0.27500E+01
         0.27500E+01
         0.27500E+01
         0.27500E+01
         0.27500E+01
         0.27500E+01
         0.27500E+01
         0.27500E+01
         0.27500E+01
         0.27500E+01
         0.27500E+01
         0.27500E+01
         0.27500E+01
         0.27500E+01
         0.27500E+01
         0.27500E+01
         0.27500E+01
         0.27500E+01
         0.27500E+01
         0.27500E+01
         0.27500E+01
         0.27500E+01
         0.27500E+01
         0.27500E+01
         0.27500E+01
         0.27500E+01
         0.27500E+01
         0.27500E+01
         0.27500E+01
         0.27500E+01
         0.27500E+01
         0.27500E+01
         0.27500E+01
         0.27500E+01
         0.27500E+01
         0.27500E+01
         0.27500E+01
         0.27500E+01
         0.27500E+01
         0.27500E+01
         0.27500E+01
         0.27500E+01
         0.27500E+01
         0.27500E+01
         0.27500E+01
         0.27500E+01
         0.27500E+01
         0.27500E+01
         0.27500E+01
         0.27500E+01
         0.27500E+01
         0.27500E+01
         0.27500E+01
         0.27500E+01
         0.27500E+01
         0.27500E+01
         0.27500E+01
         0.27500E+01
         0.27500E+01
         0.27500E+01
         0.27500E+01
         0.27500E+01
         0.27500E+01
         0.27500E+01
         0.27500E+01
         0.27500E+01
         0.27500E+01
         0.27500E+01
         0.27500E+01
         0.27500E+01
         0.27500E+01
         0.27500E+01
         0.27500E+01
         0.27500E+01
         0.27500E+01
         0.27500E+01
         0.27500E+01
         0.27500E+01
         0.27500E+01
         0.27500E+01
         0.27500E+01
         0.27500E+01
         0.27500E+01
         0.27500E+01
         0.27500E+01
         0.27500E+01
         0.27500E+01
         0.27500E+01
         0.27500E+01
         0.27500E+01
         0.27500E+01
         0.27500E+01
         0.27500E+01
         0.27500E+01
         0.27500E+01
         0.27500E+01
         0.27500E+01
         0.27500E+01
         0.27500E+01
         0.27500E+01
         0.27500E+01
         0.27500E+01
         0.27500E+01
         0.27500E+01
         0.27500E+01
         0.27500E+01
         0.27500E+01
         0.27500E+01
         0.27500E+01
         0.27500E+01
         0.27500E+01
         0.27500E+01
         0.27500E+01
         0.27500E+01
         0.27500E+01
         0.27500E+01
         0.27500E+01
         0.27500E+01
         0.27500E+01
         0.27500E+01
         0.27500E+01
         0.27500E+01
         0.27500E+01
         0.27500E+01
         0.27500E+01
         0.27500E+01
         0.27500E+01
         0.27500E+01
         0.27500E+01
         0.27500E+01
         0.27500E+01
         0.27500E+01
         0.27500E+01
         0.27500E+01
         0.27500E+01
         0.27500E+01
         0.27500E+01
         0.27500E+01
         0.27500E+01
         0.27500E+01
         0.27500E+01
         0.27500E+01
         0.27500E+01
         0.27500E+01
         0.27500E+01
         0.27500E+01
         0.27500E+01
         0.27500E+01
         0.27500E+01
         0.27500E+01
         0.27500E+01
         0.27500E+01
         0.27500E+01
         0.27500E+01
         0.27500E+01
         0.27500E+01
         0.27500E+01
         0.27500E+01
         0.27500E+01
         0.27500E+01
         0.27500E+01
         0.27500E+01
         0.27500E+01
         0.27500E+01
         0.27500E+01
         0.27500E+01
         0.27500E+01
         0.27500E+01
         0.27500E+01
         0.27500E+01
         0.27500E+01
         0.27500E+01
         0.27500E+01
         0.27500E+01
         0.27500E+01
         0.27500E+01
         0.27500E+01
         0.27500E+01
         0.27500E+01
         0.27500E+01
         0.27500E+01
         0.27500E+01
         0.27500E+01
         0.27500E+01
         0.27500E+01
         0.27500E+01
         0.27500E+01
         0.27500E+01
         0.27500E+01
         0.27500E+01
         0.27500E+01
         0.27500E+01
         0.27500E+01
         0.27500E+01
         0.27500E+01
         0.27500E+01
         0.27500E+01
         0.27500E+01
         0.27500E+01
         0.27500E+01
         0.27500E+01
         0.27500E+01
         0.27500E+01
         0.27500E+01
         0.27500E+01
         0.27500E+01
         0.27500E+01
         0.27500E+01
         0.27500E+01
         0.27500E+01
         0.27500E+01
         0.27500E+01
         0.27500E+01
         0.27500E+01
         0.27500E+01
         0.27500E+01
         0.27500E+01
         0.27500E+01
         0.27500E+01
         0.27500E+01
         0.27500E+01
         0.27500E+01
         0.27500E+01
         0.27500E+01
         0.27500E+01
         0.27500E+01
         0.27500E+01
         0.27500E+01
         0.27500E+01
         0.27500E+01
         0.27500E+01
         0.27500E+01
         0.27500E+01
         0.27500E+01
         0.27500E+01
         0.27500E+01
         0.27500E+01
         0.27500E+01
         0.27500E+01
         0.27500E+01
         0.27500E+01
         0.27500E+01
         0.27500E+01
         0.27500E+01
         0.27500E+01
         0.27500E+01
         0.27500E+01
         0.27500E+01
         0.27500E+01
         0.27500E+01
         0.27500E+01
         0.27500E+01
         0.27500E+01
         0.27500E+01
         0.27500E+01
         0.27500E+01
         0.27500E+01
         0.27500E+01
         0.27500E+01
         0.27500E+01
         0.27500E+01
         0.27500E+01
         0.27500E+01
         0.27500E+01
         0.27500E+01
         0.27500E+01
         0.27500E+01
         0.27500E+01
         0.27500E+01
         0.27500E+01
         0.27500E+01
         0.27500E+01
         0.27500E+01
         0.27500E+01
         0.27500E+01
         0.27500E+01
         0.27500E+01
         0.27500E+01
         0.27500E+01
         0.27500E+01
         0.27500E+01
         0.27500E+01
         0.27500E+01
         0.27500E+01
         0.27500E+01
         0.27500E+01
         0.27500E+01
         0.27500E+01
         0.27500E+01
         0.27500E+01
         0.27500E+01
         0.27500E+01
         0.27500E+01
         0.27500E+01
         0.27500E+01
         0.27500E+01
         0.27500E+01
         0.27500E+01
         0.27500E+01
         0.27500E+01
         0.27500E+01
         0.27500E+01
         0.27500E+01
         0.27500E+01
         0.27500E+01
         0.27500E+01
         0.27500E+01
         0.27500E+01
         0.27500E+01
         0.27500E+01
         0.27500E+01
         0.27500E+01
         0.27500E+01
         0.27500E+01
         0.27500E+01
         0.27500E+01
         0.27500E+01
         0.27500E+01
         0.27500E+01
         0.27500E+01
         0.27500E+01
         0.27500E+01
         0.27500E+01
         0.27500E+01
         0.27500E+01
         0.27500E+01
         0.27500E+01
         0.27500E+01
         0.27500E+01
         0.27500E+01
         0.27500E+01
         0.27500E+01
         0.27500E+01
         0.27500E+01
         0.27500E+01
         0.27500E+01
         0.27500E+01
         0.27500E+01
         0.27500E+01
         0.27500E+01
         0.27500E+01
         0.27500E+01
         0.27500E+01
         0.27500E+01
         0.27500E+01
         0.27500E+01
         0.27500E+01
         0.27500E+01
         0.27500E+01
         0.27500E+01
         0.27500E+01
         0.27500E+01
         0.27500E+01
  
SCALARS              physical_window_x  double 1
LOOKUP_TABLE default
         0.42419E-02
         0.35201E-02
         0.37624E-02
         0.42419E-02
         0.42417E-02
         0.35201E-02
         0.37618E-02
         0.42417E-02
         0.37624E-02
         0.37624E-02
         0.37618E-02
         0.37618E-02
         0.30086E-02
         0.32069E-02
         0.30084E-02
         0.32067E-02
         0.42419E-02
         0.32069E-02
         0.42417E-02
         0.32067E-02
         0.24180E-02
         0.29942E-02
         0.32396E-02
         0.24180E-02
         0.29933E-02
         0.32385E-02
         0.26608E-02
         0.27190E-02
         0.26608E-02
         0.27190E-02
         0.42687E-02
         0.36511E-02
         0.42687E-02
         0.42687E-02
         0.36511E-02
         0.42687E-02
         0.32069E-02
         0.29739E-02
         0.32066E-02
         0.29739E-02
         0.34652E-02
         0.32621E-02
         0.34652E-02
         0.32621E-02
         0.37123E-02
         0.32069E-02
         0.37123E-02
         0.32066E-02
         0.30844E-02
         0.30844E-02
         0.35191E-02
         0.35189E-02
         0.26925E-02
         0.26925E-02
         0.26925E-02
         0.26925E-02
         0.24643E-02
         0.27651E-02
         0.24643E-02
         0.27651E-02
         0.42687E-02
         0.35191E-02
         0.42687E-02
         0.35189E-02
         0.42687E-02
         0.42687E-02
         0.34658E-02
         0.34648E-02
         0.27274E-02
         0.31799E-02
         0.27273E-02
         0.31796E-02
         0.32396E-02
         0.32385E-02
         0.26964E-02
         0.26960E-02
         0.27828E-02
         0.27828E-02
         0.27828E-02
         0.27828E-02
         0.27004E-02
         0.31883E-02
         0.27003E-02
         0.31880E-02
         0.31883E-02
         0.31880E-02
         0.37123E-02
         0.37123E-02
         0.36245E-02
         0.36245E-02
         0.28253E-02
         0.31642E-02
         0.28253E-02
         0.31636E-02
         0.33485E-02
         0.33485E-02
         0.33485E-02
         0.33485E-02
         0.31978E-02
         0.31969E-02
         0.29849E-02
         0.32843E-02
         0.29849E-02
         0.32843E-02
         0.27274E-02
         0.31109E-02
         0.27273E-02
         0.31109E-02
         0.31799E-02
         0.31796E-02
         0.32396E-02
         0.32385E-02
         0.32396E-02
         0.32385E-02
         0.29942E-02
         0.29933E-02
         0.27190E-02
         0.27190E-02
         0.26964E-02
         0.26960E-02
         0.27828E-02
         0.27828E-02
         0.27828E-02
         0.27828E-02
         0.27004E-02
         0.27003E-02
         0.31883E-02
         0.31880E-02
         0.31883E-02
         0.31880E-02
         0.32621E-02
         0.32621E-02
         0.34652E-02
         0.34652E-02
         0.37123E-02
         0.37123E-02
         0.37123E-02
         0.37123E-02
         0.36245E-02
         0.36245E-02
         0.28253E-02
         0.28253E-02
         0.29097E-02
         0.29087E-02
         0.32389E-02
         0.32378E-02
         0.32389E-02
         0.32378E-02
         0.31978E-02
         0.31969E-02
         0.29849E-02
         0.29849E-02
         0.32843E-02
         0.32843E-02
         0.32843E-02
         0.32843E-02
         0.42420E-02
         0.35201E-02
         0.37629E-02
         0.42420E-02
         0.37629E-02
         0.37629E-02
         0.30087E-02
         0.32071E-02
         0.42420E-02
         0.32071E-02
         0.24178E-02
         0.29952E-02
         0.32407E-02
         0.26596E-02
         0.27191E-02
         0.42679E-02
         0.36502E-02
         0.42679E-02
         0.32071E-02
         0.29727E-02
         0.34648E-02
         0.32622E-02
         0.37119E-02
         0.32071E-02
         0.30833E-02
         0.35193E-02
         0.26910E-02
         0.26910E-02
         0.24638E-02
         0.27644E-02
         0.42679E-02
         0.35193E-02
         0.42679E-02
         0.34670E-02
         0.27274E-02
         0.31802E-02
         0.32407E-02
         0.26968E-02
         0.27828E-02
         0.27828E-02
         0.27005E-02
         0.31885E-02
         0.31885E-02
         0.37119E-02
         0.36244E-02
         0.28250E-02
         0.31647E-02
         0.33484E-02
         0.33484E-02
         0.31986E-02
         0.29848E-02
         0.32841E-02
         0.27274E-02
         0.31099E-02
         0.31802E-02
         0.32407E-02
         0.32407E-02
         0.29952E-02
         0.27191E-02
         0.26968E-02
         0.27828E-02
         0.27828E-02
         0.27005E-02
         0.31885E-02
         0.31885E-02
         0.32622E-02
         0.34648E-02
         0.37119E-02
         0.37119E-02
         0.36244E-02
         0.28250E-02
         0.29106E-02
         0.32401E-02
         0.32401E-02
         0.31986E-02
         0.29848E-02
         0.32841E-02
         0.32841E-02
         0.42421E-02
         0.35201E-02
         0.37634E-02
         0.42421E-02
         0.37634E-02
         0.37634E-02
         0.30089E-02
         0.32073E-02
         0.42421E-02
         0.32073E-02
         0.24177E-02
         0.29961E-02
         0.32418E-02
         0.26584E-02
         0.27191E-02
         0.42670E-02
         0.36493E-02
         0.42670E-02
         0.32073E-02
         0.29714E-02
         0.34644E-02
         0.32623E-02
         0.37115E-02
         0.32073E-02
         0.30822E-02
         0.35195E-02
         0.26896E-02
         0.26896E-02
         0.24633E-02
         0.27638E-02
         0.42670E-02
         0.35195E-02
         0.42670E-02
         0.34681E-02
         0.27275E-02
         0.31805E-02
         0.32418E-02
         0.26972E-02
         0.27828E-02
         0.27828E-02
         0.27006E-02
         0.31888E-02
         0.31888E-02
         0.37115E-02
         0.36243E-02
         0.28247E-02
         0.31652E-02
         0.33483E-02
         0.33483E-02
         0.31995E-02
         0.29847E-02
         0.32839E-02
         0.27275E-02
         0.31090E-02
         0.31805E-02
         0.32418E-02
         0.32418E-02
         0.29961E-02
         0.27191E-02
         0.26972E-02
         0.27828E-02
         0.27828E-02
         0.27006E-02
         0.31888E-02
         0.31888E-02
         0.32623E-02
         0.34644E-02
         0.37115E-02
         0.37115E-02
         0.36243E-02
         0.28247E-02
         0.29116E-02
         0.32412E-02
         0.32412E-02
         0.31995E-02
         0.29847E-02
         0.32839E-02
         0.32839E-02
         0.42423E-02
         0.35200E-02
         0.37639E-02
         0.42423E-02
         0.37639E-02
         0.37639E-02
         0.30091E-02
         0.32075E-02
         0.42423E-02
         0.32075E-02
         0.24176E-02
         0.29970E-02
         0.32428E-02
         0.26572E-02
         0.27192E-02
         0.42662E-02
         0.36483E-02
         0.42662E-02
         0.32075E-02
         0.29702E-02
         0.34639E-02
         0.32624E-02
         0.37111E-02
         0.32075E-02
         0.30811E-02
         0.35197E-02
         0.26881E-02
         0.26881E-02
         0.24628E-02
         0.27631E-02
         0.42662E-02
         0.35197E-02
         0.42662E-02
         0.34692E-02
         0.27276E-02
         0.31808E-02
         0.32428E-02
         0.26975E-02
         0.27828E-02
         0.27828E-02
         0.27007E-02
         0.31890E-02
         0.31890E-02
         0.37111E-02
         0.36242E-02
         0.28243E-02
         0.31658E-02
         0.33482E-02
         0.33482E-02
         0.32003E-02
         0.29846E-02
         0.32837E-02
         0.27276E-02
         0.31081E-02
         0.31808E-02
         0.32428E-02
         0.32428E-02
         0.29970E-02
         0.27192E-02
         0.26975E-02
         0.27828E-02
         0.27828E-02
         0.27007E-02
         0.31890E-02
         0.31890E-02
         0.32624E-02
         0.34639E-02
         0.37111E-02
         0.37111E-02
         0.36242E-02
         0.28243E-02
         0.29125E-02
         0.32423E-02
         0.32423E-02
         0.32003E-02
         0.29846E-02
         0.32837E-02
         0.32837E-02
         0.42424E-02
         0.35200E-02
         0.37644E-02
         0.42424E-02
         0.37644E-02
         0.37644E-02
         0.30093E-02
         0.32077E-02
         0.42424E-02
         0.32077E-02
         0.24174E-02
         0.29979E-02
         0.32439E-02
         0.26559E-02
         0.27192E-02
         0.42653E-02
         0.36474E-02
         0.42653E-02
         0.32077E-02
         0.29690E-02
         0.34635E-02
         0.32624E-02
         0.37108E-02
         0.32077E-02
         0.30799E-02
         0.35199E-02
         0.26867E-02
         0.26867E-02
         0.24623E-02
         0.27625E-02
         0.42653E-02
         0.35199E-02
         0.42653E-02
         0.34703E-02
         0.27276E-02
         0.31812E-02
         0.32439E-02
         0.26979E-02
         0.27828E-02
         0.27828E-02
         0.27008E-02
         0.31893E-02
         0.31893E-02
         0.37108E-02
         0.36241E-02
         0.28240E-02
         0.31663E-02
         0.33481E-02
         0.33481E-02
         0.32012E-02
         0.29844E-02
         0.32835E-02
         0.27276E-02
         0.31071E-02
         0.31812E-02
         0.32439E-02
         0.32439E-02
         0.29979E-02
         0.27192E-02
         0.26979E-02
         0.27828E-02
         0.27828E-02
         0.27008E-02
         0.31893E-02
         0.31893E-02
         0.32624E-02
         0.34635E-02
         0.37108E-02
         0.37108E-02
         0.36241E-02
         0.28240E-02
         0.29135E-02
         0.32434E-02
         0.32434E-02
         0.32012E-02
         0.29844E-02
         0.32835E-02
         0.32835E-02
         0.42425E-02
         0.35200E-02
         0.37649E-02
         0.42425E-02
         0.37649E-02
         0.37649E-02
         0.30095E-02
         0.32079E-02
         0.42425E-02
         0.32079E-02
         0.24173E-02
         0.29989E-02
         0.32450E-02
         0.26547E-02
         0.27193E-02
         0.42645E-02
         0.36465E-02
         0.42645E-02
         0.32079E-02
         0.29677E-02
         0.34631E-02
         0.32625E-02
         0.37104E-02
         0.32079E-02
         0.30788E-02
         0.35201E-02
         0.26852E-02
         0.26852E-02
         0.24618E-02
         0.27618E-02
         0.42645E-02
         0.35201E-02
         0.42645E-02
         0.34715E-02
         0.27277E-02
         0.31815E-02
         0.32450E-02
         0.26983E-02
         0.27828E-02
         0.27828E-02
         0.27009E-02
         0.31895E-02
         0.31895E-02
         0.37104E-02
         0.36239E-02
         0.28237E-02
         0.31668E-02
         0.33480E-02
         0.33480E-02
         0.32020E-02
         0.29843E-02
         0.32833E-02
         0.27277E-02
         0.31062E-02
         0.31815E-02
         0.32450E-02
         0.32450E-02
         0.29989E-02
         0.27193E-02
         0.26983E-02
         0.27828E-02
         0.27828E-02
         0.27009E-02
         0.31895E-02
         0.31895E-02
         0.32625E-02
         0.34631E-02
         0.37104E-02
         0.37104E-02
         0.36239E-02
         0.28237E-02
         0.29145E-02
         0.32445E-02
         0.32445E-02
         0.32020E-02
         0.29843E-02
         0.32833E-02
         0.32833E-02
         0.42427E-02
         0.35200E-02
         0.37654E-02
         0.42427E-02
         0.37654E-02
         0.37654E-02
         0.30097E-02
         0.32081E-02
         0.42427E-02
         0.32081E-02
         0.24171E-02
         0.29998E-02
         0.32461E-02
         0.26535E-02
         0.27193E-02
         0.42636E-02
         0.36455E-02
         0.42636E-02
         0.32081E-02
         0.29665E-02
         0.34626E-02
         0.32626E-02
         0.37100E-02
         0.32081E-02
         0.30777E-02
         0.35203E-02
         0.26838E-02
         0.26838E-02
         0.24613E-02
         0.27611E-02
         0.42636E-02
         0.35203E-02
         0.42636E-02
         0.34726E-02
         0.27278E-02
         0.31818E-02
         0.32461E-02
         0.26987E-02
         0.27827E-02
         0.27827E-02
         0.27010E-02
         0.31898E-02
         0.31898E-02
         0.37100E-02
         0.36238E-02
         0.28234E-02
         0.31673E-02
         0.33479E-02
         0.33479E-02
         0.32029E-02
         0.29842E-02
         0.32831E-02
         0.27278E-02
         0.31052E-02
         0.31818E-02
         0.32461E-02
         0.32461E-02
         0.29998E-02
         0.27193E-02
         0.26987E-02
         0.27827E-02
         0.27827E-02
         0.27010E-02
         0.31898E-02
         0.31898E-02
         0.32626E-02
         0.34626E-02
         0.37100E-02
         0.37100E-02
         0.36238E-02
         0.28234E-02
         0.29154E-02
         0.32457E-02
         0.32457E-02
         0.32029E-02
         0.29842E-02
         0.32831E-02
         0.32831E-02
         0.42428E-02
         0.35199E-02
         0.37660E-02
         0.42428E-02
         0.37660E-02
         0.37660E-02
         0.30099E-02
         0.32083E-02
         0.42428E-02
         0.32083E-02
         0.24170E-02
         0.30007E-02
         0.32471E-02
         0.26523E-02
         0.27194E-02
         0.42628E-02
         0.36446E-02
         0.42628E-02
         0.32083E-02
         0.29652E-02
         0.34622E-02
         0.32627E-02
         0.37096E-02
         0.32083E-02
         0.30766E-02
         0.35205E-02
         0.26823E-02
         0.26823E-02
         0.24608E-02
         0.27605E-02
         0.42628E-02
         0.35205E-02
         0.42628E-02
         0.34737E-02
         0.27279E-02
         0.31821E-02
         0.32471E-02
         0.26991E-02
         0.27827E-02
         0.27827E-02
         0.27011E-02
         0.31900E-02
         0.31900E-02
         0.37096E-02
         0.36237E-02
         0.28231E-02
         0.31679E-02
         0.33478E-02
         0.33478E-02
         0.32038E-02
         0.29841E-02
         0.32829E-02
         0.27279E-02
         0.31043E-02
         0.31821E-02
         0.32471E-02
         0.32471E-02
         0.30007E-02
         0.27194E-02
         0.26991E-02
         0.27827E-02
         0.27827E-02
         0.27011E-02
         0.31900E-02
         0.31900E-02
         0.32627E-02
         0.34622E-02
         0.37096E-02
         0.37096E-02
         0.36237E-02
         0.28231E-02
         0.29164E-02
         0.32468E-02
         0.32468E-02
         0.32038E-02
         0.29841E-02
         0.32829E-02
         0.32829E-02
         0.42429E-02
         0.35199E-02
         0.37665E-02
         0.42429E-02
         0.37665E-02
         0.37665E-02
         0.30101E-02
         0.32085E-02
         0.42429E-02
         0.32085E-02
         0.24168E-02
         0.30017E-02
         0.32482E-02
         0.26510E-02
         0.27194E-02
         0.42619E-02
         0.36437E-02
         0.42619E-02
         0.32085E-02
         0.29640E-02
         0.34618E-02
         0.32627E-02
         0.37092E-02
         0.32085E-02
         0.30755E-02
         0.35207E-02
         0.26808E-02
         0.26808E-02
         0.24603E-02
         0.27599E-02
         0.42619E-02
         0.35207E-02
         0.42619E-02
         0.34748E-02
         0.27279E-02
         0.31824E-02
         0.32482E-02
         0.26994E-02
         0.27827E-02
         0.27827E-02
         0.27012E-02
         0.31902E-02
         0.31902E-02
         0.37092E-02
         0.36236E-02
         0.28227E-02
         0.31684E-02
         0.33477E-02
         0.33477E-02
         0.32046E-02
         0.29840E-02
         0.32827E-02
         0.27279E-02
         0.31034E-02
         0.31824E-02
         0.32482E-02
         0.32482E-02
         0.30017E-02
         0.27194E-02
         0.26994E-02
         0.27827E-02
         0.27827E-02
         0.27012E-02
         0.31902E-02
         0.31902E-02
         0.32627E-02
         0.34618E-02
         0.37092E-02
         0.37092E-02
         0.36236E-02
         0.28227E-02
         0.29173E-02
         0.32479E-02
         0.32479E-02
         0.32046E-02
         0.29840E-02
         0.32827E-02
         0.32827E-02
         0.42431E-02
         0.35199E-02
         0.37670E-02
         0.42431E-02
         0.37670E-02
         0.37670E-02
         0.30102E-02
         0.32087E-02
         0.42431E-02
         0.32087E-02
         0.24167E-02
         0.30026E-02
         0.32493E-02
         0.26498E-02
         0.27194E-02
         0.42611E-02
         0.36427E-02
         0.42611E-02
         0.32087E-02
         0.29628E-02
         0.34613E-02
         0.32628E-02
         0.37089E-02
         0.32087E-02
         0.30744E-02
         0.35209E-02
         0.26794E-02
         0.26794E-02
         0.24598E-02
         0.27592E-02
         0.42611E-02
         0.35209E-02
         0.42611E-02
         0.34759E-02
         0.27280E-02
         0.31827E-02
         0.32493E-02
         0.26998E-02
         0.27827E-02
         0.27827E-02
         0.27013E-02
         0.31905E-02
         0.31905E-02
         0.37089E-02
         0.36235E-02
         0.28224E-02
         0.31689E-02
         0.33476E-02
         0.33476E-02
         0.32055E-02
         0.29839E-02
         0.32825E-02
         0.27280E-02
         0.31024E-02
         0.31827E-02
         0.32493E-02
         0.32493E-02
         0.30026E-02
         0.27194E-02
         0.26998E-02
         0.27827E-02
         0.27827E-02
         0.27013E-02
         0.31905E-02
         0.31905E-02
         0.32628E-02
         0.34613E-02
         0.37089E-02
         0.37089E-02
         0.36235E-02
         0.28224E-02
         0.29183E-02
         0.32490E-02
         0.32490E-02
         0.32055E-02
         0.29839E-02
         0.32825E-02
         0.32825E-02
         0.42432E-02
         0.35199E-02
         0.37675E-02
         0.42432E-02
         0.37675E-02
         0.37675E-02
         0.30104E-02
         0.32089E-02
         0.42432E-02
         0.32089E-02
         0.24166E-02
         0.30035E-02
         0.32504E-02
         0.26486E-02
         0.27195E-02
         0.42603E-02
         0.36418E-02
         0.42603E-02
         0.32089E-02
         0.29615E-02
         0.34609E-02
         0.32629E-02
         0.37085E-02
         0.32089E-02
         0.30732E-02
         0.35211E-02
         0.26779E-02
         0.26779E-02
         0.24593E-02
         0.27585E-02
         0.42603E-02
         0.35211E-02
         0.42603E-02
         0.34771E-02
         0.27281E-02
         0.31830E-02
         0.32504E-02
         0.27002E-02
         0.27827E-02
         0.27827E-02
         0.27014E-02
         0.31907E-02
         0.31907E-02
         0.37085E-02
         0.36233E-02
         0.28221E-02
         0.31694E-02
         0.33475E-02
         0.33475E-02
         0.32063E-02
         0.29838E-02
         0.32823E-02
         0.27281E-02
         0.31015E-02
         0.31830E-02
         0.32504E-02
         0.32504E-02
         0.30035E-02
         0.27195E-02
         0.27002E-02
         0.27827E-02
         0.27827E-02
         0.27014E-02
         0.31907E-02
         0.31907E-02
         0.32629E-02
         0.34609E-02
         0.37085E-02
         0.37085E-02
         0.36233E-02
         0.28221E-02
         0.29193E-02
         0.32501E-02
         0.32501E-02
         0.32063E-02
         0.29838E-02
         0.32823E-02
         0.32823E-02
         0.42433E-02
         0.35199E-02
         0.37680E-02
         0.42433E-02
         0.37680E-02
         0.37680E-02
         0.30106E-02
         0.32091E-02
         0.42433E-02
         0.32091E-02
         0.24164E-02
         0.30045E-02
         0.32514E-02
         0.26474E-02
         0.27195E-02
         0.42594E-02
         0.36409E-02
         0.42594E-02
         0.32091E-02
         0.29603E-02
         0.34605E-02
         0.32630E-02
         0.37081E-02
         0.32091E-02
         0.30721E-02
         0.35213E-02
         0.26765E-02
         0.26765E-02
         0.24588E-02
         0.27579E-02
         0.42594E-02
         0.35213E-02
         0.42594E-02
         0.34782E-02
         0.27281E-02
         0.31833E-02
         0.32514E-02
         0.27006E-02
         0.27826E-02
         0.27826E-02
         0.27015E-02
         0.31910E-02
         0.31910E-02
         0.37081E-02
         0.36232E-02
         0.28218E-02
         0.31700E-02
         0.33474E-02
         0.33474E-02
         0.32072E-02
         0.29836E-02
         0.32821E-02
         0.27281E-02
         0.31005E-02
         0.31833E-02
         0.32514E-02
         0.32514E-02
         0.30045E-02
         0.27195E-02
         0.27006E-02
         0.27826E-02
         0.27826E-02
         0.27015E-02
         0.31910E-02
         0.31910E-02
         0.32630E-02
         0.34605E-02
         0.37081E-02
         0.37081E-02
         0.36232E-02
         0.28218E-02
         0.29202E-02
         0.32512E-02
         0.32512E-02
         0.32072E-02
         0.29836E-02
         0.32821E-02
         0.32821E-02
         0.42435E-02
         0.35199E-02
         0.37685E-02
         0.42435E-02
         0.37685E-02
         0.37685E-02
         0.30108E-02
         0.32093E-02
         0.42435E-02
         0.32093E-02
         0.24163E-02
         0.30054E-02
         0.32525E-02
         0.26461E-02
         0.27196E-02
         0.42586E-02
         0.36399E-02
         0.42586E-02
         0.32093E-02
         0.29591E-02
         0.34601E-02
         0.32630E-02
         0.37077E-02
         0.32093E-02
         0.30710E-02
         0.35215E-02
         0.26750E-02
         0.26750E-02
         0.24583E-02
         0.27572E-02
         0.42586E-02
         0.35215E-02
         0.42586E-02
         0.34793E-02
         0.27282E-02
         0.31836E-02
         0.32525E-02
         0.27010E-02
         0.27826E-02
         0.27826E-02
         0.27016E-02
         0.31912E-02
         0.31912E-02
         0.37077E-02
         0.36231E-02
         0.28215E-02
         0.31705E-02
         0.33473E-02
         0.33473E-02
         0.32080E-02
         0.29835E-02
         0.32819E-02
         0.27282E-02
         0.30996E-02
         0.31836E-02
         0.32525E-02
         0.32525E-02
         0.30054E-02
         0.27196E-02
         0.27010E-02
         0.27826E-02
         0.27826E-02
         0.27016E-02
         0.31912E-02
         0.31912E-02
         0.32630E-02
         0.34601E-02
         0.37077E-02
         0.37077E-02
         0.36231E-02
         0.28215E-02
         0.29212E-02
         0.32524E-02
         0.32524E-02
         0.32080E-02
         0.29835E-02
         0.32819E-02
         0.32819E-02
         0.42436E-02
         0.35198E-02
         0.37690E-02
         0.42436E-02
         0.37690E-02
         0.37690E-02
         0.30110E-02
         0.32095E-02
         0.42436E-02
         0.32095E-02
         0.24162E-02
         0.30064E-02
         0.32536E-02
         0.26449E-02
         0.27196E-02
         0.42577E-02
         0.36390E-02
         0.42577E-02
         0.32096E-02
         0.29578E-02
         0.34596E-02
         0.32631E-02
         0.37074E-02
         0.32096E-02
         0.30699E-02
         0.35217E-02
         0.26735E-02
         0.26735E-02
         0.24578E-02
         0.27566E-02
         0.42577E-02
         0.35217E-02
         0.42577E-02
         0.34804E-02
         0.27283E-02
         0.31839E-02
         0.32536E-02
         0.27013E-02
         0.27826E-02
         0.27826E-02
         0.27017E-02
         0.31915E-02
         0.31915E-02
         0.37074E-02
         0.36230E-02
         0.28211E-02
         0.31710E-02
         0.33472E-02
         0.33472E-02
         0.32089E-02
         0.29834E-02
         0.32817E-02
         0.27283E-02
         0.30986E-02
         0.31839E-02
         0.32536E-02
         0.32536E-02
         0.30064E-02
         0.27196E-02
         0.27013E-02
         0.27826E-02
         0.27826E-02
         0.27017E-02
         0.31915E-02
         0.31915E-02
         0.32631E-02
         0.34596E-02
         0.37074E-02
         0.37074E-02
         0.36230E-02
         0.28211E-02
         0.29221E-02
         0.32535E-02
         0.32535E-02
         0.32089E-02
         0.29834E-02
         0.32817E-02
         0.32817E-02
         0.42437E-02
         0.35198E-02
         0.37695E-02
         0.42437E-02
         0.37695E-02
         0.37695E-02
         0.30112E-02
         0.32097E-02
         0.42437E-02
         0.32097E-02
         0.24160E-02
         0.30073E-02
         0.32547E-02
         0.26437E-02
         0.27197E-02
         0.42569E-02
         0.36381E-02
         0.42569E-02
         0.32098E-02
         0.29566E-02
         0.34592E-02
         0.32632E-02
         0.37070E-02
         0.32098E-02
         0.30688E-02
         0.35219E-02
         0.26721E-02
         0.26721E-02
         0.24573E-02
         0.27560E-02
         0.42569E-02
         0.35219E-02
         0.42569E-02
         0.34815E-02
         0.27284E-02
         0.31843E-02
         0.32547E-02
         0.27017E-02
         0.27826E-02
         0.27826E-02
         0.27018E-02
         0.31917E-02
         0.31917E-02
         0.37070E-02
         0.36229E-02
         0.28208E-02
         0.31716E-02
         0.33471E-02
         0.33471E-02
         0.32097E-02
         0.29833E-02
         0.32815E-02
         0.27284E-02
         0.30977E-02
         0.31843E-02
         0.32547E-02
         0.32547E-02
         0.30073E-02
         0.27197E-02
         0.27017E-02
         0.27826E-02
         0.27826E-02
         0.27018E-02
         0.31917E-02
         0.31917E-02
         0.32632E-02
         0.34592E-02
         0.37070E-02
         0.37070E-02
         0.36229E-02
         0.28208E-02
         0.29231E-02
         0.32546E-02
         0.32546E-02
         0.32097E-02
         0.29833E-02
         0.32815E-02
         0.32815E-02
         0.42439E-02
         0.35198E-02
         0.37701E-02
         0.42439E-02
         0.37701E-02
         0.37701E-02
         0.30113E-02
         0.32099E-02
         0.42439E-02
         0.32099E-02
         0.24159E-02
         0.30082E-02
         0.32558E-02
         0.26425E-02
         0.27197E-02
         0.42560E-02
         0.36371E-02
         0.42560E-02
         0.32100E-02
         0.29554E-02
         0.34588E-02
         0.32633E-02
         0.37066E-02
         0.32100E-02
         0.30677E-02
         0.35221E-02
         0.26706E-02
         0.26706E-02
         0.24568E-02
         0.27553E-02
         0.42560E-02
         0.35221E-02
         0.42560E-02
         0.34827E-02
         0.27284E-02
         0.31846E-02
         0.32558E-02
         0.27021E-02
         0.27826E-02
         0.27826E-02
         0.27019E-02
         0.31920E-02
         0.31920E-02
         0.37066E-02
         0.36227E-02
         0.28205E-02
         0.31721E-02
         0.33470E-02
         0.33470E-02
         0.32106E-02
         0.29831E-02
         0.32813E-02
         0.27284E-02
         0.30968E-02
         0.31846E-02
         0.32558E-02
         0.32558E-02
         0.30082E-02
         0.27197E-02
         0.27021E-02
         0.27826E-02
         0.27826E-02
         0.27019E-02
         0.31920E-02
         0.31920E-02
         0.32633E-02
         0.34588E-02
         0.37066E-02
         0.37066E-02
         0.36227E-02
         0.28205E-02
         0.29241E-02
         0.32557E-02
         0.32557E-02
         0.32106E-02
         0.29831E-02
         0.32813E-02
         0.32813E-02
         0.42440E-02
         0.35198E-02
         0.37706E-02
         0.42440E-02
         0.37706E-02
         0.37706E-02
         0.30115E-02
         0.32101E-02
         0.42440E-02
         0.32101E-02
         0.24158E-02
         0.30091E-02
         0.32568E-02
         0.26412E-02
         0.27198E-02
         0.42552E-02
         0.36362E-02
         0.42552E-02
         0.32102E-02
         0.29541E-02
         0.34583E-02
         0.32633E-02
         0.37062E-02
         0.32102E-02
         0.30665E-02
         0.35223E-02
         0.26692E-02
         0.26692E-02
         0.24563E-02
         0.27546E-02
         0.42552E-02
         0.35223E-02
         0.42552E-02
         0.34838E-02
         0.27285E-02
         0.31849E-02
         0.32568E-02
         0.27025E-02
         0.27826E-02
         0.27826E-02
         0.27020E-02
         0.31922E-02
         0.31922E-02
         0.37062E-02
         0.36226E-02
         0.28202E-02
         0.31726E-02
         0.33469E-02
         0.33469E-02
         0.32114E-02
         0.29830E-02
         0.32811E-02
         0.27285E-02
         0.30958E-02
         0.31849E-02
         0.32568E-02
         0.32568E-02
         0.30091E-02
         0.27198E-02
         0.27025E-02
         0.27826E-02
         0.27826E-02
         0.27020E-02
         0.31922E-02
         0.31922E-02
         0.32633E-02
         0.34583E-02
         0.37062E-02
         0.37062E-02
         0.36226E-02
         0.28202E-02
         0.29250E-02
         0.32568E-02
         0.32568E-02
         0.32114E-02
         0.29830E-02
         0.32811E-02
         0.32811E-02
         0.42441E-02
         0.35198E-02
         0.37711E-02
         0.42441E-02
         0.37711E-02
         0.37711E-02
         0.30117E-02
         0.32103E-02
         0.42441E-02
         0.32103E-02
         0.24156E-02
         0.30101E-02
         0.32579E-02
         0.26400E-02
         0.27198E-02
         0.42543E-02
         0.36353E-02
         0.42543E-02
         0.32104E-02
         0.29529E-02
         0.34579E-02
         0.32634E-02
         0.37058E-02
         0.32104E-02
         0.30654E-02
         0.35225E-02
         0.26677E-02
         0.26677E-02
         0.24558E-02
         0.27540E-02
         0.42543E-02
         0.35225E-02
         0.42543E-02
         0.34849E-02
         0.27286E-02
         0.31852E-02
         0.32579E-02
         0.27029E-02
         0.27826E-02
         0.27826E-02
         0.27021E-02
         0.31924E-02
         0.31924E-02
         0.37058E-02
         0.36225E-02
         0.28198E-02
         0.31731E-02
         0.33468E-02
         0.33468E-02
         0.32123E-02
         0.29829E-02
         0.32809E-02
         0.27286E-02
         0.30949E-02
         0.31852E-02
         0.32579E-02
         0.32579E-02
         0.30101E-02
         0.27198E-02
         0.27029E-02
         0.27826E-02
         0.27826E-02
         0.27021E-02
         0.31924E-02
         0.31924E-02
         0.32634E-02
         0.34579E-02
         0.37058E-02
         0.37058E-02
         0.36225E-02
         0.28198E-02
         0.29260E-02
         0.32579E-02
         0.32579E-02
         0.32123E-02
         0.29829E-02
         0.32809E-02
         0.32809E-02
         0.42443E-02
         0.35197E-02
         0.37716E-02
         0.42443E-02
         0.37716E-02
         0.37716E-02
         0.30119E-02
         0.32105E-02
         0.42443E-02
         0.32105E-02
         0.24155E-02
         0.30110E-02
         0.32590E-02
         0.26388E-02
         0.27199E-02
         0.42535E-02
         0.36343E-02
         0.42535E-02
         0.32106E-02
         0.29517E-02
         0.34575E-02
         0.32635E-02
         0.37055E-02
         0.32106E-02
         0.30643E-02
         0.35227E-02
         0.26663E-02
         0.26663E-02
         0.24553E-02
         0.27533E-02
         0.42535E-02
         0.35227E-02
         0.42535E-02
         0.34860E-02
         0.27286E-02
         0.31855E-02
         0.32590E-02
         0.27032E-02
         0.27826E-02
         0.27826E-02
         0.27022E-02
         0.31927E-02
         0.31927E-02
         0.37055E-02
         0.36224E-02
         0.28195E-02
         0.31737E-02
         0.33467E-02
         0.33467E-02
         0.32132E-02
         0.29828E-02
         0.32807E-02
         0.27286E-02
         0.30939E-02
         0.31855E-02
         0.32590E-02
         0.32590E-02
         0.30110E-02
         0.27199E-02
         0.27032E-02
         0.27826E-02
         0.27826E-02
         0.27022E-02
         0.31927E-02
         0.31927E-02
         0.32635E-02
         0.34575E-02
         0.37055E-02
         0.37055E-02
         0.36224E-02
         0.28195E-02
         0.29269E-02
         0.32591E-02
         0.32591E-02
         0.32132E-02
         0.29828E-02
         0.32807E-02
         0.32807E-02
         0.42444E-02
         0.35197E-02
         0.37721E-02
         0.42444E-02
         0.37721E-02
         0.37721E-02
         0.30121E-02
         0.32107E-02
         0.42444E-02
         0.32107E-02
         0.24154E-02
         0.30119E-02
         0.32601E-02
         0.26376E-02
         0.27199E-02
         0.42527E-02
         0.36334E-02
         0.42527E-02
         0.32108E-02
         0.29504E-02
         0.34571E-02
         0.32636E-02
         0.37051E-02
         0.32108E-02
         0.30632E-02
         0.35229E-02
         0.26648E-02
         0.26648E-02
         0.24552E-02
         0.27527E-02
         0.42527E-02
         0.35229E-02
         0.42527E-02
         0.34871E-02
         0.27287E-02
         0.31858E-02
         0.32601E-02
         0.27036E-02
         0.27825E-02
         0.27825E-02
         0.27023E-02
         0.31929E-02
         0.31929E-02
         0.37051E-02
         0.36223E-02
         0.28192E-02
         0.31742E-02
         0.33466E-02
         0.33466E-02
         0.32140E-02
         0.29827E-02
         0.32805E-02
         0.27287E-02
         0.30930E-02
         0.31858E-02
         0.32601E-02
         0.32601E-02
         0.30119E-02
         0.27199E-02
         0.27036E-02
         0.27825E-02
         0.27825E-02
         0.27023E-02
         0.31929E-02
         0.31929E-02
         0.32636E-02
         0.34571E-02
         0.37051E-02
         0.37051E-02
         0.36223E-02
         0.28192E-02
         0.29279E-02
         0.32602E-02
         0.32602E-02
         0.32140E-02
         0.29827E-02
         0.32805E-02
         0.32805E-02
         0.42445E-02
         0.35197E-02
         0.37726E-02
         0.42445E-02
         0.37726E-02
         0.37726E-02
         0.30123E-02
         0.32108E-02
         0.42445E-02
         0.32108E-02
         0.24152E-02
         0.30129E-02
         0.32611E-02
         0.26363E-02
         0.27200E-02
         0.42518E-02
         0.36325E-02
         0.42518E-02
         0.32110E-02
         0.29492E-02
         0.34566E-02
         0.32636E-02
         0.37047E-02
         0.32110E-02
         0.30621E-02
         0.35231E-02
         0.26633E-02
         0.26633E-02
         0.24554E-02
         0.27520E-02
         0.42518E-02
         0.35231E-02
         0.42518E-02
         0.34882E-02
         0.27288E-02
         0.31861E-02
         0.32611E-02
         0.27040E-02
         0.27825E-02
         0.27825E-02
         0.27024E-02
         0.31932E-02
         0.31932E-02
         0.37047E-02
         0.36222E-02
         0.28189E-02
         0.31747E-02
         0.33465E-02
         0.33465E-02
         0.32149E-02
         0.29826E-02
         0.32803E-02
         0.27288E-02
         0.30921E-02
         0.31861E-02
         0.32611E-02
         0.32611E-02
         0.30129E-02
         0.27200E-02
         0.27040E-02
         0.27825E-02
         0.27825E-02
         0.27024E-02
         0.31932E-02
         0.31932E-02
         0.32636E-02
         0.34566E-02
         0.37047E-02
         0.37047E-02
         0.36222E-02
         0.28189E-02
         0.29289E-02
         0.32613E-02
         0.32613E-02
         0.32149E-02
         0.29826E-02
         0.32803E-02
         0.32803E-02
         0.42447E-02
         0.35196E-02
         0.37732E-02
         0.42447E-02
         0.37732E-02
         0.37732E-02
         0.30125E-02
         0.32111E-02
         0.42447E-02
         0.32111E-02
         0.24151E-02
         0.30138E-02
         0.32622E-02
         0.26351E-02
         0.27200E-02
         0.42510E-02
         0.36315E-02
         0.42510E-02
         0.32112E-02
         0.29480E-02
         0.34562E-02
         0.32637E-02
         0.37043E-02
         0.32112E-02
         0.30610E-02
         0.35233E-02
         0.26619E-02
         0.26619E-02
         0.24557E-02
         0.27514E-02
         0.42510E-02
         0.35233E-02
         0.42510E-02
         0.34894E-02
         0.27289E-02
         0.31864E-02
         0.32622E-02
         0.27044E-02
         0.27825E-02
         0.27825E-02
         0.27025E-02
         0.31934E-02
         0.31934E-02
         0.37043E-02
         0.36220E-02
         0.28186E-02
         0.31753E-02
         0.33464E-02
         0.33464E-02
         0.32157E-02
         0.29824E-02
         0.32801E-02
         0.27289E-02
         0.30911E-02
         0.31864E-02
         0.32622E-02
         0.32622E-02
         0.30138E-02
         0.27200E-02
         0.27044E-02
         0.27825E-02
         0.27825E-02
         0.27025E-02
         0.31934E-02
         0.31934E-02
         0.32637E-02
         0.34562E-02
         0.37043E-02
         0.37043E-02
         0.36220E-02
         0.28186E-02
         0.29298E-02
         0.32624E-02
         0.32624E-02
         0.32157E-02
         0.29824E-02
         0.32801E-02
         0.32801E-02
         0.42448E-02
         0.35196E-02
         0.37737E-02
         0.42448E-02
         0.37737E-02
         0.37737E-02
         0.30126E-02
         0.32112E-02
         0.42448E-02
         0.32112E-02
         0.24150E-02
         0.30147E-02
         0.32633E-02
         0.26339E-02
         0.27200E-02
         0.42501E-02
         0.36306E-02
         0.42501E-02
         0.32114E-02
         0.29467E-02
         0.34558E-02
         0.32638E-02
         0.37039E-02
         0.32114E-02
         0.30598E-02
         0.35235E-02
         0.26604E-02
         0.26604E-02
         0.24559E-02
         0.27507E-02
         0.42501E-02
         0.35235E-02
         0.42501E-02
         0.34905E-02
         0.27289E-02
         0.31867E-02
         0.32633E-02
         0.27048E-02
         0.27825E-02
         0.27825E-02
         0.27026E-02
         0.31937E-02
         0.31937E-02
         0.37039E-02
         0.36219E-02
         0.28183E-02
         0.31758E-02
         0.33463E-02
         0.33463E-02
         0.32166E-02
         0.29823E-02
         0.32799E-02
         0.27289E-02
         0.30902E-02
         0.31867E-02
         0.32633E-02
         0.32633E-02
         0.30147E-02
         0.27200E-02
         0.27048E-02
         0.27825E-02
         0.27825E-02
         0.27026E-02
         0.31937E-02
         0.31937E-02
         0.32638E-02
         0.34558E-02
         0.37039E-02
         0.37039E-02
         0.36219E-02
         0.28183E-02
         0.29308E-02
         0.32635E-02
         0.32635E-02
         0.32166E-02
         0.29823E-02
         0.32799E-02
         0.32799E-02
         0.42448E-02
         0.35196E-02
         0.37737E-02
         0.42448E-02
         0.37737E-02
         0.37737E-02
         0.30126E-02
         0.32112E-02
         0.42448E-02
         0.32112E-02
         0.24148E-02
         0.30147E-02
         0.32633E-02
         0.26327E-02
         0.27200E-02
         0.42493E-02
         0.36297E-02
         0.42493E-02
         0.32114E-02
         0.29455E-02
         0.34553E-02
         0.32638E-02
         0.37036E-02
         0.32114E-02
         0.30587E-02
         0.35235E-02
         0.26590E-02
         0.26590E-02
         0.24559E-02
         0.27501E-02
         0.42493E-02
         0.35235E-02
         0.42493E-02
         0.34905E-02
         0.27289E-02
         0.31867E-02
         0.32633E-02
         0.27048E-02
         0.27825E-02
         0.27825E-02
         0.27026E-02
         0.31937E-02
         0.31937E-02
         0.37036E-02
         0.36218E-02
         0.28180E-02
         0.31758E-02
         0.33462E-02
         0.33462E-02
         0.32166E-02
         0.29822E-02
         0.32797E-02
         0.27289E-02
         0.30892E-02
         0.31867E-02
         0.32633E-02
         0.32633E-02
         0.30147E-02
         0.27200E-02
         0.27048E-02
         0.27825E-02
         0.27825E-02
         0.27026E-02
         0.31937E-02
         0.31937E-02
         0.32638E-02
         0.34553E-02
         0.37036E-02
         0.37036E-02
         0.36218E-02
         0.28180E-02
         0.29308E-02
         0.32635E-02
         0.32635E-02
         0.32166E-02
         0.29822E-02
         0.32797E-02
         0.32797E-02
  
SCALARS              physical_window_y  double 1
LOOKUP_TABLE default
         0.43155E-02
         0.43155E-02
         0.43155E-02
         0.43155E-02
         0.43155E-02
         0.43155E-02
         0.43155E-02
         0.43155E-02
         0.34883E-02
         0.34883E-02
         0.34882E-02
         0.34882E-02
         0.32826E-02
         0.32142E-02
         0.32826E-02
         0.32142E-02
         0.37863E-02
         0.31884E-02
         0.37863E-02
         0.31884E-02
         0.27172E-02
         0.33887E-02
         0.37164E-02
         0.27172E-02
         0.33887E-02
         0.37164E-02
         0.27582E-02
         0.28966E-02
         0.27582E-02
         0.28954E-02
         0.37007E-02
         0.35859E-02
         0.37863E-02
         0.37007E-02
         0.35824E-02
         0.37863E-02
         0.29875E-02
         0.29875E-02
         0.29867E-02
         0.29867E-02
         0.28561E-02
         0.26860E-02
         0.28556E-02
         0.26852E-02
         0.29518E-02
         0.28068E-02
         0.29517E-02
         0.28066E-02
         0.29975E-02
         0.29949E-02
         0.37007E-02
         0.37007E-02
         0.28693E-02
         0.28693E-02
         0.28693E-02
         0.28693E-02
         0.27602E-02
         0.26193E-02
         0.27602E-02
         0.26193E-02
         0.37007E-02
         0.37007E-02
         0.37007E-02
         0.37007E-02
         0.37685E-02
         0.37665E-02
         0.37685E-02
         0.37665E-02
         0.30230E-02
         0.37003E-02
         0.30229E-02
         0.37003E-02
         0.37164E-02
         0.37164E-02
         0.31934E-02
         0.31921E-02
         0.32777E-02
         0.32771E-02
         0.32777E-02
         0.32771E-02
         0.27006E-02
         0.25920E-02
         0.27006E-02
         0.25920E-02
         0.25916E-02
         0.25916E-02
         0.29715E-02
         0.29715E-02
         0.29715E-02
         0.29715E-02
         0.26477E-02
         0.29102E-02
         0.26477E-02
         0.29102E-02
         0.34085E-02
         0.34085E-02
         0.35350E-02
         0.35350E-02
         0.35350E-02
         0.35350E-02
         0.29766E-02
         0.32272E-02
         0.29763E-02
         0.32254E-02
         0.29087E-02
         0.29835E-02
         0.29087E-02
         0.29825E-02
         0.37003E-02
         0.37003E-02
         0.37164E-02
         0.37164E-02
         0.37164E-02
         0.37164E-02
         0.33887E-02
         0.33887E-02
         0.28966E-02
         0.28954E-02
         0.31934E-02
         0.31921E-02
         0.32777E-02
         0.32771E-02
         0.32777E-02
         0.32771E-02
         0.27006E-02
         0.27006E-02
         0.25920E-02
         0.25920E-02
         0.25916E-02
         0.25916E-02
         0.26860E-02
         0.26852E-02
         0.28561E-02
         0.28556E-02
         0.29518E-02
         0.29517E-02
         0.29715E-02
         0.29715E-02
         0.29715E-02
         0.29715E-02
         0.26477E-02
         0.26477E-02
         0.27685E-02
         0.27685E-02
         0.34085E-02
         0.34085E-02
         0.35350E-02
         0.35350E-02
         0.35350E-02
         0.35350E-02
         0.29766E-02
         0.29763E-02
         0.31381E-02
         0.31368E-02
         0.31381E-02
         0.31368E-02
         0.43153E-02
         0.43153E-02
         0.43153E-02
         0.43153E-02
         0.34883E-02
         0.34883E-02
         0.32812E-02
         0.32132E-02
         0.37858E-02
         0.31880E-02
         0.27155E-02
         0.33883E-02
         0.37163E-02
         0.27535E-02
         0.28978E-02
         0.37004E-02
         0.35894E-02
         0.37858E-02
         0.29882E-02
         0.29882E-02
         0.28566E-02
         0.26867E-02
         0.29519E-02
         0.28071E-02
         0.30001E-02
         0.37004E-02
         0.28667E-02
         0.28667E-02
         0.27589E-02
         0.26183E-02
         0.37004E-02
         0.37004E-02
         0.37706E-02
         0.37706E-02
         0.30232E-02
         0.36991E-02
         0.37163E-02
         0.31947E-02
         0.32784E-02
         0.32784E-02
         0.27006E-02
         0.25920E-02
         0.25909E-02
         0.29715E-02
         0.29715E-02
         0.26476E-02
         0.29101E-02
         0.34078E-02
         0.35344E-02
         0.35344E-02
         0.29769E-02
         0.32290E-02
         0.29059E-02
         0.29845E-02
         0.36991E-02
         0.37163E-02
         0.37163E-02
         0.33883E-02
         0.28978E-02
         0.31947E-02
         0.32784E-02
         0.32784E-02
         0.27006E-02
         0.25920E-02
         0.25909E-02
         0.26867E-02
         0.28566E-02
         0.29519E-02
         0.29715E-02
         0.29715E-02
         0.26476E-02
         0.27685E-02
         0.34078E-02
         0.35344E-02
         0.35344E-02
         0.29769E-02
         0.31395E-02
         0.31395E-02
         0.43150E-02
         0.43150E-02
         0.43150E-02
         0.43150E-02
         0.34884E-02
         0.34884E-02
         0.32798E-02
         0.32122E-02
         0.37853E-02
         0.31876E-02
         0.27137E-02
         0.33879E-02
         0.37162E-02
         0.27488E-02
         0.28990E-02
         0.37001E-02
         0.35930E-02
         0.37853E-02
         0.29889E-02
         0.29889E-02
         0.28571E-02
         0.26875E-02
         0.29521E-02
         0.28074E-02
         0.30027E-02
         0.37001E-02
         0.28641E-02
         0.28641E-02
         0.27576E-02
         0.26173E-02
         0.37001E-02
         0.37001E-02
         0.37727E-02
         0.37727E-02
         0.30234E-02
         0.36979E-02
         0.37162E-02
         0.31960E-02
         0.32790E-02
         0.32790E-02
         0.27006E-02
         0.25920E-02
         0.25902E-02
         0.29715E-02
         0.29715E-02
         0.26476E-02
         0.29100E-02
         0.34071E-02
         0.35339E-02
         0.35339E-02
         0.29772E-02
         0.32307E-02
         0.29032E-02
         0.29855E-02
         0.36979E-02
         0.37162E-02
         0.37162E-02
         0.33879E-02
         0.28990E-02
         0.31960E-02
         0.32790E-02
         0.32790E-02
         0.27006E-02
         0.25920E-02
         0.25902E-02
         0.26875E-02
         0.28571E-02
         0.29521E-02
         0.29715E-02
         0.29715E-02
         0.26476E-02
         0.27684E-02
         0.34071E-02
         0.35339E-02
         0.35339E-02
         0.29772E-02
         0.31408E-02
         0.31408E-02
         0.43148E-02
         0.43148E-02
         0.43148E-02
         0.43148E-02
         0.34885E-02
         0.34885E-02
         0.32783E-02
         0.32112E-02
         0.37849E-02
         0.31872E-02
         0.27120E-02
         0.33875E-02
         0.37161E-02
         0.27441E-02
         0.29003E-02
         0.36998E-02
         0.35965E-02
         0.37849E-02
         0.29896E-02
         0.29896E-02
         0.28575E-02
         0.26882E-02
         0.29522E-02
         0.28077E-02
         0.30053E-02
         0.36998E-02
         0.28615E-02
         0.28615E-02
         0.27563E-02
         0.26163E-02
         0.36998E-02
         0.36998E-02
         0.37747E-02
         0.37747E-02
         0.30236E-02
         0.36967E-02
         0.37161E-02
         0.31973E-02
         0.32796E-02
         0.32796E-02
         0.27006E-02
         0.25920E-02
         0.25895E-02
         0.29714E-02
         0.29714E-02
         0.26475E-02
         0.29099E-02
         0.34063E-02
         0.35333E-02
         0.35333E-02
         0.29775E-02
         0.32325E-02
         0.29004E-02
         0.29865E-02
         0.36967E-02
         0.37161E-02
         0.37161E-02
         0.33875E-02
         0.29003E-02
         0.31973E-02
         0.32796E-02
         0.32796E-02
         0.27006E-02
         0.25920E-02
         0.25895E-02
         0.26882E-02
         0.28575E-02
         0.29522E-02
         0.29714E-02
         0.29714E-02
         0.26475E-02
         0.27684E-02
         0.34063E-02
         0.35333E-02
         0.35333E-02
         0.29775E-02
         0.31422E-02
         0.31422E-02
         0.43145E-02
         0.43145E-02
         0.43145E-02
         0.43145E-02
         0.34886E-02
         0.34886E-02
         0.32769E-02
         0.32102E-02
         0.37844E-02
         0.31868E-02
         0.27103E-02
         0.33871E-02
         0.37160E-02
         0.27394E-02
         0.29015E-02
         0.36995E-02
         0.36000E-02
         0.37844E-02
         0.29903E-02
         0.29903E-02
         0.28580E-02
         0.26890E-02
         0.29523E-02
         0.28079E-02
         0.30079E-02
         0.36995E-02
         0.28589E-02
         0.28589E-02
         0.27550E-02
         0.26152E-02
         0.36995E-02
         0.36995E-02
         0.37768E-02
         0.37768E-02
         0.30238E-02
         0.36956E-02
         0.37160E-02
         0.31986E-02
         0.32802E-02
         0.32802E-02
         0.27006E-02
         0.25920E-02
         0.25887E-02
         0.29714E-02
         0.29714E-02
         0.26475E-02
         0.29098E-02
         0.34056E-02
         0.35327E-02
         0.35327E-02
         0.29778E-02
         0.32342E-02
         0.28977E-02
         0.29875E-02
         0.36956E-02
         0.37160E-02
         0.37160E-02
         0.33871E-02
         0.29015E-02
         0.31986E-02
         0.32802E-02
         0.32802E-02
         0.27006E-02
         0.25920E-02
         0.25887E-02
         0.26890E-02
         0.28580E-02
         0.29523E-02
         0.29714E-02
         0.29714E-02
         0.26475E-02
         0.27683E-02
         0.34056E-02
         0.35327E-02
         0.35327E-02
         0.29778E-02
         0.31435E-02
         0.31435E-02
         0.43143E-02
         0.43143E-02
         0.43143E-02
         0.43143E-02
         0.34887E-02
         0.34887E-02
         0.32755E-02
         0.32091E-02
         0.37839E-02
         0.31864E-02
         0.27086E-02
         0.33867E-02
         0.37159E-02
         0.27347E-02
         0.29027E-02
         0.36991E-02
         0.36036E-02
         0.37839E-02
         0.29920E-02
         0.29920E-02
         0.28585E-02
         0.26897E-02
         0.29525E-02
         0.28082E-02
         0.30105E-02
         0.36991E-02
         0.28563E-02
         0.28563E-02
         0.27537E-02
         0.26142E-02
         0.36991E-02
         0.36991E-02
         0.37789E-02
         0.37789E-02
         0.30240E-02
         0.36944E-02
         0.37159E-02
         0.31999E-02
         0.32808E-02
         0.32808E-02
         0.27006E-02
         0.25920E-02
         0.25880E-02
         0.29714E-02
         0.29714E-02
         0.26474E-02
         0.29097E-02
         0.34049E-02
         0.35322E-02
         0.35322E-02
         0.29781E-02
         0.32360E-02
         0.28949E-02
         0.29885E-02
         0.36944E-02
         0.37159E-02
         0.37159E-02
         0.33867E-02
         0.29027E-02
         0.31999E-02
         0.32808E-02
         0.32808E-02
         0.27006E-02
         0.25920E-02
         0.25880E-02
         0.26897E-02
         0.28585E-02
         0.29525E-02
         0.29714E-02
         0.29714E-02
         0.26474E-02
         0.27683E-02
         0.34049E-02
         0.35322E-02
         0.35322E-02
         0.29781E-02
         0.31449E-02
         0.31449E-02
         0.43140E-02
         0.43140E-02
         0.43140E-02
         0.43140E-02
         0.34888E-02
         0.34888E-02
         0.32740E-02
         0.32081E-02
         0.37834E-02
         0.31860E-02
         0.27069E-02
         0.33863E-02
         0.37158E-02
         0.27299E-02
         0.29039E-02
         0.36988E-02
         0.36071E-02
         0.37834E-02
         0.29946E-02
         0.29946E-02
         0.28589E-02
         0.26905E-02
         0.29526E-02
         0.28085E-02
         0.30131E-02
         0.36988E-02
         0.28538E-02
         0.28538E-02
         0.27524E-02
         0.26132E-02
         0.36988E-02
         0.36988E-02
         0.37809E-02
         0.37809E-02
         0.30241E-02
         0.36932E-02
         0.37158E-02
         0.32012E-02
         0.32814E-02
         0.32814E-02
         0.27006E-02
         0.25920E-02
         0.25873E-02
         0.29714E-02
         0.29714E-02
         0.26473E-02
         0.29097E-02
         0.34041E-02
         0.35316E-02
         0.35316E-02
         0.29784E-02
         0.32378E-02
         0.28921E-02
         0.29895E-02
         0.36932E-02
         0.37158E-02
         0.37158E-02
         0.33863E-02
         0.29039E-02
         0.32012E-02
         0.32814E-02
         0.32814E-02
         0.27006E-02
         0.25920E-02
         0.25873E-02
         0.26905E-02
         0.28589E-02
         0.29526E-02
         0.29714E-02
         0.29714E-02
         0.26473E-02
         0.27683E-02
         0.34041E-02
         0.35316E-02
         0.35316E-02
         0.29784E-02
         0.31463E-02
         0.31463E-02
         0.43138E-02
         0.43138E-02
         0.43138E-02
         0.43138E-02
         0.34888E-02
         0.34888E-02
         0.32726E-02
         0.32071E-02
         0.37830E-02
         0.31856E-02
         0.27051E-02
         0.33859E-02
         0.37157E-02
         0.27252E-02
         0.29051E-02
         0.36985E-02
         0.36106E-02
         0.37830E-02
         0.29972E-02
         0.29972E-02
         0.28594E-02
         0.26912E-02
         0.29528E-02
         0.28087E-02
         0.30156E-02
         0.36985E-02
         0.28512E-02
         0.28512E-02
         0.27512E-02
         0.26122E-02
         0.36985E-02
         0.36985E-02
         0.37830E-02
         0.37830E-02
         0.30243E-02
         0.36920E-02
         0.37157E-02
         0.32025E-02
         0.32821E-02
         0.32821E-02
         0.27006E-02
         0.25920E-02
         0.25866E-02
         0.29714E-02
         0.29714E-02
         0.26473E-02
         0.29096E-02
         0.34034E-02
         0.35310E-02
         0.35310E-02
         0.29787E-02
         0.32396E-02
         0.28894E-02
         0.29905E-02
         0.36920E-02
         0.37157E-02
         0.37157E-02
         0.33859E-02
         0.29051E-02
         0.32025E-02
         0.32821E-02
         0.32821E-02
         0.27006E-02
         0.25920E-02
         0.25866E-02
         0.26912E-02
         0.28594E-02
         0.29528E-02
         0.29714E-02
         0.29714E-02
         0.26473E-02
         0.27682E-02
         0.34034E-02
         0.35310E-02
         0.35310E-02
         0.29787E-02
         0.31476E-02
         0.31476E-02
         0.43135E-02
         0.43135E-02
         0.43135E-02
         0.43135E-02
         0.34889E-02
         0.34889E-02
         0.32712E-02
         0.32061E-02
         0.37825E-02
         0.31852E-02
         0.27034E-02
         0.33856E-02
         0.37156E-02
         0.27205E-02
         0.29063E-02
         0.36982E-02
         0.36142E-02
         0.37851E-02
         0.29998E-02
         0.29998E-02
         0.28599E-02
         0.26920E-02
         0.29529E-02
         0.28090E-02
         0.30182E-02
         0.36982E-02
         0.28486E-02
         0.28486E-02
         0.27499E-02
         0.26112E-02
         0.36982E-02
         0.36982E-02
         0.37851E-02
         0.37851E-02
         0.30245E-02
         0.36908E-02
         0.37156E-02
         0.32038E-02
         0.32827E-02
         0.32827E-02
         0.27006E-02
         0.25920E-02
         0.25859E-02
         0.29714E-02
         0.29714E-02
         0.26472E-02
         0.29095E-02
         0.34027E-02
         0.35304E-02
         0.35304E-02
         0.29790E-02
         0.32413E-02
         0.28866E-02
         0.29915E-02
         0.36908E-02
         0.37156E-02
         0.37156E-02
         0.33856E-02
         0.29063E-02
         0.32038E-02
         0.32827E-02
         0.32827E-02
         0.27006E-02
         0.25920E-02
         0.25859E-02
         0.26920E-02
         0.28599E-02
         0.29529E-02
         0.29714E-02
         0.29714E-02
         0.26472E-02
         0.27682E-02
         0.34027E-02
         0.35304E-02
         0.35304E-02
         0.29790E-02
         0.31490E-02
         0.31490E-02
         0.43133E-02
         0.43133E-02
         0.43133E-02
         0.43133E-02
         0.34890E-02
         0.34890E-02
         0.32698E-02
         0.32051E-02
         0.37820E-02
         0.31848E-02
         0.27017E-02
         0.33851E-02
         0.37155E-02
         0.27158E-02
         0.29075E-02
         0.36979E-02
         0.36177E-02
         0.37871E-02
         0.30024E-02
         0.30024E-02
         0.28603E-02
         0.26927E-02
         0.29530E-02
         0.28093E-02
         0.30208E-02
         0.36979E-02
         0.28460E-02
         0.28460E-02
         0.27486E-02
         0.26101E-02
         0.36979E-02
         0.36979E-02
         0.37871E-02
         0.37871E-02
         0.30247E-02
         0.36896E-02
         0.37155E-02
         0.32051E-02
         0.32833E-02
         0.32833E-02
         0.27006E-02
         0.25920E-02
         0.25851E-02
         0.29714E-02
         0.29714E-02
         0.26472E-02
         0.29094E-02
         0.34019E-02
         0.35299E-02
         0.35299E-02
         0.29793E-02
         0.32431E-02
         0.28838E-02
         0.29925E-02
         0.36896E-02
         0.37155E-02
         0.37155E-02
         0.33851E-02
         0.29075E-02
         0.32051E-02
         0.32833E-02
         0.32833E-02
         0.27006E-02
         0.25920E-02
         0.25851E-02
         0.26927E-02
         0.28603E-02
         0.29530E-02
         0.29714E-02
         0.29714E-02
         0.26472E-02
         0.27681E-02
         0.34019E-02
         0.35299E-02
         0.35299E-02
         0.29793E-02
         0.31503E-02
         0.31503E-02
         0.43130E-02
         0.43130E-02
         0.43130E-02
         0.43130E-02
         0.34891E-02
         0.34891E-02
         0.32683E-02
         0.32041E-02
         0.37816E-02
         0.31844E-02
         0.27000E-02
         0.33848E-02
         0.37154E-02
         0.27111E-02
         0.29087E-02
         0.36976E-02
         0.36213E-02
         0.37892E-02
         0.30050E-02
         0.30050E-02
         0.28608E-02
         0.26935E-02
         0.29532E-02
         0.28096E-02
         0.30234E-02
         0.36976E-02
         0.28434E-02
         0.28434E-02
         0.27472E-02
         0.26091E-02
         0.36976E-02
         0.36976E-02
         0.37892E-02
         0.37892E-02
         0.30249E-02
         0.36885E-02
         0.37154E-02
         0.32064E-02
         0.32839E-02
         0.32839E-02
         0.27006E-02
         0.25920E-02
         0.25844E-02
         0.29714E-02
         0.29714E-02
         0.26471E-02
         0.29094E-02
         0.34012E-02
         0.35293E-02
         0.35293E-02
         0.29797E-02
         0.32449E-02
         0.28811E-02
         0.29935E-02
         0.36885E-02
         0.37154E-02
         0.37154E-02
         0.33848E-02
         0.29087E-02
         0.32064E-02
         0.32839E-02
         0.32839E-02
         0.27006E-02
         0.25920E-02
         0.25844E-02
         0.26935E-02
         0.28608E-02
         0.29532E-02
         0.29714E-02
         0.29714E-02
         0.26471E-02
         0.27681E-02
         0.34012E-02
         0.35293E-02
         0.35293E-02
         0.29797E-02
         0.31517E-02
         0.31517E-02
         0.43128E-02
         0.43128E-02
         0.43128E-02
         0.43128E-02
         0.34892E-02
         0.34892E-02
         0.32669E-02
         0.32031E-02
         0.37811E-02
         0.31840E-02
         0.26982E-02
         0.33844E-02
         0.37152E-02
         0.27063E-02
         0.29099E-02
         0.36973E-02
         0.36248E-02
         0.37913E-02
         0.30076E-02
         0.30076E-02
         0.28613E-02
         0.26942E-02
         0.29533E-02
         0.28099E-02
         0.30260E-02
         0.36973E-02
         0.28408E-02
         0.28408E-02
         0.27460E-02
         0.26081E-02
         0.36973E-02
         0.36973E-02
         0.37913E-02
         0.37913E-02
         0.30250E-02
         0.36873E-02
         0.37152E-02
         0.32077E-02
         0.32845E-02
         0.32845E-02
         0.27006E-02
         0.25920E-02
         0.25837E-02
         0.29714E-02
         0.29714E-02
         0.26471E-02
         0.29093E-02
         0.34005E-02
         0.35287E-02
         0.35287E-02
         0.29800E-02
         0.32467E-02
         0.28783E-02
         0.29945E-02
         0.36873E-02
         0.37152E-02
         0.37152E-02
         0.33844E-02
         0.29099E-02
         0.32077E-02
         0.32845E-02
         0.32845E-02
         0.27006E-02
         0.25920E-02
         0.25837E-02
         0.26942E-02
         0.28613E-02
         0.29533E-02
         0.29714E-02
         0.29714E-02
         0.26471E-02
         0.27681E-02
         0.34005E-02
         0.35287E-02
         0.35287E-02
         0.29800E-02
         0.31530E-02
         0.31530E-02
         0.43125E-02
         0.43125E-02
         0.43125E-02
         0.43125E-02
         0.34893E-02
         0.34893E-02
         0.32655E-02
         0.32021E-02
         0.37806E-02
         0.31836E-02
         0.26965E-02
         0.33840E-02
         0.37151E-02
         0.27016E-02
         0.29111E-02
         0.36969E-02
         0.36283E-02
         0.37933E-02
         0.30102E-02
         0.30102E-02
         0.28617E-02
         0.26950E-02
         0.29535E-02
         0.28101E-02
         0.30286E-02
         0.36969E-02
         0.28382E-02
         0.28382E-02
         0.27447E-02
         0.26071E-02
         0.36969E-02
         0.36969E-02
         0.37933E-02
         0.37933E-02
         0.30252E-02
         0.36861E-02
         0.37151E-02
         0.32090E-02
         0.32852E-02
         0.32852E-02
         0.27006E-02
         0.25920E-02
         0.25830E-02
         0.29714E-02
         0.29714E-02
         0.26470E-02
         0.29092E-02
         0.33997E-02
         0.35282E-02
         0.35282E-02
         0.29803E-02
         0.32484E-02
         0.28755E-02
         0.29955E-02
         0.36861E-02
         0.37151E-02
         0.37151E-02
         0.33840E-02
         0.29111E-02
         0.32090E-02
         0.32852E-02
         0.32852E-02
         0.27006E-02
         0.25920E-02
         0.25830E-02
         0.26950E-02
         0.28617E-02
         0.29535E-02
         0.29714E-02
         0.29714E-02
         0.26470E-02
         0.27680E-02
         0.33997E-02
         0.35282E-02
         0.35282E-02
         0.29803E-02
         0.31544E-02
         0.31544E-02
         0.43123E-02
         0.43123E-02
         0.43123E-02
         0.43123E-02
         0.34893E-02
         0.34893E-02
         0.32640E-02
         0.32011E-02
         0.37801E-02
         0.31832E-02
         0.26948E-02
         0.33836E-02
         0.37150E-02
         0.26969E-02
         0.29123E-02
         0.36966E-02
         0.36319E-02
         0.37954E-02
         0.30128E-02
         0.30128E-02
         0.28622E-02
         0.26957E-02
         0.29536E-02
         0.28104E-02
         0.30312E-02
         0.36966E-02
         0.28357E-02
         0.28357E-02
         0.27434E-02
         0.26061E-02
         0.36966E-02
         0.36966E-02
         0.37954E-02
         0.37954E-02
         0.30254E-02
         0.36849E-02
         0.37150E-02
         0.32103E-02
         0.32858E-02
         0.32858E-02
         0.27006E-02
         0.25920E-02
         0.25823E-02
         0.29714E-02
         0.29714E-02
         0.26470E-02
         0.29091E-02
         0.33990E-02
         0.35276E-02
         0.35276E-02
         0.29806E-02
         0.32502E-02
         0.28728E-02
         0.29965E-02
         0.36849E-02
         0.37150E-02
         0.37150E-02
         0.33836E-02
         0.29123E-02
         0.32103E-02
         0.32858E-02
         0.32858E-02
         0.27006E-02
         0.25920E-02
         0.25823E-02
         0.26957E-02
         0.28622E-02
         0.29536E-02
         0.29714E-02
         0.29714E-02
         0.26470E-02
         0.27680E-02
         0.33990E-02
         0.35276E-02
         0.35276E-02
         0.29806E-02
         0.31557E-02
         0.31557E-02
         0.43120E-02
         0.43120E-02
         0.43120E-02
         0.43120E-02
         0.34894E-02
         0.34894E-02
         0.32626E-02
         0.32001E-02
         0.37797E-02
         0.31828E-02
         0.26931E-02
         0.33832E-02
         0.37149E-02
         0.26922E-02
         0.29135E-02
         0.36963E-02
         0.36354E-02
         0.37975E-02
         0.30154E-02
         0.30154E-02
         0.28627E-02
         0.26965E-02
         0.29537E-02
         0.28107E-02
         0.30338E-02
         0.36963E-02
         0.28331E-02
         0.28331E-02
         0.27421E-02
         0.26051E-02
         0.36963E-02
         0.36963E-02
         0.37975E-02
         0.37975E-02
         0.30256E-02
         0.36838E-02
         0.37149E-02
         0.32116E-02
         0.32864E-02
         0.32864E-02
         0.27006E-02
         0.25920E-02
         0.25815E-02
         0.29714E-02
         0.29714E-02
         0.26469E-02
         0.29090E-02
         0.33983E-02
         0.35270E-02
         0.35270E-02
         0.29809E-02
         0.32519E-02
         0.28700E-02
         0.29975E-02
         0.36838E-02
         0.37149E-02
         0.37149E-02
         0.33832E-02
         0.29135E-02
         0.32116E-02
         0.32864E-02
         0.32864E-02
         0.27006E-02
         0.25920E-02
         0.25815E-02
         0.26965E-02
         0.28627E-02
         0.29537E-02
         0.29714E-02
         0.29714E-02
         0.26469E-02
         0.27680E-02
         0.33983E-02
         0.35270E-02
         0.35270E-02
         0.29809E-02
         0.31571E-02
         0.31571E-02
         0.43118E-02
         0.43118E-02
         0.43118E-02
         0.43118E-02
         0.34895E-02
         0.34895E-02
         0.32612E-02
         0.31990E-02
         0.37792E-02
         0.31824E-02
         0.26913E-02
         0.33828E-02
         0.37148E-02
         0.26875E-02
         0.29148E-02
         0.36960E-02
         0.36390E-02
         0.37995E-02
         0.30180E-02
         0.30180E-02
         0.28631E-02
         0.26972E-02
         0.29539E-02
         0.28110E-02
         0.30364E-02
         0.36960E-02
         0.28305E-02
         0.28305E-02
         0.27408E-02
         0.26040E-02
         0.36960E-02
         0.36960E-02
         0.37995E-02
         0.37995E-02
         0.30258E-02
         0.36826E-02
         0.37148E-02
         0.32129E-02
         0.32870E-02
         0.32870E-02
         0.27006E-02
         0.25920E-02
         0.25808E-02
         0.29713E-02
         0.29713E-02
         0.26468E-02
         0.29089E-02
         0.33975E-02
         0.35264E-02
         0.35264E-02
         0.29812E-02
         0.32537E-02
         0.28672E-02
         0.29985E-02
         0.36826E-02
         0.37148E-02
         0.37148E-02
         0.33828E-02
         0.29148E-02
         0.32129E-02
         0.32870E-02
         0.32870E-02
         0.27006E-02
         0.25920E-02
         0.25808E-02
         0.26972E-02
         0.28631E-02
         0.29539E-02
         0.29713E-02
         0.29713E-02
         0.26468E-02
         0.27679E-02
         0.33975E-02
         0.35264E-02
         0.35264E-02
         0.29812E-02
         0.31585E-02
         0.31585E-02
         0.43115E-02
         0.43115E-02
         0.43115E-02
         0.43115E-02
         0.34896E-02
         0.34896E-02
         0.32597E-02
         0.31980E-02
         0.37787E-02
         0.31820E-02
         0.26896E-02
         0.33824E-02
         0.37147E-02
         0.26827E-02
         0.29160E-02
         0.36957E-02
         0.36425E-02
         0.38016E-02
         0.30206E-02
         0.30206E-02
         0.28636E-02
         0.26980E-02
         0.29540E-02
         0.28112E-02
         0.30390E-02
         0.36957E-02
         0.28279E-02
         0.28279E-02
         0.27395E-02
         0.26030E-02
         0.36957E-02
         0.36957E-02
         0.38016E-02
         0.38016E-02
         0.30260E-02
         0.36814E-02
         0.37147E-02
         0.32141E-02
         0.32876E-02
         0.32876E-02
         0.27006E-02
         0.25920E-02
         0.25801E-02
         0.29713E-02
         0.29713E-02
         0.26468E-02
         0.29089E-02
         0.33968E-02
         0.35259E-02
         0.35259E-02
         0.29815E-02
         0.32555E-02
         0.28645E-02
         0.29995E-02
         0.36814E-02
         0.37147E-02
         0.37147E-02
         0.33824E-02
         0.29160E-02
         0.32141E-02
         0.32876E-02
         0.32876E-02
         0.27006E-02
         0.25920E-02
         0.25801E-02
         0.26980E-02
         0.28636E-02
         0.29540E-02
         0.29713E-02
         0.29713E-02
         0.26468E-02
         0.27679E-02
         0.33968E-02
         0.35259E-02
         0.35259E-02
         0.29815E-02
         0.31598E-02
         0.31598E-02
         0.43113E-02
         0.43113E-02
         0.43113E-02
         0.43113E-02
         0.34897E-02
         0.34897E-02
         0.32583E-02
         0.31970E-02
         0.37783E-02
         0.31816E-02
         0.26879E-02
         0.33820E-02
         0.37146E-02
         0.26780E-02
         0.29172E-02
         0.36954E-02
         0.36460E-02
         0.38037E-02
         0.30232E-02
         0.30232E-02
         0.28641E-02
         0.26987E-02
         0.29542E-02
         0.28115E-02
         0.30416E-02
         0.36954E-02
         0.28253E-02
         0.28253E-02
         0.27382E-02
         0.26020E-02
         0.36954E-02
         0.36954E-02
         0.38037E-02
         0.38037E-02
         0.30261E-02
         0.36802E-02
         0.37146E-02
         0.32154E-02
         0.32882E-02
         0.32882E-02
         0.27006E-02
         0.25921E-02
         0.25794E-02
         0.29713E-02
         0.29713E-02
         0.26467E-02
         0.29088E-02
         0.33961E-02
         0.35253E-02
         0.35253E-02
         0.29818E-02
         0.32573E-02
         0.28617E-02
         0.30005E-02
         0.36802E-02
         0.37146E-02
         0.37146E-02
         0.33820E-02
         0.29172E-02
         0.32154E-02
         0.32882E-02
         0.32882E-02
         0.27006E-02
         0.25921E-02
         0.25794E-02
         0.26987E-02
         0.28641E-02
         0.29542E-02
         0.29713E-02
         0.29713E-02
         0.26467E-02
         0.27678E-02
         0.33961E-02
         0.35253E-02
         0.35253E-02
         0.29818E-02
         0.31612E-02
         0.31612E-02
         0.43110E-02
         0.43110E-02
         0.43110E-02
         0.43110E-02
         0.34898E-02
         0.34898E-02
         0.32569E-02
         0.31960E-02
         0.37778E-02
         0.31812E-02
         0.26862E-02
         0.33816E-02
         0.37145E-02
         0.26733E-02
         0.29184E-02
         0.36950E-02
         0.36495E-02
         0.38057E-02
         0.30258E-02
         0.30258E-02
         0.28645E-02
         0.26995E-02
         0.29543E-02
         0.28118E-02
         0.30442E-02
         0.36950E-02
         0.28227E-02
         0.28227E-02
         0.27369E-02
         0.26010E-02
         0.36950E-02
         0.36950E-02
         0.38057E-02
         0.38057E-02
         0.30263E-02
         0.36790E-02
         0.37145E-02
         0.32167E-02
         0.32889E-02
         0.32889E-02
         0.27006E-02
         0.25921E-02
         0.25787E-02
         0.29713E-02
         0.29713E-02
         0.26467E-02
         0.29087E-02
         0.33953E-02
         0.35247E-02
         0.35247E-02
         0.29821E-02
         0.32590E-02
         0.28589E-02
         0.30015E-02
         0.36790E-02
         0.37145E-02
         0.37145E-02
         0.33816E-02
         0.29184E-02
         0.32167E-02
         0.32889E-02
         0.32889E-02
         0.27006E-02
         0.25921E-02
         0.25787E-02
         0.26995E-02
         0.28645E-02
         0.29543E-02
         0.29713E-02
         0.29713E-02
         0.26467E-02
         0.27678E-02
         0.33953E-02
         0.35247E-02
         0.35247E-02
         0.29821E-02
         0.31625E-02
         0.31625E-02
         0.43108E-02
         0.43108E-02
         0.43108E-02
         0.43108E-02
         0.34898E-02
         0.34898E-02
         0.32555E-02
         0.31950E-02
         0.37773E-02
         0.31808E-02
         0.26845E-02
         0.33812E-02
         0.37144E-02
         0.26686E-02
         0.29196E-02
         0.36948E-02
         0.36531E-02
         0.38078E-02
         0.30285E-02
         0.30285E-02
         0.28650E-02
         0.27002E-02
         0.29544E-02
         0.28120E-02
         0.30467E-02
         0.36948E-02
         0.28201E-02
         0.28201E-02
         0.27356E-02
         0.26000E-02
         0.36948E-02
         0.36948E-02
         0.38078E-02
         0.38078E-02
         0.30265E-02
         0.36779E-02
         0.37144E-02
         0.32181E-02
         0.32895E-02
         0.32895E-02
         0.27006E-02
         0.25921E-02
         0.25779E-02
         0.29713E-02
         0.29713E-02
         0.26466E-02
         0.29086E-02
         0.33946E-02
         0.35242E-02
         0.35242E-02
         0.29824E-02
         0.32608E-02
         0.28562E-02
         0.30025E-02
         0.36779E-02
         0.37144E-02
         0.37144E-02
         0.33812E-02
         0.29196E-02
         0.32181E-02
         0.32895E-02
         0.32895E-02
         0.27006E-02
         0.25921E-02
         0.25779E-02
         0.27002E-02
         0.28650E-02
         0.29544E-02
         0.29713E-02
         0.29713E-02
         0.26466E-02
         0.27678E-02
         0.33946E-02
         0.35242E-02
         0.35242E-02
         0.29824E-02
         0.31639E-02
         0.31639E-02
         0.43105E-02
         0.43105E-02
         0.43105E-02
         0.43105E-02
         0.34899E-02
         0.34899E-02
         0.32540E-02
         0.31940E-02
         0.37768E-02
         0.31804E-02
         0.26827E-02
         0.33808E-02
         0.37143E-02
         0.26639E-02
         0.29208E-02
         0.36944E-02
         0.36566E-02
         0.38099E-02
         0.30311E-02
         0.30311E-02
         0.28655E-02
         0.27010E-02
         0.29546E-02
         0.28123E-02
         0.30493E-02
         0.36944E-02
         0.28175E-02
         0.28175E-02
         0.27343E-02
         0.25990E-02
         0.36944E-02
         0.36944E-02
         0.38099E-02
         0.38099E-02
         0.30267E-02
         0.36767E-02
         0.37143E-02
         0.32193E-02
         0.32901E-02
         0.32901E-02
         0.27006E-02
         0.25921E-02
         0.25772E-02
         0.29713E-02
         0.29713E-02
         0.26466E-02
         0.29085E-02
         0.33939E-02
         0.35236E-02
         0.35236E-02
         0.29827E-02
         0.32626E-02
         0.28534E-02
         0.30035E-02
         0.36767E-02
         0.37143E-02
         0.37143E-02
         0.33808E-02
         0.29208E-02
         0.32193E-02
         0.32901E-02
         0.32901E-02
         0.27006E-02
         0.25921E-02
         0.25772E-02
         0.27010E-02
         0.28655E-02
         0.29546E-02
         0.29713E-02
         0.29713E-02
         0.26466E-02
         0.27677E-02
         0.33939E-02
         0.35236E-02
         0.35236E-02
         0.29827E-02
         0.31652E-02
         0.31652E-02
         0.43103E-02
         0.43103E-02
         0.43103E-02
         0.43103E-02
         0.34900E-02
         0.34900E-02
         0.32526E-02
         0.31930E-02
         0.37764E-02
         0.31800E-02
         0.26810E-02
         0.33804E-02
         0.37142E-02
         0.26591E-02
         0.29220E-02
         0.36941E-02
         0.36602E-02
         0.38119E-02
         0.30337E-02
         0.30337E-02
         0.28660E-02
         0.27017E-02
         0.29547E-02
         0.28126E-02
         0.30519E-02
         0.36941E-02
         0.28150E-02
         0.28150E-02
         0.27330E-02
         0.25979E-02
         0.36941E-02
         0.36941E-02
         0.38119E-02
         0.38119E-02
         0.30269E-02
         0.36755E-02
         0.37142E-02
         0.32206E-02
         0.32907E-02
         0.32907E-02
         0.27006E-02
         0.25921E-02
         0.25765E-02
         0.29713E-02
         0.29713E-02
         0.26465E-02
         0.29085E-02
         0.33931E-02
         0.35230E-02
         0.35230E-02
         0.29830E-02
         0.32643E-02
         0.28507E-02
         0.30045E-02
         0.36755E-02
         0.37142E-02
         0.37142E-02
         0.33804E-02
         0.29220E-02
         0.32206E-02
         0.32907E-02
         0.32907E-02
         0.27006E-02
         0.25921E-02
         0.25765E-02
         0.27017E-02
         0.28660E-02
         0.29547E-02
         0.29713E-02
         0.29713E-02
         0.26465E-02
         0.27677E-02
         0.33931E-02
         0.35230E-02
         0.35230E-02
         0.29830E-02
         0.31666E-02
         0.31666E-02
         0.43100E-02
         0.43100E-02
         0.43100E-02
         0.43100E-02
         0.34901E-02
         0.34901E-02
         0.32512E-02
         0.31920E-02
         0.37759E-02
         0.31796E-02
         0.26793E-02
         0.33800E-02
         0.37141E-02
         0.26544E-02
         0.29232E-02
         0.36938E-02
         0.36637E-02
         0.38140E-02
         0.30363E-02
         0.30363E-02
         0.28664E-02
         0.27025E-02
         0.29548E-02
         0.28129E-02
         0.30545E-02
         0.36938E-02
         0.28124E-02
         0.28124E-02
         0.27317E-02
         0.25969E-02
         0.36938E-02
         0.36938E-02
         0.38140E-02
         0.38140E-02
         0.30271E-02
         0.36743E-02
         0.37141E-02
         0.32219E-02
         0.32913E-02
         0.32913E-02
         0.27006E-02
         0.25921E-02
         0.25758E-02
         0.29713E-02
         0.29713E-02
         0.26465E-02
         0.29084E-02
         0.33924E-02
         0.35224E-02
         0.35224E-02
         0.29833E-02
         0.32661E-02
         0.28479E-02
         0.30055E-02
         0.36743E-02
         0.37141E-02
         0.37141E-02
         0.33800E-02
         0.29232E-02
         0.32219E-02
         0.32913E-02
         0.32913E-02
         0.27006E-02
         0.25921E-02
         0.25758E-02
         0.27025E-02
         0.28664E-02
         0.29548E-02
         0.29713E-02
         0.29713E-02
         0.26465E-02
         0.27677E-02
         0.33924E-02
         0.35224E-02
         0.35224E-02
         0.29833E-02
         0.31680E-02
         0.31680E-02
         0.43098E-02
         0.43098E-02
         0.43098E-02
         0.43098E-02
         0.34901E-02
         0.34901E-02
         0.32498E-02
         0.31910E-02
         0.37754E-02
         0.31792E-02
         0.26776E-02
         0.33796E-02
         0.37140E-02
         0.26497E-02
         0.29232E-02
         0.36935E-02
         0.36637E-02
         0.38140E-02
         0.30363E-02
         0.30363E-02
         0.28664E-02
         0.27025E-02
         0.29548E-02
         0.28129E-02
         0.30545E-02
         0.36935E-02
         0.28098E-02
         0.28098E-02
         0.27304E-02
         0.25959E-02
         0.36935E-02
         0.36935E-02
         0.38140E-02
         0.38140E-02
         0.30271E-02
         0.36731E-02
         0.37140E-02
         0.32219E-02
         0.32913E-02
         0.32913E-02
         0.27006E-02
         0.25921E-02
         0.25751E-02
         0.29713E-02
         0.29713E-02
         0.26464E-02
         0.29083E-02
         0.33916E-02
         0.35219E-02
         0.35219E-02
         0.29833E-02
         0.32661E-02
         0.28451E-02
         0.30055E-02
         0.36731E-02
         0.37140E-02
         0.37140E-02
         0.33796E-02
         0.29232E-02
         0.32219E-02
         0.32913E-02
         0.32913E-02
         0.27006E-02
         0.25921E-02
         0.25751E-02
         0.27025E-02
         0.28664E-02
         0.29548E-02
         0.29713E-02
         0.29713E-02
         0.26464E-02
         0.27676E-02
         0.33916E-02
         0.35219E-02
         0.35219E-02
         0.29833E-02
         0.31680E-02
         0.31680E-02
  
SCALARS              physical_window_z  double 1
LOOKUP_TABLE default
         0.26928E-02
         0.26928E-02
         0.26928E-02
         0.26928E-02
         0.26928E-02
         0.26928E-02
         0.26928E-02
         0.26928E-02
         0.26928E-02
         0.26928E-02
         0.26928E-02
         0.26928E-02
         0.26928E-02
         0.26928E-02
         0.26928E-02
         0.26928E-02
         0.26928E-02
         0.26928E-02
         0.26928E-02
         0.26928E-02
         0.26928E-02
         0.26928E-02
         0.26928E-02
         0.26928E-02
         0.26928E-02
         0.26928E-02
         0.26928E-02
         0.26928E-02
         0.26928E-02
         0.26928E-02
         0.26928E-02
         0.26928E-02
         0.26928E-02
         0.26928E-02
         0.26928E-02
         0.26928E-02
         0.26928E-02
         0.26928E-02
         0.26928E-02
         0.26928E-02
         0.26928E-02
         0.26928E-02
         0.26928E-02
         0.26928E-02
         0.26928E-02
         0.26928E-02
         0.26928E-02
         0.26928E-02
         0.26928E-02
         0.26928E-02
         0.26928E-02
         0.26928E-02
         0.26928E-02
         0.26928E-02
         0.26928E-02
         0.26928E-02
         0.26928E-02
         0.26928E-02
         0.26928E-02
         0.26928E-02
         0.26928E-02
         0.26928E-02
         0.26928E-02
         0.26928E-02
         0.26928E-02
         0.26928E-02
         0.26928E-02
         0.26928E-02
         0.26928E-02
         0.26928E-02
         0.26928E-02
         0.26928E-02
         0.26928E-02
         0.26928E-02
         0.26928E-02
         0.26928E-02
         0.26928E-02
         0.26928E-02
         0.26928E-02
         0.26928E-02
         0.26928E-02
         0.26928E-02
         0.26928E-02
         0.26928E-02
         0.26928E-02
         0.26928E-02
         0.26928E-02
         0.26928E-02
         0.26928E-02
         0.26928E-02
         0.26928E-02
         0.26928E-02
         0.26928E-02
         0.26928E-02
         0.26928E-02
         0.26928E-02
         0.26928E-02
         0.26928E-02
         0.26928E-02
         0.26928E-02
         0.26928E-02
         0.26928E-02
         0.26928E-02
         0.26928E-02
         0.26928E-02
         0.26928E-02
         0.26928E-02
         0.26928E-02
         0.26928E-02
         0.26928E-02
         0.26928E-02
         0.26928E-02
         0.26928E-02
         0.26928E-02
         0.26928E-02
         0.26928E-02
         0.26928E-02
         0.26928E-02
         0.26928E-02
         0.26928E-02
         0.26928E-02
         0.26928E-02
         0.26928E-02
         0.26928E-02
         0.26928E-02
         0.26928E-02
         0.26928E-02
         0.26928E-02
         0.26928E-02
         0.26928E-02
         0.26928E-02
         0.26928E-02
         0.26928E-02
         0.26928E-02
         0.26928E-02
         0.26928E-02
         0.26928E-02
         0.26928E-02
         0.26928E-02
         0.26928E-02
         0.26928E-02
         0.26928E-02
         0.26928E-02
         0.26928E-02
         0.26928E-02
         0.26928E-02
         0.26928E-02
         0.26928E-02
         0.26928E-02
         0.26928E-02
         0.26928E-02
         0.26928E-02
         0.26928E-02
         0.26928E-02
         0.26928E-02
         0.26928E-02
         0.26927E-02
         0.26927E-02
         0.26927E-02
         0.26927E-02
         0.26927E-02
         0.26927E-02
         0.26927E-02
         0.26927E-02
         0.26927E-02
         0.26927E-02
         0.26927E-02
         0.26927E-02
         0.26927E-02
         0.26927E-02
         0.26927E-02
         0.26927E-02
         0.26927E-02
         0.26927E-02
         0.26927E-02
         0.26927E-02
         0.26927E-02
         0.26927E-02
         0.26927E-02
         0.26927E-02
         0.26927E-02
         0.26927E-02
         0.26927E-02
         0.26927E-02
         0.26927E-02
         0.26927E-02
         0.26927E-02
         0.26927E-02
         0.26927E-02
         0.26927E-02
         0.26927E-02
         0.26927E-02
         0.26927E-02
         0.26927E-02
         0.26927E-02
         0.26927E-02
         0.26927E-02
         0.26927E-02
         0.26927E-02
         0.26927E-02
         0.26927E-02
         0.26927E-02
         0.26927E-02
         0.26927E-02
         0.26927E-02
         0.26927E-02
         0.26927E-02
         0.26927E-02
         0.26927E-02
         0.26927E-02
         0.26927E-02
         0.26927E-02
         0.26927E-02
         0.26927E-02
         0.26927E-02
         0.26927E-02
         0.26927E-02
         0.26927E-02
         0.26927E-02
         0.26927E-02
         0.26927E-02
         0.26927E-02
         0.26927E-02
         0.26927E-02
         0.26927E-02
         0.26927E-02
         0.26927E-02
         0.26927E-02
         0.26927E-02
         0.26927E-02
         0.26927E-02
         0.26927E-02
         0.26927E-02
         0.26927E-02
         0.26927E-02
         0.26927E-02
         0.26927E-02
         0.26927E-02
         0.26927E-02
         0.26927E-02
         0.26927E-02
         0.26927E-02
         0.26927E-02
         0.26927E-02
         0.26927E-02
         0.26927E-02
         0.26927E-02
         0.26927E-02
         0.26927E-02
         0.26927E-02
         0.26927E-02
         0.26927E-02
         0.26927E-02
         0.26927E-02
         0.26927E-02
         0.26927E-02
         0.26927E-02
         0.26927E-02
         0.26927E-02
         0.26927E-02
         0.26927E-02
         0.26927E-02
         0.26927E-02
         0.26927E-02
         0.26927E-02
         0.26927E-02
         0.26927E-02
         0.26927E-02
         0.26927E-02
         0.26927E-02
         0.26927E-02
         0.26927E-02
         0.26927E-02
         0.26927E-02
         0.26927E-02
         0.26927E-02
         0.26927E-02
         0.26927E-02
         0.26927E-02
         0.26927E-02
         0.26927E-02
         0.26927E-02
         0.26927E-02
         0.26927E-02
         0.26927E-02
         0.26927E-02
         0.26927E-02
         0.26927E-02
         0.26927E-02
         0.26927E-02
         0.26927E-02
         0.26927E-02
         0.26927E-02
         0.26927E-02
         0.26927E-02
         0.26927E-02
         0.26927E-02
         0.26927E-02
         0.26927E-02
         0.26927E-02
         0.26927E-02
         0.26927E-02
         0.26927E-02
         0.26927E-02
         0.26927E-02
         0.26927E-02
         0.26927E-02
         0.26927E-02
         0.26927E-02
         0.26927E-02
         0.26927E-02
         0.26927E-02
         0.26927E-02
         0.26927E-02
         0.26927E-02
         0.26927E-02
         0.26927E-02
         0.26927E-02
         0.26927E-02
         0.26927E-02
         0.26927E-02
         0.26927E-02
         0.26927E-02
         0.26927E-02
         0.26927E-02
         0.26927E-02
         0.26927E-02
         0.26927E-02
         0.26927E-02
         0.26927E-02
         0.26927E-02
         0.26927E-02
         0.26927E-02
         0.26927E-02
         0.26927E-02
         0.26927E-02
         0.26927E-02
         0.26927E-02
         0.26927E-02
         0.26927E-02
         0.26927E-02
         0.26927E-02
         0.26927E-02
         0.26927E-02
         0.26927E-02
         0.26927E-02
         0.26927E-02
         0.26927E-02
         0.26927E-02
         0.26927E-02
         0.26927E-02
         0.26927E-02
         0.26927E-02
         0.26927E-02
         0.26927E-02
         0.26927E-02
         0.26927E-02
         0.26927E-02
         0.26927E-02
         0.26927E-02
         0.26927E-02
         0.26927E-02
         0.26927E-02
         0.26927E-02
         0.26927E-02
         0.26927E-02
         0.26927E-02
         0.26927E-02
         0.26927E-02
         0.26927E-02
         0.26927E-02
         0.26927E-02
         0.26927E-02
         0.26927E-02
         0.26927E-02
         0.26927E-02
         0.26927E-02
         0.26927E-02
         0.26927E-02
         0.26927E-02
         0.26927E-02
         0.26927E-02
         0.26927E-02
         0.26927E-02
         0.26927E-02
         0.26927E-02
         0.26927E-02
         0.26927E-02
         0.26927E-02
         0.26927E-02
         0.26927E-02
         0.26927E-02
         0.26927E-02
         0.26927E-02
         0.26927E-02
         0.26927E-02
         0.26927E-02
         0.26927E-02
         0.26927E-02
         0.26927E-02
         0.26927E-02
         0.26927E-02
         0.26927E-02
         0.26927E-02
         0.26927E-02
         0.26927E-02
         0.26927E-02
         0.26927E-02
         0.26927E-02
         0.26927E-02
         0.26927E-02
         0.26927E-02
         0.26927E-02
         0.26927E-02
         0.26927E-02
         0.26927E-02
         0.26927E-02
         0.26927E-02
         0.26927E-02
         0.26927E-02
         0.26927E-02
         0.26927E-02
         0.26927E-02
         0.26927E-02
         0.26927E-02
         0.26927E-02
         0.26927E-02
         0.26927E-02
         0.26927E-02
         0.26927E-02
         0.26927E-02
         0.26927E-02
         0.26927E-02
         0.26927E-02
         0.26927E-02
         0.26927E-02
         0.26927E-02
         0.26927E-02
         0.26927E-02
         0.26927E-02
         0.26927E-02
         0.26927E-02
         0.26927E-02
         0.26927E-02
         0.26927E-02
         0.26927E-02
         0.26927E-02
         0.26927E-02
         0.26927E-02
         0.26927E-02
         0.26927E-02
         0.26927E-02
         0.26927E-02
         0.26927E-02
         0.26927E-02
         0.26927E-02
         0.26927E-02
         0.26927E-02
         0.26927E-02
         0.26927E-02
         0.26927E-02
         0.26927E-02
         0.26927E-02
         0.26927E-02
         0.26927E-02
         0.26927E-02
         0.26927E-02
         0.26927E-02
         0.26927E-02
         0.26927E-02
         0.26927E-02
         0.26927E-02
         0.26927E-02
         0.26927E-02
         0.26927E-02
         0.26927E-02
         0.26927E-02
         0.26927E-02
         0.26927E-02
         0.26927E-02
         0.26927E-02
         0.26927E-02
         0.26927E-02
         0.26927E-02
         0.26927E-02
         0.26927E-02
         0.26927E-02
         0.26927E-02
         0.26927E-02
         0.26927E-02
         0.26927E-02
         0.26927E-02
         0.26927E-02
         0.26927E-02
         0.26927E-02
         0.26927E-02
         0.26927E-02
         0.26927E-02
         0.26927E-02
         0.26927E-02
         0.26927E-02
         0.26927E-02
         0.26927E-02
         0.26927E-02
         0.26927E-02
         0.26927E-02
         0.26927E-02
         0.26927E-02
         0.26927E-02
         0.26927E-02
         0.26927E-02
         0.26927E-02
         0.26927E-02
         0.26927E-02
         0.26927E-02
         0.26927E-02
         0.26927E-02
         0.26927E-02
         0.26927E-02
         0.26927E-02
         0.26927E-02
         0.26927E-02
         0.26927E-02
         0.26927E-02
         0.26927E-02
         0.26927E-02
         0.26927E-02
         0.26927E-02
         0.26927E-02
         0.26927E-02
         0.26927E-02
         0.26927E-02
         0.26927E-02
         0.26927E-02
         0.26927E-02
         0.26927E-02
         0.26927E-02
         0.26927E-02
         0.26927E-02
         0.26927E-02
         0.26927E-02
         0.26927E-02
         0.26927E-02
         0.26927E-02
         0.26927E-02
         0.26927E-02
         0.26927E-02
         0.26927E-02
         0.26927E-02
         0.26927E-02
         0.26927E-02
         0.26927E-02
         0.26927E-02
         0.26927E-02
         0.26927E-02
         0.26927E-02
         0.26927E-02
         0.26927E-02
         0.26927E-02
         0.26927E-02
         0.26927E-02
         0.26927E-02
         0.26927E-02
         0.26927E-02
         0.26927E-02
         0.26927E-02
         0.26927E-02
         0.26927E-02
         0.26927E-02
         0.26927E-02
         0.26927E-02
         0.26927E-02
         0.26927E-02
         0.26927E-02
         0.26927E-02
         0.26927E-02
         0.26927E-02
         0.26927E-02
         0.26927E-02
         0.26927E-02
         0.26927E-02
         0.26927E-02
         0.26927E-02
         0.26927E-02
         0.26927E-02
         0.26927E-02
         0.26927E-02
         0.26927E-02
         0.26927E-02
         0.26927E-02
         0.26927E-02
         0.26927E-02
         0.26927E-02
         0.26927E-02
         0.26927E-02
         0.26927E-02
         0.26927E-02
         0.26927E-02
         0.26927E-02
         0.26927E-02
         0.26927E-02
         0.26927E-02
         0.26927E-02
         0.26927E-02
         0.26927E-02
         0.26927E-02
         0.26927E-02
         0.26927E-02
         0.26927E-02
         0.26927E-02
         0.26927E-02
         0.26927E-02
         0.26927E-02
         0.26927E-02
         0.26927E-02
         0.26927E-02
         0.26927E-02
         0.26927E-02
         0.26927E-02
         0.26927E-02
         0.26927E-02
         0.26927E-02
         0.26927E-02
         0.26927E-02
         0.26927E-02
         0.26927E-02
         0.26927E-02
         0.26927E-02
         0.26927E-02
         0.26927E-02
         0.26927E-02
         0.26927E-02
         0.26927E-02
         0.26927E-02
         0.26927E-02
         0.26927E-02
         0.26927E-02
         0.26927E-02
         0.26927E-02
         0.26927E-02
         0.26927E-02
         0.26927E-02
         0.26927E-02
         0.26927E-02
         0.26927E-02
         0.26927E-02
         0.26927E-02
         0.26927E-02
         0.26927E-02
         0.26927E-02
         0.26927E-02
         0.26927E-02
         0.26927E-02
         0.26927E-02
         0.26927E-02
         0.26927E-02
         0.26927E-02
         0.26927E-02
         0.26927E-02
         0.26927E-02
         0.26927E-02
         0.26927E-02
         0.26927E-02
         0.26927E-02
         0.26927E-02
         0.26927E-02
         0.26927E-02
         0.26927E-02
         0.26927E-02
         0.26927E-02
         0.26927E-02
         0.26927E-02
         0.26927E-02
         0.26927E-02
         0.26927E-02
         0.26927E-02
         0.26927E-02
         0.26927E-02
         0.26927E-02
         0.26927E-02
         0.26927E-02
         0.26927E-02
         0.26927E-02
         0.26927E-02
         0.26927E-02
         0.26927E-02
         0.26927E-02
         0.26927E-02
         0.26927E-02
         0.26927E-02
         0.26927E-02
         0.26927E-02
         0.26927E-02
         0.26927E-02
         0.26927E-02
         0.26927E-02
         0.26927E-02
         0.26927E-02
         0.26927E-02
         0.26927E-02
         0.26927E-02
         0.26927E-02
         0.26927E-02
         0.26927E-02
         0.26927E-02
         0.26927E-02
         0.26927E-02
         0.26927E-02
         0.26927E-02
         0.26927E-02
         0.26927E-02
         0.26927E-02
         0.26927E-02
         0.26927E-02
         0.26927E-02
         0.26927E-02
         0.26927E-02
         0.26927E-02
         0.26927E-02
         0.26927E-02
         0.26927E-02
         0.26927E-02
         0.26927E-02
         0.26927E-02
         0.26927E-02
         0.26927E-02
         0.26927E-02
         0.26927E-02
         0.26927E-02
         0.26927E-02
         0.26927E-02
         0.26927E-02
         0.26927E-02
         0.26927E-02
         0.26927E-02
         0.26927E-02
         0.26927E-02
         0.26927E-02
         0.26927E-02
         0.26927E-02
         0.26927E-02
         0.26927E-02
         0.26927E-02
         0.26927E-02
         0.26927E-02
         0.26927E-02
         0.26927E-02
         0.26927E-02
         0.26927E-02
         0.26927E-02
         0.26927E-02
         0.26927E-02
         0.26927E-02
         0.26927E-02
         0.26927E-02
         0.26927E-02
         0.26927E-02
         0.26927E-02
         0.26927E-02
         0.26927E-02
         0.26927E-02
         0.26927E-02
         0.26927E-02
         0.26927E-02
         0.26927E-02
         0.26927E-02
         0.26927E-02
         0.26927E-02
         0.26927E-02
         0.26927E-02
         0.26927E-02
         0.26927E-02
         0.26927E-02
         0.26927E-02
         0.26927E-02
         0.26927E-02
         0.26927E-02
         0.26927E-02
         0.26927E-02
         0.26927E-02
         0.26927E-02
         0.26927E-02
         0.26927E-02
         0.26927E-02
         0.26927E-02
         0.26927E-02
         0.26927E-02
         0.26927E-02
         0.26927E-02
         0.26927E-02
         0.26927E-02
         0.26927E-02
         0.26927E-02
         0.26927E-02
         0.26927E-02
         0.26927E-02
         0.26927E-02
         0.26927E-02
         0.26927E-02
         0.26927E-02
         0.26927E-02
         0.26927E-02
         0.26927E-02
         0.26927E-02
         0.26927E-02
         0.26927E-02
         0.26927E-02
         0.26927E-02
         0.26927E-02
         0.26927E-02
         0.26927E-02
         0.26927E-02
         0.26927E-02
         0.26927E-02
         0.26927E-02
         0.26927E-02
         0.26927E-02
         0.26927E-02
         0.26927E-02
         0.26927E-02
         0.26927E-02
         0.26927E-02
         0.26927E-02
         0.26927E-02
         0.26927E-02
         0.26927E-02
         0.26927E-02
         0.26927E-02
         0.26927E-02
         0.26927E-02
         0.26927E-02
         0.26927E-02
         0.26927E-02
         0.26927E-02
         0.26927E-02
         0.26927E-02
         0.26927E-02
         0.26927E-02
         0.26927E-02
         0.26927E-02
         0.26927E-02
         0.26927E-02
         0.26927E-02
         0.26927E-02
         0.26927E-02
         0.26927E-02
         0.26927E-02
         0.26927E-02
         0.26927E-02
         0.26927E-02
         0.26927E-02
         0.26927E-02
         0.26927E-02
         0.26927E-02
         0.26927E-02
         0.26927E-02
         0.26927E-02
         0.26927E-02
         0.26927E-02
         0.26927E-02
         0.26927E-02
         0.26927E-02
         0.26927E-02
         0.26927E-02
         0.26927E-02
         0.26927E-02
         0.26927E-02
         0.26927E-02
         0.26927E-02
         0.26927E-02
         0.26927E-02
         0.26927E-02
         0.26927E-02
         0.26927E-02
         0.26927E-02
         0.26927E-02
         0.26927E-02
         0.26927E-02
         0.26927E-02
         0.26927E-02
         0.26927E-02
         0.26927E-02
         0.26927E-02
         0.26927E-02
         0.26927E-02
         0.26927E-02
         0.26927E-02
         0.26927E-02
         0.26927E-02
         0.26927E-02
         0.26927E-02
         0.26927E-02
         0.26927E-02
         0.26927E-02
         0.26927E-02
         0.26927E-02
         0.26927E-02
         0.26927E-02
         0.26927E-02
         0.26927E-02
         0.26927E-02
         0.26927E-02
         0.26927E-02
         0.26927E-02
         0.26927E-02
         0.26927E-02
         0.26927E-02
         0.26927E-02
         0.26927E-02
         0.26927E-02
         0.26927E-02
         0.26927E-02
         0.26927E-02
         0.26927E-02
         0.26927E-02
         0.26927E-02
         0.26927E-02
         0.26927E-02
         0.26927E-02
         0.26927E-02
         0.26927E-02
         0.26927E-02
         0.26927E-02
         0.26927E-02
         0.26927E-02
         0.26927E-02
         0.26927E-02
         0.26927E-02
         0.26927E-02
         0.26927E-02
         0.26927E-02
         0.26927E-02
         0.26927E-02
         0.26927E-02
         0.26927E-02
         0.26927E-02
         0.26927E-02
         0.26927E-02
         0.26927E-02
         0.26927E-02
         0.26927E-02
         0.26927E-02
         0.26927E-02
         0.26927E-02
         0.26927E-02
         0.26927E-02
         0.26927E-02
         0.26927E-02
         0.26927E-02
         0.26927E-02
         0.26927E-02
         0.26927E-02
         0.26927E-02
         0.26927E-02
         0.26927E-02
         0.26927E-02
         0.26927E-02
         0.26927E-02
         0.26927E-02
         0.26927E-02
         0.26927E-02
         0.26927E-02
         0.26927E-02
         0.26927E-02
         0.26927E-02
         0.26927E-02
         0.26927E-02
         0.26927E-02
         0.26927E-02
         0.26927E-02
         0.26927E-02
         0.26927E-02
         0.26927E-02
         0.26927E-02
         0.26927E-02
         0.26927E-02
         0.26927E-02
         0.26927E-02
         0.26927E-02
         0.26927E-02
         0.26927E-02
         0.26927E-02
         0.26927E-02
         0.26927E-02
         0.26927E-02
         0.26927E-02
         0.26927E-02
         0.26927E-02
         0.26927E-02
         0.26927E-02
         0.26927E-02
         0.26927E-02
         0.26927E-02
         0.26927E-02
         0.26927E-02
         0.26927E-02
         0.26927E-02
         0.26927E-02
         0.26927E-02
         0.26927E-02
         0.26927E-02
         0.26927E-02
         0.26927E-02
         0.26927E-02
         0.26927E-02
         0.26927E-02
         0.26927E-02
         0.26927E-02
         0.26927E-02
         0.26927E-02
         0.26927E-02
         0.26927E-02
         0.26927E-02
         0.26927E-02
         0.26927E-02
         0.26927E-02
         0.26927E-02
         0.26927E-02
         0.26927E-02
         0.26927E-02
         0.26927E-02
         0.26927E-02
         0.26927E-02
         0.26927E-02
         0.26927E-02
         0.26927E-02
         0.26927E-02
         0.26927E-02
         0.26927E-02
         0.26927E-02
         0.26927E-02
         0.26927E-02
         0.26927E-02
         0.26927E-02
         0.26927E-02
         0.26927E-02
         0.26927E-02
         0.26927E-02
         0.26927E-02
         0.26927E-02
         0.26927E-02
         0.26927E-02
         0.26927E-02
         0.26927E-02
         0.26927E-02
         0.26927E-02
         0.26927E-02
         0.26927E-02
         0.26927E-02
         0.26927E-02
         0.26927E-02
         0.26927E-02
         0.26927E-02
         0.26927E-02
         0.26927E-02
         0.26927E-02
         0.26927E-02
         0.26927E-02
         0.26927E-02
         0.26927E-02
         0.26927E-02
         0.26927E-02
         0.26927E-02
         0.26927E-02
         0.26927E-02
         0.26927E-02
         0.26927E-02
         0.26927E-02
         0.26927E-02
         0.26927E-02
         0.26927E-02
         0.26927E-02
         0.26927E-02
         0.26927E-02
         0.26927E-02
         0.26927E-02
         0.26927E-02
         0.26927E-02
         0.26927E-02
         0.26927E-02
         0.26927E-02
         0.26927E-02
         0.26927E-02
         0.26927E-02
         0.26927E-02
         0.26927E-02
         0.26927E-02
         0.26927E-02
         0.26927E-02
         0.26927E-02
         0.26927E-02
         0.26927E-02
         0.26927E-02
         0.26927E-02
         0.26927E-02
         0.26927E-02
         0.26927E-02
         0.26927E-02
         0.26927E-02
         0.26927E-02
         0.26927E-02
         0.26927E-02
         0.26927E-02
         0.26927E-02
         0.26927E-02
         0.26927E-02
         0.26927E-02
         0.26927E-02
         0.26927E-02
         0.26927E-02
         0.26927E-02
         0.26927E-02
         0.26927E-02
         0.26927E-02
         0.26927E-02
         0.26927E-02
         0.26927E-02
         0.26927E-02
         0.26927E-02
         0.26927E-02
         0.26927E-02
         0.26927E-02
         0.26927E-02
         0.26927E-02
         0.26927E-02
         0.26927E-02
         0.26927E-02
         0.26927E-02
         0.26927E-02
         0.26927E-02
         0.26927E-02
         0.26927E-02
         0.26927E-02
         0.26927E-02
         0.26927E-02
         0.26927E-02
         0.26927E-02
         0.26927E-02
         0.26927E-02
         0.26927E-02
         0.26927E-02
         0.26927E-02
         0.26927E-02
         0.26927E-02
         0.26927E-02
         0.26927E-02
         0.26927E-02
         0.26927E-02
         0.26927E-02
         0.26927E-02
         0.26927E-02
         0.26927E-02
         0.26927E-02
         0.26927E-02
         0.26927E-02
         0.26927E-02
         0.26927E-02
         0.26927E-02
         0.26927E-02
         0.26927E-02
         0.26927E-02
         0.26927E-02
         0.26927E-02
         0.26927E-02
         0.26927E-02
         0.26927E-02
         0.26927E-02
         0.26927E-02
         0.26927E-02
         0.26927E-02
         0.26927E-02
         0.26927E-02
         0.26927E-02
         0.26927E-02
         0.26927E-02
         0.26927E-02
         0.26927E-02
         0.26927E-02
         0.26927E-02
         0.26927E-02
         0.26927E-02
         0.26927E-02
         0.26927E-02
         0.26927E-02
         0.26927E-02
         0.26927E-02
         0.26927E-02
         0.26927E-02
         0.26927E-02
         0.26927E-02
         0.26927E-02
         0.26927E-02
         0.26927E-02
         0.26927E-02
         0.26927E-02
         0.26927E-02
         0.26927E-02
         0.26927E-02
         0.26927E-02
         0.26927E-02
         0.26927E-02
         0.26927E-02
         0.26927E-02
         0.26927E-02
         0.26927E-02
         0.26927E-02
         0.26927E-02
         0.26927E-02
         0.26927E-02
         0.26927E-02
         0.26927E-02
         0.26927E-02
         0.26927E-02
         0.26927E-02
         0.26927E-02
         0.26927E-02
         0.26927E-02
         0.26927E-02
         0.26927E-02
         0.26927E-02
         0.26927E-02
         0.26927E-02
         0.26927E-02
         0.26927E-02
         0.26927E-02
         0.26927E-02
         0.26927E-02
         0.26927E-02
         0.26927E-02
         0.26927E-02
         0.26927E-02
         0.26927E-02
         0.26927E-02
         0.26927E-02
         0.26927E-02
         0.26927E-02
         0.26927E-02
         0.26927E-02
         0.26927E-02
         0.26927E-02
         0.26927E-02
         0.26927E-02
         0.26927E-02
         0.26927E-02
         0.26927E-02
         0.26927E-02
         0.26927E-02
         0.26927E-02
         0.26927E-02
         0.26927E-02
         0.26927E-02
         0.26927E-02
         0.26927E-02
         0.26927E-02
         0.26927E-02
         0.26927E-02
         0.26927E-02
         0.26927E-02
         0.26927E-02
         0.26927E-02
         0.26927E-02
         0.26927E-02
         0.26927E-02
         0.26927E-02
         0.26927E-02
         0.26927E-02
         0.26927E-02
         0.26927E-02
         0.26927E-02
         0.26927E-02
         0.26927E-02
         0.26927E-02
         0.26927E-02
         0.26927E-02
         0.26927E-02
         0.26927E-02
         0.26927E-02
         0.26927E-02
         0.26927E-02
         0.26927E-02
         0.26927E-02
         0.26927E-02
         0.26927E-02
         0.26927E-02
         0.26927E-02
         0.26927E-02
         0.26927E-02
         0.26927E-02
         0.26927E-02
         0.26927E-02
         0.26927E-02
         0.26927E-02
         0.26927E-02
         0.26927E-02
         0.26927E-02
         0.26927E-02
         0.26927E-02
         0.26927E-02
         0.26927E-02
         0.26927E-02
         0.26927E-02
         0.26927E-02
         0.26927E-02
         0.26927E-02
         0.26927E-02
         0.26927E-02
         0.26927E-02
         0.26927E-02
         0.26927E-02
         0.26927E-02
         0.26927E-02
         0.26927E-02
         0.26927E-02
         0.26927E-02
         0.26927E-02
         0.26927E-02
         0.26927E-02
         0.26927E-02
         0.26927E-02
         0.26927E-02
         0.26927E-02
         0.26927E-02
         0.26927E-02
         0.26927E-02
         0.26927E-02
         0.26927E-02
         0.26927E-02
         0.26927E-02
         0.26927E-02
         0.26927E-02
         0.26927E-02
         0.26927E-02
         0.26927E-02
         0.26927E-02
         0.26927E-02
         0.26927E-02
         0.26927E-02
         0.26927E-02
         0.26927E-02
         0.26927E-02
         0.26927E-02
         0.26927E-02
         0.26927E-02
         0.26927E-02
         0.26927E-02
         0.26927E-02
         0.26927E-02
         0.26927E-02
         0.26927E-02
         0.26927E-02
         0.26927E-02
         0.26927E-02
         0.26927E-02
         0.26927E-02
         0.26927E-02
         0.26927E-02
         0.26927E-02
         0.26927E-02
         0.26927E-02
         0.26927E-02
         0.26927E-02
         0.26927E-02
         0.26927E-02
         0.26927E-02
         0.26927E-02
         0.26927E-02
         0.26927E-02
         0.26927E-02
         0.26927E-02
         0.26927E-02
         0.26927E-02
         0.26927E-02
         0.26927E-02
         0.26927E-02
         0.26927E-02
         0.26927E-02
         0.26927E-02
         0.26927E-02
         0.26927E-02
         0.26927E-02
         0.26927E-02
         0.26927E-02
         0.26927E-02
         0.26927E-02
         0.26927E-02
         0.26927E-02
         0.26927E-02
         0.26927E-02
         0.26927E-02
         0.26927E-02
         0.26927E-02
         0.26927E-02
         0.26927E-02
         0.26927E-02
         0.26927E-02
         0.26927E-02
         0.26927E-02
         0.26927E-02
         0.26927E-02
         0.26927E-02
         0.26927E-02
         0.26927E-02
         0.26927E-02
         0.26927E-02
         0.26927E-02
         0.26927E-02
         0.26927E-02
         0.26927E-02
         0.26927E-02
         0.26927E-02
         0.26927E-02
         0.26927E-02
         0.26927E-02
         0.26927E-02
         0.26927E-02
         0.26927E-02
         0.26927E-02
         0.26927E-02
         0.26927E-02
         0.26927E-02
         0.26927E-02
         0.26927E-02
         0.26927E-02
         0.26927E-02
         0.26927E-02
         0.26927E-02
         0.26927E-02
         0.26927E-02
         0.26927E-02
         0.26927E-02
         0.26927E-02
         0.26927E-02
         0.26927E-02
         0.26927E-02
         0.26927E-02
         0.26927E-02
         0.26927E-02
         0.26927E-02
         0.26927E-02
         0.26927E-02
         0.26927E-02
         0.26927E-02
         0.26927E-02
         0.26927E-02
         0.26927E-02
         0.26927E-02
         0.26927E-02
         0.26927E-02
         0.26927E-02
         0.26927E-02
         0.26927E-02
         0.26927E-02
         0.26927E-02
         0.26927E-02
         0.26927E-02
         0.26927E-02
         0.26927E-02
         0.26927E-02
         0.26927E-02
         0.26927E-02
         0.26927E-02
         0.26927E-02
         0.26927E-02
         0.26927E-02
         0.26927E-02
         0.26927E-02
         0.26927E-02
         0.26927E-02
         0.26927E-02
         0.26927E-02
         0.26927E-02
         0.26927E-02
         0.26927E-02
         0.26927E-02
         0.26927E-02
         0.26927E-02
         0.26927E-02
         0.26927E-02
         0.26927E-02
         0.26927E-02
         0.26927E-02
         0.26927E-02
         0.26927E-02
         0.26927E-02
         0.26927E-02
         0.26927E-02
         0.26927E-02
         0.26927E-02
         0.26927E-02
         0.26927E-02
         0.26927E-02
         0.26927E-02
         0.26927E-02
         0.26927E-02
         0.26927E-02
         0.26927E-02
         0.26927E-02
         0.26927E-02
         0.26927E-02
         0.26927E-02
         0.26927E-02
         0.26927E-02
         0.26927E-02
         0.26927E-02
         0.26927E-02
         0.26927E-02
         0.26927E-02
         0.26927E-02
         0.26927E-02
         0.26927E-02
         0.26927E-02
         0.26927E-02
         0.26927E-02
         0.26927E-02
         0.26927E-02
         0.26927E-02
         0.26927E-02
         0.26927E-02
         0.26927E-02
         0.26927E-02
         0.26927E-02
         0.26927E-02
         0.26927E-02
         0.26927E-02
         0.26927E-02
         0.26927E-02
         0.26927E-02
         0.26927E-02
         0.26927E-02
         0.26927E-02
         0.26927E-02
         0.26927E-02
         0.26927E-02
         0.26927E-02
         0.26927E-02
         0.26927E-02
         0.26927E-02
         0.26927E-02
         0.26927E-02
         0.26927E-02
         0.26927E-02
         0.26927E-02
         0.26927E-02
         0.26927E-02
         0.26927E-02
         0.26927E-02
         0.26927E-02
         0.26927E-02
         0.26927E-02
         0.26927E-02
         0.26927E-02
         0.26927E-02
         0.26927E-02
         0.26927E-02
         0.26927E-02
         0.26927E-02
         0.26927E-02
         0.26927E-02
         0.26927E-02
         0.26927E-02
         0.26927E-02
         0.26927E-02
         0.26927E-02
         0.26927E-02
         0.26927E-02
         0.26927E-02
         0.26927E-02
         0.26927E-02
         0.26927E-02
         0.26927E-02
         0.26927E-02
         0.26927E-02
         0.26927E-02
         0.26927E-02
         0.26927E-02
         0.26927E-02
         0.26927E-02
         0.26927E-02
         0.26927E-02
         0.26927E-02
         0.26927E-02
         0.26927E-02
         0.26927E-02
         0.26927E-02
         0.26927E-02
         0.26927E-02
         0.26927E-02
         0.26927E-02
         0.26927E-02
         0.26927E-02
         0.26927E-02
         0.26927E-02
         0.26927E-02
         0.26927E-02
         0.26927E-02
         0.26927E-02
         0.26927E-02
         0.26927E-02
         0.26927E-02
         0.26927E-02
         0.26927E-02
         0.26927E-02
         0.26927E-02
         0.26927E-02
         0.26927E-02
         0.26927E-02
         0.26927E-02
         0.26927E-02
         0.26927E-02
         0.26927E-02
         0.26927E-02
         0.26927E-02
         0.26927E-02
         0.26927E-02
         0.26927E-02
         0.26927E-02
         0.26927E-02
         0.26927E-02
         0.26927E-02
         0.26927E-02
         0.26927E-02
         0.26927E-02
         0.26927E-02
         0.26927E-02
         0.26927E-02
         0.26927E-02
         0.26927E-02
         0.26927E-02
         0.26927E-02
         0.26927E-02
         0.26927E-02
         0.26927E-02
         0.26927E-02
         0.26927E-02
         0.26927E-02
         0.26927E-02
         0.26927E-02
         0.26927E-02
         0.26927E-02
         0.26927E-02
         0.26927E-02
         0.26927E-02
         0.26927E-02
         0.26927E-02
         0.26927E-02
         0.26927E-02
         0.26927E-02
         0.26927E-02
         0.26927E-02
         0.26927E-02
         0.26927E-02
         0.26927E-02
         0.26927E-02
         0.26927E-02
         0.26927E-02
         0.26927E-02
         0.26927E-02
         0.26927E-02
         0.26927E-02
         0.26927E-02
         0.26927E-02
         0.26927E-02
         0.26927E-02
         0.26927E-02
         0.26927E-02
         0.26927E-02
         0.26927E-02
         0.26927E-02
         0.26927E-02
         0.26927E-02
         0.26927E-02
         0.26927E-02
         0.26927E-02
         0.26927E-02
         0.26927E-02
         0.26927E-02
         0.26927E-02
         0.26927E-02
         0.26927E-02
         0.26927E-02
         0.26927E-02
         0.26927E-02
         0.26927E-02
         0.26927E-02
         0.26927E-02
         0.26927E-02
         0.26927E-02
         0.26927E-02
         0.26927E-02
         0.26927E-02
         0.26927E-02
         0.26927E-02
         0.26927E-02
         0.26927E-02
         0.26927E-02
         0.26927E-02
         0.26927E-02
         0.26927E-02
         0.26927E-02
         0.26927E-02
         0.26927E-02
         0.26927E-02
         0.26927E-02
         0.26927E-02
         0.26927E-02
         0.26927E-02
         0.26927E-02
         0.26927E-02
         0.26927E-02
         0.26927E-02
         0.26927E-02
         0.26927E-02
         0.26927E-02
         0.26927E-02
         0.26927E-02
         0.26927E-02
         0.26927E-02
         0.26927E-02
         0.26927E-02
         0.26927E-02
         0.26927E-02
         0.26927E-02
         0.26927E-02
         0.26927E-02
         0.26927E-02
         0.26927E-02
         0.26927E-02
         0.26927E-02
         0.26927E-02
         0.26927E-02
         0.26927E-02
         0.26927E-02
         0.26927E-02
         0.26927E-02
         0.26927E-02
         0.26927E-02
         0.26927E-02
         0.26927E-02
         0.26927E-02
         0.26927E-02
         0.26927E-02
         0.26927E-02
         0.26927E-02
         0.26927E-02
         0.26927E-02
         0.26927E-02
         0.26927E-02
         0.26927E-02
         0.26927E-02
         0.26927E-02
         0.26927E-02
         0.26927E-02
         0.26927E-02
         0.26927E-02
         0.26927E-02
         0.26927E-02
         0.26927E-02
         0.26927E-02
         0.26927E-02
         0.26927E-02
         0.26927E-02
         0.26927E-02
         0.26927E-02
         0.26927E-02
         0.26927E-02
         0.26927E-02
         0.26927E-02
         0.26927E-02
         0.26927E-02
         0.26927E-02
         0.26927E-02
         0.26927E-02
         0.26927E-02
         0.26927E-02
         0.26927E-02
         0.26927E-02
         0.26927E-02
         0.26927E-02
         0.26927E-02
         0.26927E-02
         0.26927E-02
         0.26927E-02
         0.26927E-02
         0.26927E-02
         0.26927E-02
         0.26927E-02
         0.26927E-02
         0.26927E-02
         0.26927E-02
         0.26927E-02
         0.26927E-02
         0.26927E-02
         0.26927E-02
         0.26927E-02
         0.26928E-02
         0.26928E-02
         0.26928E-02
         0.26928E-02
         0.26928E-02
         0.26928E-02
         0.26928E-02
         0.26928E-02
         0.26928E-02
         0.26928E-02
         0.26928E-02
         0.26928E-02
         0.26928E-02
         0.26928E-02
         0.26928E-02
         0.26928E-02
         0.26928E-02
         0.26928E-02
         0.26928E-02
         0.26928E-02
         0.26928E-02
         0.26928E-02
         0.26928E-02
         0.26928E-02
         0.26928E-02
         0.26928E-02
         0.26928E-02
         0.26928E-02
         0.26928E-02
         0.26928E-02
         0.26928E-02
         0.26928E-02
         0.26928E-02
         0.26928E-02
         0.26928E-02
         0.26928E-02
         0.26928E-02
         0.26928E-02
         0.26928E-02
         0.26928E-02
         0.26928E-02
         0.26928E-02
         0.26928E-02
         0.26928E-02
         0.26928E-02
         0.26928E-02
         0.26928E-02
         0.26928E-02
         0.26928E-02
         0.26928E-02
         0.26928E-02
         0.26928E-02
         0.26928E-02
         0.26928E-02
         0.26928E-02
         0.26928E-02
         0.26928E-02
         0.26928E-02
         0.26928E-02
         0.26928E-02
         0.26928E-02
         0.26928E-02
         0.26928E-02
         0.26928E-02
         0.26928E-02
         0.26928E-02
         0.26928E-02
         0.26928E-02
         0.26928E-02
         0.26928E-02
         0.26928E-02
         0.26928E-02
         0.26928E-02
         0.26928E-02
         0.26928E-02
         0.26928E-02
         0.26928E-02
         0.26928E-02
         0.26928E-02
         0.26928E-02
         0.26928E-02
         0.26928E-02
         0.26928E-02
         0.26928E-02
         0.26928E-02
         0.26928E-02
         0.26928E-02
         0.26928E-02
         0.26928E-02
         0.26928E-02
         0.26928E-02
         0.26928E-02
         0.26928E-02
         0.26928E-02
         0.26928E-02
         0.26928E-02
         0.26928E-02
         0.26928E-02
         0.26928E-02
         0.26928E-02
         0.26928E-02
         0.26928E-02
         0.26928E-02
         0.26928E-02
         0.26928E-02
         0.26928E-02
         0.26928E-02
         0.26928E-02
         0.26928E-02
         0.26928E-02
         0.26928E-02
         0.26928E-02
         0.26928E-02
         0.26928E-02
         0.26928E-02
         0.26928E-02
         0.26928E-02
         0.26928E-02
         0.26928E-02
         0.26928E-02
         0.26928E-02
         0.26928E-02
         0.26928E-02
         0.26928E-02
         0.26928E-02
         0.26928E-02
         0.26928E-02
         0.26928E-02
         0.26928E-02
         0.26928E-02
         0.26928E-02
         0.26928E-02
         0.26928E-02
         0.26928E-02
         0.26928E-02
         0.26928E-02
         0.26928E-02
         0.26928E-02
         0.26928E-02
         0.26928E-02
         0.26928E-02
         0.26928E-02
         0.26928E-02
         0.26928E-02
         0.26928E-02
         0.26928E-02
         0.26928E-02
         0.26928E-02
         0.26928E-02
         0.26928E-02
         0.26928E-02
         0.26928E-02
         0.26928E-02
         0.26928E-02
         0.26928E-02
         0.26928E-02
  
SCALARS                   nodal_volume  double 1
LOOKUP_TABLE default
         0.91140E-09
         0.72412E-09
         0.77574E-09
         0.13316E-08
         0.45570E-09
         0.36211E-09
         0.38787E-09
         0.66566E-09
         0.71537E-09
         0.91211E-09
         0.35767E-09
         0.45600E-09
         0.51195E-09
         0.61532E-09
         0.25605E-09
         0.30776E-09
         0.10101E-08
         0.74536E-09
         0.50500E-09
         0.37281E-09
         0.30273E-09
         0.57012E-09
         0.62699E-09
         0.15144E-09
         0.28509E-09
         0.31352E-09
         0.51329E-09
         0.64933E-09
         0.25683E-09
         0.32471E-09
         0.12026E-08
         0.93909E-09
         0.11935E-08
         0.60122E-09
         0.46945E-09
         0.59663E-09
         0.70296E-09
         0.80270E-09
         0.35149E-09
         0.40134E-09
         0.75859E-09
         0.84013E-09
         0.37932E-09
         0.42007E-09
         0.64542E-09
         0.40086E-09
         0.32274E-09
         0.20045E-09
         0.76288E-09
         0.38153E-09
         0.63346E-09
         0.31675E-09
         0.66583E-09
         0.33318E-09
         0.68008E-09
         0.34022E-09
         0.58930E-09
         0.71738E-09
         0.29472E-09
         0.35874E-09
         0.90938E-09
         0.64302E-09
         0.45469E-09
         0.32154E-09
         0.10152E-08
         0.50747E-09
         0.88120E-09
         0.44042E-09
         0.40077E-09
         0.61872E-09
         0.20039E-09
         0.30940E-09
         0.70206E-09
         0.35106E-09
         0.74172E-09
         0.37089E-09
         0.71539E-09
         0.35770E-09
         0.56226E-09
         0.28113E-09
         0.35349E-09
         0.58452E-09
         0.17675E-09
         0.29229E-09
         0.77354E-09
         0.38679E-09
         0.62469E-09
         0.31238E-09
         0.54957E-09
         0.27483E-09
         0.36009E-09
         0.61365E-09
         0.18007E-09
         0.30685E-09
         0.83268E-09
         0.41635E-09
         0.87287E-09
         0.43642E-09
         0.70438E-09
         0.35217E-09
         0.43365E-09
         0.74413E-09
         0.21683E-09
         0.37198E-09
         0.27660E-09
         0.35144E-09
         0.13833E-09
         0.17573E-09
         0.32921E-09
         0.16465E-09
         0.38764E-09
         0.19382E-09
         0.37797E-09
         0.18897E-09
         0.36707E-09
         0.18352E-09
         0.39112E-09
         0.19552E-09
         0.41268E-09
         0.20627E-09
         0.38876E-09
         0.19433E-09
         0.30402E-09
         0.15200E-09
         0.24796E-09
         0.12398E-09
         0.31999E-09
         0.16000E-09
         0.42608E-09
         0.21303E-09
         0.46805E-09
         0.23401E-09
         0.44933E-09
         0.22466E-09
         0.40550E-09
         0.20276E-09
         0.36826E-09
         0.18414E-09
         0.29911E-09
         0.14956E-09
         0.25178E-09
         0.12591E-09
         0.32888E-09
         0.16445E-09
         0.43529E-09
         0.21765E-09
         0.44963E-09
         0.22482E-09
         0.36384E-09
         0.18194E-09
         0.29543E-09
         0.14774E-09
         0.36126E-09
         0.18063E-09
         0.42771E-09
         0.21386E-09
         0.91143E-09
         0.72396E-09
         0.77579E-09
         0.13322E-08
         0.71547E-09
         0.91237E-09
         0.51167E-09
         0.61494E-09
         0.10105E-08
         0.74486E-09
         0.30244E-09
         0.57001E-09
         0.62694E-09
         0.51257E-09
         0.64918E-09
         0.12029E-08
         0.93950E-09
         0.11941E-08
         0.70298E-09
         0.80279E-09
         0.75855E-09
         0.84015E-09
         0.64535E-09
         0.40081E-09
         0.76254E-09
         0.63339E-09
         0.66483E-09
         0.67941E-09
         0.58904E-09
         0.71721E-09
         0.90946E-09
         0.64293E-09
         0.10157E-08
         0.88199E-09
         0.40076E-09
         0.61859E-09
         0.70195E-09
         0.74166E-09
         0.71543E-09
         0.56228E-09
         0.35349E-09
         0.58443E-09
         0.77349E-09
         0.62459E-09
         0.54943E-09
         0.35999E-09
         0.61359E-09
         0.83268E-09
         0.87299E-09
         0.70451E-09
         0.43366E-09
         0.74449E-09
         0.27651E-09
         0.35143E-09
         0.32904E-09
         0.38765E-09
         0.37805E-09
         0.36714E-09
         0.39129E-09
         0.41297E-09
         0.38899E-09
         0.30408E-09
         0.24798E-09
         0.31999E-09
         0.42613E-09
         0.46815E-09
         0.44938E-09
         0.40548E-09
         0.36823E-09
         0.29908E-09
         0.25174E-09
         0.32885E-09
         0.43527E-09
         0.44962E-09
         0.36376E-09
         0.29536E-09
         0.36130E-09
         0.42769E-09
         0.91151E-09
         0.72383E-09
         0.77587E-09
         0.13329E-08
         0.71560E-09
         0.91267E-09
         0.51142E-09
         0.61459E-09
         0.10109E-08
         0.74439E-09
         0.30216E-09
         0.56992E-09
         0.62691E-09
         0.51187E-09
         0.64906E-09
         0.12033E-08
         0.93995E-09
         0.11947E-08
         0.70302E-09
         0.80291E-09
         0.75853E-09
         0.84020E-09
         0.64530E-09
         0.40078E-09
         0.76223E-09
         0.63335E-09
         0.66385E-09
         0.67875E-09
         0.58880E-09
         0.71706E-09
         0.90957E-09
         0.64286E-09
         0.10162E-08
         0.88281E-09
         0.40076E-09
         0.61849E-09
         0.70188E-09
         0.74162E-09
         0.71550E-09
         0.56232E-09
         0.35350E-09
         0.58436E-09
         0.77347E-09
         0.62452E-09
         0.54931E-09
         0.35990E-09
         0.61355E-09
         0.83270E-09
         0.87315E-09
         0.70467E-09
         0.43368E-09
         0.74487E-09
         0.27643E-09
         0.35143E-09
         0.32889E-09
         0.38767E-09
         0.37814E-09
         0.36723E-09
         0.39147E-09
         0.41328E-09
         0.38923E-09
         0.30416E-09
         0.24800E-09
         0.32001E-09
         0.42620E-09
         0.46826E-09
         0.44944E-09
         0.40548E-09
         0.36821E-09
         0.29906E-09
         0.25171E-09
         0.32883E-09
         0.43527E-09
         0.44963E-09
         0.36369E-09
         0.29530E-09
         0.36135E-09
         0.42769E-09
         0.91156E-09
         0.72368E-09
         0.77594E-09
         0.13335E-08
         0.71571E-09
         0.91295E-09
         0.51115E-09
         0.61422E-09
         0.10112E-08
         0.74389E-09
         0.30187E-09
         0.56982E-09
         0.62686E-09
         0.51116E-09
         0.64892E-09
         0.12036E-08
         0.94038E-09
         0.11953E-08
         0.70304E-09
         0.80300E-09
         0.75850E-09
         0.84023E-09
         0.64523E-09
         0.40073E-09
         0.76190E-09
         0.63330E-09
         0.66285E-09
         0.67809E-09
         0.58855E-09
         0.71689E-09
         0.90966E-09
         0.64278E-09
         0.10168E-08
         0.88361E-09
         0.40076E-09
         0.61837E-09
         0.70178E-09
         0.74156E-09
         0.71554E-09
         0.56234E-09
         0.35350E-09
         0.58428E-09
         0.77343E-09
         0.62442E-09
         0.54918E-09
         0.35981E-09
         0.61349E-09
         0.83271E-09
         0.87328E-09
         0.70481E-09
         0.43369E-09
         0.74524E-09
         0.27634E-09
         0.35142E-09
         0.32873E-09
         0.38768E-09
         0.37823E-09
         0.36731E-09
         0.39163E-09
         0.41358E-09
         0.38945E-09
         0.30422E-09
         0.24802E-09
         0.32001E-09
         0.42625E-09
         0.46837E-09
         0.44949E-09
         0.40546E-09
         0.36819E-09
         0.29904E-09
         0.25167E-09
         0.32881E-09
         0.43526E-09
         0.44963E-09
         0.36362E-09
         0.29523E-09
         0.36139E-09
         0.42768E-09
         0.91161E-09
         0.72353E-09
         0.77600E-09
         0.13341E-08
         0.71583E-09
         0.91323E-09
         0.51088E-09
         0.61386E-09
         0.10116E-08
         0.74341E-09
         0.30158E-09
         0.56972E-09
         0.62682E-09
         0.51045E-09
         0.64879E-09
         0.12040E-08
         0.94081E-09
         0.11959E-08
         0.70307E-09
         0.80310E-09
         0.75847E-09
         0.84027E-09
         0.64517E-09
         0.40069E-09
         0.76158E-09
         0.63325E-09
         0.66186E-09
         0.67742E-09
         0.58831E-09
         0.71673E-09
         0.90975E-09
         0.64270E-09
         0.10173E-08
         0.88441E-09
         0.40075E-09
         0.61825E-09
         0.70169E-09
         0.74151E-09
         0.71559E-09
         0.56237E-09
         0.35350E-09
         0.58420E-09
         0.77339E-09
         0.62433E-09
         0.54905E-09
         0.35972E-09
         0.61344E-09
         0.83272E-09
         0.87341E-09
         0.70496E-09
         0.43370E-09
         0.74562E-09
         0.27626E-09
         0.35142E-09
         0.32857E-09
         0.38770E-09
         0.37832E-09
         0.36739E-09
         0.39181E-09
         0.41387E-09
         0.38968E-09
         0.30429E-09
         0.24804E-09
         0.32002E-09
         0.42631E-09
         0.46847E-09
         0.44954E-09
         0.40545E-09
         0.36816E-09
         0.29901E-09
         0.25163E-09
         0.32878E-09
         0.43525E-09
         0.44963E-09
         0.36354E-09
         0.29517E-09
         0.36144E-09
         0.42766E-09
         0.91167E-09
         0.72338E-09
         0.77607E-09
         0.13348E-08
         0.71594E-09
         0.91351E-09
         0.51062E-09
         0.61349E-09
         0.10119E-08
         0.74292E-09
         0.30129E-09
         0.56962E-09
         0.62678E-09
         0.50974E-09
         0.64865E-09
         0.12044E-08
         0.94125E-09
         0.11965E-08
         0.70310E-09
         0.80321E-09
         0.75844E-09
         0.84031E-09
         0.64511E-09
         0.40065E-09
         0.76125E-09
         0.63320E-09
         0.66087E-09
         0.67676E-09
         0.58806E-09
         0.71657E-09
         0.90984E-09
         0.64263E-09
         0.10179E-08
         0.88522E-09
         0.40075E-09
         0.61813E-09
         0.70160E-09
         0.74146E-09
         0.71564E-09
         0.56240E-09
         0.35350E-09
         0.58412E-09
         0.77336E-09
         0.62425E-09
         0.54892E-09
         0.35963E-09
         0.61339E-09
         0.83274E-09
         0.87355E-09
         0.70511E-09
         0.43371E-09
         0.74599E-09
         0.27618E-09
         0.35141E-09
         0.32841E-09
         0.38771E-09
         0.37841E-09
         0.36747E-09
         0.39198E-09
         0.41417E-09
         0.38992E-09
         0.30436E-09
         0.24806E-09
         0.32003E-09
         0.42637E-09
         0.46858E-09
         0.44960E-09
         0.40544E-09
         0.36814E-09
         0.29899E-09
         0.25159E-09
         0.32876E-09
         0.43525E-09
         0.44963E-09
         0.36347E-09
         0.29511E-09
         0.36148E-09
         0.42766E-09
         0.91171E-09
         0.72323E-09
         0.77613E-09
         0.13354E-08
         0.71606E-09
         0.91379E-09
         0.51035E-09
         0.61313E-09
         0.10123E-08
         0.74243E-09
         0.30101E-09
         0.56952E-09
         0.62674E-09
         0.50903E-09
         0.64851E-09
         0.12047E-08
         0.94167E-09
         0.11971E-08
         0.70312E-09
         0.80331E-09
         0.75840E-09
         0.84034E-09
         0.64504E-09
         0.40061E-09
         0.76092E-09
         0.63314E-09
         0.65988E-09
         0.67609E-09
         0.58781E-09
         0.71641E-09
         0.90993E-09
         0.64255E-09
         0.10184E-08
         0.88601E-09
         0.40075E-09
         0.61801E-09
         0.70151E-09
         0.74140E-09
         0.71569E-09
         0.56243E-09
         0.35350E-09
         0.58404E-09
         0.77332E-09
         0.62416E-09
         0.54879E-09
         0.35953E-09
         0.61334E-09
         0.83274E-09
         0.87368E-09
         0.70525E-09
         0.43372E-09
         0.74636E-09
         0.27609E-09
         0.35141E-09
         0.32825E-09
         0.38772E-09
         0.37849E-09
         0.36754E-09
         0.39215E-09
         0.41447E-09
         0.39014E-09
         0.30443E-09
         0.24808E-09
         0.32004E-09
         0.42642E-09
         0.46868E-09
         0.44965E-09
         0.40543E-09
         0.36812E-09
         0.29897E-09
         0.25155E-09
         0.32874E-09
         0.43524E-09
         0.44963E-09
         0.36340E-09
         0.29504E-09
         0.36153E-09
         0.42764E-09
         0.91176E-09
         0.72308E-09
         0.77620E-09
         0.13360E-08
         0.71617E-09
         0.91407E-09
         0.51008E-09
         0.61276E-09
         0.10126E-08
         0.74195E-09
         0.30072E-09
         0.56942E-09
         0.62670E-09
         0.50832E-09
         0.64838E-09
         0.12051E-08
         0.94210E-09
         0.11977E-08
         0.70314E-09
         0.80341E-09
         0.75837E-09
         0.84038E-09
         0.64498E-09
         0.40056E-09
         0.76060E-09
         0.63309E-09
         0.65888E-09
         0.67542E-09
         0.58756E-09
         0.71624E-09
         0.91002E-09
         0.64247E-09
         0.10189E-08
         0.88682E-09
         0.40074E-09
         0.61790E-09
         0.70142E-09
         0.74135E-09
         0.71574E-09
         0.56245E-09
         0.35351E-09
         0.58396E-09
         0.77328E-09
         0.62407E-09
         0.54866E-09
         0.35944E-09
         0.61329E-09
         0.83275E-09
         0.87382E-09
         0.70539E-09
         0.43373E-09
         0.74673E-09
         0.27601E-09
         0.35140E-09
         0.32809E-09
         0.38774E-09
         0.37858E-09
         0.36762E-09
         0.39232E-09
         0.41477E-09
         0.39037E-09
         0.30450E-09
         0.24810E-09
         0.32005E-09
         0.42648E-09
         0.46879E-09
         0.44970E-09
         0.40541E-09
         0.36809E-09
         0.29894E-09
         0.25151E-09
         0.32871E-09
         0.43523E-09
         0.44963E-09
         0.36333E-09
         0.29497E-09
         0.36157E-09
         0.42763E-09
         0.91182E-09
         0.72293E-09
         0.77627E-09
         0.13367E-08
         0.71629E-09
         0.91436E-09
         0.50982E-09
         0.61240E-09
         0.10130E-08
         0.74146E-09
         0.30043E-09
         0.56932E-09
         0.62666E-09
         0.50762E-09
         0.64825E-09
         0.12054E-08
         0.94253E-09
         0.11983E-08
         0.70317E-09
         0.80351E-09
         0.75834E-09
         0.84041E-09
         0.64491E-09
         0.40053E-09
         0.76028E-09
         0.63304E-09
         0.65790E-09
         0.67476E-09
         0.58731E-09
         0.71609E-09
         0.91012E-09
         0.64239E-09
         0.10195E-08
         0.88762E-09
         0.40074E-09
         0.61778E-09
         0.70133E-09
         0.74130E-09
         0.71579E-09
         0.56249E-09
         0.35351E-09
         0.58388E-09
         0.77324E-09
         0.62398E-09
         0.54853E-09
         0.35935E-09
         0.61324E-09
         0.83277E-09
         0.87396E-09
         0.70554E-09
         0.43375E-09
         0.74711E-09
         0.27592E-09
         0.35140E-09
         0.32793E-09
         0.38775E-09
         0.37867E-09
         0.36770E-09
         0.39249E-09
         0.41507E-09
         0.39061E-09
         0.30457E-09
         0.24812E-09
         0.32006E-09
         0.42654E-09
         0.46890E-09
         0.44975E-09
         0.40540E-09
         0.36807E-09
         0.29892E-09
         0.25148E-09
         0.32869E-09
         0.43522E-09
         0.44963E-09
         0.36325E-09
         0.29491E-09
         0.36162E-09
         0.42762E-09
         0.91187E-09
         0.72278E-09
         0.77633E-09
         0.13373E-08
         0.71640E-09
         0.91463E-09
         0.50955E-09
         0.61204E-09
         0.10134E-08
         0.74098E-09
         0.30015E-09
         0.56922E-09
         0.62662E-09
         0.50691E-09
         0.64811E-09
         0.12058E-08
         0.94296E-09
         0.11989E-08
         0.70320E-09
         0.80361E-09
         0.75831E-09
         0.84045E-09
         0.64485E-09
         0.40048E-09
         0.75995E-09
         0.63298E-09
         0.65690E-09
         0.67409E-09
         0.58706E-09
         0.71592E-09
         0.91020E-09
         0.64231E-09
         0.10200E-08
         0.88843E-09
         0.40074E-09
         0.61766E-09
         0.70124E-09
         0.74124E-09
         0.71584E-09
         0.56251E-09
         0.35351E-09
         0.58380E-09
         0.77320E-09
         0.62389E-09
         0.54840E-09
         0.35926E-09
         0.61318E-09
         0.83277E-09
         0.87409E-09
         0.70568E-09
         0.43376E-09
         0.74748E-09
         0.27584E-09
         0.35139E-09
         0.32777E-09
         0.38777E-09
         0.37876E-09
         0.36778E-09
         0.39266E-09
         0.41536E-09
         0.39084E-09
         0.30464E-09
         0.24814E-09
         0.32006E-09
         0.42659E-09
         0.46900E-09
         0.44980E-09
         0.40539E-09
         0.36805E-09
         0.29890E-09
         0.25144E-09
         0.32867E-09
         0.43521E-09
         0.44963E-09
         0.36318E-09
         0.29485E-09
         0.36166E-09
         0.42761E-09
         0.91192E-09
         0.72263E-09
         0.77640E-09
         0.13380E-08
         0.71652E-09
         0.91491E-09
         0.50928E-09
         0.61167E-09
         0.10137E-08
         0.74049E-09
         0.29986E-09
         0.56912E-09
         0.62657E-09
         0.50620E-09
         0.64797E-09
         0.12061E-08
         0.94339E-09
         0.11995E-08
         0.70322E-09
         0.80371E-09
         0.75827E-09
         0.84048E-09
         0.64478E-09
         0.40044E-09
         0.75962E-09
         0.63293E-09
         0.65591E-09
         0.67343E-09
         0.58681E-09
         0.71576E-09
         0.91029E-09
         0.64223E-09
         0.10205E-08
         0.88923E-09
         0.40073E-09
         0.61754E-09
         0.70114E-09
         0.74119E-09
         0.71588E-09
         0.56254E-09
         0.35351E-09
         0.58372E-09
         0.77316E-09
         0.62380E-09
         0.54827E-09
         0.35917E-09
         0.61313E-09
         0.83278E-09
         0.87422E-09
         0.70582E-09
         0.43377E-09
         0.74785E-09
         0.27575E-09
         0.35138E-09
         0.32761E-09
         0.38778E-09
         0.37885E-09
         0.36786E-09
         0.39283E-09
         0.41566E-09
         0.39107E-09
         0.30470E-09
         0.24816E-09
         0.32007E-09
         0.42665E-09
         0.46911E-09
         0.44985E-09
         0.40538E-09
         0.36802E-09
         0.29887E-09
         0.25140E-09
         0.32864E-09
         0.43520E-09
         0.44963E-09
         0.36310E-09
         0.29478E-09
         0.36170E-09
         0.42760E-09
         0.91198E-09
         0.72248E-09
         0.77646E-09
         0.13386E-08
         0.71663E-09
         0.91520E-09
         0.50901E-09
         0.61131E-09
         0.10141E-08
         0.74000E-09
         0.29957E-09
         0.56902E-09
         0.62653E-09
         0.50549E-09
         0.64784E-09
         0.12065E-08
         0.94382E-09
         0.12002E-08
         0.70325E-09
         0.80381E-09
         0.75824E-09
         0.84052E-09
         0.64472E-09
         0.40040E-09
         0.75929E-09
         0.63288E-09
         0.65492E-09
         0.67276E-09
         0.58657E-09
         0.71560E-09
         0.91038E-09
         0.64216E-09
         0.10211E-08
         0.89003E-09
         0.40073E-09
         0.61742E-09
         0.70105E-09
         0.74114E-09
         0.71593E-09
         0.56257E-09
         0.35351E-09
         0.58364E-09
         0.77313E-09
         0.62371E-09
         0.54814E-09
         0.35908E-09
         0.61308E-09
         0.83280E-09
         0.87436E-09
         0.70597E-09
         0.43378E-09
         0.74823E-09
         0.27567E-09
         0.35138E-09
         0.32745E-09
         0.38779E-09
         0.37893E-09
         0.36794E-09
         0.39300E-09
         0.41596E-09
         0.39130E-09
         0.30477E-09
         0.24818E-09
         0.32008E-09
         0.42671E-09
         0.46921E-09
         0.44991E-09
         0.40537E-09
         0.36800E-09
         0.29885E-09
         0.25136E-09
         0.32862E-09
         0.43520E-09
         0.44963E-09
         0.36303E-09
         0.29472E-09
         0.36175E-09
         0.42759E-09
         0.91203E-09
         0.72233E-09
         0.77653E-09
         0.13392E-08
         0.71675E-09
         0.91547E-09
         0.50875E-09
         0.61094E-09
         0.10144E-08
         0.73952E-09
         0.29928E-09
         0.56892E-09
         0.62649E-09
         0.50478E-09
         0.64770E-09
         0.12068E-08
         0.94424E-09
         0.12008E-08
         0.70327E-09
         0.80391E-09
         0.75821E-09
         0.84055E-09
         0.64465E-09
         0.40035E-09
         0.75896E-09
         0.63282E-09
         0.65393E-09
         0.67210E-09
         0.58632E-09
         0.71543E-09
         0.91047E-09
         0.64208E-09
         0.10216E-08
         0.89084E-09
         0.40073E-09
         0.61730E-09
         0.70096E-09
         0.74108E-09
         0.71598E-09
         0.56259E-09
         0.35351E-09
         0.58356E-09
         0.77309E-09
         0.62362E-09
         0.54801E-09
         0.35898E-09
         0.61303E-09
         0.83281E-09
         0.87449E-09
         0.70611E-09
         0.43379E-09
         0.74860E-09
         0.27558E-09
         0.35137E-09
         0.32729E-09
         0.38781E-09
         0.37902E-09
         0.36802E-09
         0.39317E-09
         0.41625E-09
         0.39153E-09
         0.30484E-09
         0.24820E-09
         0.32009E-09
         0.42677E-09
         0.46932E-09
         0.44996E-09
         0.40536E-09
         0.36798E-09
         0.29883E-09
         0.25132E-09
         0.32859E-09
         0.43519E-09
         0.44963E-09
         0.36296E-09
         0.29465E-09
         0.36179E-09
         0.42758E-09
         0.91208E-09
         0.72218E-09
         0.77659E-09
         0.13399E-08
         0.71686E-09
         0.91576E-09
         0.50848E-09
         0.61058E-09
         0.10148E-08
         0.73903E-09
         0.29900E-09
         0.56882E-09
         0.62645E-09
         0.50408E-09
         0.64757E-09
         0.12072E-08
         0.94467E-09
         0.12014E-08
         0.70330E-09
         0.80401E-09
         0.75818E-09
         0.84059E-09
         0.64459E-09
         0.40031E-09
         0.75864E-09
         0.63277E-09
         0.65294E-09
         0.67143E-09
         0.58607E-09
         0.71527E-09
         0.91057E-09
         0.64200E-09
         0.10221E-08
         0.89164E-09
         0.40072E-09
         0.61719E-09
         0.70087E-09
         0.74103E-09
         0.71603E-09
         0.56262E-09
         0.35352E-09
         0.58348E-09
         0.77305E-09
         0.62354E-09
         0.54788E-09
         0.35889E-09
         0.61298E-09
         0.83282E-09
         0.87463E-09
         0.70626E-09
         0.43380E-09
         0.74897E-09
         0.27550E-09
         0.35137E-09
         0.32713E-09
         0.38782E-09
         0.37911E-09
         0.36810E-09
         0.39334E-09
         0.41655E-09
         0.39176E-09
         0.30491E-09
         0.24822E-09
         0.32010E-09
         0.42682E-09
         0.46942E-09
         0.45001E-09
         0.40534E-09
         0.36796E-09
         0.29881E-09
         0.25128E-09
         0.32857E-09
         0.43518E-09
         0.44963E-09
         0.36288E-09
         0.29459E-09
         0.36184E-09
         0.42757E-09
         0.91214E-09
         0.72204E-09
         0.77666E-09
         0.13405E-08
         0.71698E-09
         0.91604E-09
         0.50822E-09
         0.61022E-09
         0.10151E-08
         0.73855E-09
         0.29871E-09
         0.56872E-09
         0.62641E-09
         0.50337E-09
         0.64743E-09
         0.12075E-08
         0.94510E-09
         0.12020E-08
         0.70333E-09
         0.80411E-09
         0.75815E-09
         0.84063E-09
         0.64453E-09
         0.40027E-09
         0.75831E-09
         0.63272E-09
         0.65196E-09
         0.67077E-09
         0.58582E-09
         0.71511E-09
         0.91066E-09
         0.64192E-09
         0.10227E-08
         0.89245E-09
         0.40072E-09
         0.61707E-09
         0.70078E-09
         0.74098E-09
         0.71608E-09
         0.56265E-09
         0.35352E-09
         0.58340E-09
         0.77301E-09
         0.62345E-09
         0.54775E-09
         0.35880E-09
         0.61293E-09
         0.83283E-09
         0.87476E-09
         0.70641E-09
         0.43382E-09
         0.74935E-09
         0.27541E-09
         0.35136E-09
         0.32697E-09
         0.38784E-09
         0.37920E-09
         0.36818E-09
         0.39352E-09
         0.41685E-09
         0.39199E-09
         0.30498E-09
         0.24824E-09
         0.32011E-09
         0.42688E-09
         0.46953E-09
         0.45007E-09
         0.40533E-09
         0.36793E-09
         0.29878E-09
         0.25124E-09
         0.32855E-09
         0.43517E-09
         0.44963E-09
         0.36281E-09
         0.29452E-09
         0.36188E-09
         0.42756E-09
         0.91219E-09
         0.72188E-09
         0.77672E-09
         0.13412E-08
         0.71709E-09
         0.91632E-09
         0.50795E-09
         0.60986E-09
         0.10155E-08
         0.73806E-09
         0.29842E-09
         0.56862E-09
         0.62636E-09
         0.50266E-09
         0.64730E-09
         0.12079E-08
         0.94552E-09
         0.12026E-08
         0.70335E-09
         0.80421E-09
         0.75811E-09
         0.84066E-09
         0.64446E-09
         0.40023E-09
         0.75798E-09
         0.63267E-09
         0.65096E-09
         0.67010E-09
         0.58557E-09
         0.71494E-09
         0.91074E-09
         0.64184E-09
         0.10232E-08
         0.89325E-09
         0.40072E-09
         0.61695E-09
         0.70069E-09
         0.74092E-09
         0.71612E-09
         0.56268E-09
         0.35352E-09
         0.58332E-09
         0.77297E-09
         0.62336E-09
         0.54762E-09
         0.35871E-09
         0.61287E-09
         0.83284E-09
         0.87489E-09
         0.70655E-09
         0.43383E-09
         0.74972E-09
         0.27533E-09
         0.35136E-09
         0.32681E-09
         0.38785E-09
         0.37929E-09
         0.36825E-09
         0.39369E-09
         0.41715E-09
         0.39222E-09
         0.30505E-09
         0.24826E-09
         0.32011E-09
         0.42694E-09
         0.46963E-09
         0.45011E-09
         0.40532E-09
         0.36791E-09
         0.29876E-09
         0.25120E-09
         0.32853E-09
         0.43516E-09
         0.44962E-09
         0.36274E-09
         0.29445E-09
         0.36192E-09
         0.42755E-09
         0.91224E-09
         0.72173E-09
         0.77679E-09
         0.13418E-08
         0.71720E-09
         0.91660E-09
         0.50768E-09
         0.60949E-09
         0.10158E-08
         0.73758E-09
         0.29814E-09
         0.56852E-09
         0.62632E-09
         0.50195E-09
         0.64716E-09
         0.12082E-08
         0.94595E-09
         0.12032E-08
         0.70337E-09
         0.80431E-09
         0.75808E-09
         0.84069E-09
         0.64440E-09
         0.40018E-09
         0.75766E-09
         0.63262E-09
         0.64998E-09
         0.66943E-09
         0.58532E-09
         0.71478E-09
         0.91083E-09
         0.64176E-09
         0.10238E-08
         0.89406E-09
         0.40071E-09
         0.61683E-09
         0.70059E-09
         0.74087E-09
         0.71617E-09
         0.56270E-09
         0.35352E-09
         0.58324E-09
         0.77294E-09
         0.62327E-09
         0.54749E-09
         0.35861E-09
         0.61282E-09
         0.83284E-09
         0.87503E-09
         0.70669E-09
         0.43384E-09
         0.75009E-09
         0.27524E-09
         0.35135E-09
         0.32665E-09
         0.38786E-09
         0.37937E-09
         0.36833E-09
         0.39386E-09
         0.41745E-09
         0.39245E-09
         0.30512E-09
         0.24828E-09
         0.32012E-09
         0.42699E-09
         0.46974E-09
         0.45017E-09
         0.40531E-09
         0.36788E-09
         0.29873E-09
         0.25117E-09
         0.32850E-09
         0.43515E-09
         0.44962E-09
         0.36266E-09
         0.29439E-09
         0.36197E-09
         0.42754E-09
         0.91230E-09
         0.72159E-09
         0.77686E-09
         0.13425E-08
         0.71732E-09
         0.91688E-09
         0.50742E-09
         0.60913E-09
         0.10162E-08
         0.73710E-09
         0.29785E-09
         0.56842E-09
         0.62628E-09
         0.50125E-09
         0.64703E-09
         0.12086E-08
         0.94638E-09
         0.12038E-08
         0.70340E-09
         0.80441E-09
         0.75805E-09
         0.84073E-09
         0.64433E-09
         0.40014E-09
         0.75733E-09
         0.63257E-09
         0.64899E-09
         0.66877E-09
         0.58508E-09
         0.71462E-09
         0.91093E-09
         0.64169E-09
         0.10243E-08
         0.89487E-09
         0.40071E-09
         0.61671E-09
         0.70051E-09
         0.74082E-09
         0.71622E-09
         0.56273E-09
         0.35352E-09
         0.58316E-09
         0.77290E-09
         0.62318E-09
         0.54737E-09
         0.35852E-09
         0.61277E-09
         0.83286E-09
         0.87517E-09
         0.70684E-09
         0.43385E-09
         0.75047E-09
         0.27516E-09
         0.35135E-09
         0.32649E-09
         0.38788E-09
         0.37946E-09
         0.36841E-09
         0.39403E-09
         0.41775E-09
         0.39268E-09
         0.30519E-09
         0.24830E-09
         0.32013E-09
         0.42705E-09
         0.46985E-09
         0.45022E-09
         0.40530E-09
         0.36786E-09
         0.29871E-09
         0.25113E-09
         0.32848E-09
         0.43515E-09
         0.44962E-09
         0.36259E-09
         0.29433E-09
         0.36201E-09
         0.42753E-09
         0.91235E-09
         0.72143E-09
         0.77692E-09
         0.13431E-08
         0.71743E-09
         0.91716E-09
         0.50715E-09
         0.60877E-09
         0.10165E-08
         0.73661E-09
         0.29757E-09
         0.56832E-09
         0.62624E-09
         0.50054E-09
         0.64689E-09
         0.12089E-08
         0.94680E-09
         0.12044E-08
         0.70342E-09
         0.80450E-09
         0.75802E-09
         0.84076E-09
         0.64427E-09
         0.40010E-09
         0.75700E-09
         0.63251E-09
         0.64800E-09
         0.66810E-09
         0.58482E-09
         0.71445E-09
         0.91101E-09
         0.64161E-09
         0.10248E-08
         0.89567E-09
         0.40071E-09
         0.61659E-09
         0.70041E-09
         0.74077E-09
         0.71627E-09
         0.56276E-09
         0.35352E-09
         0.58308E-09
         0.77286E-09
         0.62309E-09
         0.54723E-09
         0.35843E-09
         0.61272E-09
         0.83287E-09
         0.87530E-09
         0.70698E-09
         0.43386E-09
         0.75084E-09
         0.27507E-09
         0.35134E-09
         0.32633E-09
         0.38789E-09
         0.37955E-09
         0.36849E-09
         0.39420E-09
         0.41804E-09
         0.39291E-09
         0.30525E-09
         0.24832E-09
         0.32014E-09
         0.42711E-09
         0.46995E-09
         0.45027E-09
         0.40528E-09
         0.36784E-09
         0.29869E-09
         0.25109E-09
         0.32845E-09
         0.43514E-09
         0.44962E-09
         0.36252E-09
         0.29426E-09
         0.36206E-09
         0.42751E-09
         0.91240E-09
         0.72128E-09
         0.77698E-09
         0.13437E-08
         0.71755E-09
         0.91744E-09
         0.50688E-09
         0.60841E-09
         0.10169E-08
         0.73612E-09
         0.29728E-09
         0.56822E-09
         0.62619E-09
         0.49984E-09
         0.64676E-09
         0.12093E-08
         0.94723E-09
         0.12050E-08
         0.70345E-09
         0.80460E-09
         0.75798E-09
         0.84080E-09
         0.64420E-09
         0.40006E-09
         0.75667E-09
         0.63246E-09
         0.64701E-09
         0.66744E-09
         0.58457E-09
         0.71429E-09
         0.91110E-09
         0.64153E-09
         0.10254E-08
         0.89648E-09
         0.40070E-09
         0.61647E-09
         0.70032E-09
         0.74071E-09
         0.71632E-09
         0.56279E-09
         0.35353E-09
         0.58300E-09
         0.77282E-09
         0.62300E-09
         0.54710E-09
         0.35834E-09
         0.61266E-09
         0.83288E-09
         0.87543E-09
         0.70713E-09
         0.43387E-09
         0.75122E-09
         0.27499E-09
         0.35133E-09
         0.32617E-09
         0.38790E-09
         0.37964E-09
         0.36857E-09
         0.39437E-09
         0.41834E-09
         0.39314E-09
         0.30532E-09
         0.24834E-09
         0.32014E-09
         0.42716E-09
         0.47005E-09
         0.45032E-09
         0.40527E-09
         0.36781E-09
         0.29866E-09
         0.25105E-09
         0.32843E-09
         0.43513E-09
         0.44962E-09
         0.36244E-09
         0.29419E-09
         0.36210E-09
         0.42750E-09
         0.91246E-09
         0.72114E-09
         0.77705E-09
         0.13444E-08
         0.71767E-09
         0.91773E-09
         0.50662E-09
         0.60805E-09
         0.10173E-08
         0.73564E-09
         0.29700E-09
         0.56812E-09
         0.62616E-09
         0.49914E-09
         0.64663E-09
         0.12097E-08
         0.94766E-09
         0.12056E-08
         0.70348E-09
         0.80471E-09
         0.75796E-09
         0.84084E-09
         0.64414E-09
         0.40002E-09
         0.75635E-09
         0.63241E-09
         0.64603E-09
         0.66678E-09
         0.58433E-09
         0.71413E-09
         0.91120E-09
         0.64146E-09
         0.10259E-08
         0.89729E-09
         0.40070E-09
         0.61636E-09
         0.70023E-09
         0.74067E-09
         0.71637E-09
         0.56282E-09
         0.35353E-09
         0.58293E-09
         0.77279E-09
         0.62291E-09
         0.54698E-09
         0.35825E-09
         0.61261E-09
         0.83289E-09
         0.87557E-09
         0.70728E-09
         0.43389E-09
         0.75160E-09
         0.27491E-09
         0.35133E-09
         0.32601E-09
         0.38792E-09
         0.37972E-09
         0.36865E-09
         0.39454E-09
         0.41864E-09
         0.39337E-09
         0.30539E-09
         0.24836E-09
         0.32015E-09
         0.42722E-09
         0.47016E-09
         0.45038E-09
         0.40526E-09
         0.36779E-09
         0.29864E-09
         0.25101E-09
         0.32841E-09
         0.43512E-09
         0.44962E-09
         0.36237E-09
         0.29413E-09
         0.36215E-09
         0.42750E-09
         0.91249E-09
         0.72097E-09
         0.77710E-09
         0.13450E-08
         0.71777E-09
         0.91799E-09
         0.50634E-09
         0.60767E-09
         0.10176E-08
         0.73514E-09
         0.29670E-09
         0.56801E-09
         0.62610E-09
         0.49842E-09
         0.64648E-09
         0.12100E-08
         0.94806E-09
         0.12062E-08
         0.70349E-09
         0.80479E-09
         0.75791E-09
         0.84086E-09
         0.64406E-09
         0.39997E-09
         0.75600E-09
         0.63234E-09
         0.64503E-09
         0.66610E-09
         0.58407E-09
         0.71395E-09
         0.91127E-09
         0.64136E-09
         0.10264E-08
         0.89808E-09
         0.40069E-09
         0.61622E-09
         0.70012E-09
         0.74060E-09
         0.71641E-09
         0.56283E-09
         0.35352E-09
         0.58283E-09
         0.77273E-09
         0.62281E-09
         0.54684E-09
         0.35815E-09
         0.61255E-09
         0.83288E-09
         0.87569E-09
         0.70741E-09
         0.43389E-09
         0.75195E-09
         0.27482E-09
         0.35132E-09
         0.32584E-09
         0.38793E-09
         0.37980E-09
         0.36872E-09
         0.39470E-09
         0.41893E-09
         0.39360E-09
         0.30545E-09
         0.24837E-09
         0.32016E-09
         0.42727E-09
         0.47026E-09
         0.45042E-09
         0.40524E-09
         0.36776E-09
         0.29861E-09
         0.25097E-09
         0.32838E-09
         0.43510E-09
         0.44961E-09
         0.36229E-09
         0.29406E-09
         0.36218E-09
         0.42748E-09
         0.91256E-09
         0.72083E-09
         0.77718E-09
         0.13457E-08
         0.71789E-09
         0.91829E-09
         0.50608E-09
         0.60732E-09
         0.10180E-08
         0.73467E-09
         0.29642E-09
         0.56792E-09
         0.62607E-09
         0.49772E-09
         0.64636E-09
         0.12103E-08
         0.94850E-09
         0.12068E-08
         0.70352E-09
         0.80490E-09
         0.75789E-09
         0.84091E-09
         0.64401E-09
         0.39993E-09
         0.75569E-09
         0.63230E-09
         0.64405E-09
         0.66544E-09
         0.58382E-09
         0.71379E-09
         0.91137E-09
         0.64129E-09
         0.10270E-08
         0.89890E-09
         0.40069E-09
         0.61611E-09
         0.70004E-09
         0.74056E-09
         0.71646E-09
         0.56287E-09
         0.35353E-09
         0.58276E-09
         0.77271E-09
         0.62273E-09
         0.54672E-09
         0.35806E-09
         0.61251E-09
         0.83291E-09
         0.87583E-09
         0.70756E-09
         0.43391E-09
         0.75234E-09
         0.27474E-09
         0.35132E-09
         0.32569E-09
         0.38794E-09
         0.37990E-09
         0.36881E-09
         0.39488E-09
         0.41923E-09
         0.39383E-09
         0.30553E-09
         0.24840E-09
         0.32017E-09
         0.42734E-09
         0.47037E-09
         0.45048E-09
         0.40524E-09
         0.36774E-09
         0.29859E-09
         0.25093E-09
         0.32836E-09
         0.43510E-09
         0.44962E-09
         0.36222E-09
         0.29400E-09
         0.36223E-09
         0.42747E-09
         0.45631E-09
         0.36039E-09
         0.38862E-09
         0.67302E-09
         0.35899E-09
         0.45923E-09
         0.25298E-09
         0.30358E-09
         0.50909E-09
         0.36723E-09
         0.14815E-09
         0.28394E-09
         0.31303E-09
         0.24869E-09
         0.32316E-09
         0.60528E-09
         0.47437E-09
         0.60357E-09
         0.35178E-09
         0.40249E-09
         0.37895E-09
         0.42048E-09
         0.32200E-09
         0.19996E-09
         0.37777E-09
         0.31615E-09
         0.32179E-09
         0.33257E-09
         0.29186E-09
         0.35687E-09
         0.45572E-09
         0.32064E-09
         0.51365E-09
         0.44967E-09
         0.20035E-09
         0.30804E-09
         0.35001E-09
         0.37028E-09
         0.35826E-09
         0.28145E-09
         0.17677E-09
         0.29137E-09
         0.38636E-09
         0.31135E-09
         0.27333E-09
         0.17901E-09
         0.30625E-09
         0.41647E-09
         0.43797E-09
         0.35383E-09
         0.21697E-09
         0.37628E-09
         0.13735E-09
         0.17566E-09
         0.16281E-09
         0.19398E-09
         0.18998E-09
         0.18443E-09
         0.19749E-09
         0.20970E-09
         0.19698E-09
         0.15279E-09
         0.12421E-09
         0.16009E-09
         0.21369E-09
         0.23522E-09
         0.22526E-09
         0.20262E-09
         0.18387E-09
         0.14930E-09
         0.12546E-09
         0.16418E-09
         0.21756E-09
         0.22482E-09
         0.18110E-09
         0.14699E-09
         0.18113E-09
         0.21374E-09
  
SCALARS               pre_disp_force_x  double 1
LOOKUP_TABLE default
         0.00000E+00
         0.00000E+00
         0.00000E+00
         0.00000E+00
         0.00000E+00
         0.00000E+00
         0.00000E+00
         0.00000E+00
         0.00000E+00
         0.00000E+00
         0.00000E+00
         0.00000E+00
         0.00000E+00
         0.00000E+00
         0.00000E+00
         0.00000E+00
         0.00000E+00
         0.00000E+00
         0.00000E+00
         0.00000E+00
         0.00000E+00
         0.00000E+00
         0.00000E+00
         0.00000E+00
         0.00000E+00
         0.00000E+00
         0.00000E+00
         0.00000E+00
         0.00000E+00
         0.00000E+00
         0.00000E+00
         0.00000E+00
         0.00000E+00
         0.00000E+00
         0.00000E+00
         0.00000E+00
         0.00000E+00
         0.00000E+00
         0.00000E+00
         0.00000E+00
         0.00000E+00
         0.00000E+00
         0.00000E+00
         0.00000E+00
         0.00000E+00
         0.00000E+00
         0.00000E+00
         0.00000E+00
         0.00000E+00
         0.00000E+00
         0.00000E+00
         0.00000E+00
         0.00000E+00
         0.00000E+00
         0.00000E+00
         0.00000E+00
         0.00000E+00
         0.00000E+00
         0.00000E+00
         0.00000E+00
         0.00000E+00
         0.00000E+00
         0.00000E+00
         0.00000E+00
         0.00000E+00
         0.00000E+00
         0.00000E+00
         0.00000E+00
         0.00000E+00
         0.00000E+00
         0.00000E+00
         0.00000E+00
         0.00000E+00
         0.00000E+00
         0.00000E+00
         0.00000E+00
         0.00000E+00
         0.00000E+00
         0.00000E+00
         0.00000E+00
         0.00000E+00
         0.00000E+00
         0.00000E+00
         0.00000E+00
         0.00000E+00
         0.00000E+00
         0.00000E+00
         0.00000E+00
         0.00000E+00
         0.00000E+00
         0.00000E+00
         0.00000E+00
         0.00000E+00
         0.00000E+00
         0.00000E+00
         0.00000E+00
         0.00000E+00
         0.00000E+00
         0.00000E+00
         0.00000E+00
         0.00000E+00
         0.00000E+00
         0.00000E+00
         0.00000E+00
         0.00000E+00
         0.00000E+00
         0.00000E+00
         0.00000E+00
         0.00000E+00
         0.00000E+00
         0.00000E+00
         0.00000E+00
         0.00000E+00
         0.00000E+00
         0.00000E+00
         0.00000E+00
         0.00000E+00
         0.00000E+00
         0.00000E+00
         0.00000E+00
         0.00000E+00
         0.00000E+00
         0.00000E+00
         0.00000E+00
         0.00000E+00
         0.00000E+00
         0.00000E+00
         0.00000E+00
         0.00000E+00
         0.00000E+00
         0.00000E+00
         0.00000E+00
         0.00000E+00
         0.00000E+00
         0.00000E+00
         0.00000E+00
         0.00000E+00
         0.00000E+00
         0.00000E+00
         0.00000E+00
         0.00000E+00
         0.00000E+00
         0.00000E+00
         0.00000E+00
         0.00000E+00
         0.00000E+00
         0.00000E+00
         0.00000E+00
         0.00000E+00
         0.00000E+00
         0.00000E+00
         0.00000E+00
         0.00000E+00
         0.00000E+00
         0.00000E+00
         0.00000E+00
         0.00000E+00
         0.00000E+00
         0.00000E+00
         0.00000E+00
         0.00000E+00
         0.00000E+00
         0.00000E+00
         0.00000E+00
         0.00000E+00
         0.00000E+00
         0.00000E+00
         0.00000E+00
         0.00000E+00
         0.00000E+00
         0.00000E+00
         0.00000E+00
         0.00000E+00
         0.00000E+00
         0.00000E+00
         0.00000E+00
         0.00000E+00
         0.00000E+00
         0.00000E+00
         0.00000E+00
         0.00000E+00
         0.00000E+00
         0.00000E+00
         0.00000E+00
         0.00000E+00
         0.00000E+00
         0.00000E+00
         0.00000E+00
         0.00000E+00
         0.00000E+00
         0.00000E+00
         0.00000E+00
         0.00000E+00
         0.00000E+00
         0.00000E+00
         0.00000E+00
         0.00000E+00
         0.00000E+00
         0.00000E+00
         0.00000E+00
         0.00000E+00
         0.00000E+00
         0.00000E+00
         0.00000E+00
         0.00000E+00
         0.00000E+00
         0.00000E+00
         0.00000E+00
         0.00000E+00
         0.00000E+00
         0.00000E+00
         0.00000E+00
         0.00000E+00
         0.00000E+00
         0.00000E+00
         0.00000E+00
         0.00000E+00
         0.00000E+00
         0.00000E+00
         0.00000E+00
         0.00000E+00
         0.00000E+00
         0.00000E+00
         0.00000E+00
         0.00000E+00
         0.00000E+00
         0.00000E+00
         0.00000E+00
         0.00000E+00
         0.00000E+00
         0.00000E+00
         0.00000E+00
         0.00000E+00
         0.00000E+00
         0.00000E+00
         0.00000E+00
         0.00000E+00
         0.00000E+00
         0.00000E+00
         0.00000E+00
         0.00000E+00
         0.00000E+00
         0.00000E+00
         0.00000E+00
         0.00000E+00
         0.00000E+00
         0.00000E+00
         0.00000E+00
         0.00000E+00
         0.00000E+00
         0.00000E+00
         0.00000E+00
         0.00000E+00
         0.00000E+00
         0.00000E+00
         0.00000E+00
         0.00000E+00
         0.00000E+00
         0.00000E+00
         0.00000E+00
         0.00000E+00
         0.00000E+00
         0.00000E+00
         0.00000E+00
         0.00000E+00
         0.00000E+00
         0.00000E+00
         0.00000E+00
         0.00000E+00
         0.00000E+00
         0.00000E+00
         0.00000E+00
         0.00000E+00
         0.00000E+00
         0.00000E+00
         0.00000E+00
         0.00000E+00
         0.00000E+00
         0.00000E+00
         0.00000E+00
         0.00000E+00
         0.00000E+00
         0.00000E+00
         0.00000E+00
         0.00000E+00
         0.00000E+00
         0.00000E+00
         0.00000E+00
         0.00000E+00
         0.00000E+00
         0.00000E+00
         0.00000E+00
         0.00000E+00
         0.00000E+00
         0.00000E+00
         0.00000E+00
         0.00000E+00
         0.00000E+00
         0.00000E+00
         0.00000E+00
         0.00000E+00
         0.00000E+00
         0.00000E+00
         0.00000E+00
         0.00000E+00
         0.00000E+00
         0.00000E+00
         0.00000E+00
         0.00000E+00
         0.00000E+00
         0.00000E+00
         0.00000E+00
         0.00000E+00
         0.00000E+00
         0.00000E+00
         0.00000E+00
         0.00000E+00
         0.00000E+00
         0.00000E+00
         0.00000E+00
         0.00000E+00
         0.00000E+00
         0.00000E+00
         0.00000E+00
         0.00000E+00
         0.00000E+00
         0.00000E+00
         0.00000E+00
         0.00000E+00
         0.00000E+00
         0.00000E+00
         0.00000E+00
         0.00000E+00
         0.00000E+00
         0.00000E+00
         0.00000E+00
         0.00000E+00
         0.00000E+00
         0.00000E+00
         0.00000E+00
         0.00000E+00
         0.00000E+00
         0.00000E+00
         0.00000E+00
         0.00000E+00
         0.00000E+00
         0.00000E+00
         0.00000E+00
         0.00000E+00
         0.00000E+00
         0.00000E+00
         0.00000E+00
         0.00000E+00
         0.00000E+00
         0.00000E+00
         0.00000E+00
         0.00000E+00
         0.00000E+00
         0.00000E+00
         0.00000E+00
         0.00000E+00
         0.00000E+00
         0.00000E+00
         0.00000E+00
         0.00000E+00
         0.00000E+00
         0.00000E+00
         0.00000E+00
         0.00000E+00
         0.00000E+00
         0.00000E+00
         0.00000E+00
         0.00000E+00
         0.00000E+00
         0.00000E+00
         0.00000E+00
         0.00000E+00
         0.00000E+00
         0.00000E+00
         0.00000E+00
         0.00000E+00
         0.00000E+00
         0.00000E+00
         0.00000E+00
         0.00000E+00
         0.00000E+00
         0.00000E+00
         0.00000E+00
         0.00000E+00
         0.00000E+00
         0.00000E+00
         0.00000E+00
         0.00000E+00
         0.00000E+00
         0.00000E+00
         0.00000E+00
         0.00000E+00
         0.00000E+00
         0.00000E+00
         0.00000E+00
         0.00000E+00
         0.00000E+00
         0.00000E+00
         0.00000E+00
         0.00000E+00
         0.00000E+00
         0.00000E+00
         0.00000E+00
         0.00000E+00
         0.00000E+00
         0.00000E+00
         0.00000E+00
         0.00000E+00
         0.00000E+00
         0.00000E+00
         0.00000E+00
         0.00000E+00
         0.00000E+00
         0.00000E+00
         0.00000E+00
         0.00000E+00
         0.00000E+00
         0.00000E+00
         0.00000E+00
         0.00000E+00
         0.00000E+00
         0.00000E+00
         0.00000E+00
         0.00000E+00
         0.00000E+00
         0.00000E+00
         0.00000E+00
         0.00000E+00
         0.00000E+00
         0.00000E+00
         0.00000E+00
         0.00000E+00
         0.00000E+00
         0.00000E+00
         0.00000E+00
         0.00000E+00
         0.00000E+00
         0.00000E+00
         0.00000E+00
         0.00000E+00
         0.00000E+00
         0.00000E+00
         0.00000E+00
         0.00000E+00
         0.00000E+00
         0.00000E+00
         0.00000E+00
         0.00000E+00
         0.00000E+00
         0.00000E+00
         0.00000E+00
         0.00000E+00
         0.00000E+00
         0.00000E+00
         0.00000E+00
         0.00000E+00
         0.00000E+00
         0.00000E+00
         0.00000E+00
         0.00000E+00
         0.00000E+00
         0.00000E+00
         0.00000E+00
         0.00000E+00
         0.00000E+00
         0.00000E+00
         0.00000E+00
         0.00000E+00
         0.00000E+00
         0.00000E+00
         0.00000E+00
         0.00000E+00
         0.00000E+00
         0.00000E+00
         0.00000E+00
         0.00000E+00
         0.00000E+00
         0.00000E+00
         0.00000E+00
         0.00000E+00
         0.00000E+00
         0.00000E+00
         0.00000E+00
         0.00000E+00
         0.00000E+00
         0.00000E+00
         0.00000E+00
         0.00000E+00
         0.00000E+00
         0.00000E+00
         0.00000E+00
         0.00000E+00
         0.00000E+00
         0.00000E+00
         0.00000E+00
         0.00000E+00
         0.00000E+00
         0.00000E+00
         0.00000E+00
         0.00000E+00
         0.00000E+00
         0.00000E+00
         0.00000E+00
         0.00000E+00
         0.00000E+00
         0.00000E+00
         0.00000E+00
         0.00000E+00
         0.00000E+00
         0.00000E+00
         0.00000E+00
         0.00000E+00
         0.00000E+00
         0.00000E+00
         0.00000E+00
         0.00000E+00
         0.00000E+00
         0.00000E+00
         0.00000E+00
         0.00000E+00
         0.00000E+00
         0.00000E+00
         0.00000E+00
         0.00000E+00
         0.00000E+00
         0.00000E+00
         0.00000E+00
         0.00000E+00
         0.00000E+00
         0.00000E+00
         0.00000E+00
         0.00000E+00
         0.00000E+00
         0.00000E+00
         0.00000E+00
         0.00000E+00
         0.00000E+00
         0.00000E+00
         0.00000E+00
         0.00000E+00
         0.00000E+00
         0.00000E+00
         0.00000E+00
         0.00000E+00
         0.00000E+00
         0.00000E+00
         0.00000E+00
         0.00000E+00
         0.00000E+00
         0.00000E+00
         0.00000E+00
         0.00000E+00
         0.00000E+00
         0.00000E+00
         0.00000E+00
         0.00000E+00
         0.00000E+00
         0.00000E+00
         0.00000E+00
         0.00000E+00
         0.00000E+00
         0.00000E+00
         0.00000E+00
         0.00000E+00
         0.00000E+00
         0.00000E+00
         0.00000E+00
         0.00000E+00
         0.00000E+00
         0.00000E+00
         0.00000E+00
         0.00000E+00
         0.00000E+00
         0.00000E+00
         0.00000E+00
         0.00000E+00
         0.00000E+00
         0.00000E+00
         0.00000E+00
         0.00000E+00
         0.00000E+00
         0.00000E+00
         0.00000E+00
         0.00000E+00
         0.00000E+00
         0.00000E+00
         0.00000E+00
         0.00000E+00
         0.00000E+00
         0.00000E+00
         0.00000E+00
         0.00000E+00
         0.00000E+00
         0.00000E+00
         0.00000E+00
         0.00000E+00
         0.00000E+00
         0.00000E+00
         0.00000E+00
         0.00000E+00
         0.00000E+00
         0.00000E+00
         0.00000E+00
         0.00000E+00
         0.00000E+00
         0.00000E+00
         0.00000E+00
         0.00000E+00
         0.00000E+00
         0.00000E+00
         0.00000E+00
         0.00000E+00
         0.00000E+00
         0.00000E+00
         0.00000E+00
         0.00000E+00
         0.00000E+00
         0.00000E+00
         0.00000E+00
         0.00000E+00
         0.00000E+00
         0.00000E+00
         0.00000E+00
         0.00000E+00
         0.00000E+00
         0.00000E+00
         0.00000E+00
         0.00000E+00
         0.00000E+00
         0.00000E+00
         0.00000E+00
         0.00000E+00
         0.00000E+00
         0.00000E+00
         0.00000E+00
         0.00000E+00
         0.00000E+00
         0.00000E+00
         0.00000E+00
         0.00000E+00
         0.00000E+00
         0.00000E+00
         0.00000E+00
         0.00000E+00
         0.00000E+00
         0.00000E+00
         0.00000E+00
         0.00000E+00
         0.00000E+00
         0.00000E+00
         0.00000E+00
         0.00000E+00
         0.00000E+00
         0.00000E+00
         0.00000E+00
         0.00000E+00
         0.00000E+00
         0.00000E+00
         0.00000E+00
         0.00000E+00
         0.00000E+00
         0.00000E+00
         0.00000E+00
         0.00000E+00
         0.00000E+00
         0.00000E+00
         0.00000E+00
         0.00000E+00
         0.00000E+00
         0.00000E+00
         0.00000E+00
         0.00000E+00
         0.00000E+00
         0.00000E+00
         0.00000E+00
         0.00000E+00
         0.00000E+00
         0.00000E+00
         0.00000E+00
         0.00000E+00
         0.00000E+00
         0.00000E+00
         0.00000E+00
         0.00000E+00
         0.00000E+00
         0.00000E+00
         0.00000E+00
         0.00000E+00
         0.00000E+00
         0.00000E+00
         0.00000E+00
         0.00000E+00
         0.00000E+00
         0.00000E+00
         0.00000E+00
         0.00000E+00
         0.00000E+00
         0.00000E+00
         0.00000E+00
         0.00000E+00
         0.00000E+00
         0.00000E+00
         0.00000E+00
         0.00000E+00
         0.00000E+00
         0.00000E+00
         0.00000E+00
         0.00000E+00
         0.00000E+00
         0.00000E+00
         0.00000E+00
         0.00000E+00
         0.00000E+00
         0.00000E+00
         0.00000E+00
         0.00000E+00
         0.00000E+00
         0.00000E+00
         0.00000E+00
         0.00000E+00
         0.00000E+00
         0.00000E+00
         0.00000E+00
         0.00000E+00
         0.00000E+00
         0.00000E+00
         0.00000E+00
         0.00000E+00
         0.00000E+00
         0.00000E+00
         0.00000E+00
         0.00000E+00
         0.00000E+00
         0.00000E+00
         0.00000E+00
         0.00000E+00
         0.00000E+00
         0.00000E+00
         0.00000E+00
         0.00000E+00
         0.00000E+00
         0.00000E+00
         0.00000E+00
         0.00000E+00
         0.00000E+00
         0.00000E+00
         0.00000E+00
         0.00000E+00
         0.00000E+00
         0.00000E+00
         0.00000E+00
         0.00000E+00
         0.00000E+00
         0.00000E+00
         0.00000E+00
         0.00000E+00
         0.00000E+00
         0.00000E+00
         0.00000E+00
         0.00000E+00
         0.00000E+00
         0.00000E+00
         0.00000E+00
         0.00000E+00
         0.00000E+00
         0.00000E+00
         0.00000E+00
         0.00000E+00
         0.00000E+00
         0.00000E+00
         0.00000E+00
         0.00000E+00
         0.00000E+00
         0.00000E+00
         0.00000E+00
         0.00000E+00
         0.00000E+00
         0.00000E+00
         0.00000E+00
         0.00000E+00
         0.00000E+00
         0.00000E+00
         0.00000E+00
         0.00000E+00
         0.00000E+00
         0.00000E+00
         0.00000E+00
         0.00000E+00
         0.00000E+00
         0.00000E+00
         0.00000E+00
         0.00000E+00
         0.00000E+00
         0.00000E+00
         0.00000E+00
         0.00000E+00
         0.00000E+00
         0.00000E+00
         0.00000E+00
         0.00000E+00
         0.00000E+00
         0.00000E+00
         0.00000E+00
         0.00000E+00
         0.00000E+00
         0.00000E+00
         0.00000E+00
         0.00000E+00
         0.00000E+00
         0.00000E+00
         0.00000E+00
         0.00000E+00
         0.00000E+00
         0.00000E+00
         0.00000E+00
         0.00000E+00
         0.00000E+00
         0.00000E+00
         0.00000E+00
         0.00000E+00
         0.00000E+00
         0.00000E+00
         0.00000E+00
         0.00000E+00
         0.00000E+00
         0.00000E+00
         0.00000E+00
         0.00000E+00
         0.00000E+00
         0.00000E+00
         0.00000E+00
         0.00000E+00
         0.00000E+00
         0.00000E+00
         0.00000E+00
         0.00000E+00
         0.00000E+00
         0.00000E+00
         0.00000E+00
         0.00000E+00
         0.00000E+00
         0.00000E+00
         0.00000E+00
         0.00000E+00
         0.00000E+00
         0.00000E+00
         0.00000E+00
         0.00000E+00
         0.00000E+00
         0.00000E+00
         0.00000E+00
         0.00000E+00
         0.00000E+00
         0.00000E+00
         0.00000E+00
         0.00000E+00
         0.00000E+00
         0.00000E+00
         0.00000E+00
         0.00000E+00
         0.00000E+00
         0.00000E+00
         0.00000E+00
         0.00000E+00
         0.00000E+00
         0.00000E+00
         0.00000E+00
         0.00000E+00
         0.00000E+00
         0.00000E+00
         0.00000E+00
         0.00000E+00
         0.00000E+00
         0.00000E+00
         0.00000E+00
         0.00000E+00
         0.00000E+00
         0.00000E+00
         0.00000E+00
         0.00000E+00
         0.00000E+00
         0.00000E+00
         0.00000E+00
         0.00000E+00
         0.00000E+00
         0.00000E+00
         0.00000E+00
         0.00000E+00
         0.00000E+00
         0.00000E+00
         0.00000E+00
         0.00000E+00
         0.00000E+00
         0.00000E+00
         0.00000E+00
         0.00000E+00
         0.00000E+00
         0.00000E+00
         0.00000E+00
         0.00000E+00
         0.00000E+00
         0.00000E+00
         0.00000E+00
         0.00000E+00
         0.00000E+00
         0.00000E+00
         0.00000E+00
         0.00000E+00
         0.00000E+00
         0.00000E+00
         0.00000E+00
         0.00000E+00
         0.00000E+00
         0.00000E+00
         0.00000E+00
         0.00000E+00
         0.00000E+00
         0.00000E+00
         0.00000E+00
         0.00000E+00
         0.00000E+00
         0.00000E+00
         0.00000E+00
         0.00000E+00
         0.00000E+00
         0.00000E+00
         0.00000E+00
         0.00000E+00
         0.00000E+00
         0.00000E+00
         0.00000E+00
         0.00000E+00
         0.00000E+00
         0.00000E+00
         0.00000E+00
         0.00000E+00
         0.00000E+00
         0.00000E+00
         0.00000E+00
         0.00000E+00
         0.00000E+00
         0.00000E+00
         0.00000E+00
         0.00000E+00
         0.00000E+00
         0.00000E+00
         0.00000E+00
         0.00000E+00
         0.00000E+00
         0.00000E+00
         0.00000E+00
         0.00000E+00
         0.00000E+00
         0.00000E+00
         0.00000E+00
         0.00000E+00
         0.00000E+00
         0.00000E+00
         0.00000E+00
         0.00000E+00
         0.00000E+00
         0.00000E+00
         0.00000E+00
         0.00000E+00
         0.00000E+00
         0.00000E+00
         0.00000E+00
         0.00000E+00
         0.00000E+00
         0.00000E+00
         0.00000E+00
         0.00000E+00
         0.00000E+00
         0.00000E+00
         0.00000E+00
         0.00000E+00
         0.00000E+00
         0.00000E+00
         0.00000E+00
         0.00000E+00
         0.00000E+00
         0.00000E+00
         0.00000E+00
         0.00000E+00
         0.00000E+00
         0.00000E+00
         0.00000E+00
         0.00000E+00
         0.00000E+00
         0.00000E+00
         0.00000E+00
         0.00000E+00
         0.00000E+00
         0.00000E+00
         0.00000E+00
         0.00000E+00
         0.00000E+00
         0.00000E+00
         0.00000E+00
         0.00000E+00
         0.00000E+00
         0.00000E+00
         0.00000E+00
         0.00000E+00
         0.00000E+00
         0.00000E+00
         0.00000E+00
         0.00000E+00
         0.00000E+00
         0.00000E+00
         0.00000E+00
         0.00000E+00
         0.00000E+00
         0.00000E+00
         0.00000E+00
         0.00000E+00
         0.00000E+00
         0.00000E+00
         0.00000E+00
         0.00000E+00
         0.00000E+00
         0.00000E+00
         0.00000E+00
         0.00000E+00
         0.00000E+00
         0.00000E+00
         0.00000E+00
         0.00000E+00
         0.00000E+00
         0.00000E+00
         0.00000E+00
         0.00000E+00
         0.00000E+00
         0.00000E+00
         0.00000E+00
         0.00000E+00
         0.00000E+00
         0.00000E+00
         0.00000E+00
         0.00000E+00
         0.00000E+00
         0.00000E+00
         0.00000E+00
         0.00000E+00
         0.00000E+00
         0.00000E+00
         0.00000E+00
         0.00000E+00
         0.00000E+00
         0.00000E+00
         0.00000E+00
         0.00000E+00
         0.00000E+00
         0.00000E+00
         0.00000E+00
         0.00000E+00
         0.00000E+00
         0.00000E+00
         0.00000E+00
         0.00000E+00
         0.00000E+00
         0.00000E+00
         0.00000E+00
         0.00000E+00
         0.00000E+00
         0.00000E+00
         0.00000E+00
         0.00000E+00
         0.00000E+00
         0.00000E+00
         0.00000E+00
         0.00000E+00
         0.00000E+00
         0.00000E+00
         0.00000E+00
         0.00000E+00
         0.00000E+00
         0.00000E+00
         0.00000E+00
         0.00000E+00
         0.00000E+00
         0.00000E+00
         0.00000E+00
         0.00000E+00
         0.00000E+00
         0.00000E+00
         0.00000E+00
         0.00000E+00
         0.00000E+00
         0.00000E+00
         0.00000E+00
         0.00000E+00
         0.00000E+00
         0.00000E+00
         0.00000E+00
         0.00000E+00
         0.00000E+00
         0.00000E+00
         0.00000E+00
         0.00000E+00
         0.00000E+00
         0.00000E+00
         0.00000E+00
         0.00000E+00
         0.00000E+00
         0.00000E+00
         0.00000E+00
         0.00000E+00
         0.00000E+00
         0.00000E+00
         0.00000E+00
         0.00000E+00
         0.00000E+00
         0.00000E+00
         0.00000E+00
         0.00000E+00
         0.00000E+00
         0.00000E+00
         0.00000E+00
         0.00000E+00
         0.00000E+00
         0.00000E+00
         0.00000E+00
         0.00000E+00
         0.00000E+00
         0.00000E+00
         0.00000E+00
         0.00000E+00
         0.00000E+00
         0.00000E+00
         0.00000E+00
         0.00000E+00
         0.00000E+00
         0.00000E+00
         0.00000E+00
         0.00000E+00
         0.00000E+00
         0.00000E+00
         0.00000E+00
         0.00000E+00
         0.00000E+00
         0.00000E+00
         0.00000E+00
         0.00000E+00
         0.00000E+00
         0.00000E+00
         0.00000E+00
         0.00000E+00
         0.00000E+00
         0.00000E+00
         0.00000E+00
         0.00000E+00
         0.00000E+00
         0.00000E+00
         0.00000E+00
         0.00000E+00
         0.00000E+00
         0.00000E+00
         0.00000E+00
         0.00000E+00
         0.00000E+00
         0.00000E+00
         0.00000E+00
         0.00000E+00
         0.00000E+00
         0.00000E+00
         0.00000E+00
         0.00000E+00
         0.00000E+00
         0.00000E+00
         0.00000E+00
         0.00000E+00
         0.00000E+00
         0.00000E+00
         0.00000E+00
         0.00000E+00
         0.00000E+00
         0.00000E+00
         0.00000E+00
         0.00000E+00
         0.00000E+00
         0.00000E+00
         0.00000E+00
         0.00000E+00
         0.00000E+00
         0.00000E+00
         0.00000E+00
         0.00000E+00
         0.00000E+00
         0.00000E+00
         0.00000E+00
         0.00000E+00
         0.00000E+00
         0.00000E+00
         0.00000E+00
         0.00000E+00
         0.00000E+00
         0.00000E+00
         0.00000E+00
         0.00000E+00
         0.00000E+00
         0.00000E+00
         0.00000E+00
         0.00000E+00
         0.00000E+00
         0.00000E+00
         0.00000E+00
         0.00000E+00
         0.00000E+00
         0.00000E+00
         0.00000E+00
         0.00000E+00
         0.00000E+00
         0.00000E+00
         0.00000E+00
         0.00000E+00
         0.00000E+00
         0.00000E+00
         0.00000E+00
         0.00000E+00
         0.00000E+00
         0.00000E+00
         0.00000E+00
         0.00000E+00
         0.00000E+00
         0.00000E+00
         0.00000E+00
         0.00000E+00
         0.00000E+00
         0.00000E+00
         0.00000E+00
         0.00000E+00
         0.00000E+00
         0.00000E+00
         0.00000E+00
         0.00000E+00
         0.00000E+00
         0.00000E+00
         0.00000E+00
         0.00000E+00
         0.00000E+00
         0.00000E+00
         0.00000E+00
         0.00000E+00
         0.00000E+00
         0.00000E+00
         0.00000E+00
         0.00000E+00
         0.00000E+00
         0.00000E+00
         0.00000E+00
         0.00000E+00
         0.00000E+00
         0.00000E+00
         0.00000E+00
         0.00000E+00
         0.00000E+00
         0.00000E+00
         0.00000E+00
         0.00000E+00
         0.00000E+00
         0.00000E+00
         0.00000E+00
         0.00000E+00
         0.00000E+00
         0.00000E+00
         0.00000E+00
         0.00000E+00
         0.00000E+00
         0.00000E+00
         0.00000E+00
         0.00000E+00
         0.00000E+00
         0.00000E+00
         0.00000E+00
         0.00000E+00
         0.00000E+00
         0.00000E+00
         0.00000E+00
         0.00000E+00
         0.00000E+00
         0.00000E+00
         0.00000E+00
         0.00000E+00
         0.00000E+00
         0.00000E+00
         0.00000E+00
         0.00000E+00
         0.00000E+00
         0.00000E+00
         0.00000E+00
         0.00000E+00
         0.00000E+00
         0.00000E+00
         0.00000E+00
         0.00000E+00
         0.00000E+00
         0.00000E+00
         0.00000E+00
         0.00000E+00
         0.00000E+00
         0.00000E+00
         0.00000E+00
         0.00000E+00
         0.00000E+00
         0.00000E+00
         0.00000E+00
         0.00000E+00
         0.00000E+00
         0.00000E+00
         0.00000E+00
         0.00000E+00
         0.00000E+00
         0.00000E+00
         0.00000E+00
         0.00000E+00
         0.00000E+00
         0.00000E+00
         0.00000E+00
         0.00000E+00
         0.00000E+00
         0.00000E+00
         0.00000E+00
         0.00000E+00
         0.00000E+00
         0.00000E+00
         0.00000E+00
         0.00000E+00
         0.00000E+00
         0.00000E+00
         0.00000E+00
         0.00000E+00
         0.00000E+00
         0.00000E+00
         0.00000E+00
         0.00000E+00
         0.00000E+00
         0.00000E+00
         0.00000E+00
         0.00000E+00
         0.00000E+00
         0.00000E+00
         0.00000E+00
         0.00000E+00
         0.00000E+00
         0.00000E+00
         0.00000E+00
         0.00000E+00
         0.00000E+00
         0.00000E+00
         0.00000E+00
         0.00000E+00
         0.00000E+00
         0.00000E+00
         0.00000E+00
         0.00000E+00
         0.00000E+00
         0.00000E+00
         0.00000E+00
         0.00000E+00
         0.00000E+00
         0.00000E+00
         0.00000E+00
         0.00000E+00
         0.00000E+00
         0.00000E+00
         0.00000E+00
         0.00000E+00
         0.00000E+00
         0.00000E+00
         0.00000E+00
         0.00000E+00
         0.00000E+00
         0.00000E+00
         0.00000E+00
         0.00000E+00
         0.00000E+00
         0.00000E+00
         0.00000E+00
         0.00000E+00
         0.00000E+00
         0.00000E+00
         0.00000E+00
         0.00000E+00
         0.00000E+00
         0.00000E+00
         0.00000E+00
         0.00000E+00
         0.00000E+00
         0.00000E+00
         0.00000E+00
         0.00000E+00
         0.00000E+00
         0.00000E+00
         0.00000E+00
         0.00000E+00
         0.00000E+00
         0.00000E+00
         0.00000E+00
         0.00000E+00
         0.00000E+00
         0.00000E+00
         0.00000E+00
         0.00000E+00
         0.00000E+00
         0.00000E+00
         0.00000E+00
         0.00000E+00
         0.00000E+00
         0.00000E+00
         0.00000E+00
         0.00000E+00
         0.00000E+00
         0.00000E+00
         0.00000E+00
         0.00000E+00
         0.00000E+00
         0.00000E+00
         0.00000E+00
         0.00000E+00
         0.00000E+00
         0.00000E+00
         0.00000E+00
         0.00000E+00
         0.00000E+00
         0.00000E+00
         0.00000E+00
         0.00000E+00
         0.00000E+00
         0.00000E+00
         0.00000E+00
         0.00000E+00
         0.00000E+00
         0.00000E+00
         0.00000E+00
         0.00000E+00
         0.00000E+00
         0.00000E+00
         0.00000E+00
         0.00000E+00
         0.00000E+00
         0.00000E+00
         0.00000E+00
         0.00000E+00
         0.00000E+00
         0.00000E+00
         0.00000E+00
         0.00000E+00
         0.00000E+00
         0.00000E+00
         0.00000E+00
         0.00000E+00
         0.00000E+00
         0.00000E+00
         0.00000E+00
         0.00000E+00
         0.00000E+00
         0.00000E+00
         0.00000E+00
         0.00000E+00
         0.00000E+00
         0.00000E+00
         0.00000E+00
         0.00000E+00
         0.00000E+00
         0.00000E+00
         0.00000E+00
         0.00000E+00
         0.00000E+00
         0.00000E+00
         0.00000E+00
         0.00000E+00
         0.00000E+00
         0.00000E+00
         0.00000E+00
         0.00000E+00
         0.00000E+00
         0.00000E+00
         0.00000E+00
         0.00000E+00
         0.00000E+00
         0.00000E+00
         0.00000E+00
         0.00000E+00
         0.00000E+00
         0.00000E+00
         0.00000E+00
         0.00000E+00
         0.00000E+00
         0.00000E+00
         0.00000E+00
         0.00000E+00
         0.00000E+00
         0.00000E+00
         0.00000E+00
         0.00000E+00
         0.00000E+00
         0.00000E+00
         0.00000E+00
         0.00000E+00
         0.00000E+00
         0.00000E+00
         0.00000E+00
         0.00000E+00
         0.00000E+00
         0.00000E+00
         0.00000E+00
         0.00000E+00
         0.00000E+00
         0.00000E+00
         0.00000E+00
         0.00000E+00
         0.00000E+00
         0.00000E+00
         0.00000E+00
         0.00000E+00
         0.00000E+00
         0.00000E+00
         0.00000E+00
         0.00000E+00
         0.00000E+00
         0.00000E+00
         0.00000E+00
         0.00000E+00
         0.00000E+00
         0.00000E+00
         0.00000E+00
         0.00000E+00
         0.00000E+00
         0.00000E+00
         0.00000E+00
         0.00000E+00
         0.00000E+00
         0.00000E+00
         0.00000E+00
         0.00000E+00
         0.00000E+00
         0.00000E+00
         0.00000E+00
         0.00000E+00
         0.00000E+00
         0.00000E+00
         0.00000E+00
         0.00000E+00
         0.00000E+00
         0.00000E+00
         0.00000E+00
         0.00000E+00
         0.00000E+00
         0.00000E+00
         0.00000E+00
         0.00000E+00
         0.00000E+00
         0.00000E+00
         0.00000E+00
         0.00000E+00
         0.00000E+00
         0.00000E+00
         0.00000E+00
         0.00000E+00
         0.00000E+00
         0.00000E+00
         0.00000E+00
         0.00000E+00
         0.00000E+00
         0.00000E+00
         0.00000E+00
         0.00000E+00
         0.00000E+00
         0.00000E+00
         0.00000E+00
         0.00000E+00
         0.00000E+00
         0.00000E+00
         0.00000E+00
         0.00000E+00
         0.00000E+00
         0.00000E+00
         0.00000E+00
         0.00000E+00
         0.00000E+00
         0.00000E+00
         0.00000E+00
         0.00000E+00
         0.00000E+00
         0.00000E+00
         0.00000E+00
         0.00000E+00
         0.00000E+00
         0.00000E+00
         0.00000E+00
         0.00000E+00
         0.00000E+00
         0.00000E+00
         0.00000E+00
         0.00000E+00
         0.00000E+00
         0.00000E+00
         0.00000E+00
         0.00000E+00
         0.00000E+00
         0.00000E+00
         0.00000E+00
         0.00000E+00
         0.00000E+00
         0.00000E+00
         0.00000E+00
         0.00000E+00
         0.00000E+00
         0.00000E+00
         0.00000E+00
         0.00000E+00
         0.00000E+00
         0.00000E+00
         0.00000E+00
         0.00000E+00
         0.00000E+00
         0.00000E+00
         0.00000E+00
         0.00000E+00
         0.00000E+00
         0.00000E+00
         0.00000E+00
         0.00000E+00
         0.00000E+00
         0.00000E+00
         0.00000E+00
         0.00000E+00
         0.00000E+00
         0.00000E+00
         0.00000E+00
         0.00000E+00
         0.00000E+00
         0.00000E+00
         0.00000E+00
         0.00000E+00
         0.00000E+00
         0.00000E+00
         0.00000E+00
         0.00000E+00
         0.00000E+00
         0.00000E+00
         0.00000E+00
         0.00000E+00
         0.00000E+00
         0.00000E+00
         0.00000E+00
         0.00000E+00
         0.00000E+00
         0.00000E+00
         0.00000E+00
         0.00000E+00
         0.00000E+00
         0.00000E+00
         0.00000E+00
         0.00000E+00
         0.00000E+00
         0.00000E+00
         0.00000E+00
         0.00000E+00
         0.00000E+00
         0.00000E+00
         0.00000E+00
         0.00000E+00
         0.00000E+00
         0.00000E+00
         0.00000E+00
         0.00000E+00
         0.00000E+00
         0.00000E+00
         0.00000E+00
         0.00000E+00
         0.00000E+00
         0.00000E+00
         0.00000E+00
         0.00000E+00
         0.00000E+00
         0.00000E+00
         0.00000E+00
         0.00000E+00
         0.00000E+00
         0.00000E+00
         0.00000E+00
         0.00000E+00
         0.00000E+00
         0.00000E+00
         0.00000E+00
         0.00000E+00
         0.00000E+00
         0.00000E+00
         0.00000E+00
         0.00000E+00
         0.00000E+00
         0.00000E+00
         0.00000E+00
         0.00000E+00
         0.00000E+00
         0.00000E+00
         0.00000E+00
         0.00000E+00
         0.00000E+00
         0.00000E+00
         0.00000E+00
         0.00000E+00
         0.00000E+00
         0.00000E+00
         0.00000E+00
         0.00000E+00
         0.00000E+00
         0.00000E+00
         0.00000E+00
         0.00000E+00
         0.00000E+00
         0.00000E+00
         0.00000E+00
         0.00000E+00
         0.00000E+00
         0.00000E+00
         0.00000E+00
         0.00000E+00
         0.00000E+00
         0.00000E+00
         0.00000E+00
         0.00000E+00
         0.00000E+00
         0.00000E+00
         0.00000E+00
         0.00000E+00
         0.00000E+00
         0.00000E+00
         0.00000E+00
         0.00000E+00
         0.00000E+00
         0.00000E+00
         0.00000E+00
         0.00000E+00
         0.00000E+00
         0.00000E+00
         0.00000E+00
         0.00000E+00
         0.00000E+00
         0.00000E+00
         0.00000E+00
         0.00000E+00
         0.00000E+00
         0.00000E+00
         0.00000E+00
         0.00000E+00
         0.00000E+00
         0.00000E+00
         0.00000E+00
         0.00000E+00
         0.00000E+00
         0.00000E+00
         0.00000E+00
         0.00000E+00
         0.00000E+00
         0.00000E+00
         0.00000E+00
         0.00000E+00
         0.00000E+00
         0.00000E+00
         0.00000E+00
         0.00000E+00
         0.00000E+00
         0.00000E+00
         0.00000E+00
         0.00000E+00
         0.00000E+00
         0.00000E+00
         0.00000E+00
         0.00000E+00
         0.00000E+00
         0.00000E+00
         0.00000E+00
         0.00000E+00
         0.00000E+00
         0.00000E+00
         0.00000E+00
         0.00000E+00
         0.00000E+00
         0.00000E+00
         0.00000E+00
         0.00000E+00
         0.00000E+00
         0.00000E+00
         0.00000E+00
         0.00000E+00
         0.00000E+00
         0.00000E+00
         0.00000E+00
         0.00000E+00
         0.00000E+00
         0.00000E+00
         0.00000E+00
         0.00000E+00
         0.00000E+00
         0.00000E+00
         0.00000E+00
         0.00000E+00
         0.00000E+00
         0.00000E+00
         0.00000E+00
         0.00000E+00
         0.00000E+00
         0.00000E+00
         0.00000E+00
         0.00000E+00
         0.00000E+00
         0.00000E+00
         0.00000E+00
         0.00000E+00
         0.00000E+00
         0.00000E+00
         0.00000E+00
         0.00000E+00
         0.00000E+00
         0.00000E+00
         0.00000E+00
         0.00000E+00
         0.00000E+00
         0.00000E+00
         0.00000E+00
         0.00000E+00
         0.00000E+00
         0.00000E+00
         0.00000E+00
         0.00000E+00
         0.00000E+00
         0.00000E+00
         0.00000E+00
         0.00000E+00
         0.00000E+00
         0.00000E+00
         0.00000E+00
         0.00000E+00
         0.00000E+00
         0.00000E+00
         0.00000E+00
         0.00000E+00
         0.00000E+00
         0.00000E+00
         0.00000E+00
         0.00000E+00
         0.00000E+00
         0.00000E+00
         0.00000E+00
         0.00000E+00
         0.00000E+00
         0.00000E+00
         0.00000E+00
         0.00000E+00
         0.00000E+00
         0.00000E+00
         0.00000E+00
         0.00000E+00
         0.00000E+00
         0.00000E+00
         0.00000E+00
         0.00000E+00
         0.00000E+00
         0.00000E+00
         0.00000E+00
         0.00000E+00
         0.00000E+00
         0.00000E+00
         0.00000E+00
         0.00000E+00
         0.00000E+00
         0.00000E+00
         0.00000E+00
         0.00000E+00
         0.00000E+00
         0.00000E+00
         0.00000E+00
         0.00000E+00
         0.00000E+00
         0.00000E+00
         0.00000E+00
         0.00000E+00
         0.00000E+00
         0.00000E+00
         0.00000E+00
         0.00000E+00
         0.00000E+00
         0.00000E+00
         0.00000E+00
         0.00000E+00
         0.00000E+00
         0.00000E+00
         0.00000E+00
         0.00000E+00
         0.00000E+00
         0.00000E+00
         0.00000E+00
         0.00000E+00
         0.00000E+00
         0.00000E+00
         0.00000E+00
         0.00000E+00
         0.00000E+00
         0.00000E+00
         0.00000E+00
         0.00000E+00
         0.00000E+00
         0.00000E+00
         0.00000E+00
         0.00000E+00
         0.00000E+00
         0.00000E+00
         0.00000E+00
         0.00000E+00
         0.00000E+00
         0.00000E+00
         0.00000E+00
         0.00000E+00
         0.00000E+00
         0.00000E+00
         0.00000E+00
         0.00000E+00
         0.00000E+00
         0.00000E+00
         0.00000E+00
         0.00000E+00
         0.00000E+00
         0.00000E+00
         0.00000E+00
         0.00000E+00
         0.00000E+00
         0.00000E+00
         0.00000E+00
         0.00000E+00
         0.00000E+00
         0.00000E+00
         0.00000E+00
         0.00000E+00
         0.00000E+00
         0.00000E+00
         0.00000E+00
         0.00000E+00
         0.00000E+00
         0.00000E+00
         0.00000E+00
         0.00000E+00
         0.00000E+00
  
SCALARS               pre_disp_force_y  double 1
LOOKUP_TABLE default
         0.00000E+00
         0.00000E+00
         0.00000E+00
         0.00000E+00
         0.00000E+00
         0.00000E+00
         0.00000E+00
         0.00000E+00
         0.00000E+00
         0.00000E+00
         0.00000E+00
         0.00000E+00
         0.00000E+00
         0.00000E+00
         0.00000E+00
         0.00000E+00
         0.00000E+00
         0.00000E+00
         0.00000E+00
         0.00000E+00
         0.00000E+00
         0.00000E+00
         0.00000E+00
         0.00000E+00
         0.00000E+00
         0.00000E+00
         0.00000E+00
         0.00000E+00
         0.00000E+00
         0.00000E+00
         0.00000E+00
         0.00000E+00
         0.00000E+00
         0.00000E+00
         0.00000E+00
         0.00000E+00
         0.00000E+00
         0.00000E+00
         0.00000E+00
         0.00000E+00
         0.00000E+00
         0.00000E+00
         0.00000E+00
         0.00000E+00
         0.00000E+00
         0.00000E+00
         0.00000E+00
         0.00000E+00
         0.00000E+00
         0.00000E+00
         0.00000E+00
         0.00000E+00
         0.00000E+00
         0.00000E+00
         0.00000E+00
         0.00000E+00
         0.00000E+00
         0.00000E+00
         0.00000E+00
         0.00000E+00
         0.00000E+00
         0.00000E+00
         0.00000E+00
         0.00000E+00
         0.00000E+00
         0.00000E+00
         0.00000E+00
         0.00000E+00
         0.00000E+00
         0.00000E+00
         0.00000E+00
         0.00000E+00
         0.00000E+00
         0.00000E+00
         0.00000E+00
         0.00000E+00
         0.00000E+00
         0.00000E+00
         0.00000E+00
         0.00000E+00
         0.00000E+00
         0.00000E+00
         0.00000E+00
         0.00000E+00
         0.00000E+00
         0.00000E+00
         0.00000E+00
         0.00000E+00
         0.00000E+00
         0.00000E+00
         0.00000E+00
         0.00000E+00
         0.00000E+00
         0.00000E+00
         0.00000E+00
         0.00000E+00
         0.00000E+00
         0.00000E+00
         0.00000E+00
         0.00000E+00
         0.00000E+00
         0.00000E+00
         0.00000E+00
         0.00000E+00
         0.00000E+00
         0.00000E+00
         0.00000E+00
         0.00000E+00
         0.00000E+00
         0.00000E+00
         0.00000E+00
         0.00000E+00
         0.00000E+00
         0.00000E+00
         0.00000E+00
         0.00000E+00
         0.00000E+00
         0.00000E+00
         0.00000E+00
         0.00000E+00
         0.00000E+00
         0.00000E+00
         0.00000E+00
         0.00000E+00
         0.00000E+00
         0.00000E+00
         0.00000E+00
         0.00000E+00
         0.00000E+00
         0.00000E+00
         0.00000E+00
         0.00000E+00
         0.00000E+00
         0.00000E+00
         0.00000E+00
         0.00000E+00
         0.00000E+00
         0.00000E+00
         0.00000E+00
         0.00000E+00
         0.00000E+00
         0.00000E+00
         0.00000E+00
         0.00000E+00
         0.00000E+00
         0.00000E+00
         0.00000E+00
         0.00000E+00
         0.00000E+00
         0.00000E+00
         0.00000E+00
         0.00000E+00
         0.00000E+00
         0.00000E+00
         0.00000E+00
         0.00000E+00
         0.00000E+00
         0.00000E+00
         0.00000E+00
         0.00000E+00
         0.00000E+00
         0.00000E+00
         0.00000E+00
         0.00000E+00
         0.00000E+00
         0.00000E+00
         0.00000E+00
         0.00000E+00
         0.00000E+00
         0.00000E+00
         0.00000E+00
         0.00000E+00
         0.00000E+00
         0.00000E+00
         0.00000E+00
         0.00000E+00
         0.00000E+00
         0.00000E+00
         0.00000E+00
         0.00000E+00
         0.00000E+00
         0.00000E+00
         0.00000E+00
         0.00000E+00
         0.00000E+00
         0.00000E+00
         0.00000E+00
         0.00000E+00
         0.00000E+00
         0.00000E+00
         0.00000E+00
         0.00000E+00
         0.00000E+00
         0.00000E+00
         0.00000E+00
         0.00000E+00
         0.00000E+00
         0.00000E+00
         0.00000E+00
         0.00000E+00
         0.00000E+00
         0.00000E+00
         0.00000E+00
         0.00000E+00
         0.00000E+00
         0.00000E+00
         0.00000E+00
         0.00000E+00
         0.00000E+00
         0.00000E+00
         0.00000E+00
         0.00000E+00
         0.00000E+00
         0.00000E+00
         0.00000E+00
         0.00000E+00
         0.00000E+00
         0.00000E+00
         0.00000E+00
         0.00000E+00
         0.00000E+00
         0.00000E+00
         0.00000E+00
         0.00000E+00
         0.00000E+00
         0.00000E+00
         0.00000E+00
         0.00000E+00
         0.00000E+00
         0.00000E+00
         0.00000E+00
         0.00000E+00
         0.00000E+00
         0.00000E+00
         0.00000E+00
         0.00000E+00
         0.00000E+00
         0.00000E+00
         0.00000E+00
         0.00000E+00
         0.00000E+00
         0.00000E+00
         0.00000E+00
         0.00000E+00
         0.00000E+00
         0.00000E+00
         0.00000E+00
         0.00000E+00
         0.00000E+00
         0.00000E+00
         0.00000E+00
         0.00000E+00
         0.00000E+00
         0.00000E+00
         0.00000E+00
         0.00000E+00
         0.00000E+00
         0.00000E+00
         0.00000E+00
         0.00000E+00
         0.00000E+00
         0.00000E+00
         0.00000E+00
         0.00000E+00
         0.00000E+00
         0.00000E+00
         0.00000E+00
         0.00000E+00
         0.00000E+00
         0.00000E+00
         0.00000E+00
         0.00000E+00
         0.00000E+00
         0.00000E+00
         0.00000E+00
         0.00000E+00
         0.00000E+00
         0.00000E+00
         0.00000E+00
         0.00000E+00
         0.00000E+00
         0.00000E+00
         0.00000E+00
         0.00000E+00
         0.00000E+00
         0.00000E+00
         0.00000E+00
         0.00000E+00
         0.00000E+00
         0.00000E+00
         0.00000E+00
         0.00000E+00
         0.00000E+00
         0.00000E+00
         0.00000E+00
         0.00000E+00
         0.00000E+00
         0.00000E+00
         0.00000E+00
         0.00000E+00
         0.00000E+00
         0.00000E+00
         0.00000E+00
         0.00000E+00
         0.00000E+00
         0.00000E+00
         0.00000E+00
         0.00000E+00
         0.00000E+00
         0.00000E+00
         0.00000E+00
         0.00000E+00
         0.00000E+00
         0.00000E+00
         0.00000E+00
         0.00000E+00
         0.00000E+00
         0.00000E+00
         0.00000E+00
         0.00000E+00
         0.00000E+00
         0.00000E+00
         0.00000E+00
         0.00000E+00
         0.00000E+00
         0.00000E+00
         0.00000E+00
         0.00000E+00
         0.00000E+00
         0.00000E+00
         0.00000E+00
         0.00000E+00
         0.00000E+00
         0.00000E+00
         0.00000E+00
         0.00000E+00
         0.00000E+00
         0.00000E+00
         0.00000E+00
         0.00000E+00
         0.00000E+00
         0.00000E+00
         0.00000E+00
         0.00000E+00
         0.00000E+00
         0.00000E+00
         0.00000E+00
         0.00000E+00
         0.00000E+00
         0.00000E+00
         0.00000E+00
         0.00000E+00
         0.00000E+00
         0.00000E+00
         0.00000E+00
         0.00000E+00
         0.00000E+00
         0.00000E+00
         0.00000E+00
         0.00000E+00
         0.00000E+00
         0.00000E+00
         0.00000E+00
         0.00000E+00
         0.00000E+00
         0.00000E+00
         0.00000E+00
         0.00000E+00
         0.00000E+00
         0.00000E+00
         0.00000E+00
         0.00000E+00
         0.00000E+00
         0.00000E+00
         0.00000E+00
         0.00000E+00
         0.00000E+00
         0.00000E+00
         0.00000E+00
         0.00000E+00
         0.00000E+00
         0.00000E+00
         0.00000E+00
         0.00000E+00
         0.00000E+00
         0.00000E+00
         0.00000E+00
         0.00000E+00
         0.00000E+00
         0.00000E+00
         0.00000E+00
         0.00000E+00
         0.00000E+00
         0.00000E+00
         0.00000E+00
         0.00000E+00
         0.00000E+00
         0.00000E+00
         0.00000E+00
         0.00000E+00
         0.00000E+00
         0.00000E+00
         0.00000E+00
         0.00000E+00
         0.00000E+00
         0.00000E+00
         0.00000E+00
         0.00000E+00
         0.00000E+00
         0.00000E+00
         0.00000E+00
         0.00000E+00
         0.00000E+00
         0.00000E+00
         0.00000E+00
         0.00000E+00
         0.00000E+00
         0.00000E+00
         0.00000E+00
         0.00000E+00
         0.00000E+00
         0.00000E+00
         0.00000E+00
         0.00000E+00
         0.00000E+00
         0.00000E+00
         0.00000E+00
         0.00000E+00
         0.00000E+00
         0.00000E+00
         0.00000E+00
         0.00000E+00
         0.00000E+00
         0.00000E+00
         0.00000E+00
         0.00000E+00
         0.00000E+00
         0.00000E+00
         0.00000E+00
         0.00000E+00
         0.00000E+00
         0.00000E+00
         0.00000E+00
         0.00000E+00
         0.00000E+00
         0.00000E+00
         0.00000E+00
         0.00000E+00
         0.00000E+00
         0.00000E+00
         0.00000E+00
         0.00000E+00
         0.00000E+00
         0.00000E+00
         0.00000E+00
         0.00000E+00
         0.00000E+00
         0.00000E+00
         0.00000E+00
         0.00000E+00
         0.00000E+00
         0.00000E+00
         0.00000E+00
         0.00000E+00
         0.00000E+00
         0.00000E+00
         0.00000E+00
         0.00000E+00
         0.00000E+00
         0.00000E+00
         0.00000E+00
         0.00000E+00
         0.00000E+00
         0.00000E+00
         0.00000E+00
         0.00000E+00
         0.00000E+00
         0.00000E+00
         0.00000E+00
         0.00000E+00
         0.00000E+00
         0.00000E+00
         0.00000E+00
         0.00000E+00
         0.00000E+00
         0.00000E+00
         0.00000E+00
         0.00000E+00
         0.00000E+00
         0.00000E+00
         0.00000E+00
         0.00000E+00
         0.00000E+00
         0.00000E+00
         0.00000E+00
         0.00000E+00
         0.00000E+00
         0.00000E+00
         0.00000E+00
         0.00000E+00
         0.00000E+00
         0.00000E+00
         0.00000E+00
         0.00000E+00
         0.00000E+00
         0.00000E+00
         0.00000E+00
         0.00000E+00
         0.00000E+00
         0.00000E+00
         0.00000E+00
         0.00000E+00
         0.00000E+00
         0.00000E+00
         0.00000E+00
         0.00000E+00
         0.00000E+00
         0.00000E+00
         0.00000E+00
         0.00000E+00
         0.00000E+00
         0.00000E+00
         0.00000E+00
         0.00000E+00
         0.00000E+00
         0.00000E+00
         0.00000E+00
         0.00000E+00
         0.00000E+00
         0.00000E+00
         0.00000E+00
         0.00000E+00
         0.00000E+00
         0.00000E+00
         0.00000E+00
         0.00000E+00
         0.00000E+00
         0.00000E+00
         0.00000E+00
         0.00000E+00
         0.00000E+00
         0.00000E+00
         0.00000E+00
         0.00000E+00
         0.00000E+00
         0.00000E+00
         0.00000E+00
         0.00000E+00
         0.00000E+00
         0.00000E+00
         0.00000E+00
         0.00000E+00
         0.00000E+00
         0.00000E+00
         0.00000E+00
         0.00000E+00
         0.00000E+00
         0.00000E+00
         0.00000E+00
         0.00000E+00
         0.00000E+00
         0.00000E+00
         0.00000E+00
         0.00000E+00
         0.00000E+00
         0.00000E+00
         0.00000E+00
         0.00000E+00
         0.00000E+00
         0.00000E+00
         0.00000E+00
         0.00000E+00
         0.00000E+00
         0.00000E+00
         0.00000E+00
         0.00000E+00
         0.00000E+00
         0.00000E+00
         0.00000E+00
         0.00000E+00
         0.00000E+00
         0.00000E+00
         0.00000E+00
         0.00000E+00
         0.00000E+00
         0.00000E+00
         0.00000E+00
         0.00000E+00
         0.00000E+00
         0.00000E+00
         0.00000E+00
         0.00000E+00
         0.00000E+00
         0.00000E+00
         0.00000E+00
         0.00000E+00
         0.00000E+00
         0.00000E+00
         0.00000E+00
         0.00000E+00
         0.00000E+00
         0.00000E+00
         0.00000E+00
         0.00000E+00
         0.00000E+00
         0.00000E+00
         0.00000E+00
         0.00000E+00
         0.00000E+00
         0.00000E+00
         0.00000E+00
         0.00000E+00
         0.00000E+00
         0.00000E+00
         0.00000E+00
         0.00000E+00
         0.00000E+00
         0.00000E+00
         0.00000E+00
         0.00000E+00
         0.00000E+00
         0.00000E+00
         0.00000E+00
         0.00000E+00
         0.00000E+00
         0.00000E+00
         0.00000E+00
         0.00000E+00
         0.00000E+00
         0.00000E+00
         0.00000E+00
         0.00000E+00
         0.00000E+00
         0.00000E+00
         0.00000E+00
         0.00000E+00
         0.00000E+00
         0.00000E+00
         0.00000E+00
         0.00000E+00
         0.00000E+00
         0.00000E+00
         0.00000E+00
         0.00000E+00
         0.00000E+00
         0.00000E+00
         0.00000E+00
         0.00000E+00
         0.00000E+00
         0.00000E+00
         0.00000E+00
         0.00000E+00
         0.00000E+00
         0.00000E+00
         0.00000E+00
         0.00000E+00
         0.00000E+00
         0.00000E+00
         0.00000E+00
         0.00000E+00
         0.00000E+00
         0.00000E+00
         0.00000E+00
         0.00000E+00
         0.00000E+00
         0.00000E+00
         0.00000E+00
         0.00000E+00
         0.00000E+00
         0.00000E+00
         0.00000E+00
         0.00000E+00
         0.00000E+00
         0.00000E+00
         0.00000E+00
         0.00000E+00
         0.00000E+00
         0.00000E+00
         0.00000E+00
         0.00000E+00
         0.00000E+00
         0.00000E+00
         0.00000E+00
         0.00000E+00
         0.00000E+00
         0.00000E+00
         0.00000E+00
         0.00000E+00
         0.00000E+00
         0.00000E+00
         0.00000E+00
         0.00000E+00
         0.00000E+00
         0.00000E+00
         0.00000E+00
         0.00000E+00
         0.00000E+00
         0.00000E+00
         0.00000E+00
         0.00000E+00
         0.00000E+00
         0.00000E+00
         0.00000E+00
         0.00000E+00
         0.00000E+00
         0.00000E+00
         0.00000E+00
         0.00000E+00
         0.00000E+00
         0.00000E+00
         0.00000E+00
         0.00000E+00
         0.00000E+00
         0.00000E+00
         0.00000E+00
         0.00000E+00
         0.00000E+00
         0.00000E+00
         0.00000E+00
         0.00000E+00
         0.00000E+00
         0.00000E+00
         0.00000E+00
         0.00000E+00
         0.00000E+00
         0.00000E+00
         0.00000E+00
         0.00000E+00
         0.00000E+00
         0.00000E+00
         0.00000E+00
         0.00000E+00
         0.00000E+00
         0.00000E+00
         0.00000E+00
         0.00000E+00
         0.00000E+00
         0.00000E+00
         0.00000E+00
         0.00000E+00
         0.00000E+00
         0.00000E+00
         0.00000E+00
         0.00000E+00
         0.00000E+00
         0.00000E+00
         0.00000E+00
         0.00000E+00
         0.00000E+00
         0.00000E+00
         0.00000E+00
         0.00000E+00
         0.00000E+00
         0.00000E+00
         0.00000E+00
         0.00000E+00
         0.00000E+00
         0.00000E+00
         0.00000E+00
         0.00000E+00
         0.00000E+00
         0.00000E+00
         0.00000E+00
         0.00000E+00
         0.00000E+00
         0.00000E+00
         0.00000E+00
         0.00000E+00
         0.00000E+00
         0.00000E+00
         0.00000E+00
         0.00000E+00
         0.00000E+00
         0.00000E+00
         0.00000E+00
         0.00000E+00
         0.00000E+00
         0.00000E+00
         0.00000E+00
         0.00000E+00
         0.00000E+00
         0.00000E+00
         0.00000E+00
         0.00000E+00
         0.00000E+00
         0.00000E+00
         0.00000E+00
         0.00000E+00
         0.00000E+00
         0.00000E+00
         0.00000E+00
         0.00000E+00
         0.00000E+00
         0.00000E+00
         0.00000E+00
         0.00000E+00
         0.00000E+00
         0.00000E+00
         0.00000E+00
         0.00000E+00
         0.00000E+00
         0.00000E+00
         0.00000E+00
         0.00000E+00
         0.00000E+00
         0.00000E+00
         0.00000E+00
         0.00000E+00
         0.00000E+00
         0.00000E+00
         0.00000E+00
         0.00000E+00
         0.00000E+00
         0.00000E+00
         0.00000E+00
         0.00000E+00
         0.00000E+00
         0.00000E+00
         0.00000E+00
         0.00000E+00
         0.00000E+00
         0.00000E+00
         0.00000E+00
         0.00000E+00
         0.00000E+00
         0.00000E+00
         0.00000E+00
         0.00000E+00
         0.00000E+00
         0.00000E+00
         0.00000E+00
         0.00000E+00
         0.00000E+00
         0.00000E+00
         0.00000E+00
         0.00000E+00
         0.00000E+00
         0.00000E+00
         0.00000E+00
         0.00000E+00
         0.00000E+00
         0.00000E+00
         0.00000E+00
         0.00000E+00
         0.00000E+00
         0.00000E+00
         0.00000E+00
         0.00000E+00
         0.00000E+00
         0.00000E+00
         0.00000E+00
         0.00000E+00
         0.00000E+00
         0.00000E+00
         0.00000E+00
         0.00000E+00
         0.00000E+00
         0.00000E+00
         0.00000E+00
         0.00000E+00
         0.00000E+00
         0.00000E+00
         0.00000E+00
         0.00000E+00
         0.00000E+00
         0.00000E+00
         0.00000E+00
         0.00000E+00
         0.00000E+00
         0.00000E+00
         0.00000E+00
         0.00000E+00
         0.00000E+00
         0.00000E+00
         0.00000E+00
         0.00000E+00
         0.00000E+00
         0.00000E+00
         0.00000E+00
         0.00000E+00
         0.00000E+00
         0.00000E+00
         0.00000E+00
         0.00000E+00
         0.00000E+00
         0.00000E+00
         0.00000E+00
         0.00000E+00
         0.00000E+00
         0.00000E+00
         0.00000E+00
         0.00000E+00
         0.00000E+00
         0.00000E+00
         0.00000E+00
         0.00000E+00
         0.00000E+00
         0.00000E+00
         0.00000E+00
         0.00000E+00
         0.00000E+00
         0.00000E+00
         0.00000E+00
         0.00000E+00
         0.00000E+00
         0.00000E+00
         0.00000E+00
         0.00000E+00
         0.00000E+00
         0.00000E+00
         0.00000E+00
         0.00000E+00
         0.00000E+00
         0.00000E+00
         0.00000E+00
         0.00000E+00
         0.00000E+00
         0.00000E+00
         0.00000E+00
         0.00000E+00
         0.00000E+00
         0.00000E+00
         0.00000E+00
         0.00000E+00
         0.00000E+00
         0.00000E+00
         0.00000E+00
         0.00000E+00
         0.00000E+00
         0.00000E+00
         0.00000E+00
         0.00000E+00
         0.00000E+00
         0.00000E+00
         0.00000E+00
         0.00000E+00
         0.00000E+00
         0.00000E+00
         0.00000E+00
         0.00000E+00
         0.00000E+00
         0.00000E+00
         0.00000E+00
         0.00000E+00
         0.00000E+00
         0.00000E+00
         0.00000E+00
         0.00000E+00
         0.00000E+00
         0.00000E+00
         0.00000E+00
         0.00000E+00
         0.00000E+00
         0.00000E+00
         0.00000E+00
         0.00000E+00
         0.00000E+00
         0.00000E+00
         0.00000E+00
         0.00000E+00
         0.00000E+00
         0.00000E+00
         0.00000E+00
         0.00000E+00
         0.00000E+00
         0.00000E+00
         0.00000E+00
         0.00000E+00
         0.00000E+00
         0.00000E+00
         0.00000E+00
         0.00000E+00
         0.00000E+00
         0.00000E+00
         0.00000E+00
         0.00000E+00
         0.00000E+00
         0.00000E+00
         0.00000E+00
         0.00000E+00
         0.00000E+00
         0.00000E+00
         0.00000E+00
         0.00000E+00
         0.00000E+00
         0.00000E+00
         0.00000E+00
         0.00000E+00
         0.00000E+00
         0.00000E+00
         0.00000E+00
         0.00000E+00
         0.00000E+00
         0.00000E+00
         0.00000E+00
         0.00000E+00
         0.00000E+00
         0.00000E+00
         0.00000E+00
         0.00000E+00
         0.00000E+00
         0.00000E+00
         0.00000E+00
         0.00000E+00
         0.00000E+00
         0.00000E+00
         0.00000E+00
         0.00000E+00
         0.00000E+00
         0.00000E+00
         0.00000E+00
         0.00000E+00
         0.00000E+00
         0.00000E+00
         0.00000E+00
         0.00000E+00
         0.00000E+00
         0.00000E+00
         0.00000E+00
         0.00000E+00
         0.00000E+00
         0.00000E+00
         0.00000E+00
         0.00000E+00
         0.00000E+00
         0.00000E+00
         0.00000E+00
         0.00000E+00
         0.00000E+00
         0.00000E+00
         0.00000E+00
         0.00000E+00
         0.00000E+00
         0.00000E+00
         0.00000E+00
         0.00000E+00
         0.00000E+00
         0.00000E+00
         0.00000E+00
         0.00000E+00
         0.00000E+00
         0.00000E+00
         0.00000E+00
         0.00000E+00
         0.00000E+00
         0.00000E+00
         0.00000E+00
         0.00000E+00
         0.00000E+00
         0.00000E+00
         0.00000E+00
         0.00000E+00
         0.00000E+00
         0.00000E+00
         0.00000E+00
         0.00000E+00
         0.00000E+00
         0.00000E+00
         0.00000E+00
         0.00000E+00
         0.00000E+00
         0.00000E+00
         0.00000E+00
         0.00000E+00
         0.00000E+00
         0.00000E+00
         0.00000E+00
         0.00000E+00
         0.00000E+00
         0.00000E+00
         0.00000E+00
         0.00000E+00
         0.00000E+00
         0.00000E+00
         0.00000E+00
         0.00000E+00
         0.00000E+00
         0.00000E+00
         0.00000E+00
         0.00000E+00
         0.00000E+00
         0.00000E+00
         0.00000E+00
         0.00000E+00
         0.00000E+00
         0.00000E+00
         0.00000E+00
         0.00000E+00
         0.00000E+00
         0.00000E+00
         0.00000E+00
         0.00000E+00
         0.00000E+00
         0.00000E+00
         0.00000E+00
         0.00000E+00
         0.00000E+00
         0.00000E+00
         0.00000E+00
         0.00000E+00
         0.00000E+00
         0.00000E+00
         0.00000E+00
         0.00000E+00
         0.00000E+00
         0.00000E+00
         0.00000E+00
         0.00000E+00
         0.00000E+00
         0.00000E+00
         0.00000E+00
         0.00000E+00
         0.00000E+00
         0.00000E+00
         0.00000E+00
         0.00000E+00
         0.00000E+00
         0.00000E+00
         0.00000E+00
         0.00000E+00
         0.00000E+00
         0.00000E+00
         0.00000E+00
         0.00000E+00
         0.00000E+00
         0.00000E+00
         0.00000E+00
         0.00000E+00
         0.00000E+00
         0.00000E+00
         0.00000E+00
         0.00000E+00
         0.00000E+00
         0.00000E+00
         0.00000E+00
         0.00000E+00
         0.00000E+00
         0.00000E+00
         0.00000E+00
         0.00000E+00
         0.00000E+00
         0.00000E+00
         0.00000E+00
         0.00000E+00
         0.00000E+00
         0.00000E+00
         0.00000E+00
         0.00000E+00
         0.00000E+00
         0.00000E+00
         0.00000E+00
         0.00000E+00
         0.00000E+00
         0.00000E+00
         0.00000E+00
         0.00000E+00
         0.00000E+00
         0.00000E+00
         0.00000E+00
         0.00000E+00
         0.00000E+00
         0.00000E+00
         0.00000E+00
         0.00000E+00
         0.00000E+00
         0.00000E+00
         0.00000E+00
         0.00000E+00
         0.00000E+00
         0.00000E+00
         0.00000E+00
         0.00000E+00
         0.00000E+00
         0.00000E+00
         0.00000E+00
         0.00000E+00
         0.00000E+00
         0.00000E+00
         0.00000E+00
         0.00000E+00
         0.00000E+00
         0.00000E+00
         0.00000E+00
         0.00000E+00
         0.00000E+00
         0.00000E+00
         0.00000E+00
         0.00000E+00
         0.00000E+00
         0.00000E+00
         0.00000E+00
         0.00000E+00
         0.00000E+00
         0.00000E+00
         0.00000E+00
         0.00000E+00
         0.00000E+00
         0.00000E+00
         0.00000E+00
         0.00000E+00
         0.00000E+00
         0.00000E+00
         0.00000E+00
         0.00000E+00
         0.00000E+00
         0.00000E+00
         0.00000E+00
         0.00000E+00
         0.00000E+00
         0.00000E+00
         0.00000E+00
         0.00000E+00
         0.00000E+00
         0.00000E+00
         0.00000E+00
         0.00000E+00
         0.00000E+00
         0.00000E+00
         0.00000E+00
         0.00000E+00
         0.00000E+00
         0.00000E+00
         0.00000E+00
         0.00000E+00
         0.00000E+00
         0.00000E+00
         0.00000E+00
         0.00000E+00
         0.00000E+00
         0.00000E+00
         0.00000E+00
         0.00000E+00
         0.00000E+00
         0.00000E+00
         0.00000E+00
         0.00000E+00
         0.00000E+00
         0.00000E+00
         0.00000E+00
         0.00000E+00
         0.00000E+00
         0.00000E+00
         0.00000E+00
         0.00000E+00
         0.00000E+00
         0.00000E+00
         0.00000E+00
         0.00000E+00
         0.00000E+00
         0.00000E+00
         0.00000E+00
         0.00000E+00
         0.00000E+00
         0.00000E+00
         0.00000E+00
         0.00000E+00
         0.00000E+00
         0.00000E+00
         0.00000E+00
         0.00000E+00
         0.00000E+00
         0.00000E+00
         0.00000E+00
         0.00000E+00
         0.00000E+00
         0.00000E+00
         0.00000E+00
         0.00000E+00
         0.00000E+00
         0.00000E+00
         0.00000E+00
         0.00000E+00
         0.00000E+00
         0.00000E+00
         0.00000E+00
         0.00000E+00
         0.00000E+00
         0.00000E+00
         0.00000E+00
         0.00000E+00
         0.00000E+00
         0.00000E+00
         0.00000E+00
         0.00000E+00
         0.00000E+00
         0.00000E+00
         0.00000E+00
         0.00000E+00
         0.00000E+00
         0.00000E+00
         0.00000E+00
         0.00000E+00
         0.00000E+00
         0.00000E+00
         0.00000E+00
         0.00000E+00
         0.00000E+00
         0.00000E+00
         0.00000E+00
         0.00000E+00
         0.00000E+00
         0.00000E+00
         0.00000E+00
         0.00000E+00
         0.00000E+00
         0.00000E+00
         0.00000E+00
         0.00000E+00
         0.00000E+00
         0.00000E+00
         0.00000E+00
         0.00000E+00
         0.00000E+00
         0.00000E+00
         0.00000E+00
         0.00000E+00
         0.00000E+00
         0.00000E+00
         0.00000E+00
         0.00000E+00
         0.00000E+00
         0.00000E+00
         0.00000E+00
         0.00000E+00
         0.00000E+00
         0.00000E+00
         0.00000E+00
         0.00000E+00
         0.00000E+00
         0.00000E+00
         0.00000E+00
         0.00000E+00
         0.00000E+00
         0.00000E+00
         0.00000E+00
         0.00000E+00
         0.00000E+00
         0.00000E+00
         0.00000E+00
         0.00000E+00
         0.00000E+00
         0.00000E+00
         0.00000E+00
         0.00000E+00
         0.00000E+00
         0.00000E+00
         0.00000E+00
         0.00000E+00
         0.00000E+00
         0.00000E+00
         0.00000E+00
         0.00000E+00
         0.00000E+00
         0.00000E+00
         0.00000E+00
         0.00000E+00
         0.00000E+00
         0.00000E+00
         0.00000E+00
         0.00000E+00
         0.00000E+00
         0.00000E+00
         0.00000E+00
         0.00000E+00
         0.00000E+00
         0.00000E+00
         0.00000E+00
         0.00000E+00
         0.00000E+00
         0.00000E+00
         0.00000E+00
         0.00000E+00
         0.00000E+00
         0.00000E+00
         0.00000E+00
         0.00000E+00
         0.00000E+00
         0.00000E+00
         0.00000E+00
         0.00000E+00
         0.00000E+00
         0.00000E+00
         0.00000E+00
         0.00000E+00
         0.00000E+00
         0.00000E+00
         0.00000E+00
         0.00000E+00
         0.00000E+00
         0.00000E+00
         0.00000E+00
         0.00000E+00
         0.00000E+00
         0.00000E+00
         0.00000E+00
         0.00000E+00
         0.00000E+00
         0.00000E+00
         0.00000E+00
         0.00000E+00
         0.00000E+00
         0.00000E+00
         0.00000E+00
         0.00000E+00
         0.00000E+00
         0.00000E+00
         0.00000E+00
         0.00000E+00
         0.00000E+00
         0.00000E+00
         0.00000E+00
         0.00000E+00
         0.00000E+00
         0.00000E+00
         0.00000E+00
         0.00000E+00
         0.00000E+00
         0.00000E+00
         0.00000E+00
         0.00000E+00
         0.00000E+00
         0.00000E+00
         0.00000E+00
         0.00000E+00
         0.00000E+00
         0.00000E+00
         0.00000E+00
         0.00000E+00
         0.00000E+00
         0.00000E+00
         0.00000E+00
         0.00000E+00
         0.00000E+00
         0.00000E+00
         0.00000E+00
         0.00000E+00
         0.00000E+00
         0.00000E+00
         0.00000E+00
         0.00000E+00
         0.00000E+00
         0.00000E+00
         0.00000E+00
         0.00000E+00
         0.00000E+00
         0.00000E+00
         0.00000E+00
         0.00000E+00
         0.00000E+00
         0.00000E+00
         0.00000E+00
         0.00000E+00
         0.00000E+00
         0.00000E+00
         0.00000E+00
         0.00000E+00
         0.00000E+00
         0.00000E+00
         0.00000E+00
         0.00000E+00
         0.00000E+00
         0.00000E+00
         0.00000E+00
         0.00000E+00
         0.00000E+00
         0.00000E+00
         0.00000E+00
         0.00000E+00
         0.00000E+00
         0.00000E+00
         0.00000E+00
         0.00000E+00
         0.00000E+00
         0.00000E+00
         0.00000E+00
         0.00000E+00
         0.00000E+00
         0.00000E+00
         0.00000E+00
         0.00000E+00
         0.00000E+00
         0.00000E+00
         0.00000E+00
         0.00000E+00
         0.00000E+00
         0.00000E+00
         0.00000E+00
         0.00000E+00
         0.00000E+00
         0.00000E+00
         0.00000E+00
         0.00000E+00
         0.00000E+00
         0.00000E+00
         0.00000E+00
         0.00000E+00
         0.00000E+00
         0.00000E+00
         0.00000E+00
         0.00000E+00
         0.00000E+00
         0.00000E+00
         0.00000E+00
         0.00000E+00
         0.00000E+00
         0.00000E+00
         0.00000E+00
         0.00000E+00
         0.00000E+00
         0.00000E+00
         0.00000E+00
         0.00000E+00
         0.00000E+00
         0.00000E+00
         0.00000E+00
         0.00000E+00
         0.00000E+00
         0.00000E+00
         0.00000E+00
         0.00000E+00
         0.00000E+00
         0.00000E+00
         0.00000E+00
         0.00000E+00
         0.00000E+00
         0.00000E+00
         0.00000E+00
         0.00000E+00
         0.00000E+00
         0.00000E+00
         0.00000E+00
         0.00000E+00
         0.00000E+00
         0.00000E+00
         0.00000E+00
         0.00000E+00
         0.00000E+00
         0.00000E+00
         0.00000E+00
         0.00000E+00
         0.00000E+00
         0.00000E+00
         0.00000E+00
         0.00000E+00
         0.00000E+00
         0.00000E+00
         0.00000E+00
         0.00000E+00
         0.00000E+00
         0.00000E+00
         0.00000E+00
         0.00000E+00
         0.00000E+00
         0.00000E+00
         0.00000E+00
         0.00000E+00
         0.00000E+00
         0.00000E+00
         0.00000E+00
         0.00000E+00
         0.00000E+00
         0.00000E+00
         0.00000E+00
         0.00000E+00
         0.00000E+00
         0.00000E+00
         0.00000E+00
         0.00000E+00
         0.00000E+00
         0.00000E+00
         0.00000E+00
         0.00000E+00
         0.00000E+00
         0.00000E+00
         0.00000E+00
         0.00000E+00
         0.00000E+00
         0.00000E+00
         0.00000E+00
         0.00000E+00
         0.00000E+00
         0.00000E+00
         0.00000E+00
         0.00000E+00
         0.00000E+00
         0.00000E+00
         0.00000E+00
         0.00000E+00
         0.00000E+00
         0.00000E+00
         0.00000E+00
         0.00000E+00
         0.00000E+00
         0.00000E+00
         0.00000E+00
         0.00000E+00
         0.00000E+00
         0.00000E+00
         0.00000E+00
         0.00000E+00
         0.00000E+00
         0.00000E+00
         0.00000E+00
         0.00000E+00
         0.00000E+00
         0.00000E+00
         0.00000E+00
         0.00000E+00
         0.00000E+00
         0.00000E+00
         0.00000E+00
         0.00000E+00
         0.00000E+00
         0.00000E+00
         0.00000E+00
         0.00000E+00
         0.00000E+00
         0.00000E+00
         0.00000E+00
         0.00000E+00
         0.00000E+00
         0.00000E+00
         0.00000E+00
         0.00000E+00
         0.00000E+00
         0.00000E+00
         0.00000E+00
         0.00000E+00
         0.00000E+00
         0.00000E+00
         0.00000E+00
         0.00000E+00
         0.00000E+00
         0.00000E+00
         0.00000E+00
         0.00000E+00
         0.00000E+00
         0.00000E+00
         0.00000E+00
         0.00000E+00
         0.00000E+00
         0.00000E+00
         0.00000E+00
         0.00000E+00
         0.00000E+00
         0.00000E+00
         0.00000E+00
         0.00000E+00
         0.00000E+00
         0.00000E+00
         0.00000E+00
         0.00000E+00
         0.00000E+00
         0.00000E+00
         0.00000E+00
         0.00000E+00
         0.00000E+00
         0.00000E+00
         0.00000E+00
         0.00000E+00
         0.00000E+00
         0.00000E+00
         0.00000E+00
         0.00000E+00
         0.00000E+00
         0.00000E+00
         0.00000E+00
         0.00000E+00
         0.00000E+00
         0.00000E+00
         0.00000E+00
         0.00000E+00
         0.00000E+00
         0.00000E+00
         0.00000E+00
         0.00000E+00
         0.00000E+00
         0.00000E+00
         0.00000E+00
         0.00000E+00
         0.00000E+00
         0.00000E+00
         0.00000E+00
         0.00000E+00
         0.00000E+00
         0.00000E+00
         0.00000E+00
         0.00000E+00
         0.00000E+00
         0.00000E+00
         0.00000E+00
         0.00000E+00
         0.00000E+00
         0.00000E+00
         0.00000E+00
         0.00000E+00
         0.00000E+00
         0.00000E+00
         0.00000E+00
         0.00000E+00
         0.00000E+00
         0.00000E+00
         0.00000E+00
         0.00000E+00
         0.00000E+00
         0.00000E+00
         0.00000E+00
         0.00000E+00
         0.00000E+00
         0.00000E+00
         0.00000E+00
         0.00000E+00
         0.00000E+00
         0.00000E+00
         0.00000E+00
         0.00000E+00
         0.00000E+00
         0.00000E+00
         0.00000E+00
         0.00000E+00
         0.00000E+00
         0.00000E+00
         0.00000E+00
         0.00000E+00
         0.00000E+00
         0.00000E+00
         0.00000E+00
         0.00000E+00
         0.00000E+00
         0.00000E+00
         0.00000E+00
         0.00000E+00
         0.00000E+00
         0.00000E+00
         0.00000E+00
         0.00000E+00
         0.00000E+00
         0.00000E+00
         0.00000E+00
         0.00000E+00
         0.00000E+00
         0.00000E+00
         0.00000E+00
         0.00000E+00
         0.00000E+00
         0.00000E+00
         0.00000E+00
         0.00000E+00
         0.00000E+00
         0.00000E+00
         0.00000E+00
         0.00000E+00
         0.00000E+00
         0.00000E+00
         0.00000E+00
         0.00000E+00
         0.00000E+00
         0.00000E+00
         0.00000E+00
         0.00000E+00
         0.00000E+00
         0.00000E+00
         0.00000E+00
         0.00000E+00
         0.00000E+00
         0.00000E+00
         0.00000E+00
         0.00000E+00
         0.00000E+00
         0.00000E+00
         0.00000E+00
         0.00000E+00
         0.00000E+00
         0.00000E+00
         0.00000E+00
         0.00000E+00
         0.00000E+00
         0.00000E+00
         0.00000E+00
         0.00000E+00
         0.00000E+00
         0.00000E+00
         0.00000E+00
         0.00000E+00
         0.00000E+00
         0.00000E+00
         0.00000E+00
         0.00000E+00
         0.00000E+00
         0.00000E+00
         0.00000E+00
         0.00000E+00
         0.00000E+00
         0.00000E+00
         0.00000E+00
         0.00000E+00
         0.00000E+00
         0.00000E+00
         0.00000E+00
         0.00000E+00
         0.00000E+00
         0.00000E+00
         0.00000E+00
         0.00000E+00
         0.00000E+00
         0.00000E+00
         0.00000E+00
         0.00000E+00
         0.00000E+00
         0.00000E+00
         0.00000E+00
         0.00000E+00
         0.00000E+00
         0.00000E+00
         0.00000E+00
         0.00000E+00
         0.00000E+00
         0.00000E+00
         0.00000E+00
         0.00000E+00
         0.00000E+00
         0.00000E+00
         0.00000E+00
         0.00000E+00
         0.00000E+00
         0.00000E+00
         0.00000E+00
         0.00000E+00
         0.00000E+00
         0.00000E+00
         0.00000E+00
         0.00000E+00
         0.00000E+00
         0.00000E+00
         0.00000E+00
         0.00000E+00
         0.00000E+00
         0.00000E+00
         0.00000E+00
         0.00000E+00
         0.00000E+00
         0.00000E+00
         0.00000E+00
         0.00000E+00
         0.00000E+00
         0.00000E+00
         0.00000E+00
         0.00000E+00
         0.00000E+00
         0.00000E+00
         0.00000E+00
         0.00000E+00
         0.00000E+00
         0.00000E+00
         0.00000E+00
         0.00000E+00
         0.00000E+00
         0.00000E+00
         0.00000E+00
         0.00000E+00
         0.00000E+00
         0.00000E+00
         0.00000E+00
         0.00000E+00
         0.00000E+00
         0.00000E+00
         0.00000E+00
         0.00000E+00
         0.00000E+00
         0.00000E+00
         0.00000E+00
         0.00000E+00
         0.00000E+00
         0.00000E+00
         0.00000E+00
         0.00000E+00
         0.00000E+00
         0.00000E+00
         0.00000E+00
         0.00000E+00
         0.00000E+00
         0.00000E+00
         0.00000E+00
         0.00000E+00
         0.00000E+00
         0.00000E+00
         0.00000E+00
         0.00000E+00
         0.00000E+00
         0.00000E+00
         0.00000E+00
         0.00000E+00
         0.00000E+00
         0.00000E+00
         0.00000E+00
         0.00000E+00
         0.00000E+00
         0.00000E+00
         0.00000E+00
         0.00000E+00
         0.00000E+00
         0.00000E+00
         0.00000E+00
         0.00000E+00
         0.00000E+00
         0.00000E+00
         0.00000E+00
         0.00000E+00
         0.00000E+00
         0.00000E+00
         0.00000E+00
         0.00000E+00
         0.00000E+00
         0.00000E+00
         0.00000E+00
         0.00000E+00
         0.00000E+00
         0.00000E+00
         0.00000E+00
         0.00000E+00
         0.00000E+00
         0.00000E+00
         0.00000E+00
         0.00000E+00
         0.00000E+00
         0.00000E+00
         0.00000E+00
         0.00000E+00
         0.00000E+00
         0.00000E+00
         0.00000E+00
         0.00000E+00
         0.00000E+00
         0.00000E+00
         0.00000E+00
         0.00000E+00
         0.00000E+00
         0.00000E+00
         0.00000E+00
         0.00000E+00
         0.00000E+00
         0.00000E+00
         0.00000E+00
         0.00000E+00
         0.00000E+00
         0.00000E+00
         0.00000E+00
         0.00000E+00
         0.00000E+00
         0.00000E+00
  
SCALARS               pre_disp_force_z  double 1
LOOKUP_TABLE default
         0.00000E+00
         0.00000E+00
         0.00000E+00
         0.00000E+00
        -0.00000E+00
        -0.00000E+00
        -0.00000E+00
        -0.00000E+00
         0.00000E+00
         0.00000E+00
        -0.00000E+00
        -0.00000E+00
         0.00000E+00
         0.00000E+00
        -0.00000E+00
        -0.00000E+00
         0.00000E+00
         0.00000E+00
        -0.00000E+00
        -0.00000E+00
         0.00000E+00
         0.00000E+00
         0.00000E+00
        -0.00000E+00
        -0.00000E+00
        -0.00000E+00
         0.00000E+00
         0.00000E+00
        -0.00000E+00
        -0.00000E+00
         0.00000E+00
         0.00000E+00
         0.00000E+00
        -0.00000E+00
        -0.00000E+00
        -0.00000E+00
         0.00000E+00
         0.00000E+00
        -0.00000E+00
        -0.00000E+00
         0.00000E+00
         0.00000E+00
        -0.00000E+00
        -0.00000E+00
         0.00000E+00
         0.00000E+00
        -0.00000E+00
        -0.00000E+00
         0.00000E+00
        -0.00000E+00
         0.00000E+00
        -0.00000E+00
         0.00000E+00
        -0.00000E+00
         0.00000E+00
        -0.00000E+00
         0.00000E+00
         0.00000E+00
        -0.00000E+00
        -0.00000E+00
         0.00000E+00
         0.00000E+00
        -0.00000E+00
        -0.00000E+00
         0.00000E+00
        -0.00000E+00
         0.00000E+00
        -0.00000E+00
         0.00000E+00
         0.00000E+00
        -0.00000E+00
        -0.00000E+00
         0.00000E+00
        -0.00000E+00
         0.00000E+00
        -0.00000E+00
         0.00000E+00
        -0.00000E+00
         0.00000E+00
        -0.00000E+00
         0.00000E+00
         0.00000E+00
        -0.00000E+00
        -0.00000E+00
         0.00000E+00
        -0.00000E+00
         0.00000E+00
        -0.00000E+00
         0.00000E+00
        -0.00000E+00
         0.00000E+00
         0.00000E+00
        -0.00000E+00
        -0.00000E+00
         0.00000E+00
        -0.00000E+00
         0.00000E+00
        -0.00000E+00
         0.00000E+00
        -0.00000E+00
         0.00000E+00
         0.00000E+00
        -0.00000E+00
        -0.00000E+00
         0.00000E+00
         0.00000E+00
        -0.00000E+00
        -0.00000E+00
         0.00000E+00
        -0.00000E+00
         0.00000E+00
        -0.00000E+00
         0.00000E+00
        -0.00000E+00
         0.00000E+00
        -0.00000E+00
         0.00000E+00
        -0.00000E+00
         0.00000E+00
        -0.00000E+00
         0.00000E+00
        -0.00000E+00
         0.00000E+00
        -0.00000E+00
         0.00000E+00
        -0.00000E+00
         0.00000E+00
        -0.00000E+00
         0.00000E+00
        -0.00000E+00
         0.00000E+00
        -0.00000E+00
         0.00000E+00
        -0.00000E+00
         0.00000E+00
        -0.00000E+00
         0.00000E+00
        -0.00000E+00
         0.00000E+00
        -0.00000E+00
         0.00000E+00
        -0.00000E+00
         0.00000E+00
        -0.00000E+00
         0.00000E+00
        -0.00000E+00
         0.00000E+00
        -0.00000E+00
         0.00000E+00
        -0.00000E+00
         0.00000E+00
        -0.00000E+00
         0.00000E+00
        -0.00000E+00
         0.00000E+00
        -0.00000E+00
         0.00000E+00
         0.00000E+00
         0.00000E+00
         0.00000E+00
         0.00000E+00
         0.00000E+00
         0.00000E+00
         0.00000E+00
         0.00000E+00
         0.00000E+00
         0.00000E+00
         0.00000E+00
         0.00000E+00
         0.00000E+00
         0.00000E+00
         0.00000E+00
         0.00000E+00
         0.00000E+00
         0.00000E+00
         0.00000E+00
         0.00000E+00
         0.00000E+00
         0.00000E+00
         0.00000E+00
         0.00000E+00
         0.00000E+00
         0.00000E+00
         0.00000E+00
         0.00000E+00
         0.00000E+00
         0.00000E+00
         0.00000E+00
         0.00000E+00
         0.00000E+00
         0.00000E+00
         0.00000E+00
         0.00000E+00
         0.00000E+00
         0.00000E+00
         0.00000E+00
         0.00000E+00
         0.00000E+00
         0.00000E+00
         0.00000E+00
         0.00000E+00
         0.00000E+00
         0.00000E+00
         0.00000E+00
         0.00000E+00
         0.00000E+00
         0.00000E+00
         0.00000E+00
         0.00000E+00
         0.00000E+00
         0.00000E+00
         0.00000E+00
         0.00000E+00
         0.00000E+00
         0.00000E+00
         0.00000E+00
         0.00000E+00
         0.00000E+00
         0.00000E+00
         0.00000E+00
         0.00000E+00
         0.00000E+00
         0.00000E+00
         0.00000E+00
         0.00000E+00
         0.00000E+00
         0.00000E+00
         0.00000E+00
         0.00000E+00
         0.00000E+00
         0.00000E+00
         0.00000E+00
         0.00000E+00
         0.00000E+00
         0.00000E+00
         0.00000E+00
         0.00000E+00
         0.00000E+00
         0.00000E+00
         0.00000E+00
         0.00000E+00
         0.00000E+00
         0.00000E+00
         0.00000E+00
         0.00000E+00
         0.00000E+00
         0.00000E+00
         0.00000E+00
         0.00000E+00
         0.00000E+00
         0.00000E+00
         0.00000E+00
         0.00000E+00
         0.00000E+00
         0.00000E+00
         0.00000E+00
         0.00000E+00
         0.00000E+00
         0.00000E+00
         0.00000E+00
         0.00000E+00
         0.00000E+00
         0.00000E+00
         0.00000E+00
         0.00000E+00
         0.00000E+00
         0.00000E+00
         0.00000E+00
         0.00000E+00
         0.00000E+00
         0.00000E+00
         0.00000E+00
         0.00000E+00
         0.00000E+00
         0.00000E+00
         0.00000E+00
         0.00000E+00
         0.00000E+00
         0.00000E+00
         0.00000E+00
         0.00000E+00
         0.00000E+00
         0.00000E+00
         0.00000E+00
         0.00000E+00
         0.00000E+00
         0.00000E+00
         0.00000E+00
         0.00000E+00
         0.00000E+00
         0.00000E+00
         0.00000E+00
         0.00000E+00
         0.00000E+00
         0.00000E+00
         0.00000E+00
         0.00000E+00
         0.00000E+00
         0.00000E+00
         0.00000E+00
         0.00000E+00
         0.00000E+00
         0.00000E+00
         0.00000E+00
         0.00000E+00
         0.00000E+00
         0.00000E+00
         0.00000E+00
         0.00000E+00
         0.00000E+00
         0.00000E+00
         0.00000E+00
         0.00000E+00
         0.00000E+00
         0.00000E+00
         0.00000E+00
         0.00000E+00
         0.00000E+00
         0.00000E+00
         0.00000E+00
         0.00000E+00
         0.00000E+00
         0.00000E+00
         0.00000E+00
         0.00000E+00
         0.00000E+00
         0.00000E+00
         0.00000E+00
         0.00000E+00
         0.00000E+00
         0.00000E+00
         0.00000E+00
         0.00000E+00
         0.00000E+00
         0.00000E+00
         0.00000E+00
         0.00000E+00
         0.00000E+00
         0.00000E+00
         0.00000E+00
         0.00000E+00
         0.00000E+00
         0.00000E+00
         0.00000E+00
         0.00000E+00
         0.00000E+00
         0.00000E+00
         0.00000E+00
         0.00000E+00
         0.00000E+00
         0.00000E+00
         0.00000E+00
         0.00000E+00
         0.00000E+00
         0.00000E+00
         0.00000E+00
         0.00000E+00
         0.00000E+00
         0.00000E+00
         0.00000E+00
         0.00000E+00
         0.00000E+00
         0.00000E+00
         0.00000E+00
         0.00000E+00
         0.00000E+00
         0.00000E+00
         0.00000E+00
         0.00000E+00
         0.00000E+00
         0.00000E+00
         0.00000E+00
         0.00000E+00
         0.00000E+00
         0.00000E+00
         0.00000E+00
         0.00000E+00
         0.00000E+00
         0.00000E+00
         0.00000E+00
         0.00000E+00
         0.00000E+00
         0.00000E+00
         0.00000E+00
         0.00000E+00
         0.00000E+00
         0.00000E+00
         0.00000E+00
         0.00000E+00
         0.00000E+00
         0.00000E+00
         0.00000E+00
         0.00000E+00
         0.00000E+00
         0.00000E+00
         0.00000E+00
         0.00000E+00
         0.00000E+00
         0.00000E+00
         0.00000E+00
         0.00000E+00
         0.00000E+00
         0.00000E+00
         0.00000E+00
         0.00000E+00
         0.00000E+00
         0.00000E+00
         0.00000E+00
         0.00000E+00
         0.00000E+00
         0.00000E+00
         0.00000E+00
         0.00000E+00
         0.00000E+00
         0.00000E+00
         0.00000E+00
         0.00000E+00
         0.00000E+00
         0.00000E+00
         0.00000E+00
         0.00000E+00
         0.00000E+00
         0.00000E+00
         0.00000E+00
         0.00000E+00
         0.00000E+00
         0.00000E+00
         0.00000E+00
         0.00000E+00
         0.00000E+00
         0.00000E+00
         0.00000E+00
         0.00000E+00
         0.00000E+00
         0.00000E+00
         0.00000E+00
         0.00000E+00
         0.00000E+00
         0.00000E+00
         0.00000E+00
         0.00000E+00
         0.00000E+00
         0.00000E+00
         0.00000E+00
         0.00000E+00
         0.00000E+00
         0.00000E+00
         0.00000E+00
         0.00000E+00
         0.00000E+00
         0.00000E+00
         0.00000E+00
         0.00000E+00
         0.00000E+00
         0.00000E+00
         0.00000E+00
         0.00000E+00
         0.00000E+00
         0.00000E+00
         0.00000E+00
         0.00000E+00
         0.00000E+00
         0.00000E+00
         0.00000E+00
         0.00000E+00
         0.00000E+00
         0.00000E+00
         0.00000E+00
         0.00000E+00
         0.00000E+00
         0.00000E+00
         0.00000E+00
         0.00000E+00
         0.00000E+00
         0.00000E+00
         0.00000E+00
         0.00000E+00
         0.00000E+00
         0.00000E+00
         0.00000E+00
         0.00000E+00
         0.00000E+00
         0.00000E+00
         0.00000E+00
         0.00000E+00
         0.00000E+00
         0.00000E+00
         0.00000E+00
         0.00000E+00
         0.00000E+00
         0.00000E+00
         0.00000E+00
         0.00000E+00
         0.00000E+00
         0.00000E+00
         0.00000E+00
         0.00000E+00
         0.00000E+00
         0.00000E+00
         0.00000E+00
         0.00000E+00
         0.00000E+00
         0.00000E+00
         0.00000E+00
         0.00000E+00
         0.00000E+00
         0.00000E+00
         0.00000E+00
         0.00000E+00
         0.00000E+00
         0.00000E+00
         0.00000E+00
         0.00000E+00
         0.00000E+00
         0.00000E+00
         0.00000E+00
         0.00000E+00
         0.00000E+00
         0.00000E+00
         0.00000E+00
         0.00000E+00
         0.00000E+00
         0.00000E+00
         0.00000E+00
         0.00000E+00
         0.00000E+00
         0.00000E+00
         0.00000E+00
         0.00000E+00
         0.00000E+00
         0.00000E+00
         0.00000E+00
         0.00000E+00
         0.00000E+00
         0.00000E+00
         0.00000E+00
         0.00000E+00
         0.00000E+00
         0.00000E+00
         0.00000E+00
         0.00000E+00
         0.00000E+00
         0.00000E+00
         0.00000E+00
         0.00000E+00
         0.00000E+00
         0.00000E+00
         0.00000E+00
         0.00000E+00
         0.00000E+00
         0.00000E+00
         0.00000E+00
         0.00000E+00
         0.00000E+00
         0.00000E+00
         0.00000E+00
         0.00000E+00
         0.00000E+00
         0.00000E+00
         0.00000E+00
         0.00000E+00
         0.00000E+00
         0.00000E+00
         0.00000E+00
         0.00000E+00
         0.00000E+00
         0.00000E+00
         0.00000E+00
         0.00000E+00
         0.00000E+00
         0.00000E+00
         0.00000E+00
         0.00000E+00
         0.00000E+00
         0.00000E+00
         0.00000E+00
         0.00000E+00
         0.00000E+00
         0.00000E+00
         0.00000E+00
         0.00000E+00
         0.00000E+00
         0.00000E+00
         0.00000E+00
         0.00000E+00
         0.00000E+00
         0.00000E+00
         0.00000E+00
         0.00000E+00
         0.00000E+00
         0.00000E+00
         0.00000E+00
         0.00000E+00
         0.00000E+00
         0.00000E+00
         0.00000E+00
         0.00000E+00
         0.00000E+00
         0.00000E+00
         0.00000E+00
         0.00000E+00
         0.00000E+00
         0.00000E+00
         0.00000E+00
         0.00000E+00
         0.00000E+00
         0.00000E+00
         0.00000E+00
         0.00000E+00
         0.00000E+00
         0.00000E+00
         0.00000E+00
         0.00000E+00
         0.00000E+00
         0.00000E+00
         0.00000E+00
         0.00000E+00
         0.00000E+00
         0.00000E+00
         0.00000E+00
         0.00000E+00
         0.00000E+00
         0.00000E+00
         0.00000E+00
         0.00000E+00
         0.00000E+00
         0.00000E+00
         0.00000E+00
         0.00000E+00
         0.00000E+00
         0.00000E+00
         0.00000E+00
         0.00000E+00
         0.00000E+00
         0.00000E+00
         0.00000E+00
         0.00000E+00
         0.00000E+00
         0.00000E+00
         0.00000E+00
         0.00000E+00
         0.00000E+00
         0.00000E+00
         0.00000E+00
         0.00000E+00
         0.00000E+00
         0.00000E+00
         0.00000E+00
         0.00000E+00
         0.00000E+00
         0.00000E+00
         0.00000E+00
         0.00000E+00
         0.00000E+00
         0.00000E+00
         0.00000E+00
         0.00000E+00
         0.00000E+00
         0.00000E+00
         0.00000E+00
         0.00000E+00
         0.00000E+00
         0.00000E+00
         0.00000E+00
         0.00000E+00
         0.00000E+00
         0.00000E+00
         0.00000E+00
         0.00000E+00
         0.00000E+00
         0.00000E+00
         0.00000E+00
         0.00000E+00
         0.00000E+00
         0.00000E+00
         0.00000E+00
         0.00000E+00
         0.00000E+00
         0.00000E+00
         0.00000E+00
         0.00000E+00
         0.00000E+00
         0.00000E+00
         0.00000E+00
         0.00000E+00
         0.00000E+00
         0.00000E+00
         0.00000E+00
         0.00000E+00
         0.00000E+00
         0.00000E+00
         0.00000E+00
         0.00000E+00
         0.00000E+00
         0.00000E+00
         0.00000E+00
         0.00000E+00
         0.00000E+00
         0.00000E+00
         0.00000E+00
         0.00000E+00
         0.00000E+00
         0.00000E+00
         0.00000E+00
         0.00000E+00
         0.00000E+00
         0.00000E+00
         0.00000E+00
         0.00000E+00
         0.00000E+00
         0.00000E+00
         0.00000E+00
         0.00000E+00
         0.00000E+00
         0.00000E+00
         0.00000E+00
         0.00000E+00
         0.00000E+00
         0.00000E+00
         0.00000E+00
         0.00000E+00
         0.00000E+00
         0.00000E+00
         0.00000E+00
         0.00000E+00
         0.00000E+00
         0.00000E+00
         0.00000E+00
         0.00000E+00
         0.00000E+00
         0.00000E+00
         0.00000E+00
         0.00000E+00
         0.00000E+00
         0.00000E+00
         0.00000E+00
         0.00000E+00
         0.00000E+00
         0.00000E+00
         0.00000E+00
         0.00000E+00
         0.00000E+00
         0.00000E+00
         0.00000E+00
         0.00000E+00
         0.00000E+00
         0.00000E+00
         0.00000E+00
         0.00000E+00
         0.00000E+00
         0.00000E+00
         0.00000E+00
         0.00000E+00
         0.00000E+00
         0.00000E+00
         0.00000E+00
         0.00000E+00
         0.00000E+00
         0.00000E+00
         0.00000E+00
         0.00000E+00
         0.00000E+00
         0.00000E+00
         0.00000E+00
         0.00000E+00
         0.00000E+00
         0.00000E+00
         0.00000E+00
         0.00000E+00
         0.00000E+00
         0.00000E+00
         0.00000E+00
         0.00000E+00
         0.00000E+00
         0.00000E+00
         0.00000E+00
         0.00000E+00
         0.00000E+00
         0.00000E+00
         0.00000E+00
         0.00000E+00
         0.00000E+00
         0.00000E+00
         0.00000E+00
         0.00000E+00
         0.00000E+00
         0.00000E+00
         0.00000E+00
         0.00000E+00
         0.00000E+00
         0.00000E+00
         0.00000E+00
         0.00000E+00
         0.00000E+00
         0.00000E+00
         0.00000E+00
         0.00000E+00
         0.00000E+00
         0.00000E+00
         0.00000E+00
         0.00000E+00
         0.00000E+00
         0.00000E+00
         0.00000E+00
         0.00000E+00
         0.00000E+00
         0.00000E+00
         0.00000E+00
         0.00000E+00
         0.00000E+00
         0.00000E+00
         0.00000E+00
         0.00000E+00
         0.00000E+00
         0.00000E+00
         0.00000E+00
         0.00000E+00
         0.00000E+00
         0.00000E+00
         0.00000E+00
         0.00000E+00
         0.00000E+00
         0.00000E+00
         0.00000E+00
         0.00000E+00
         0.00000E+00
         0.00000E+00
         0.00000E+00
         0.00000E+00
         0.00000E+00
         0.00000E+00
         0.00000E+00
         0.00000E+00
         0.00000E+00
         0.00000E+00
         0.00000E+00
         0.00000E+00
         0.00000E+00
         0.00000E+00
         0.00000E+00
         0.00000E+00
         0.00000E+00
         0.00000E+00
         0.00000E+00
         0.00000E+00
         0.00000E+00
         0.00000E+00
         0.00000E+00
         0.00000E+00
         0.00000E+00
         0.00000E+00
         0.00000E+00
         0.00000E+00
         0.00000E+00
         0.00000E+00
         0.00000E+00
         0.00000E+00
         0.00000E+00
         0.00000E+00
         0.00000E+00
         0.00000E+00
         0.00000E+00
         0.00000E+00
         0.00000E+00
         0.00000E+00
         0.00000E+00
         0.00000E+00
         0.00000E+00
         0.00000E+00
         0.00000E+00
         0.00000E+00
         0.00000E+00
         0.00000E+00
         0.00000E+00
         0.00000E+00
         0.00000E+00
         0.00000E+00
         0.00000E+00
         0.00000E+00
         0.00000E+00
         0.00000E+00
         0.00000E+00
         0.00000E+00
         0.00000E+00
         0.00000E+00
         0.00000E+00
         0.00000E+00
         0.00000E+00
         0.00000E+00
         0.00000E+00
         0.00000E+00
         0.00000E+00
         0.00000E+00
         0.00000E+00
         0.00000E+00
         0.00000E+00
         0.00000E+00
         0.00000E+00
         0.00000E+00
         0.00000E+00
         0.00000E+00
         0.00000E+00
         0.00000E+00
         0.00000E+00
         0.00000E+00
         0.00000E+00
         0.00000E+00
         0.00000E+00
         0.00000E+00
         0.00000E+00
         0.00000E+00
         0.00000E+00
         0.00000E+00
         0.00000E+00
         0.00000E+00
         0.00000E+00
         0.00000E+00
         0.00000E+00
         0.00000E+00
         0.00000E+00
         0.00000E+00
         0.00000E+00
         0.00000E+00
         0.00000E+00
         0.00000E+00
         0.00000E+00
         0.00000E+00
         0.00000E+00
         0.00000E+00
         0.00000E+00
         0.00000E+00
         0.00000E+00
         0.00000E+00
         0.00000E+00
         0.00000E+00
         0.00000E+00
         0.00000E+00
         0.00000E+00
         0.00000E+00
         0.00000E+00
         0.00000E+00
         0.00000E+00
         0.00000E+00
         0.00000E+00
         0.00000E+00
         0.00000E+00
         0.00000E+00
         0.00000E+00
         0.00000E+00
         0.00000E+00
         0.00000E+00
         0.00000E+00
         0.00000E+00
         0.00000E+00
         0.00000E+00
         0.00000E+00
         0.00000E+00
         0.00000E+00
         0.00000E+00
         0.00000E+00
         0.00000E+00
         0.00000E+00
         0.00000E+00
         0.00000E+00
         0.00000E+00
         0.00000E+00
         0.00000E+00
         0.00000E+00
         0.00000E+00
         0.00000E+00
         0.00000E+00
         0.00000E+00
         0.00000E+00
         0.00000E+00
         0.00000E+00
         0.00000E+00
         0.00000E+00
         0.00000E+00
         0.00000E+00
         0.00000E+00
         0.00000E+00
         0.00000E+00
         0.00000E+00
         0.00000E+00
         0.00000E+00
         0.00000E+00
         0.00000E+00
         0.00000E+00
         0.00000E+00
         0.00000E+00
         0.00000E+00
         0.00000E+00
         0.00000E+00
         0.00000E+00
         0.00000E+00
         0.00000E+00
         0.00000E+00
         0.00000E+00
         0.00000E+00
         0.00000E+00
         0.00000E+00
         0.00000E+00
         0.00000E+00
         0.00000E+00
         0.00000E+00
         0.00000E+00
         0.00000E+00
         0.00000E+00
         0.00000E+00
         0.00000E+00
         0.00000E+00
         0.00000E+00
         0.00000E+00
         0.00000E+00
         0.00000E+00
         0.00000E+00
         0.00000E+00
         0.00000E+00
         0.00000E+00
         0.00000E+00
         0.00000E+00
         0.00000E+00
         0.00000E+00
         0.00000E+00
         0.00000E+00
         0.00000E+00
         0.00000E+00
         0.00000E+00
         0.00000E+00
         0.00000E+00
         0.00000E+00
         0.00000E+00
         0.00000E+00
         0.00000E+00
         0.00000E+00
         0.00000E+00
         0.00000E+00
         0.00000E+00
         0.00000E+00
         0.00000E+00
         0.00000E+00
         0.00000E+00
         0.00000E+00
         0.00000E+00
         0.00000E+00
         0.00000E+00
         0.00000E+00
         0.00000E+00
         0.00000E+00
         0.00000E+00
         0.00000E+00
         0.00000E+00
         0.00000E+00
         0.00000E+00
         0.00000E+00
         0.00000E+00
         0.00000E+00
         0.00000E+00
         0.00000E+00
         0.00000E+00
         0.00000E+00
         0.00000E+00
         0.00000E+00
         0.00000E+00
         0.00000E+00
         0.00000E+00
         0.00000E+00
         0.00000E+00
         0.00000E+00
         0.00000E+00
         0.00000E+00
         0.00000E+00
         0.00000E+00
         0.00000E+00
         0.00000E+00
         0.00000E+00
         0.00000E+00
         0.00000E+00
         0.00000E+00
         0.00000E+00
         0.00000E+00
         0.00000E+00
         0.00000E+00
         0.00000E+00
         0.00000E+00
         0.00000E+00
         0.00000E+00
         0.00000E+00
         0.00000E+00
         0.00000E+00
         0.00000E+00
         0.00000E+00
         0.00000E+00
         0.00000E+00
         0.00000E+00
         0.00000E+00
         0.00000E+00
         0.00000E+00
         0.00000E+00
         0.00000E+00
         0.00000E+00
         0.00000E+00
         0.00000E+00
         0.00000E+00
         0.00000E+00
         0.00000E+00
         0.00000E+00
         0.00000E+00
         0.00000E+00
         0.00000E+00
         0.00000E+00
         0.00000E+00
         0.00000E+00
         0.00000E+00
         0.00000E+00
         0.00000E+00
         0.00000E+00
         0.00000E+00
         0.00000E+00
         0.00000E+00
         0.00000E+00
         0.00000E+00
         0.00000E+00
         0.00000E+00
         0.00000E+00
         0.00000E+00
         0.00000E+00
         0.00000E+00
         0.00000E+00
         0.00000E+00
         0.00000E+00
         0.00000E+00
         0.00000E+00
         0.00000E+00
         0.00000E+00
         0.00000E+00
         0.00000E+00
         0.00000E+00
         0.00000E+00
         0.00000E+00
         0.00000E+00
         0.00000E+00
         0.00000E+00
         0.00000E+00
         0.00000E+00
         0.00000E+00
         0.00000E+00
         0.00000E+00
         0.00000E+00
         0.00000E+00
         0.00000E+00
         0.00000E+00
         0.00000E+00
         0.00000E+00
         0.00000E+00
         0.00000E+00
         0.00000E+00
         0.00000E+00
         0.00000E+00
         0.00000E+00
         0.00000E+00
         0.00000E+00
         0.00000E+00
         0.00000E+00
         0.00000E+00
         0.00000E+00
         0.00000E+00
         0.00000E+00
         0.00000E+00
         0.00000E+00
         0.00000E+00
         0.00000E+00
         0.00000E+00
         0.00000E+00
         0.00000E+00
         0.00000E+00
         0.00000E+00
         0.00000E+00
         0.00000E+00
         0.00000E+00
         0.00000E+00
         0.00000E+00
         0.00000E+00
         0.00000E+00
         0.00000E+00
         0.00000E+00
         0.00000E+00
         0.00000E+00
         0.00000E+00
         0.00000E+00
         0.00000E+00
         0.00000E+00
         0.00000E+00
         0.00000E+00
         0.00000E+00
         0.00000E+00
         0.00000E+00
         0.00000E+00
         0.00000E+00
         0.00000E+00
         0.00000E+00
         0.00000E+00
         0.00000E+00
         0.00000E+00
         0.00000E+00
         0.00000E+00
         0.00000E+00
         0.00000E+00
         0.00000E+00
         0.00000E+00
         0.00000E+00
         0.00000E+00
         0.00000E+00
         0.00000E+00
         0.00000E+00
         0.00000E+00
         0.00000E+00
         0.00000E+00
         0.00000E+00
         0.00000E+00
         0.00000E+00
         0.00000E+00
         0.00000E+00
         0.00000E+00
         0.00000E+00
         0.00000E+00
         0.00000E+00
         0.00000E+00
         0.00000E+00
         0.00000E+00
         0.00000E+00
         0.00000E+00
         0.00000E+00
         0.00000E+00
         0.00000E+00
         0.00000E+00
         0.00000E+00
         0.00000E+00
         0.00000E+00
         0.00000E+00
         0.00000E+00
         0.00000E+00
         0.00000E+00
         0.00000E+00
         0.00000E+00
         0.00000E+00
         0.00000E+00
         0.00000E+00
         0.00000E+00
         0.00000E+00
         0.00000E+00
         0.00000E+00
         0.00000E+00
         0.00000E+00
         0.00000E+00
         0.00000E+00
         0.00000E+00
         0.00000E+00
         0.00000E+00
         0.00000E+00
         0.00000E+00
         0.00000E+00
         0.00000E+00
         0.00000E+00
         0.00000E+00
         0.00000E+00
         0.00000E+00
         0.00000E+00
         0.00000E+00
         0.00000E+00
         0.00000E+00
         0.00000E+00
         0.00000E+00
         0.00000E+00
         0.00000E+00
         0.00000E+00
         0.00000E+00
         0.00000E+00
         0.00000E+00
         0.00000E+00
         0.00000E+00
         0.00000E+00
         0.00000E+00
         0.00000E+00
         0.00000E+00
         0.00000E+00
         0.00000E+00
         0.00000E+00
         0.00000E+00
         0.00000E+00
         0.00000E+00
         0.00000E+00
         0.00000E+00
         0.00000E+00
         0.00000E+00
         0.00000E+00
         0.00000E+00
         0.00000E+00
         0.00000E+00
         0.00000E+00
         0.00000E+00
         0.00000E+00
         0.00000E+00
         0.00000E+00
         0.00000E+00
         0.00000E+00
         0.00000E+00
         0.00000E+00
         0.00000E+00
         0.00000E+00
         0.00000E+00
         0.00000E+00
         0.00000E+00
         0.00000E+00
         0.00000E+00
         0.00000E+00
         0.00000E+00
         0.00000E+00
         0.00000E+00
         0.00000E+00
         0.00000E+00
         0.00000E+00
         0.00000E+00
         0.00000E+00
         0.00000E+00
         0.00000E+00
         0.00000E+00
         0.00000E+00
         0.00000E+00
         0.00000E+00
         0.00000E+00
         0.00000E+00
         0.00000E+00
         0.00000E+00
         0.00000E+00
         0.00000E+00
         0.00000E+00
         0.00000E+00
         0.00000E+00
         0.00000E+00
         0.00000E+00
         0.00000E+00
         0.00000E+00
         0.00000E+00
         0.00000E+00
         0.00000E+00
         0.00000E+00
         0.00000E+00
         0.00000E+00
         0.00000E+00
         0.00000E+00
         0.00000E+00
         0.00000E+00
         0.00000E+00
         0.00000E+00
         0.00000E+00
         0.00000E+00
         0.00000E+00
         0.00000E+00
         0.00000E+00
         0.00000E+00
         0.00000E+00
         0.00000E+00
         0.00000E+00
         0.00000E+00
         0.00000E+00
         0.00000E+00
         0.00000E+00
         0.00000E+00
         0.00000E+00
         0.00000E+00
         0.00000E+00
         0.00000E+00
         0.00000E+00
         0.00000E+00
         0.00000E+00
         0.00000E+00
         0.00000E+00
         0.00000E+00
         0.00000E+00
         0.00000E+00
         0.00000E+00
         0.00000E+00
         0.00000E+00
         0.00000E+00
         0.00000E+00
         0.00000E+00
         0.00000E+00
         0.00000E+00
         0.00000E+00
         0.00000E+00
         0.00000E+00
         0.00000E+00
         0.00000E+00
         0.00000E+00
         0.00000E+00
         0.00000E+00
         0.00000E+00
         0.00000E+00
         0.00000E+00
         0.00000E+00
         0.00000E+00
         0.00000E+00
         0.00000E+00
         0.00000E+00
         0.00000E+00
         0.00000E+00
         0.00000E+00
         0.00000E+00
         0.00000E+00
         0.00000E+00
         0.00000E+00
         0.00000E+00
         0.00000E+00
         0.00000E+00
         0.00000E+00
         0.00000E+00
         0.00000E+00
         0.00000E+00
         0.00000E+00
         0.00000E+00
         0.00000E+00
         0.00000E+00
         0.00000E+00
         0.00000E+00
         0.00000E+00
         0.00000E+00
         0.00000E+00
         0.00000E+00
         0.00000E+00
         0.00000E+00
         0.00000E+00
         0.00000E+00
         0.00000E+00
         0.00000E+00
         0.00000E+00
         0.00000E+00
         0.00000E+00
         0.00000E+00
         0.00000E+00
         0.00000E+00
         0.00000E+00
         0.00000E+00
         0.00000E+00
         0.00000E+00
         0.00000E+00
         0.00000E+00
         0.00000E+00
         0.00000E+00
         0.00000E+00
         0.00000E+00
         0.00000E+00
         0.00000E+00
         0.00000E+00
         0.00000E+00
         0.00000E+00
         0.00000E+00
         0.00000E+00
         0.00000E+00
         0.00000E+00
         0.00000E+00
         0.00000E+00
         0.00000E+00
         0.00000E+00
         0.00000E+00
         0.00000E+00
         0.00000E+00
         0.00000E+00
         0.00000E+00
         0.00000E+00
         0.00000E+00
         0.00000E+00
         0.00000E+00
         0.00000E+00
         0.00000E+00
         0.00000E+00
         0.00000E+00
         0.00000E+00
         0.00000E+00
         0.00000E+00
         0.00000E+00
         0.00000E+00
         0.00000E+00
         0.00000E+00
         0.00000E+00
         0.00000E+00
         0.00000E+00
         0.00000E+00
         0.00000E+00
         0.00000E+00
         0.00000E+00
         0.00000E+00
         0.00000E+00
         0.00000E+00
         0.00000E+00
         0.00000E+00
         0.00000E+00
         0.00000E+00
         0.00000E+00
         0.00000E+00
         0.00000E+00
         0.00000E+00
         0.00000E+00
         0.00000E+00
         0.00000E+00
         0.00000E+00
         0.00000E+00
         0.00000E+00
         0.00000E+00
         0.00000E+00
         0.00000E+00
         0.00000E+00
         0.00000E+00
         0.00000E+00
         0.00000E+00
         0.00000E+00
         0.00000E+00
         0.00000E+00
         0.00000E+00
         0.00000E+00
         0.00000E+00
         0.00000E+00
         0.00000E+00
         0.00000E+00
         0.00000E+00
         0.00000E+00
         0.00000E+00
         0.00000E+00
         0.00000E+00
         0.00000E+00
         0.00000E+00
         0.00000E+00
         0.00000E+00
         0.00000E+00
         0.00000E+00
         0.00000E+00
         0.00000E+00
         0.00000E+00
         0.00000E+00
         0.00000E+00
         0.00000E+00
         0.00000E+00
         0.00000E+00
         0.00000E+00
         0.00000E+00
         0.00000E+00
         0.00000E+00
         0.00000E+00
         0.00000E+00
         0.00000E+00
         0.00000E+00
         0.00000E+00
         0.00000E+00
         0.00000E+00
         0.00000E+00
         0.00000E+00
         0.00000E+00
         0.00000E+00
         0.00000E+00
         0.00000E+00
         0.00000E+00
         0.00000E+00
         0.00000E+00
         0.00000E+00
         0.00000E+00
         0.00000E+00
         0.00000E+00
         0.00000E+00
         0.00000E+00
         0.00000E+00
         0.00000E+00
         0.00000E+00
         0.00000E+00
         0.00000E+00
         0.00000E+00
         0.00000E+00
         0.00000E+00
         0.00000E+00
         0.00000E+00
         0.00000E+00
         0.00000E+00
         0.00000E+00
         0.00000E+00
         0.00000E+00
         0.00000E+00
         0.00000E+00
         0.00000E+00
         0.00000E+00
         0.00000E+00
         0.00000E+00
         0.00000E+00
         0.00000E+00
         0.00000E+00
         0.00000E+00
         0.00000E+00
         0.00000E+00
         0.00000E+00
         0.00000E+00
         0.00000E+00
         0.00000E+00
         0.00000E+00
         0.00000E+00
         0.00000E+00
         0.00000E+00
         0.00000E+00
         0.00000E+00
         0.00000E+00
         0.00000E+00
         0.00000E+00
         0.00000E+00
         0.00000E+00
         0.00000E+00
         0.00000E+00
         0.00000E+00
         0.00000E+00
         0.00000E+00
         0.00000E+00
         0.00000E+00
         0.00000E+00
         0.00000E+00
         0.00000E+00
         0.00000E+00
         0.00000E+00
         0.00000E+00
         0.00000E+00
         0.00000E+00
         0.00000E+00
         0.00000E+00
         0.00000E+00
         0.00000E+00
         0.00000E+00
         0.00000E+00
         0.00000E+00
         0.00000E+00
         0.00000E+00
         0.00000E+00
         0.00000E+00
         0.00000E+00
         0.00000E+00
         0.00000E+00
         0.00000E+00
         0.00000E+00
         0.00000E+00
         0.00000E+00
         0.00000E+00
         0.00000E+00
         0.00000E+00
         0.00000E+00
         0.00000E+00
         0.00000E+00
         0.00000E+00
         0.00000E+00
         0.00000E+00
         0.00000E+00
         0.00000E+00
         0.00000E+00
         0.00000E+00
         0.00000E+00
         0.00000E+00
         0.00000E+00
         0.00000E+00
         0.00000E+00
         0.00000E+00
         0.00000E+00
         0.00000E+00
         0.00000E+00
         0.00000E+00
         0.00000E+00
         0.00000E+00
         0.00000E+00
         0.00000E+00
         0.00000E+00
         0.00000E+00
         0.00000E+00
         0.00000E+00
         0.00000E+00
         0.00000E+00
         0.00000E+00
         0.00000E+00
         0.00000E+00
         0.00000E+00
         0.00000E+00
         0.00000E+00
         0.00000E+00
         0.00000E+00
         0.00000E+00
         0.00000E+00
         0.00000E+00
         0.00000E+00
         0.00000E+00
         0.00000E+00
         0.00000E+00
         0.00000E+00
         0.00000E+00
         0.00000E+00
         0.00000E+00
         0.00000E+00
         0.00000E+00
         0.00000E+00
         0.00000E+00
         0.00000E+00
         0.00000E+00
         0.00000E+00
         0.00000E+00
         0.00000E+00
         0.00000E+00
         0.00000E+00
         0.00000E+00
         0.00000E+00
         0.00000E+00
         0.00000E+00
         0.00000E+00
         0.00000E+00
         0.00000E+00
         0.00000E+00
         0.00000E+00
         0.00000E+00
         0.00000E+00
         0.00000E+00
         0.00000E+00
         0.00000E+00
         0.00000E+00
         0.00000E+00
         0.00000E+00
         0.00000E+00
         0.00000E+00
         0.00000E+00
         0.00000E+00
         0.00000E+00
         0.00000E+00
         0.00000E+00
         0.00000E+00
         0.00000E+00
         0.00000E+00
         0.00000E+00
         0.00000E+00
         0.00000E+00
         0.00000E+00
         0.00000E+00
         0.00000E+00
         0.00000E+00
         0.00000E+00
         0.00000E+00
         0.00000E+00
         0.00000E+00
         0.00000E+00
         0.00000E+00
         0.00000E+00
         0.00000E+00
         0.00000E+00
         0.00000E+00
         0.00000E+00
         0.00000E+00
         0.00000E+00
         0.00000E+00
         0.00000E+00
         0.00000E+00
         0.00000E+00
         0.00000E+00
         0.00000E+00
         0.00000E+00
         0.00000E+00
         0.00000E+00
         0.00000E+00
         0.00000E+00
         0.00000E+00
         0.00000E+00
         0.00000E+00
         0.00000E+00
         0.00000E+00
         0.00000E+00
         0.00000E+00
         0.00000E+00
         0.00000E+00
         0.00000E+00
         0.00000E+00
         0.00000E+00
         0.00000E+00
         0.00000E+00
         0.00000E+00
         0.00000E+00
         0.00000E+00
         0.00000E+00
         0.00000E+00
         0.00000E+00
         0.00000E+00
         0.00000E+00
         0.00000E+00
         0.00000E+00
         0.00000E+00
         0.00000E+00
         0.00000E+00
         0.00000E+00
         0.00000E+00
         0.00000E+00
         0.00000E+00
         0.00000E+00
         0.00000E+00
         0.00000E+00
         0.00000E+00
         0.00000E+00
         0.00000E+00
         0.00000E+00
         0.00000E+00
         0.00000E+00
         0.00000E+00
         0.00000E+00
         0.00000E+00
         0.00000E+00
         0.00000E+00
         0.00000E+00
         0.00000E+00
         0.00000E+00
         0.00000E+00
         0.00000E+00
         0.00000E+00
         0.00000E+00
         0.00000E+00
         0.00000E+00
         0.00000E+00
         0.00000E+00
         0.00000E+00
         0.00000E+00
         0.00000E+00
         0.00000E+00
         0.00000E+00
         0.00000E+00
         0.00000E+00
         0.00000E+00
         0.00000E+00
         0.00000E+00
         0.00000E+00
         0.00000E+00
         0.00000E+00
         0.00000E+00
         0.00000E+00
         0.00000E+00
         0.00000E+00
         0.00000E+00
         0.00000E+00
         0.00000E+00
         0.00000E+00
         0.00000E+00
         0.00000E+00
         0.00000E+00
         0.00000E+00
         0.00000E+00
         0.00000E+00
         0.00000E+00
         0.00000E+00
         0.00000E+00
         0.00000E+00
         0.00000E+00
         0.00000E+00
         0.00000E+00
         0.00000E+00
         0.00000E+00
         0.00000E+00
         0.00000E+00
         0.00000E+00
         0.00000E+00
         0.00000E+00
         0.00000E+00
         0.00000E+00
         0.00000E+00
         0.00000E+00
         0.00000E+00
         0.00000E+00
         0.00000E+00
         0.00000E+00
         0.00000E+00
         0.00000E+00
         0.00000E+00
         0.00000E+00
         0.00000E+00
         0.00000E+00
         0.00000E+00
         0.00000E+00
         0.00000E+00
         0.00000E+00
         0.00000E+00
         0.00000E+00
         0.00000E+00
         0.00000E+00
         0.00000E+00
         0.00000E+00
         0.00000E+00
         0.00000E+00
         0.00000E+00
         0.00000E+00
         0.00000E+00
         0.00000E+00
         0.00000E+00
         0.00000E+00
         0.00000E+00
         0.00000E+00
         0.00000E+00
         0.00000E+00
         0.00000E+00
         0.00000E+00
         0.00000E+00
         0.00000E+00
         0.00000E+00
         0.00000E+00
         0.00000E+00
         0.00000E+00
         0.00000E+00
         0.00000E+00
         0.00000E+00
         0.00000E+00
         0.00000E+00
         0.00000E+00
         0.00000E+00
         0.00000E+00
         0.00000E+00
         0.00000E+00
         0.00000E+00
         0.00000E+00
         0.00000E+00
         0.00000E+00
         0.00000E+00
         0.00000E+00
         0.00000E+00
         0.00000E+00
         0.00000E+00
         0.00000E+00
         0.00000E+00
         0.00000E+00
         0.00000E+00
         0.00000E+00
         0.00000E+00
         0.00000E+00
         0.00000E+00
         0.00000E+00
         0.00000E+00
         0.00000E+00
         0.00000E+00
         0.00000E+00
         0.00000E+00
         0.00000E+00
         0.00000E+00
         0.00000E+00
         0.00000E+00
         0.00000E+00
         0.00000E+00
         0.00000E+00
         0.00000E+00
         0.00000E+00
         0.00000E+00
         0.00000E+00
  
SCALARS                      stress_xx  double 1
LOOKUP_TABLE default
         0.14141E+13
         0.13962E+13
         0.14076E+13
         0.14279E+13
        -0.19561E+03
        -0.21934E+03
        -0.21003E+03
        -0.19080E+03
         0.13956E+13
         0.14017E+13
        -0.19724E+03
        -0.19088E+03
         0.13703E+13
         0.13693E+13
        -0.23437E+03
        -0.22036E+03
         0.14250E+13
         0.13707E+13
        -0.17317E+03
        -0.19207E+03
         0.13508E+13
         0.13353E+13
         0.13599E+13
        -0.23228E+03
        -0.20286E+03
        -0.20947E+03
         0.13359E+13
         0.13132E+13
        -0.22284E+03
        -0.18793E+03
         0.14240E+13
         0.14004E+13
         0.14468E+13
        -0.19016E+03
        -0.17679E+03
        -0.17188E+03
         0.14103E+13
         0.13803E+13
        -0.20119E+03
        -0.18358E+03
         0.13984E+13
         0.13752E+13
        -0.17388E+03
        -0.15393E+03
         0.14181E+13
         0.14268E+13
        -0.19055E+03
        -0.21291E+03
         0.13566E+13
        -0.18615E+03
         0.14251E+13
        -0.21874E+03
         0.13293E+13
        -0.19658E+03
         0.13222E+13
        -0.18856E+03
         0.13223E+13
         0.13476E+13
        -0.19212E+03
        -0.18711E+03
         0.14235E+13
         0.14144E+13
        -0.19265E+03
        -0.21779E+03
         0.14292E+13
        -0.18589E+03
         0.14184E+13
        -0.20288E+03
         0.13900E+13
         0.13872E+13
        -0.19529E+03
        -0.20463E+03
         0.13808E+13
        -0.20635E+03
         0.13051E+13
        -0.16303E+03
         0.13012E+13
        -0.15824E+03
         0.13031E+13
        -0.16685E+03
         0.13141E+13
         0.13255E+13
        -0.15897E+03
        -0.16574E+03
         0.13484E+13
        -0.15436E+03
         0.14176E+13
        -0.20243E+03
         0.14068E+13
        -0.20718E+03
         0.13980E+13
         0.13931E+13
        -0.19896E+03
        -0.20128E+03
         0.13991E+13
        -0.18282E+03
         0.14034E+13
        -0.18021E+03
         0.13995E+13
        -0.19292E+03
         0.13982E+13
         0.14021E+13
        -0.18919E+03
        -0.19474E+03
         0.13768E+13
         0.13870E+13
        -0.14689E+03
        -0.13815E+03
         0.13749E+13
        -0.14026E+03
         0.13867E+13
        -0.13448E+03
         0.13750E+13
        -0.13261E+03
         0.13492E+13
        -0.12532E+03
         0.13241E+13
        -0.11133E+03
         0.13090E+13
        -0.10025E+03
         0.13075E+13
        -0.99550E+02
         0.13080E+13
        -0.10796E+03
         0.13243E+13
        -0.11346E+03
         0.13547E+13
        -0.10360E+03
         0.13881E+13
        -0.93385E+02
         0.14077E+13
        -0.93279E+02
         0.14270E+13
        -0.10426E+03
         0.14397E+13
        -0.11888E+03
         0.14392E+13
        -0.12772E+03
         0.14083E+13
        -0.13793E+03
         0.13867E+13
        -0.14777E+03
         0.13793E+13
        -0.13537E+03
         0.13908E+13
        -0.11876E+03
         0.13969E+13
        -0.11839E+03
         0.13868E+13
        -0.12953E+03
         0.13869E+13
        -0.13809E+03
         0.13946E+13
        -0.13105E+03
         0.14045E+13
        -0.12669E+03
        -0.26734E+11
        -0.25928E+11
        -0.26039E+11
        -0.27066E+11
        -0.25108E+11
        -0.26133E+11
        -0.24853E+11
        -0.25534E+11
        -0.26909E+11
        -0.26068E+11
        -0.24096E+11
        -0.23859E+11
        -0.24485E+11
        -0.24527E+11
        -0.24126E+11
        -0.27019E+11
        -0.26833E+11
        -0.27348E+11
        -0.25838E+11
        -0.26126E+11
        -0.25713E+11
        -0.25987E+11
        -0.25477E+11
        -0.25611E+11
        -0.26102E+11
        -0.26067E+11
        -0.25218E+11
        -0.25297E+11
        -0.24642E+11
        -0.25623E+11
        -0.26928E+11
        -0.25916E+11
        -0.26921E+11
        -0.26265E+11
        -0.23694E+11
        -0.24557E+11
        -0.24955E+11
        -0.24487E+11
        -0.24425E+11
        -0.23631E+11
        -0.23035E+11
        -0.24460E+11
        -0.25730E+11
        -0.25563E+11
        -0.24917E+11
        -0.23726E+11
        -0.24746E+11
        -0.25783E+11
        -0.25712E+11
        -0.24913E+11
        -0.24059E+11
        -0.25202E+11
        -0.21526E+11
        -0.22669E+11
        -0.22483E+11
        -0.22745E+11
        -0.22678E+11
        -0.22069E+11
        -0.21427E+11
        -0.21215E+11
        -0.21307E+11
        -0.21242E+11
        -0.20963E+11
        -0.22620E+11
        -0.23215E+11
        -0.23441E+11
        -0.23819E+11
        -0.24103E+11
        -0.24090E+11
        -0.23605E+11
        -0.21914E+11
        -0.22327E+11
        -0.22913E+11
        -0.22907E+11
        -0.22806E+11
        -0.22243E+11
        -0.23069E+11
        -0.23367E+11
         0.15088E+07
         0.67577E+06
         0.86095E+06
         0.93981E+06
         0.61796E+06
         0.11365E+07
        -0.57186E+06
        -0.11307E+07
         0.19160E+07
        -0.12505E+07
        -0.14966E+07
        -0.49150E+05
         0.18209E+05
        -0.42709E+07
        -0.13232E+07
        -0.17501E+06
         0.38191E+06
         0.79869E+06
        -0.14488E+05
        -0.25446E+06
        -0.12751E+07
        -0.46322E+06
        -0.19237E+07
        -0.82881E+06
        -0.14398E+07
        -0.23547E+06
        -0.55152E+07
        -0.29618E+07
        -0.18785E+07
        -0.13806E+07
        -0.73570E+05
        -0.56845E+06
         0.88869E+06
         0.15718E+07
        -0.10118E+07
        -0.71229E+06
        -0.24803E+06
        -0.16572E+07
        -0.11304E+07
        -0.68178E+06
        -0.77023E+06
        -0.14563E+07
        -0.12067E+07
        -0.15849E+07
        -0.12057E+07
        -0.56011E+06
        -0.19644E+06
        -0.18458E+06
         0.81015E+06
         0.13314E+07
         0.66560E+06
         0.89932E+06
        -0.32925E+07
        -0.39215E+06
        -0.18652E+07
         0.67921E+06
         0.28238E+07
         0.43460E+07
         0.35822E+07
         0.39098E+07
         0.31201E+07
         0.17186E+07
         0.64454E+06
        -0.22591E+06
        -0.11149E+07
         0.46960E+05
        -0.19518E+07
        -0.32706E+07
        -0.27501E+07
        -0.24420E+07
        -0.13544E+07
         0.76758E+06
         0.77780E+06
         0.90741E+05
        -0.10987E+07
        -0.16648E+07
        -0.90416E+06
         0.22858E+06
         0.14175E+07
         0.58641E+06
         0.77339E+06
         0.86760E+06
         0.50973E+06
         0.10391E+07
        -0.65905E+06
        -0.12344E+07
         0.18245E+07
        -0.13635E+07
        -0.16000E+07
        -0.19067E+06
        -0.10427E+06
        -0.43807E+07
        -0.14635E+07
        -0.27136E+06
         0.28891E+06
         0.73728E+06
        -0.11546E+06
        -0.34334E+06
        -0.13962E+07
        -0.58134E+06
        -0.20484E+07
        -0.92541E+06
        -0.15592E+07
        -0.31721E+06
        -0.56227E+07
        -0.30476E+07
        -0.19799E+07
        -0.15044E+07
        -0.16511E+06
        -0.65330E+06
         0.81491E+06
         0.15000E+07
        -0.11360E+07
        -0.81652E+06
        -0.35515E+06
        -0.17990E+07
        -0.12621E+07
        -0.81144E+06
        -0.90988E+06
        -0.15928E+07
        -0.13362E+07
        -0.17044E+07
        -0.13182E+07
        -0.68513E+06
        -0.30924E+06
        -0.29027E+06
         0.71588E+06
         0.12350E+07
         0.55142E+06
         0.79690E+06
        -0.35196E+07
        -0.61361E+06
        -0.20831E+07
         0.47037E+06
         0.26030E+07
         0.41000E+07
         0.33365E+07
         0.36612E+07
         0.28689E+07
         0.14619E+07
         0.38900E+06
        -0.46214E+06
        -0.13123E+07
        -0.13741E+06
        -0.21450E+07
        -0.34769E+07
        -0.29607E+07
        -0.26621E+07
        -0.15754E+07
         0.53390E+06
         0.55727E+06
        -0.10852E+06
        -0.12981E+07
        -0.18691E+07
        -0.11107E+07
         0.18264E+05
         0.14388E+07
         0.60393E+06
         0.79197E+06
         0.88812E+06
         0.53893E+06
         0.10662E+07
        -0.64388E+06
        -0.12097E+07
         0.18403E+07
        -0.13582E+07
        -0.15779E+07
        -0.16375E+06
        -0.81244E+05
        -0.43511E+07
        -0.14287E+07
        -0.29122E+06
         0.28412E+06
         0.75612E+06
        -0.14025E+06
        -0.35983E+06
        -0.14159E+07
        -0.58888E+06
        -0.21302E+07
        -0.99515E+06
        -0.16110E+07
        -0.37462E+06
        -0.56017E+07
        -0.30569E+07
        -0.20249E+07
        -0.15909E+07
        -0.16578E+06
        -0.67263E+06
         0.83743E+06
         0.15244E+07
        -0.11040E+07
        -0.78975E+06
        -0.33118E+06
        -0.17750E+07
        -0.12416E+07
        -0.80492E+06
        -0.91349E+06
        -0.16426E+07
        -0.14059E+07
        -0.17843E+07
        -0.13373E+07
        -0.66780E+06
        -0.28865E+06
        -0.26693E+06
         0.74181E+06
         0.12647E+07
         0.58408E+06
         0.82611E+06
        -0.34519E+07
        -0.55282E+06
        -0.20157E+07
         0.52212E+06
         0.26414E+07
         0.41382E+07
         0.33852E+07
         0.37100E+07
         0.29186E+07
         0.15133E+07
         0.41924E+06
        -0.46325E+06
        -0.13090E+07
        -0.10342E+06
        -0.21226E+07
        -0.35186E+07
        -0.30060E+07
        -0.26504E+07
        -0.15146E+07
         0.60418E+06
         0.62022E+06
        -0.44930E+05
        -0.12266E+07
        -0.18090E+07
        -0.10619E+07
         0.65316E+05
         0.14256E+07
         0.59632E+06
         0.78463E+06
         0.87748E+06
         0.52934E+06
         0.10585E+07
        -0.65341E+06
        -0.12224E+07
         0.18142E+07
        -0.14063E+07
        -0.15878E+07
        -0.17850E+06
        -0.91270E+05
        -0.43622E+07
        -0.14459E+07
        -0.36808E+06
         0.22924E+06
         0.74659E+06
        -0.22851E+06
        -0.43436E+06
        -0.15078E+07
        -0.67048E+06
        -0.23206E+07
        -0.11510E+07
        -0.17529E+07
        -0.50496E+06
        -0.56311E+07
        -0.31260E+07
        -0.21486E+07
        -0.17983E+07
        -0.21077E+06
        -0.74925E+06
         0.82787E+06
         0.15132E+07
        -0.11202E+07
        -0.79988E+06
        -0.33955E+06
        -0.18016E+07
        -0.12745E+07
        -0.86417E+06
        -0.99261E+06
        -0.17972E+07
        -0.15951E+07
        -0.19729E+07
        -0.14303E+07
        -0.71807E+06
        -0.32484E+06
        -0.28689E+06
         0.72587E+06
         0.12465E+07
         0.56705E+06
         0.81507E+06
        -0.34835E+07
        -0.57456E+06
        -0.20501E+07
         0.49199E+06
         0.26212E+07
         0.41149E+07
         0.33461E+07
         0.36675E+07
         0.28777E+07
         0.14637E+07
         0.34052E+06
        -0.59031E+06
        -0.14286E+07
        -0.16014E+06
        -0.21864E+07
        -0.36940E+07
        -0.31917E+07
        -0.27374E+07
        -0.15559E+07
         0.56479E+06
         0.59028E+06
        -0.80365E+05
        -0.12634E+07
        -0.18341E+07
        -0.10809E+07
         0.46282E+05
         0.14019E+07
         0.58092E+06
         0.77186E+06
         0.86646E+06
         0.51818E+06
         0.10475E+07
        -0.66708E+06
        -0.12441E+07
         0.17829E+07
        -0.14565E+07
        -0.15985E+07
        -0.18773E+06
        -0.10243E+06
        -0.43746E+07
        -0.14540E+07
        -0.42033E+06
         0.18573E+06
         0.73787E+06
        -0.28658E+06
        -0.48779E+06
        -0.15668E+07
        -0.72908E+06
        -0.24376E+07
        -0.12476E+07
        -0.18556E+07
        -0.58864E+06
        -0.56567E+07
        -0.31752E+07
        -0.22363E+07
        -0.19362E+07
        -0.25781E+06
        -0.80508E+06
         0.80716E+06
         0.14974E+07
        -0.11370E+07
        -0.81295E+06
        -0.35223E+06
        -0.18215E+07
        -0.13018E+07
        -0.90925E+06
        -0.10484E+07
        -0.19013E+07
        -0.17193E+07
        -0.20925E+07
        -0.14914E+07
        -0.75118E+06
        -0.35693E+06
        -0.31866E+06
         0.69806E+06
         0.12196E+07
         0.54035E+06
         0.79705E+06
        -0.35120E+07
        -0.59352E+06
        -0.20793E+07
         0.46855E+06
         0.26118E+07
         0.41080E+07
         0.33293E+07
         0.36394E+07
         0.28430E+07
         0.14329E+07
         0.29261E+06
        -0.67822E+06
        -0.15102E+07
        -0.20398E+06
        -0.22315E+07
        -0.38077E+07
        -0.33221E+07
        -0.27995E+07
        -0.15746E+07
         0.52901E+06
         0.55058E+06
        -0.12103E+06
        -0.13109E+07
        -0.18749E+07
        -0.11062E+07
         0.27293E+05
         0.13446E+07
         0.55141E+06
         0.75925E+06
         0.87757E+06
         0.53360E+06
         0.10665E+07
        -0.67731E+06
        -0.12828E+07
         0.17388E+07
        -0.15244E+07
        -0.15888E+07
        -0.15625E+06
        -0.90472E+05
        -0.43678E+07
        -0.14141E+07
        -0.41170E+06
         0.17555E+06
         0.75713E+06
        -0.27459E+06
        -0.47936E+06
        -0.15493E+07
        -0.70838E+06
        -0.24350E+07
        -0.12497E+07
        -0.19001E+07
        -0.60082E+06
        -0.56626E+07
        -0.31788E+07
        -0.22386E+07
        -0.19413E+07
        -0.31385E+06
        -0.83466E+06
         0.77108E+06
         0.14941E+07
        -0.11231E+07
        -0.81114E+06
        -0.35441E+06
        -0.17971E+07
        -0.12809E+07
        -0.88603E+06
        -0.10212E+07
        -0.18854E+07
        -0.17061E+07
        -0.20998E+07
        -0.14988E+07
        -0.75659E+06
        -0.38467E+06
        -0.38221E+06
         0.62972E+06
         0.11829E+07
         0.53170E+06
         0.80585E+06
        -0.34563E+07
        -0.53595E+06
        -0.20323E+07
         0.49991E+06
         0.26448E+07
         0.41528E+07
         0.33800E+07
         0.36879E+07
         0.28989E+07
         0.15068E+07
         0.35718E+06
        -0.63925E+06
        -0.14671E+07
        -0.15908E+06
        -0.21882E+07
        -0.37732E+07
        -0.32969E+07
        -0.27746E+07
        -0.15445E+07
         0.54973E+06
         0.54612E+06
        -0.14931E+06
        -0.13294E+07
        -0.18653E+07
        -0.10783E+07
         0.67285E+05
         0.12575E+07
         0.49920E+06
         0.72908E+06
         0.87131E+06
         0.52256E+06
         0.10661E+07
        -0.71416E+06
        -0.13591E+07
         0.16639E+07
        -0.16250E+07
        -0.16131E+07
        -0.16846E+06
        -0.11048E+06
        -0.44013E+07
        -0.14224E+07
        -0.42790E+06
         0.13979E+06
         0.75575E+06
        -0.28472E+06
        -0.49130E+06
        -0.15573E+07
        -0.71408E+06
        -0.24442E+07
        -0.12615E+07
        -0.19626E+07
        -0.62228E+06
        -0.57061E+07
        -0.32030E+07
        -0.22542E+07
        -0.19580E+07
        -0.39180E+06
        -0.88284E+06
         0.71499E+06
         0.14727E+07
        -0.11427E+07
        -0.83263E+06
        -0.37949E+06
        -0.18180E+07
        -0.13009E+07
        -0.89714E+06
        -0.10261E+07
        -0.18881E+07
        -0.17074E+07
        -0.21178E+07
        -0.15324E+07
        -0.80351E+06
        -0.44871E+06
        -0.47747E+06
         0.53221E+06
         0.11189E+07
         0.49592E+06
         0.79369E+06
        -0.34795E+07
        -0.55395E+06
        -0.20461E+07
         0.48409E+06
         0.26220E+07
         0.41254E+07
         0.33573E+07
         0.36684E+07
         0.28794E+07
         0.14923E+07
         0.34554E+06
        -0.65340E+06
        -0.14696E+07
        -0.16259E+06
        -0.21978E+07
        -0.37786E+07
        -0.33079E+07
        -0.28139E+07
        -0.16030E+07
         0.48522E+06
         0.47365E+06
        -0.23887E+06
        -0.14079E+07
        -0.19069E+07
        -0.11007E+07
         0.49649E+05
         0.12320E+07
         0.47977E+06
         0.71669E+06
         0.86250E+06
         0.51062E+06
         0.10555E+07
        -0.73415E+06
        -0.13849E+07
         0.16422E+07
        -0.16549E+07
        -0.16302E+07
        -0.18559E+06
        -0.13018E+06
        -0.44187E+07
        -0.14366E+07
        -0.44254E+06
         0.12532E+06
         0.74939E+06
        -0.29400E+06
        -0.50054E+06
        -0.15701E+07
        -0.72755E+06
        -0.24564E+07
        -0.12706E+07
        -0.19855E+07
        -0.63463E+06
        -0.57248E+07
        -0.32148E+07
        -0.22763E+07
        -0.19739E+07
        -0.41790E+06
        -0.90199E+06
         0.69856E+06
         0.14612E+07
        -0.11593E+07
        -0.84410E+06
        -0.39471E+06
        -0.18441E+07
        -0.13239E+07
        -0.92015E+06
        -0.10495E+07
        -0.19070E+07
        -0.17193E+07
        -0.21338E+07
        -0.15523E+07
        -0.82544E+06
        -0.46973E+06
        -0.50130E+06
         0.50819E+06
         0.10967E+07
         0.47386E+06
         0.77843E+06
        -0.35113E+07
        -0.58524E+06
        -0.20673E+07
         0.46222E+06
         0.25956E+07
         0.41022E+07
         0.33334E+07
         0.36353E+07
         0.28358E+07
         0.14464E+07
         0.30400E+06
        -0.67219E+06
        -0.14845E+07
        -0.19447E+06
        -0.22314E+07
        -0.38106E+07
        -0.33492E+07
        -0.28536E+07
        -0.16362E+07
         0.45824E+06
         0.45163E+06
        -0.26871E+06
        -0.14473E+07
        -0.19436E+07
        -0.11316E+07
         0.18916E+05
         0.12480E+07
         0.49275E+06
         0.72619E+06
         0.86671E+06
         0.52491E+06
         0.10596E+07
        -0.72476E+06
        -0.13643E+07
         0.16571E+07
        -0.16354E+07
        -0.16170E+07
        -0.16858E+06
        -0.11789E+06
        -0.43961E+07
        -0.14093E+07
        -0.42519E+06
         0.13912E+06
         0.75921E+06
        -0.27642E+06
        -0.48723E+06
        -0.15522E+07
        -0.71096E+06
        -0.24386E+07
        -0.12548E+07
        -0.19709E+07
        -0.62184E+06
        -0.56982E+07
        -0.31962E+07
        -0.22711E+07
        -0.19592E+07
        -0.40420E+06
        -0.89124E+06
         0.71031E+06
         0.14661E+07
        -0.11411E+07
        -0.83013E+06
        -0.38256E+06
        -0.18261E+07
        -0.13099E+07
        -0.90774E+06
        -0.10335E+07
        -0.18900E+07
        -0.17016E+07
        -0.21175E+07
        -0.15387E+07
        -0.81130E+06
        -0.45569E+06
        -0.48513E+06
         0.52432E+06
         0.11092E+07
         0.48346E+06
         0.78239E+06
        -0.34637E+07
        -0.53842E+06
        -0.20393E+07
         0.47367E+06
         0.26189E+07
         0.41384E+07
         0.33738E+07
         0.36640E+07
         0.28470E+07
         0.14635E+07
         0.33467E+06
        -0.62864E+06
        -0.14464E+07
        -0.16977E+06
        -0.22082E+07
        -0.37838E+07
        -0.33219E+07
        -0.28199E+07
        -0.16042E+07
         0.49580E+06
         0.49046E+06
        -0.23408E+06
        -0.14182E+07
        -0.19178E+07
        -0.11059E+07
         0.46757E+05
         0.12437E+07
         0.49152E+06
         0.72370E+06
         0.86120E+06
         0.52295E+06
         0.10542E+07
        -0.72946E+06
        -0.13703E+07
         0.16466E+07
        -0.16467E+07
        -0.16240E+07
        -0.17901E+06
        -0.12110E+06
        -0.44037E+07
        -0.14243E+07
        -0.43452E+06
         0.12976E+06
         0.75223E+06
        -0.28407E+06
        -0.49429E+06
        -0.15586E+07
        -0.71952E+06
        -0.24448E+07
        -0.12608E+07
        -0.19783E+07
        -0.62718E+06
        -0.57042E+07
        -0.31956E+07
        -0.22821E+07
        -0.19668E+07
        -0.41299E+06
        -0.89718E+06
         0.70247E+06
         0.14578E+07
        -0.11474E+07
        -0.83509E+06
        -0.38595E+06
        -0.18487E+07
        -0.13230E+07
        -0.91968E+06
        -0.10450E+07
        -0.18976E+07
        -0.17118E+07
        -0.21218E+07
        -0.15430E+07
        -0.81823E+06
        -0.46534E+06
        -0.49614E+06
         0.51498E+06
         0.11006E+07
         0.47489E+06
         0.77369E+06
        -0.34774E+07
        -0.54923E+06
        -0.20615E+07
         0.45473E+06
         0.26164E+07
         0.41250E+07
         0.33427E+07
         0.36293E+07
         0.28268E+07
         0.14330E+07
         0.30137E+06
        -0.64523E+06
        -0.14661E+07
        -0.18053E+06
        -0.22184E+07
        -0.37933E+07
        -0.33234E+07
        -0.28266E+07
        -0.16136E+07
         0.47038E+06
         0.45905E+06
        -0.25832E+06
        -0.14303E+07
        -0.19237E+07
        -0.11197E+07
         0.27103E+05
         0.12319E+07
         0.48155E+06
         0.71659E+06
         0.85853E+06
         0.51475E+06
         0.10511E+07
        -0.73915E+06
        -0.13799E+07
         0.16371E+07
        -0.16580E+07
        -0.16320E+07
        -0.19281E+06
        -0.13018E+06
        -0.44090E+07
        -0.14396E+07
        -0.44723E+06
         0.12235E+06
         0.74898E+06
        -0.29350E+06
        -0.49944E+06
        -0.15670E+07
        -0.72822E+06
        -0.24544E+07
        -0.12702E+07
        -0.19857E+07
        -0.63691E+06
        -0.57085E+07
        -0.31971E+07
        -0.22937E+07
        -0.19724E+07
        -0.42522E+06
        -0.90685E+06
         0.69907E+06
         0.14569E+07
        -0.11621E+07
        -0.84401E+06
        -0.39405E+06
        -0.18707E+07
        -0.13377E+07
        -0.93018E+06
        -0.10515E+07
        -0.19041E+07
        -0.17211E+07
        -0.21303E+07
        -0.15510E+07
        -0.82760E+06
        -0.47434E+06
        -0.50570E+06
         0.50606E+06
         0.10930E+07
         0.46676E+06
         0.76993E+06
        -0.35049E+07
        -0.57209E+06
        -0.20783E+07
         0.44897E+06
         0.26090E+07
         0.40980E+07
         0.33037E+07
         0.35979E+07
         0.28058E+07
         0.14111E+07
         0.28776E+06
        -0.66160E+06
        -0.14896E+07
        -0.19655E+06
        -0.22353E+07
        -0.38129E+07
        -0.33363E+07
        -0.28419E+07
        -0.16324E+07
         0.44942E+06
         0.43521E+06
        -0.28312E+06
        -0.14480E+07
        -0.19405E+07
        -0.11409E+07
         0.47347E+04
         0.12394E+07
         0.48555E+06
         0.72008E+06
         0.86527E+06
         0.52462E+06
         0.10602E+07
        -0.73399E+06
        -0.13652E+07
         0.16442E+07
        -0.16496E+07
        -0.16196E+07
        -0.18121E+06
        -0.12659E+06
        -0.43880E+07
        -0.14143E+07
        -0.43782E+06
         0.12788E+06
         0.75875E+06
        -0.28289E+06
        -0.48872E+06
        -0.15527E+07
        -0.71339E+06
        -0.24424E+07
        -0.12605E+07
        -0.19794E+07
        -0.62896E+06
        -0.56916E+07
        -0.31845E+07
        -0.22868E+07
        -0.19562E+07
        -0.41459E+06
        -0.89956E+06
         0.71279E+06
         0.14681E+07
        -0.11510E+07
        -0.83493E+06
        -0.38885E+06
        -0.18563E+07
        -0.13237E+07
        -0.91172E+06
        -0.10337E+07
        -0.18913E+07
        -0.17068E+07
        -0.21202E+07
        -0.15426E+07
        -0.81970E+06
        -0.46572E+06
        -0.49599E+06
         0.51675E+06
         0.11036E+07
         0.47683E+06
         0.78060E+06
        -0.34701E+07
        -0.53436E+06
        -0.20428E+07
         0.46633E+06
         0.26034E+07
         0.40999E+07
         0.33317E+07
         0.36288E+07
         0.28269E+07
         0.14429E+07
         0.31789E+06
        -0.64728E+06
        -0.14642E+07
        -0.17068E+06
        -0.22119E+07
        -0.37949E+07
        -0.33240E+07
        -0.28265E+07
        -0.16178E+07
         0.47202E+06
         0.46201E+06
        -0.25738E+06
        -0.14255E+07
        -0.19215E+07
        -0.11129E+07
         0.37401E+05
         0.12338E+07
         0.47754E+06
         0.71319E+06
         0.85894E+06
         0.51627E+06
         0.10523E+07
        -0.74559E+06
        -0.13738E+07
         0.16367E+07
        -0.16636E+07
        -0.16313E+07
        -0.19835E+06
        -0.14472E+06
        -0.43984E+07
        -0.14251E+07
        -0.44822E+06
         0.11833E+06
         0.75119E+06
        -0.29445E+06
        -0.49707E+06
        -0.15681E+07
        -0.72916E+06
        -0.24587E+07
        -0.12713E+07
        -0.19934E+07
        -0.63754E+06
        -0.57075E+07
        -0.31959E+07
        -0.23051E+07
        -0.19660E+07
        -0.42605E+06
        -0.90869E+06
         0.70283E+06
         0.14606E+07
        -0.11650E+07
        -0.84542E+06
        -0.40233E+06
        -0.18802E+07
        -0.13469E+07
        -0.93166E+06
        -0.10556E+07
        -0.19120E+07
        -0.17227E+07
        -0.21378E+07
        -0.15577E+07
        -0.83337E+06
        -0.47865E+06
        -0.51087E+06
         0.50518E+06
         0.10950E+07
         0.46594E+06
         0.77066E+06
        -0.34973E+07
        -0.55778E+06
        -0.20695E+07
         0.43538E+06
         0.25674E+07
         0.40654E+07
         0.33105E+07
         0.36016E+07
         0.27913E+07
         0.14076E+07
         0.27492E+06
        -0.68972E+06
        -0.14923E+07
        -0.19989E+06
        -0.22371E+07
        -0.38238E+07
        -0.33684E+07
        -0.28664E+07
        -0.16376E+07
         0.44433E+06
         0.43358E+06
        -0.27199E+06
        -0.14353E+07
        -0.19423E+07
        -0.11415E+07
         0.89131E+04
         0.12327E+07
         0.47483E+06
         0.71111E+06
         0.85777E+06
         0.51585E+06
         0.10505E+07
        -0.74966E+06
        -0.13734E+07
         0.16378E+07
        -0.16636E+07
        -0.16327E+07
        -0.20078E+06
        -0.14782E+06
        -0.43947E+07
        -0.14240E+07
        -0.45078E+06
         0.11876E+06
         0.75101E+06
        -0.29552E+06
        -0.49725E+06
        -0.15712E+07
        -0.73153E+06
        -0.24624E+07
        -0.12734E+07
        -0.19957E+07
        -0.64029E+06
        -0.57041E+07
        -0.31957E+07
        -0.23151E+07
        -0.19684E+07
        -0.43258E+06
        -0.91237E+06
         0.70027E+06
         0.14597E+07
        -0.11686E+07
        -0.84849E+06
        -0.40623E+06
        -0.18919E+07
        -0.13604E+07
        -0.94007E+06
        -0.10581E+07
        -0.19142E+07
        -0.17249E+07
        -0.21405E+07
        -0.15601E+07
        -0.83655E+06
        -0.48267E+06
        -0.51682E+06
         0.50079E+06
         0.10933E+07
         0.46403E+06
         0.76842E+06
        -0.34979E+07
        -0.55719E+06
        -0.20766E+07
         0.42345E+06
         0.25667E+07
         0.40648E+07
         0.33020E+07
         0.35788E+07
         0.27657E+07
         0.13935E+07
         0.27354E+06
        -0.69388E+06
        -0.14994E+07
        -0.21124E+06
        -0.22503E+07
        -0.38331E+07
        -0.33744E+07
        -0.28717E+07
        -0.16432E+07
         0.43434E+06
         0.42107E+06
        -0.28000E+06
        -0.14360E+07
        -0.19448E+07
        -0.11542E+07
        -0.26685E+04
         0.12566E+07
         0.49963E+06
         0.73180E+06
         0.87359E+06
         0.54352E+06
         0.10708E+07
        -0.72655E+06
        -0.13438E+07
         0.16555E+07
        -0.16412E+07
        -0.16038E+07
        -0.16386E+06
        -0.11592E+06
        -0.43607E+07
        -0.13863E+07
        -0.42960E+06
         0.13773E+06
         0.76765E+06
        -0.27235E+06
        -0.47578E+06
        -0.15398E+07
        -0.70224E+06
        -0.24329E+07
        -0.12523E+07
        -0.19708E+07
        -0.62210E+06
        -0.56706E+07
        -0.31659E+07
        -0.22948E+07
        -0.19383E+07
        -0.41018E+06
        -0.89166E+06
         0.72014E+06
         0.14743E+07
        -0.11383E+07
        -0.82287E+06
        -0.37973E+06
        -0.18689E+07
        -0.13321E+07
        -0.90957E+06
        -0.10282E+07
        -0.18846E+07
        -0.16983E+07
        -0.21099E+07
        -0.15296E+07
        -0.80554E+06
        -0.45552E+06
        -0.49184E+06
         0.52218E+06
         0.11124E+07
         0.48484E+06
         0.78683E+06
        -0.34347E+07
        -0.49419E+06
        -0.20235E+07
         0.46182E+06
         0.26136E+07
         0.41241E+07
         0.33517E+07
         0.36165E+07
         0.28083E+07
         0.14400E+07
         0.31544E+06
        -0.64477E+06
        -0.14605E+07
        -0.16795E+06
        -0.22011E+07
        -0.37818E+07
        -0.33164E+07
        -0.28093E+07
        -0.15896E+07
         0.49022E+06
         0.46881E+06
        -0.24452E+06
        -0.13967E+07
        -0.18981E+07
        -0.11037E+07
         0.48339E+05
         0.12464E+07
         0.49241E+06
         0.72540E+06
         0.86552E+06
         0.53286E+06
         0.10626E+07
        -0.73714E+06
        -0.13552E+07
         0.16445E+07
        -0.16588E+07
        -0.16154E+07
        -0.17704E+06
        -0.12406E+06
        -0.43718E+07
        -0.14020E+07
        -0.44278E+06
         0.12570E+06
         0.76177E+06
        -0.28764E+06
        -0.48616E+06
        -0.15500E+07
        -0.71663E+06
        -0.24430E+07
        -0.12653E+07
        -0.19870E+07
        -0.63409E+06
        -0.56848E+07
        -0.31731E+07
        -0.23040E+07
        -0.19453E+07
        -0.41880E+06
        -0.90200E+06
         0.71406E+06
         0.14650E+07
        -0.11563E+07
        -0.83233E+06
        -0.38618E+06
        -0.18958E+07
        -0.13511E+07
        -0.91867E+06
        -0.10420E+07
        -0.19008E+07
        -0.17165E+07
        -0.21230E+07
        -0.15427E+07
        -0.81840E+06
        -0.46624E+06
        -0.50027E+06
         0.51252E+06
         0.10996E+07
         0.47176E+06
         0.77662E+06
        -0.34748E+07
        -0.52801E+06
        -0.20545E+07
         0.44547E+06
         0.26081E+07
         0.41088E+07
         0.33178E+07
         0.35756E+07
         0.27689E+07
         0.14049E+07
         0.27402E+06
        -0.69218E+06
        -0.14941E+07
        -0.18462E+06
        -0.22090E+07
        -0.37869E+07
        -0.33326E+07
        -0.28375E+07
        -0.16105E+07
         0.46532E+06
         0.44604E+06
        -0.27018E+06
        -0.14240E+07
        -0.19154E+07
        -0.11199E+07
         0.21390E+05
         0.12295E+07
         0.47414E+06
         0.70783E+06
         0.85432E+06
         0.51538E+06
         0.10464E+07
        -0.75314E+06
        -0.13690E+07
         0.16285E+07
        -0.16902E+07
        -0.16297E+07
        -0.19834E+06
        -0.14179E+06
        -0.43832E+07
        -0.14220E+07
        -0.45880E+06
         0.10734E+06
         0.75469E+06
        -0.30018E+06
        -0.49080E+06
        -0.15627E+07
        -0.73346E+06
        -0.24551E+07
        -0.12764E+07
        -0.20153E+07
        -0.64586E+06
        -0.57177E+07
        -0.31862E+07
        -0.22786E+07
        -0.19240E+07
        -0.43363E+06
        -0.91649E+06
         0.70805E+06
         0.14589E+07
        -0.11765E+07
        -0.84823E+06
        -0.40202E+06
        -0.19355E+07
        -0.13698E+07
        -0.89057E+06
        -0.10433E+07
        -0.19182E+07
        -0.17409E+07
        -0.21371E+07
        -0.15594E+07
        -0.83905E+06
        -0.48509E+06
        -0.51516E+06
         0.50131E+06
         0.10892E+07
         0.46021E+06
         0.76404E+06
        -0.35015E+07
        -0.55260E+06
        -0.20754E+07
         0.42707E+06
         0.25825E+07
         0.40670E+07
         0.32700E+07
         0.35300E+07
         0.27292E+07
         0.13957E+07
         0.20173E+06
        -0.80585E+06
        -0.15412E+07
        -0.21080E+06
        -0.22325E+07
        -0.38080E+07
        -0.33584E+07
        -0.28670E+07
        -0.16448E+07
         0.42639E+06
         0.41990E+06
        -0.29470E+06
        -0.14519E+07
        -0.19361E+07
        -0.11518E+07
        -0.14491E+05
         0.12522E+07
         0.49692E+06
         0.73031E+06
         0.87334E+06
         0.54474E+06
         0.10683E+07
        -0.73309E+06
        -0.13398E+07
         0.16409E+07
        -0.16951E+07
        -0.16037E+07
        -0.17078E+06
        -0.11821E+06
        -0.43509E+07
        -0.13883E+07
        -0.43737E+06
         0.12040E+06
         0.77039E+06
        -0.27345E+06
        -0.45603E+06
        -0.15365E+07
        -0.70786E+06
        -0.24314E+07
        -0.12537E+07
        -0.20098E+07
        -0.62603E+06
        -0.57230E+07
        -0.31669E+07
        -0.21853E+07
        -0.18308E+07
        -0.41465E+06
        -0.89544E+06
         0.72752E+06
         0.14780E+07
        -0.11440E+07
        -0.81973E+06
        -0.37698E+06
        -0.19338E+07
        -0.13373E+07
        -0.78303E+06
        -0.98584E+06
        -0.18882E+07
        -0.17254E+07
        -0.21108E+07
        -0.15296E+07
        -0.80458E+06
        -0.45679E+06
        -0.49232E+06
         0.52475E+06
         0.11153E+07
         0.48786E+06
         0.78582E+06
        -0.34364E+07
        -0.48860E+06
        -0.20100E+07
         0.47278E+06
         0.26118E+07
         0.41007E+07
         0.33166E+07
         0.35771E+07
         0.27812E+07
         0.14969E+07
         0.17830E+06
        -0.89732E+06
        -0.15378E+07
        -0.17491E+06
        -0.22025E+07
        -0.37829E+07
        -0.33271E+07
        -0.28149E+07
        -0.15807E+07
         0.48619E+06
         0.47167E+06
        -0.24138E+06
        -0.13916E+07
        -0.18803E+07
        -0.11067E+07
         0.32753E+05
         0.11669E+07
         0.41278E+06
         0.64933E+06
         0.80209E+06
         0.44331E+06
         0.97572E+06
        -0.81704E+06
        -0.14384E+07
         0.15522E+07
        -0.18181E+07
        -0.17020E+07
        -0.30233E+06
        -0.24048E+06
        -0.44584E+07
        -0.15219E+07
        -0.52139E+06
         0.33451E+05
         0.70917E+06
        -0.36299E+06
        -0.52567E+06
        -0.16503E+07
        -0.81960E+06
        -0.25418E+07
        -0.13345E+07
        -0.21229E+07
        -0.69406E+06
        -0.58532E+07
        -0.32498E+07
        -0.22315E+07
        -0.18943E+07
        -0.49696E+06
        -0.97262E+06
         0.65403E+06
         0.14008E+07
        -0.12649E+07
        -0.92249E+06
        -0.48667E+06
        -0.20881E+07
        -0.14584E+07
        -0.85429E+06
        -0.10984E+07
        -0.20098E+07
        -0.18471E+07
        -0.22174E+07
        -0.16404E+07
        -0.93349E+06
        -0.56584E+06
        -0.59021E+06
         0.43132E+06
         0.10122E+07
         0.36505E+06
         0.68087E+06
        -0.36630E+07
        -0.70845E+06
        -0.22386E+07
         0.23989E+06
         0.23798E+07
         0.38771E+07
         0.30893E+07
         0.33330E+07
         0.25524E+07
         0.12885E+07
        -0.11209E+06
        -0.12133E+07
        -0.17617E+07
        -0.36069E+06
        -0.23973E+07
        -0.39853E+07
        -0.35360E+07
        -0.30486E+07
        -0.18209E+07
         0.25591E+06
         0.25814E+06
        -0.44589E+06
        -0.16008E+07
        -0.20954E+07
        -0.13133E+07
        -0.17248E+06
         0.12156E+07
         0.41850E+06
         0.66445E+06
         0.83071E+06
         0.47817E+06
         0.10068E+07
        -0.80784E+06
        -0.13766E+07
         0.16109E+07
        -0.17289E+07
        -0.16746E+07
        -0.29995E+06
        -0.27186E+06
        -0.43851E+07
        -0.14611E+07
        -0.45721E+06
         0.90130E+05
         0.74504E+06
        -0.31457E+06
        -0.48337E+06
        -0.15983E+07
        -0.78114E+06
        -0.24625E+07
        -0.12742E+07
        -0.20258E+07
        -0.64471E+06
        -0.57419E+07
        -0.31505E+07
        -0.21543E+07
        -0.18002E+07
        -0.44775E+06
        -0.93878E+06
         0.67789E+06
         0.13902E+07
        -0.12469E+07
        -0.92994E+06
        -0.51764E+06
        -0.20173E+07
        -0.13731E+07
        -0.77992E+06
        -0.10476E+07
        -0.19413E+07
        -0.17743E+07
        -0.21444E+07
        -0.15995E+07
        -0.91364E+06
        -0.54919E+06
        -0.54869E+06
         0.46288E+06
         0.10140E+07
         0.37311E+06
         0.68310E+06
        -0.35758E+07
        -0.59501E+06
        -0.22098E+07
         0.18964E+06
         0.22756E+07
         0.38136E+07
         0.31932E+07
         0.34399E+07
         0.26376E+07
         0.13391E+07
        -0.97950E+05
        -0.11700E+07
        -0.16770E+07
        -0.31878E+06
        -0.23090E+07
        -0.38590E+07
        -0.34283E+07
        -0.29662E+07
        -0.17851E+07
         0.25176E+06
         0.30569E+06
        -0.37795E+06
        -0.14929E+07
        -0.19644E+07
        -0.12102E+07
        -0.65749E+05
         0.33542E+09
         0.33347E+09
         0.32943E+09
         0.28766E+09
         0.40175E+09
         0.36432E+09
         0.33960E+09
         0.38073E+09
         0.31693E+09
         0.38084E+09
         0.39177E+09
         0.50407E+09
         0.44650E+09
         0.41878E+09
         0.51895E+09
         0.31224E+09
         0.31489E+09
         0.25441E+09
         0.33722E+09
         0.33090E+09
         0.40970E+09
         0.41237E+09
         0.39032E+09
         0.30992E+09
         0.36867E+09
         0.27586E+09
         0.41292E+09
         0.35335E+09
         0.37189E+09
         0.38323E+09
         0.31072E+09
         0.30348E+09
         0.28841E+09
         0.29941E+09
         0.45311E+09
         0.39162E+09
         0.40031E+09
         0.48799E+09
         0.46449E+09
         0.45550E+09
         0.47698E+09
         0.44762E+09
         0.42426E+09
         0.37567E+09
         0.38971E+09
         0.45802E+09
         0.40388E+09
         0.37100E+09
         0.35595E+09
         0.37622E+09
         0.43190E+09
         0.38269E+09
         0.82883E+09
         0.81197E+09
         0.82695E+09
         0.80093E+09
         0.82664E+09
         0.86752E+09
         0.87127E+09
         0.86180E+09
         0.86853E+09
         0.89234E+09
         0.86461E+09
         0.81455E+09
         0.72239E+09
         0.68193E+09
         0.69181E+09
         0.70788E+09
         0.71734E+09
         0.78192E+09
         0.83821E+09
         0.84221E+09
         0.77236E+09
         0.74488E+09
         0.77127E+09
         0.76267E+09
         0.75711E+09
         0.75871E+09
         0.38546E+10
         0.40394E+10
         0.39812E+10
         0.36327E+10
         0.44721E+10
         0.42006E+10
         0.43712E+10
         0.44039E+10
         0.37704E+10
         0.44017E+10
         0.48012E+10
         0.53783E+10
         0.48747E+10
         0.49406E+10
         0.55668E+10
         0.36941E+10
         0.39718E+10
         0.34660E+10
         0.41020E+10
         0.43166E+10
         0.44625E+10
         0.45608E+10
         0.42835E+10
         0.39451E+10
         0.44542E+10
         0.38068E+10
         0.49226E+10
         0.48400E+10
         0.48618E+10
         0.46121E+10
         0.37343E+10
         0.39280E+10
         0.36616E+10
         0.38296E+10
         0.48969E+10
         0.44934E+10
         0.45076E+10
         0.53907E+10
         0.52533E+10
         0.51904E+10
         0.52805E+10
         0.50137E+10
         0.47402E+10
         0.41823E+10
         0.43560E+10
         0.48947E+10
         0.45267E+10
         0.42562E+10
         0.41720E+10
         0.43257E+10
         0.46959E+10
         0.43382E+10
         0.77767E+10
         0.75738E+10
         0.77332E+10
         0.74879E+10
         0.77128E+10
         0.81129E+10
         0.82465E+10
         0.82310E+10
         0.82906E+10
         0.84816E+10
         0.82326E+10
         0.77330E+10
         0.69259E+10
         0.65423E+10
         0.65586E+10
         0.66423E+10
         0.67069E+10
         0.72791E+10
         0.78090E+10
         0.78406E+10
         0.72509E+10
         0.70248E+10
         0.72588E+10
         0.72067E+10
         0.71229E+10
         0.71029E+10
  
SCALARS                      stress_yy  double 1
LOOKUP_TABLE default
         0.14141E+13
         0.13962E+13
         0.14076E+13
         0.14279E+13
        -0.19561E+03
        -0.21934E+03
        -0.21003E+03
        -0.19080E+03
         0.13956E+13
         0.14017E+13
        -0.19724E+03
        -0.19088E+03
         0.13703E+13
         0.13693E+13
        -0.23437E+03
        -0.22036E+03
         0.14250E+13
         0.13707E+13
        -0.17317E+03
        -0.19207E+03
         0.13508E+13
         0.13353E+13
         0.13599E+13
        -0.23228E+03
        -0.20286E+03
        -0.20947E+03
         0.13359E+13
         0.13132E+13
        -0.22284E+03
        -0.18793E+03
         0.14240E+13
         0.14004E+13
         0.14468E+13
        -0.19016E+03
        -0.17679E+03
        -0.17188E+03
         0.14103E+13
         0.13803E+13
        -0.20119E+03
        -0.18358E+03
         0.13984E+13
         0.13752E+13
        -0.17388E+03
        -0.15393E+03
         0.14181E+13
         0.14268E+13
        -0.19055E+03
        -0.21291E+03
         0.13566E+13
        -0.18615E+03
         0.14251E+13
        -0.21874E+03
         0.13293E+13
        -0.19658E+03
         0.13222E+13
        -0.18856E+03
         0.13223E+13
         0.13476E+13
        -0.19212E+03
        -0.18711E+03
         0.14235E+13
         0.14144E+13
        -0.19265E+03
        -0.21779E+03
         0.14292E+13
        -0.18589E+03
         0.14184E+13
        -0.20288E+03
         0.13900E+13
         0.13872E+13
        -0.19529E+03
        -0.20463E+03
         0.13808E+13
        -0.20635E+03
         0.13051E+13
        -0.16303E+03
         0.13012E+13
        -0.15824E+03
         0.13031E+13
        -0.16685E+03
         0.13141E+13
         0.13255E+13
        -0.15897E+03
        -0.16574E+03
         0.13484E+13
        -0.15436E+03
         0.14176E+13
        -0.20243E+03
         0.14068E+13
        -0.20718E+03
         0.13980E+13
         0.13931E+13
        -0.19896E+03
        -0.20128E+03
         0.13991E+13
        -0.18282E+03
         0.14034E+13
        -0.18021E+03
         0.13995E+13
        -0.19292E+03
         0.13982E+13
         0.14021E+13
        -0.18919E+03
        -0.19474E+03
         0.13768E+13
         0.13870E+13
        -0.14689E+03
        -0.13815E+03
         0.13749E+13
        -0.14026E+03
         0.13867E+13
        -0.13448E+03
         0.13750E+13
        -0.13261E+03
         0.13492E+13
        -0.12532E+03
         0.13241E+13
        -0.11133E+03
         0.13090E+13
        -0.10025E+03
         0.13075E+13
        -0.99550E+02
         0.13080E+13
        -0.10796E+03
         0.13243E+13
        -0.11346E+03
         0.13547E+13
        -0.10360E+03
         0.13881E+13
        -0.93385E+02
         0.14077E+13
        -0.93279E+02
         0.14270E+13
        -0.10426E+03
         0.14397E+13
        -0.11888E+03
         0.14392E+13
        -0.12772E+03
         0.14083E+13
        -0.13793E+03
         0.13867E+13
        -0.14777E+03
         0.13793E+13
        -0.13537E+03
         0.13908E+13
        -0.11876E+03
         0.13969E+13
        -0.11839E+03
         0.13868E+13
        -0.12953E+03
         0.13869E+13
        -0.13809E+03
         0.13946E+13
        -0.13105E+03
         0.14045E+13
        -0.12669E+03
        -0.26734E+11
        -0.25928E+11
        -0.26039E+11
        -0.27066E+11
        -0.25108E+11
        -0.26133E+11
        -0.24853E+11
        -0.25534E+11
        -0.26909E+11
        -0.26068E+11
        -0.24096E+11
        -0.23859E+11
        -0.24485E+11
        -0.24527E+11
        -0.24126E+11
        -0.27019E+11
        -0.26833E+11
        -0.27348E+11
        -0.25838E+11
        -0.26126E+11
        -0.25713E+11
        -0.25987E+11
        -0.25477E+11
        -0.25611E+11
        -0.26102E+11
        -0.26067E+11
        -0.25218E+11
        -0.25297E+11
        -0.24642E+11
        -0.25623E+11
        -0.26928E+11
        -0.25916E+11
        -0.26921E+11
        -0.26265E+11
        -0.23694E+11
        -0.24557E+11
        -0.24955E+11
        -0.24487E+11
        -0.24425E+11
        -0.23631E+11
        -0.23035E+11
        -0.24460E+11
        -0.25730E+11
        -0.25563E+11
        -0.24917E+11
        -0.23726E+11
        -0.24746E+11
        -0.25783E+11
        -0.25712E+11
        -0.24913E+11
        -0.24059E+11
        -0.25202E+11
        -0.21526E+11
        -0.22669E+11
        -0.22483E+11
        -0.22745E+11
        -0.22678E+11
        -0.22069E+11
        -0.21427E+11
        -0.21215E+11
        -0.21307E+11
        -0.21242E+11
        -0.20963E+11
        -0.22620E+11
        -0.23215E+11
        -0.23441E+11
        -0.23819E+11
        -0.24103E+11
        -0.24090E+11
        -0.23605E+11
        -0.21914E+11
        -0.22327E+11
        -0.22913E+11
        -0.22907E+11
        -0.22806E+11
        -0.22243E+11
        -0.23069E+11
        -0.23367E+11
         0.68923E+06
        -0.16909E+06
         0.10135E+06
         0.14609E+07
         0.66440E+06
         0.16915E+07
        -0.74745E+06
        -0.18055E+07
         0.12026E+07
        -0.19082E+07
        -0.21965E+07
        -0.11867E+07
        -0.19734E+06
        -0.34218E+07
        -0.22006E+07
         0.30364E+06
         0.91723E+06
         0.10437E+07
        -0.66373E+06
         0.11983E+06
        -0.29713E+06
         0.56903E+06
        -0.83965E+06
        -0.37633E+06
        -0.21278E+07
        -0.25843E+06
        -0.45983E+07
        -0.29306E+07
        -0.15650E+07
        -0.18455E+07
         0.12193E+06
        -0.86069E+05
         0.10447E+07
         0.17085E+07
         0.81087E+05
        -0.42586E+05
         0.94331E+05
        -0.22387E+07
        -0.21996E+07
        -0.15138E+07
        -0.16137E+06
        -0.36029E+06
        -0.23689E+06
        -0.92041E+06
        -0.99382E+06
        -0.14378E+07
        -0.60743E+06
        -0.36926E+05
        -0.70466E+05
         0.39654E+06
         0.89524E+06
         0.18900E+07
        -0.19300E+07
         0.88791E+06
        -0.13001E+07
         0.61262E+06
         0.20303E+07
         0.29644E+07
         0.20912E+07
         0.25561E+07
         0.18655E+07
         0.84695E+06
         0.11558E+07
         0.11352E+07
         0.27622E+06
         0.14291E+07
        -0.52832E+06
        -0.20464E+07
        -0.21261E+07
        -0.23357E+07
        -0.23827E+07
        -0.68199E+06
        -0.50224E+06
        -0.11535E+07
        -0.20167E+07
        -0.14434E+07
         0.23565E+06
         0.13941E+07
         0.59825E+06
        -0.25840E+06
         0.13802E+05
         0.13874E+07
         0.55504E+06
         0.15930E+07
        -0.83243E+06
        -0.19118E+07
         0.11103E+07
        -0.20243E+07
        -0.23017E+07
        -0.13280E+07
        -0.31946E+06
        -0.35327E+07
        -0.23420E+07
         0.20811E+06
         0.82390E+06
         0.98070E+06
        -0.76519E+06
         0.30891E+05
        -0.41899E+06
         0.45071E+06
        -0.96439E+06
        -0.47277E+06
        -0.22492E+07
        -0.33925E+06
        -0.47059E+07
        -0.30190E+07
        -0.16613E+07
        -0.19706E+07
         0.31543E+05
        -0.17062E+06
         0.96653E+06
         0.16361E+07
        -0.42665E+05
        -0.14744E+06
        -0.13066E+05
        -0.23806E+07
        -0.23315E+07
        -0.16429E+07
        -0.30106E+06
        -0.49639E+06
        -0.36667E+06
        -0.10403E+07
        -0.11068E+07
        -0.15631E+07
        -0.72048E+06
        -0.14173E+06
        -0.16454E+06
         0.30048E+06
         0.78080E+06
         0.17874E+07
        -0.21571E+07
         0.66628E+06
        -0.15184E+07
         0.40377E+06
         0.18093E+07
         0.27186E+07
         0.18457E+07
         0.23078E+07
         0.16142E+07
         0.59018E+06
         0.90031E+06
         0.89890E+06
         0.78856E+05
         0.12446E+07
        -0.72143E+06
        -0.22527E+07
        -0.23370E+07
        -0.25559E+07
        -0.26038E+07
        -0.91563E+06
        -0.72295E+06
        -0.13528E+07
        -0.22165E+07
        -0.16475E+07
         0.29350E+05
         0.11841E+07
         0.61980E+06
        -0.24082E+06
         0.32392E+05
         0.14066E+07
         0.58309E+06
         0.16188E+07
        -0.81502E+06
        -0.18898E+07
         0.11253E+07
        -0.20222E+07
        -0.22814E+07
        -0.13008E+07
        -0.29606E+06
        -0.35042E+07
        -0.23084E+07
         0.18908E+06
         0.81879E+06
         0.99797E+06
        -0.79048E+06
         0.14396E+05
        -0.43948E+06
         0.44298E+06
        -0.10462E+07
        -0.54231E+06
        -0.23030E+07
        -0.39563E+06
        -0.46849E+07
        -0.30309E+07
        -0.17011E+07
        -0.20583E+07
         0.32077E+05
        -0.18956E+06
         0.98464E+06
         0.16599E+07
        -0.10309E+05
        -0.12129E+06
         0.10645E+05
        -0.23568E+07
        -0.23111E+07
        -0.16357E+07
        -0.30473E+06
        -0.54581E+06
        -0.43663E+06
        -0.11208E+07
        -0.11263E+07
        -0.15460E+07
        -0.70012E+06
        -0.11749E+06
        -0.13844E+06
         0.33047E+06
         0.81322E+06
         0.18164E+07
        -0.20893E+07
         0.72690E+06
        -0.14514E+07
         0.45552E+06
         0.18476E+07
         0.27569E+07
         0.18946E+07
         0.23569E+07
         0.16637E+07
         0.64156E+06
         0.93060E+06
         0.89771E+06
         0.82056E+05
         0.12785E+07
        -0.69891E+06
        -0.22945E+07
        -0.23826E+07
        -0.25442E+07
        -0.25432E+07
        -0.84529E+06
        -0.66018E+06
        -0.12894E+07
        -0.21454E+07
        -0.15874E+07
         0.78369E+05
         0.12315E+07
         0.60702E+06
        -0.24836E+06
         0.25049E+05
         0.13947E+07
         0.57234E+06
         0.16100E+07
        -0.82240E+06
        -0.19051E+07
         0.10985E+07
        -0.20736E+07
        -0.22930E+07
        -0.13153E+07
        -0.30573E+06
        -0.35165E+07
        -0.23268E+07
         0.11313E+06
         0.76361E+06
         0.98688E+06
        -0.87926E+06
        -0.60137E+05
        -0.53205E+06
         0.36122E+06
        -0.12366E+07
        -0.69788E+06
        -0.24467E+07
        -0.52465E+06
        -0.47143E+07
        -0.31027E+07
        -0.18193E+07
        -0.22669E+07
        -0.11549E+05
        -0.26552E+06
         0.97067E+06
         0.16482E+07
        -0.26210E+05
        -0.13204E+06
         0.20088E+04
        -0.23835E+07
        -0.23441E+07
        -0.16944E+07
        -0.38401E+06
        -0.69991E+06
        -0.62604E+06
        -0.13101E+07
        -0.12200E+07
        -0.15965E+07
        -0.73659E+06
        -0.13656E+06
        -0.15419E+06
         0.31258E+06
         0.79594E+06
         0.18052E+07
        -0.21210E+07
         0.70499E+06
        -0.14860E+07
         0.42539E+06
         0.18272E+07
         0.27336E+07
         0.18555E+07
         0.23147E+07
         0.16226E+07
         0.59183E+06
         0.85190E+06
         0.77054E+06
        -0.37573E+05
         0.12217E+07
        -0.76263E+06
        -0.24700E+07
        -0.25687E+07
        -0.26313E+07
        -0.25847E+07
        -0.88464E+06
        -0.69030E+06
        -0.13249E+07
        -0.21826E+07
        -0.16123E+07
         0.59507E+05
         0.12128E+07
         0.58361E+06
        -0.26370E+06
         0.12291E+05
         0.13823E+07
         0.56005E+06
         0.15978E+07
        -0.83381E+06
        -0.19294E+07
         0.10663E+07
        -0.21269E+07
        -0.23054E+07
        -0.13242E+07
        -0.31653E+06
        -0.35301E+07
        -0.23360E+07
         0.61830E+05
         0.71981E+06
         0.97660E+06
        -0.93787E+06
        -0.11353E+06
        -0.59182E+06
         0.30247E+06
        -0.13537E+07
        -0.79408E+06
        -0.25509E+07
        -0.60674E+06
        -0.47399E+07
        -0.31546E+07
        -0.19011E+07
        -0.24057E+07
        -0.57070E+05
        -0.32044E+06
         0.94553E+06
         0.16318E+07
        -0.42639E+05
        -0.14574E+06
        -0.10944E+05
        -0.24035E+07
        -0.23716E+07
        -0.17390E+07
        -0.44003E+06
        -0.80347E+06
        -0.75031E+06
        -0.14306E+07
        -0.12820E+07
        -0.16299E+07
        -0.76898E+06
        -0.16745E+06
        -0.18183E+06
         0.28596E+06
         0.76900E+06
         0.17869E+07
        -0.21494E+07
         0.68586E+06
        -0.15156E+07
         0.40194E+06
         0.18177E+07
         0.27269E+07
         0.18390E+07
         0.22868E+07
         0.15877E+07
         0.56105E+06
         0.80398E+06
         0.68251E+06
        -0.11913E+06
         0.11778E+07
        -0.80762E+06
        -0.25837E+07
        -0.26994E+07
        -0.26936E+07
        -0.26036E+07
        -0.92038E+06
        -0.73019E+06
        -0.13657E+07
        -0.22304E+07
        -0.16530E+07
         0.34472E+05
         0.11942E+07
         0.52666E+06
        -0.29311E+06
        -0.33649E+03
         0.13920E+07
         0.57432E+06
         0.16157E+07
        -0.84171E+06
        -0.19706E+07
         0.10213E+07
        -0.21980E+07
        -0.22974E+07
        -0.12925E+07
        -0.30422E+06
        -0.35245E+07
        -0.22973E+07
         0.71418E+05
         0.70931E+06
         0.99429E+06
        -0.92645E+06
        -0.10500E+06
        -0.57505E+06
         0.32304E+06
        -0.13512E+07
        -0.79565E+06
        -0.25968E+07
        -0.61725E+06
        -0.47459E+07
        -0.31609E+07
        -0.18975E+07
        -0.24117E+07
        -0.11156E+06
        -0.34902E+06
         0.90494E+06
         0.16277E+07
        -0.28361E+05
        -0.14455E+06
        -0.13399E+05
        -0.23793E+07
        -0.23508E+07
        -0.17153E+07
        -0.41313E+06
        -0.78700E+06
        -0.73715E+06
        -0.14389E+07
        -0.12904E+07
        -0.16356E+07
        -0.79709E+06
        -0.23024E+06
        -0.25003E+06
         0.24964E+06
         0.76013E+06
         0.17955E+07
        -0.20937E+07
         0.74327E+06
        -0.14690E+07
         0.43330E+06
         0.18505E+07
         0.27717E+07
         0.18898E+07
         0.23357E+07
         0.16434E+07
         0.63489E+06
         0.86854E+06
         0.72136E+06
        -0.76069E+05
         0.12226E+07
        -0.76427E+06
        -0.25492E+07
        -0.26747E+07
        -0.26689E+07
        -0.25737E+07
        -0.89962E+06
        -0.73484E+06
        -0.13941E+07
        -0.22493E+07
        -0.16433E+07
         0.62604E+05
         0.12345E+07
         0.43982E+06
        -0.34513E+06
        -0.30576E+05
         0.13843E+07
         0.56216E+06
         0.16141E+07
        -0.87603E+06
        -0.20495E+07
         0.94556E+06
        -0.23016E+07
        -0.23234E+07
        -0.13045E+07
        -0.32392E+06
        -0.35594E+07
        -0.23068E+07
         0.56146E+05
         0.67312E+06
         0.99134E+06
        -0.93711E+06
        -0.11683E+06
        -0.58381E+06
         0.31721E+06
        -0.13605E+07
        -0.80701E+06
        -0.26608E+07
        -0.63710E+06
        -0.47895E+07
        -0.31877E+07
        -0.19071E+07
        -0.24291E+07
        -0.18801E+06
        -0.39627E+06
         0.84423E+06
         0.16056E+07
        -0.47620E+05
        -0.16666E+06
        -0.38772E+05
        -0.24004E+07
        -0.23710E+07
        -0.17258E+07
        -0.41822E+06
        -0.78915E+06
        -0.73846E+06
        -0.14578E+07
        -0.13250E+07
        -0.16829E+07
        -0.86169E+06
        -0.32502E+06
        -0.34750E+06
         0.18597E+06
         0.72421E+06
         0.17832E+07
        -0.21169E+07
         0.72510E+06
        -0.14831E+07
         0.41747E+06
         0.18275E+07
         0.27444E+07
         0.18672E+07
         0.23164E+07
         0.16238E+07
         0.62026E+06
         0.85687E+06
         0.70708E+06
        -0.78574E+05
         0.12190E+07
        -0.77378E+06
        -0.25548E+07
        -0.26862E+07
        -0.27084E+07
        -0.26324E+07
        -0.96409E+06
        -0.80751E+06
        -0.14837E+07
        -0.23281E+07
        -0.16847E+07
         0.40428E+05
         0.12172E+07
         0.41459E+06
        -0.36434E+06
        -0.43060E+05
         0.13740E+07
         0.54912E+06
         0.16023E+07
        -0.89332E+06
        -0.20777E+07
         0.92303E+06
        -0.23344E+07
        -0.23423E+07
        -0.13213E+07
        -0.34332E+06
        -0.35781E+07
        -0.23222E+07
         0.42405E+05
         0.65816E+06
         0.98341E+06
        -0.94694E+06
        -0.12591E+06
        -0.59731E+06
         0.30361E+06
        -0.13727E+07
        -0.81562E+06
        -0.26852E+07
        -0.64789E+06
        -0.48082E+07
        -0.32023E+07
        -0.19232E+07
        -0.24458E+07
        -0.21264E+06
        -0.41449E+06
         0.82310E+06
         0.15932E+07
        -0.63885E+05
        -0.17875E+06
        -0.54300E+05
        -0.24267E+07
        -0.23941E+07
        -0.17483E+07
        -0.44196E+06
        -0.80754E+06
        -0.75042E+06
        -0.14748E+07
        -0.13459E+07
        -0.17051E+07
        -0.88335E+06
        -0.34847E+06
        -0.37154E+06
         0.16413E+06
         0.70199E+06
         0.17677E+07
        -0.21487E+07
         0.69366E+06
        -0.15046E+07
         0.39560E+06
         0.18009E+07
         0.27213E+07
         0.18435E+07
         0.22835E+07
         0.15800E+07
         0.57437E+06
         0.81531E+06
         0.68817E+06
        -0.93519E+05
         0.11870E+07
        -0.80725E+06
        -0.25868E+07
        -0.27280E+07
        -0.27483E+07
        -0.26658E+07
        -0.99103E+06
        -0.82974E+06
        -0.15137E+07
        -0.23678E+07
        -0.17213E+07
         0.96728E+04
         0.11868E+07
         0.43082E+06
        -0.35113E+06
        -0.33649E+05
         0.13767E+07
         0.56228E+06
         0.16053E+07
        -0.88127E+06
        -0.20595E+07
         0.93708E+06
        -0.23177E+07
        -0.23308E+07
        -0.13041E+07
        -0.33073E+06
        -0.35568E+07
        -0.22960E+07
         0.60652E+05
         0.67145E+06
         0.99167E+06
        -0.92991E+06
        -0.11247E+06
        -0.58018E+06
         0.32006E+06
        -0.13549E+07
        -0.79936E+06
        -0.26721E+07
        -0.63356E+06
        -0.47818E+07
        -0.31863E+07
        -0.19121E+07
        -0.24318E+07
        -0.19746E+06
        -0.40283E+06
         0.83016E+06
         0.15973E+07
        -0.45345E+05
        -0.16539E+06
        -0.42435E+05
        -0.24089E+07
        -0.23802E+07
        -0.17354E+07
        -0.42624E+06
        -0.79000E+06
        -0.73272E+06
        -0.14594E+07
        -0.13333E+07
        -0.16912E+07
        -0.86993E+06
        -0.33193E+06
        -0.35542E+06
         0.17696E+06
         0.71145E+06
         0.17715E+07
        -0.21011E+07
         0.74031E+06
        -0.14770E+07
         0.40704E+06
         0.18240E+07
         0.27576E+07
         0.18840E+07
         0.23126E+07
         0.15910E+07
         0.59139E+06
         0.84596E+06
         0.73158E+06
        -0.55457E+05
         0.12116E+07
        -0.78397E+06
        -0.25600E+07
        -0.27011E+07
        -0.27148E+07
        -0.26339E+07
        -0.95342E+06
        -0.79112E+06
        -0.14792E+07
        -0.23390E+07
        -0.16954E+07
         0.35650E+05
         0.12149E+07
         0.42680E+06
        -0.35212E+06
        -0.36229E+05
         0.13698E+07
         0.55921E+06
         0.15988E+07
        -0.88327E+06
        -0.20680E+07
         0.92573E+06
        -0.23319E+07
        -0.23395E+07
        -0.13142E+07
        -0.33365E+06
        -0.35657E+07
        -0.23122E+07
         0.52222E+05
         0.66157E+06
         0.98317E+06
        -0.93811E+06
        -0.11937E+06
        -0.58739E+06
         0.31137E+06
        -0.13613E+07
        -0.80490E+06
        -0.26811E+07
        -0.63735E+06
        -0.47879E+07
        -0.31884E+07
        -0.19173E+07
        -0.24401E+07
        -0.20479E+06
        -0.40787E+06
         0.81764E+06
         0.15881E+07
        -0.51271E+05
        -0.17097E+06
        -0.46135E+05
        -0.24318E+07
        -0.23936E+07
        -0.17468E+07
        -0.43794E+06
        -0.79703E+06
        -0.74295E+06
        -0.14647E+07
        -0.13386E+07
        -0.16985E+07
        -0.88023E+06
        -0.34260E+06
        -0.36476E+06
         0.16864E+06
         0.70274E+06
         0.17626E+07
        -0.21148E+07
         0.72934E+06
        -0.14995E+07
         0.38809E+06
         0.18213E+07
         0.27444E+07
         0.18531E+07
         0.22781E+07
         0.15706E+07
         0.56086E+06
         0.81265E+06
         0.71488E+06
        -0.75102E+05
         0.12008E+07
        -0.79408E+06
        -0.25697E+07
        -0.27029E+07
        -0.27216E+07
        -0.26436E+07
        -0.97881E+06
        -0.82274E+06
        -0.15035E+07
        -0.23515E+07
        -0.17012E+07
         0.21974E+05
         0.11956E+07
         0.41529E+06
        -0.36186E+06
        -0.43423E+05
         0.13656E+07
         0.54992E+06
         0.15944E+07
        -0.89033E+06
        -0.20800E+07
         0.91538E+06
        -0.23461E+07
        -0.23491E+07
        -0.13278E+07
        -0.34243E+06
        -0.35724E+07
        -0.23287E+07
         0.40401E+05
         0.65362E+06
         0.97839E+06
        -0.94806E+06
        -0.12440E+06
        -0.59654E+06
         0.30254E+06
        -0.13709E+07
        -0.81375E+06
        -0.26899E+07
        -0.64556E+06
        -0.47923E+07
        -0.31925E+07
        -0.19231E+07
        -0.24464E+07
        -0.21557E+06
        -0.41665E+06
         0.80953E+06
         0.15864E+07
        -0.65614E+05
        -0.18051E+06
        -0.54539E+05
        -0.24540E+07
        -0.24083E+07
        -0.17568E+07
        -0.44476E+06
        -0.80299E+06
        -0.75229E+06
        -0.14741E+07
        -0.13476E+07
        -0.17081E+07
        -0.88988E+06
        -0.35179E+06
        -0.37369E+06
         0.16139E+06
         0.69448E+06
         0.17586E+07
        -0.21423E+07
         0.70631E+06
        -0.15167E+07
         0.38232E+06
         0.18137E+07
         0.27174E+07
         0.18142E+07
         0.22470E+07
         0.15495E+07
         0.53889E+06
         0.79903E+06
         0.69838E+06
        -0.98696E+05
         0.11847E+07
        -0.81090E+06
        -0.25893E+07
        -0.27163E+07
        -0.27371E+07
        -0.26625E+07
        -0.99973E+06
        -0.84679E+06
        -0.15285E+07
        -0.23695E+07
        -0.17178E+07
         0.10191E+04
         0.11736E+07
         0.42305E+06
        -0.35763E+06
        -0.40027E+05
         0.13708E+07
         0.55867E+06
         0.16024E+07
        -0.88248E+06
        -0.20677E+07
         0.92168E+06
        -0.23404E+07
        -0.23383E+07
        -0.13159E+07
        -0.33854E+06
        -0.35528E+07
        -0.23045E+07
         0.50699E+05
         0.65859E+06
         0.98662E+06
        -0.93799E+06
        -0.11353E+06
        -0.58295E+06
         0.31724E+06
        -0.13590E+07
        -0.80363E+06
        -0.26851E+07
        -0.63606E+06
        -0.47754E+07
        -0.31825E+07
        -0.19105E+07
        -0.24309E+07
        -0.20346E+06
        -0.40847E+06
         0.81853E+06
         0.15967E+07
        -0.54157E+05
        -0.17204E+06
        -0.49634E+05
        -0.24398E+07
        -0.23946E+07
        -0.17378E+07
        -0.42720E+06
        -0.78962E+06
        -0.73806E+06
        -0.14649E+07
        -0.13401E+07
        -0.17005E+07
        -0.88188E+06
        -0.34173E+06
        -0.36300E+06
         0.17238E+06
         0.70438E+06
         0.17691E+07
        -0.21075E+07
         0.74389E+06
        -0.14815E+07
         0.39966E+06
         0.18080E+07
         0.27194E+07
         0.18423E+07
         0.22781E+07
         0.15703E+07
         0.57059E+06
         0.82915E+06
         0.71257E+06
        -0.73248E+05
         0.12105E+07
        -0.78738E+06
        -0.25713E+07
        -0.27044E+07
        -0.27219E+07
        -0.26481E+07
        -0.97709E+06
        -0.82019E+06
        -0.15028E+07
        -0.23474E+07
        -0.16987E+07
         0.29194E+05
         0.12066E+07
         0.41777E+06
        -0.36540E+06
        -0.47008E+05
         0.13629E+07
         0.54920E+06
         0.15933E+07
        -0.89140E+06
        -0.20786E+07
         0.91330E+06
        -0.23572E+07
        -0.23516E+07
        -0.13328E+07
        -0.35638E+06
        -0.35645E+07
        -0.23165E+07
         0.41185E+05
         0.64848E+06
         0.97753E+06
        -0.95009E+06
        -0.12177E+06
        -0.59915E+06
         0.30134E+06
        -0.13754E+07
        -0.81391E+06
        -0.27005E+07
        -0.64312E+06
        -0.47915E+07
        -0.31964E+07
        -0.19231E+07
        -0.24414E+07
        -0.21347E+06
        -0.41671E+06
         0.80385E+06
         0.15884E+07
        -0.67855E+05
        -0.18315E+06
        -0.63399E+05
        -0.24639E+07
        -0.24178E+07
        -0.17573E+07
        -0.44938E+06
        -0.80977E+06
        -0.75392E+06
        -0.14835E+07
        -0.13562E+07
        -0.17145E+07
        -0.89546E+06
        -0.35625E+06
        -0.37457E+06
         0.16416E+06
         0.69336E+06
         0.17589E+07
        -0.21346E+07
         0.72030E+06
        -0.15085E+07
         0.36871E+06
         0.17718E+07
         0.26850E+07
         0.18213E+07
         0.22512E+07
         0.15346E+07
         0.53530E+06
         0.78617E+06
         0.67001E+06
        -0.10145E+06
         0.11812E+07
        -0.81251E+06
        -0.26003E+07
        -0.27493E+07
        -0.27620E+07
        -0.26681E+07
        -0.10047E+07
        -0.84884E+06
        -0.15176E+07
        -0.23575E+07
        -0.17194E+07
         0.84184E+03
         0.11784E+07
         0.41697E+06
        -0.36788E+06
        -0.49191E+05
         0.13602E+07
         0.54769E+06
         0.15903E+07
        -0.89287E+06
        -0.20807E+07
         0.91349E+06
        -0.23600E+07
        -0.23546E+07
        -0.13350E+07
        -0.35917E+06
        -0.35622E+07
        -0.23166E+07
         0.39509E+05
         0.64833E+06
         0.97584E+06
        -0.95167E+06
        -0.12181E+06
        -0.60294E+06
         0.29884E+06
        -0.13791E+07
        -0.81556E+06
        -0.27043E+07
        -0.64434E+06
        -0.47882E+07
        -0.31987E+07
        -0.19275E+07
        -0.24445E+07
        -0.21853E+06
        -0.41951E+06
         0.79654E+06
         0.15866E+07
        -0.71050E+05
        -0.18684E+06
        -0.67589E+05
        -0.24759E+07
        -0.24315E+07
        -0.17651E+07
        -0.45211E+06
        -0.81144E+06
        -0.75618E+06
        -0.14871E+07
        -0.13596E+07
        -0.17180E+07
        -0.90014E+06
        -0.36185E+06
        -0.37896E+06
         0.16277E+06
         0.69130E+06
         0.17564E+07
        -0.21352E+07
         0.72073E+06
        -0.15160E+07
         0.35677E+06
         0.17710E+07
         0.26845E+07
         0.18129E+07
         0.22287E+07
         0.15088E+07
         0.52114E+06
         0.78476E+06
         0.66572E+06
        -0.10854E+06
         0.11697E+07
        -0.82563E+06
        -0.26097E+07
        -0.27558E+07
        -0.27674E+07
        -0.26739E+07
        -0.10147E+07
        -0.86156E+06
        -0.15257E+07
        -0.23585E+07
        -0.17218E+07
        -0.11671E+05
         0.11672E+07
         0.44112E+06
        -0.34285E+06
        -0.28587E+05
         0.13745E+07
         0.57425E+06
         0.16095E+07
        -0.86709E+06
        -0.20534E+07
         0.93035E+06
        -0.23403E+07
        -0.23272E+07
        -0.12978E+07
        -0.32698E+06
        -0.35296E+07
        -0.22801E+07
         0.61572E+05
         0.66670E+06
         0.99096E+06
        -0.92904E+06
        -0.10023E+06
        -0.57229E+06
         0.32800E+06
        -0.13496E+07
        -0.79405E+06
        -0.26809E+07
        -0.62462E+06
        -0.47548E+07
        -0.31713E+07
        -0.19016E+07
        -0.24152E+07
        -0.19468E+06
        -0.39791E+06
         0.81165E+06
         0.16003E+07
        -0.40393E+05
        -0.16184E+06
        -0.41379E+05
        -0.24531E+07
        -0.24034E+07
        -0.17341E+07
        -0.42254E+06
        -0.78131E+06
        -0.72961E+06
        -0.14575E+07
        -0.13301E+07
        -0.16872E+07
        -0.87362E+06
        -0.33653E+06
        -0.35757E+06
         0.18227E+06
         0.71194E+06
         0.17746E+07
        -0.20720E+07
         0.78357E+06
        -0.14632E+07
         0.39513E+06
         0.18177E+07
         0.27440E+07
         0.18628E+07
         0.22666E+07
         0.15512E+07
         0.56758E+06
         0.82665E+06
         0.71471E+06
        -0.69653E+05
         0.12129E+07
        -0.77632E+06
        -0.25585E+07
        -0.26983E+07
        -0.27052E+07
        -0.26205E+07
        -0.95877E+06
        -0.81403E+06
        -0.14903E+07
        -0.23195E+07
        -0.16750E+07
         0.39073E+05
         0.12185E+07
         0.43126E+06
        -0.34982E+06
        -0.35077E+05
         0.13649E+07
         0.56247E+06
         0.16001E+07
        -0.87505E+06
        -0.20672E+07
         0.91851E+06
        -0.23606E+07
        -0.23403E+07
        -0.13107E+07
        -0.33484E+06
        -0.35421E+07
        -0.22970E+07
         0.49276E+05
         0.65405E+06
         0.98360E+06
        -0.94487E+06
        -0.11049E+06
        -0.58327E+06
         0.31350E+06
        -0.13598E+07
        -0.80654E+06
        -0.26986E+07
        -0.63508E+06
        -0.47692E+07
        -0.31809E+07
        -0.19054E+07
        -0.24228E+07
        -0.20185E+06
        -0.40738E+06
         0.80083E+06
         0.15902E+07
        -0.58040E+05
        -0.17191E+06
        -0.48119E+05
        -0.24804E+07
        -0.24225E+07
        -0.17426E+07
        -0.43662E+06
        -0.79691E+06
        -0.74787E+06
        -0.14714E+07
        -0.13442E+07
        -0.17004E+07
        -0.88498E+06
        -0.34459E+06
        -0.36723E+06
         0.16975E+06
         0.69874E+06
         0.17642E+07
        -0.21121E+07
         0.74959E+06
        -0.14945E+07
         0.37877E+06
         0.18120E+07
         0.27287E+07
         0.18291E+07
         0.22260E+07
         0.15117E+07
         0.53244E+06
         0.78522E+06
         0.66717E+06
        -0.10323E+06
         0.11962E+07
        -0.78412E+06
        -0.25636E+07
        -0.27149E+07
        -0.27336E+07
        -0.26415E+07
        -0.98364E+06
        -0.83701E+06
        -0.15161E+07
        -0.23472E+07
        -0.16921E+07
         0.23041E+05
         0.11919E+07
         0.41465E+06
        -0.36786E+06
        -0.52735E+05
         0.13521E+07
         0.54390E+06
         0.15828E+07
        -0.88841E+06
        -0.20833E+07
         0.90164E+06
        -0.23948E+07
        -0.23560E+07
        -0.13318E+07
        -0.35226E+06
        -0.35548E+07
        -0.23182E+07
         0.34142E+05
         0.63506E+06
         0.97504E+06
        -0.95793E+06
        -0.11504E+06
        -0.59674E+06
         0.29654E+06
        -0.13720E+07
        -0.81722E+06
        -0.27283E+07
        -0.64533E+06
        -0.48022E+07
        -0.31963E+07
        -0.18746E+07
        -0.24022E+07
        -0.21520E+06
        -0.42100E+06
         0.79007E+06
         0.15832E+07
        -0.77905E+05
        -0.18843E+06
        -0.64241E+05
        -0.25203E+07
        -0.24413E+07
        -0.17140E+07
        -0.43813E+06
        -0.81383E+06
        -0.77227E+06
        -0.14865E+07
        -0.13619E+07
        -0.17213E+07
        -0.90448E+06
        -0.35915E+06
        -0.37844E+06
         0.15977E+06
         0.68703E+06
         0.17513E+07
        -0.21388E+07
         0.72484E+06
        -0.15158E+07
         0.36035E+06
         0.17862E+07
         0.26870E+07
         0.17815E+07
         0.21807E+07
         0.14718E+07
         0.52323E+06
         0.71291E+06
         0.55338E+06
        -0.15042E+06
         0.11699E+07
        -0.80753E+06
        -0.25847E+07
        -0.27411E+07
        -0.27633E+07
        -0.26760E+07
        -0.10225E+07
        -0.86335E+06
        -0.15407E+07
        -0.23754E+07
        -0.17126E+07
        -0.87138E+04
         0.11563E+07
         0.43766E+06
        -0.34484E+06
        -0.30359E+05
         0.13695E+07
         0.57214E+06
         0.16034E+07
        -0.86573E+06
        -0.20564E+07
         0.91315E+06
        -0.24024E+07
        -0.23315E+07
        -0.13040E+07
        -0.32838E+06
        -0.35239E+07
        -0.22856E+07
         0.56447E+05
         0.64745E+06
         0.98925E+06
        -0.93170E+06
        -0.80199E+05
        -0.57130E+06
         0.32202E+06
        -0.13484E+07
        -0.79403E+06
        -0.27244E+07
        -0.62397E+06
        -0.48077E+07
        -0.31793E+07
        -0.17760E+07
        -0.23096E+07
        -0.19476E+06
        -0.39908E+06
         0.80477E+06
         0.16015E+07
        -0.45058E+05
        -0.16055E+06
        -0.39492E+05
        -0.25189E+07
        -0.24089E+07
        -0.16059E+07
        -0.38101E+06
        -0.78332E+06
        -0.75682E+06
        -0.14612E+07
        -0.13331E+07
        -0.16872E+07
        -0.87680E+06
        -0.33594E+06
        -0.35497E+06
         0.18616E+06
         0.71453E+06
         0.17729E+07
        -0.20737E+07
         0.78868E+06
        -0.14506E+07
         0.40605E+06
         0.18154E+07
         0.27208E+07
         0.18282E+07
         0.22281E+07
         0.15237E+07
         0.62440E+06
         0.68942E+06
         0.46180E+06
        -0.14700E+06
         0.12057E+07
        -0.77744E+06
        -0.25597E+07
        -0.27102E+07
        -0.27113E+07
        -0.26122E+07
        -0.96269E+06
        -0.81179E+06
        -0.14875E+07
        -0.23154E+07
        -0.16568E+07
         0.36592E+05
         0.12039E+07
         0.35264E+06
        -0.42875E+06
        -0.11143E+06
         0.12967E+07
         0.46960E+06
         0.15097E+07
        -0.94702E+06
        -0.21573E+07
         0.82358E+06
        -0.25282E+07
        -0.24311E+07
        -0.14352E+07
        -0.45036E+06
        -0.36328E+07
        -0.24204E+07
        -0.26695E+05
         0.55976E+06
         0.92655E+06
        -0.10218E+07
        -0.14983E+06
        -0.68586E+06
         0.21016E+06
        -0.14588E+07
        -0.87435E+06
        -0.28390E+07
        -0.69049E+06
        -0.49381E+07
        -0.32646E+07
        -0.18169E+07
        -0.23737E+07
        -0.27562E+06
        -0.47540E+06
         0.72651E+06
         0.15233E+07
        -0.16561E+06
        -0.26392E+06
        -0.14946E+06
        -0.26736E+07
        -0.25300E+07
        -0.16765E+07
        -0.49389E+06
        -0.90440E+06
        -0.87864E+06
        -0.15687E+07
        -0.14449E+07
        -0.18164E+07
        -0.98651E+06
        -0.43346E+06
        -0.44839E+06
         0.83416E+05
         0.59157E+06
         0.16677E+07
        -0.23003E+07
         0.56868E+06
        -0.16796E+07
         0.17316E+06
         0.15831E+07
         0.24974E+07
         0.16010E+07
         0.19842E+07
         0.12946E+07
         0.41596E+06
         0.39895E+06
         0.14571E+06
        -0.37088E+06
         0.10199E+07
        -0.97214E+06
        -0.27621E+07
        -0.29196E+07
        -0.29453E+07
        -0.28525E+07
        -0.11929E+07
        -0.10255E+07
        -0.16922E+07
        -0.25249E+07
        -0.18717E+07
        -0.16982E+06
         0.99899E+06
         0.40157E+06
        -0.42278E+06
        -0.96416E+05
         0.13237E+07
         0.50335E+06
         0.15396E+07
        -0.93526E+06
        -0.20979E+07
         0.88130E+06
        -0.24418E+07
        -0.24051E+07
        -0.14326E+07
        -0.48146E+06
        -0.35609E+07
        -0.23608E+07
         0.38344E+05
         0.61570E+06
         0.96096E+06
        -0.97388E+06
        -0.10753E+06
        -0.63463E+06
         0.24850E+06
        -0.13796E+07
        -0.81363E+06
        -0.27434E+07
        -0.63966E+06
        -0.48269E+07
        -0.31677E+07
        -0.17344E+07
        -0.22801E+07
        -0.22496E+06
        -0.44072E+06
         0.74561E+06
         0.15119E+07
        -0.14730E+06
        -0.27196E+06
        -0.18070E+06
        -0.26032E+07
        -0.24449E+07
        -0.16016E+07
        -0.44343E+06
        -0.83546E+06
        -0.80597E+06
        -0.14966E+07
        -0.14050E+07
        -0.17968E+07
        -0.97048E+06
        -0.39158E+06
        -0.41682E+06
         0.85591E+05
         0.59948E+06
         0.16697E+07
        -0.22131E+07
         0.68196E+06
        -0.16511E+07
         0.12289E+06
         0.14788E+07
         0.24339E+07
         0.17051E+07
         0.20913E+07
         0.13797E+07
         0.46648E+06
         0.41301E+06
         0.18890E+06
        -0.28622E+06
         0.10617E+07
        -0.88374E+06
        -0.26359E+07
        -0.28123E+07
        -0.28630E+07
        -0.28169E+07
        -0.11970E+07
        -0.97819E+06
        -0.16243E+07
        -0.24173E+07
        -0.17405E+07
        -0.66491E+05
         0.11061E+07
         0.33466E+09
         0.33277E+09
         0.32880E+09
         0.28804E+09
         0.40178E+09
         0.36477E+09
         0.33952E+09
         0.38007E+09
         0.31630E+09
         0.38019E+09
         0.39126E+09
         0.50298E+09
         0.44631E+09
         0.41945E+09
         0.51809E+09
         0.31269E+09
         0.31527E+09
         0.25456E+09
         0.33670E+09
         0.33112E+09
         0.41062E+09
         0.41334E+09
         0.39135E+09
         0.31025E+09
         0.36808E+09
         0.27586E+09
         0.41367E+09
         0.35333E+09
         0.37212E+09
         0.38283E+09
         0.31092E+09
         0.30382E+09
         0.28846E+09
         0.29949E+09
         0.45413E+09
         0.39219E+09
         0.40062E+09
         0.48743E+09
         0.46349E+09
         0.45475E+09
         0.47755E+09
         0.44867E+09
         0.42518E+09
         0.37628E+09
         0.38989E+09
         0.45718E+09
         0.40350E+09
         0.37113E+09
         0.35521E+09
         0.37541E+09
         0.43211E+09
         0.38357E+09
         0.83018E+09
         0.81323E+09
         0.82750E+09
         0.80086E+09
         0.82585E+09
         0.86615E+09
         0.86979E+09
         0.86047E+09
         0.86729E+09
         0.89148E+09
         0.86511E+09
         0.81589E+09
         0.72377E+09
         0.68329E+09
         0.69322E+09
         0.70909E+09
         0.71795E+09
         0.78202E+09
         0.83719E+09
         0.84077E+09
         0.77109E+09
         0.74365E+09
         0.77035E+09
         0.76289E+09
         0.75824E+09
         0.75987E+09
         0.38544E+10
         0.40393E+10
         0.39811E+10
         0.36327E+10
         0.44721E+10
         0.42007E+10
         0.43712E+10
         0.44038E+10
         0.37703E+10
         0.44016E+10
         0.48012E+10
         0.53779E+10
         0.48747E+10
         0.49407E+10
         0.55665E+10
         0.36942E+10
         0.39718E+10
         0.34660E+10
         0.41019E+10
         0.43166E+10
         0.44628E+10
         0.45611E+10
         0.42838E+10
         0.39451E+10
         0.44541E+10
         0.38068E+10
         0.49227E+10
         0.48400E+10
         0.48618E+10
         0.46120E+10
         0.37343E+10
         0.39280E+10
         0.36616E+10
         0.38296E+10
         0.48971E+10
         0.44935E+10
         0.45076E+10
         0.53905E+10
         0.52530E+10
         0.51902E+10
         0.52807E+10
         0.50140E+10
         0.47405E+10
         0.41824E+10
         0.43561E+10
         0.48945E+10
         0.45266E+10
         0.42562E+10
         0.41719E+10
         0.43256E+10
         0.46959E+10
         0.43384E+10
         0.77776E+10
         0.75746E+10
         0.77336E+10
         0.74879E+10
         0.77122E+10
         0.81120E+10
         0.82455E+10
         0.82301E+10
         0.82898E+10
         0.84810E+10
         0.82329E+10
         0.77339E+10
         0.69267E+10
         0.65432E+10
         0.65595E+10
         0.66431E+10
         0.67074E+10
         0.72792E+10
         0.78083E+10
         0.78396E+10
         0.72501E+10
         0.70240E+10
         0.72582E+10
         0.72068E+10
         0.71237E+10
         0.71037E+10
  
SCALARS                      stress_zz  double 1
LOOKUP_TABLE default
         0.14148E+13
         0.13969E+13
         0.14082E+13
         0.14286E+13
        -0.45641E+03
        -0.51180E+03
        -0.49006E+03
        -0.44520E+03
         0.13962E+13
         0.14023E+13
        -0.46023E+03
        -0.44539E+03
         0.13709E+13
         0.13699E+13
        -0.54685E+03
        -0.51418E+03
         0.14256E+13
         0.13713E+13
        -0.40407E+03
        -0.44817E+03
         0.13514E+13
         0.13359E+13
         0.13606E+13
        -0.54199E+03
        -0.47333E+03
        -0.48877E+03
         0.13365E+13
         0.13138E+13
        -0.51997E+03
        -0.43850E+03
         0.14246E+13
         0.14010E+13
         0.14474E+13
        -0.44372E+03
        -0.41250E+03
        -0.40106E+03
         0.14110E+13
         0.13809E+13
        -0.46943E+03
        -0.42836E+03
         0.13991E+13
         0.13759E+13
        -0.40572E+03
        -0.35918E+03
         0.14187E+13
         0.14274E+13
        -0.44462E+03
        -0.49679E+03
         0.13572E+13
        -0.43435E+03
         0.14257E+13
        -0.51038E+03
         0.13299E+13
        -0.45869E+03
         0.13228E+13
        -0.43998E+03
         0.13229E+13
         0.13482E+13
        -0.44829E+03
        -0.43658E+03
         0.14241E+13
         0.14150E+13
        -0.44952E+03
        -0.50817E+03
         0.14298E+13
        -0.43375E+03
         0.14190E+13
        -0.47339E+03
         0.13906E+13
         0.13878E+13
        -0.45568E+03
        -0.47747E+03
         0.13814E+13
        -0.48148E+03
         0.13058E+13
        -0.38040E+03
         0.13018E+13
        -0.36924E+03
         0.13038E+13
        -0.38933E+03
         0.13147E+13
         0.13261E+13
        -0.37094E+03
        -0.38673E+03
         0.13491E+13
        -0.36018E+03
         0.14182E+13
        -0.47233E+03
         0.14074E+13
        -0.48342E+03
         0.13986E+13
         0.13937E+13
        -0.46424E+03
        -0.46966E+03
         0.13997E+13
        -0.42659E+03
         0.14040E+13
        -0.42050E+03
         0.14001E+13
        -0.45015E+03
         0.13988E+13
         0.14027E+13
        -0.44144E+03
        -0.45439E+03
         0.13774E+13
         0.13877E+13
        -0.34273E+03
        -0.32236E+03
         0.13755E+13
        -0.32727E+03
         0.13873E+13
        -0.31379E+03
         0.13756E+13
        -0.30942E+03
         0.13498E+13
        -0.29241E+03
         0.13247E+13
        -0.25977E+03
         0.13096E+13
        -0.23391E+03
         0.13081E+13
        -0.23228E+03
         0.13086E+13
        -0.25190E+03
         0.13249E+13
        -0.26474E+03
         0.13554E+13
        -0.24173E+03
         0.13888E+13
        -0.21790E+03
         0.14083E+13
        -0.21765E+03
         0.14276E+13
        -0.24328E+03
         0.14403E+13
        -0.27739E+03
         0.14398E+13
        -0.29801E+03
         0.14089E+13
        -0.32184E+03
         0.13873E+13
        -0.34481E+03
         0.13799E+13
        -0.31587E+03
         0.13915E+13
        -0.27710E+03
         0.13975E+13
        -0.27625E+03
         0.13874E+13
        -0.30224E+03
         0.13875E+13
        -0.32221E+03
         0.13952E+13
        -0.30578E+03
         0.14051E+13
        -0.29562E+03
        -0.26307E+11
        -0.25500E+11
        -0.25611E+11
        -0.26639E+11
        -0.24679E+11
        -0.25705E+11
        -0.24424E+11
        -0.25105E+11
        -0.26482E+11
        -0.25640E+11
        -0.23666E+11
        -0.23429E+11
        -0.24055E+11
        -0.24097E+11
        -0.23696E+11
        -0.26592E+11
        -0.26406E+11
        -0.26922E+11
        -0.25410E+11
        -0.25698E+11
        -0.25285E+11
        -0.25559E+11
        -0.25048E+11
        -0.25182E+11
        -0.25674E+11
        -0.25639E+11
        -0.24789E+11
        -0.24868E+11
        -0.24212E+11
        -0.25194E+11
        -0.26501E+11
        -0.25488E+11
        -0.26494E+11
        -0.25837E+11
        -0.23263E+11
        -0.24128E+11
        -0.24526E+11
        -0.24057E+11
        -0.23995E+11
        -0.23201E+11
        -0.22604E+11
        -0.24030E+11
        -0.25302E+11
        -0.25135E+11
        -0.24487E+11
        -0.23296E+11
        -0.24317E+11
        -0.25354E+11
        -0.25284E+11
        -0.24483E+11
        -0.23629E+11
        -0.24773E+11
        -0.21095E+11
        -0.22238E+11
        -0.22052E+11
        -0.22315E+11
        -0.22248E+11
        -0.21638E+11
        -0.20996E+11
        -0.20784E+11
        -0.20875E+11
        -0.20810E+11
        -0.20530E+11
        -0.22190E+11
        -0.22785E+11
        -0.23011E+11
        -0.23390E+11
        -0.23674E+11
        -0.23661E+11
        -0.23176E+11
        -0.21482E+11
        -0.21897E+11
        -0.22483E+11
        -0.22476E+11
        -0.22375E+11
        -0.21812E+11
        -0.22638E+11
        -0.22938E+11
         0.30927E+07
         0.18732E+07
         0.21949E+07
         0.33924E+07
         0.25136E+07
         0.35385E+07
        -0.16209E+06
        -0.19144E+06
         0.37822E+07
        -0.37973E+06
        -0.16778E+07
         0.11619E+07
         0.16908E+07
        -0.36994E+07
        -0.12199E+06
         0.16712E+07
         0.24205E+07
         0.30215E+07
         0.86117E+06
         0.88609E+06
         0.87831E+06
         0.18527E+07
         0.12962E+06
         0.12928E+06
        -0.11238E+07
        -0.44195E+04
        -0.55070E+07
        -0.66716E+07
        -0.29641E+07
        -0.77270E+06
         0.15511E+07
         0.53938E+06
         0.29698E+07
         0.42849E+07
         0.12117E+07
         0.11128E+07
         0.16061E+07
        -0.44455E+06
        -0.26254E+06
         0.39007E+06
         0.12893E+07
         0.73460E+06
         0.95719E+06
         0.20136E+06
         0.32792E+06
         0.60632E+06
         0.11609E+07
         0.14762E+07
         0.20734E+07
         0.27804E+07
         0.27091E+07
         0.34815E+07
        -0.52664E+06
         0.24909E+07
         0.58782E+06
         0.29230E+07
         0.48112E+07
         0.61152E+07
         0.52486E+07
         0.56318E+07
         0.48471E+07
         0.35976E+07
         0.31891E+07
         0.27164E+07
         0.17205E+07
         0.29301E+07
         0.87017E+06
        -0.59368E+06
        -0.34243E+06
        -0.24567E+06
         0.28065E+06
         0.22978E+07
         0.23563E+07
         0.16298E+07
         0.57605E+06
         0.56925E+06
         0.18666E+07
         0.30694E+07
         0.29765E+07
         0.17421E+07
         0.20638E+07
         0.32630E+07
         0.23760E+07
         0.34028E+07
        -0.32840E+06
        -0.32508E+06
         0.36480E+07
        -0.52585E+06
        -0.18493E+07
         0.10003E+07
         0.15458E+07
        -0.38557E+07
        -0.28150E+06
         0.15389E+07
         0.22511E+07
         0.28720E+07
         0.70096E+06
         0.68424E+06
         0.73498E+06
         0.17119E+07
        -0.19662E+05
        -0.47414E+05
        -0.12947E+07
        -0.19432E+06
        -0.56566E+07
        -0.68790E+07
        -0.31741E+07
        -0.94850E+06
         0.14195E+07
         0.37500E+06
         0.28382E+07
         0.41486E+07
         0.10626E+07
         0.97220E+06
         0.14705E+07
        -0.60907E+06
        -0.42125E+06
         0.23165E+06
         0.11270E+07
         0.57404E+06
         0.80445E+06
         0.54140E+05
         0.18599E+06
         0.45756E+06
         0.10156E+07
         0.13353E+07
         0.19397E+07
         0.26505E+07
         0.25705E+07
         0.33473E+07
        -0.76580E+06
         0.22579E+07
         0.35898E+06
         0.27038E+07
         0.45799E+07
         0.58585E+07
         0.49917E+07
         0.53707E+07
         0.45828E+07
         0.33283E+07
         0.29209E+07
         0.24683E+07
         0.15113E+07
         0.27342E+07
         0.66599E+06
        -0.81093E+06
        -0.56404E+06
        -0.47625E+06
         0.48586E+05
         0.20528E+07
         0.21238E+07
         0.14193E+07
         0.36575E+06
         0.35368E+06
         0.16491E+07
         0.28479E+07
         0.30038E+07
         0.17679E+07
         0.20918E+07
         0.32974E+07
         0.24121E+07
         0.34396E+07
        -0.29150E+06
        -0.29451E+06
         0.36699E+07
        -0.51870E+06
        -0.18145E+07
         0.10312E+07
         0.15735E+07
        -0.38204E+07
        -0.24212E+06
         0.15124E+07
         0.22423E+07
         0.29097E+07
         0.66170E+06
         0.64513E+06
         0.71129E+06
         0.17027E+07
        -0.11758E+06
        -0.17493E+06
        -0.13661E+07
        -0.32742E+06
        -0.56264E+07
        -0.69079E+07
        -0.32531E+07
        -0.10710E+07
         0.14199E+07
         0.33757E+06
         0.28739E+07
         0.41928E+07
         0.11015E+07
         0.10076E+07
         0.15005E+07
        -0.58027E+06
        -0.39500E+06
         0.24081E+06
         0.11230E+07
         0.51575E+06
         0.72219E+06
        -0.44423E+05
         0.16165E+06
         0.47801E+06
         0.10419E+07
         0.13671E+07
         0.19761E+07
         0.26907E+07
         0.26099E+07
         0.33856E+07
        -0.69469E+06
         0.23216E+07
         0.42949E+06
         0.27581E+07
         0.46200E+07
         0.58983E+07
         0.50426E+07
         0.54221E+07
         0.46348E+07
         0.33821E+07
         0.29526E+07
         0.24671E+07
         0.15147E+07
         0.27702E+07
         0.68982E+06
        -0.85488E+06
        -0.61169E+06
        -0.46391E+06
         0.11227E+06
         0.21265E+07
         0.21900E+07
         0.14864E+07
         0.44067E+06
         0.41673E+06
         0.17003E+07
         0.28974E+07
         0.29873E+07
         0.17569E+07
         0.20810E+07
         0.32768E+07
         0.23992E+07
         0.34281E+07
        -0.30357E+06
        -0.31171E+06
         0.36310E+07
        -0.58072E+06
        -0.18322E+07
         0.10145E+07
         0.15619E+07
        -0.38410E+07
        -0.26177E+06
         0.14073E+07
         0.21428E+07
         0.28812E+07
         0.52182E+06
         0.47464E+06
         0.60255E+06
         0.16054E+07
        -0.34542E+06
        -0.46011E+06
        -0.15692E+07
        -0.63052E+06
        -0.56668E+07
        -0.70757E+07
        -0.35125E+07
        -0.13661E+07
         0.13561E+07
         0.18945E+06
         0.28538E+07
         0.41703E+07
         0.10823E+07
         0.99344E+06
         0.14897E+07
        -0.61040E+06
        -0.43349E+06
         0.16911E+06
         0.10312E+07
         0.33396E+06
         0.49913E+06
        -0.27673E+06
         0.44183E+05
         0.41810E+06
         0.99518E+06
         0.13409E+07
         0.19532E+07
         0.26662E+07
         0.25890E+07
         0.33712E+07
        -0.72820E+06
         0.22986E+07
         0.39327E+06
         0.27265E+07
         0.45988E+07
         0.58739E+07
         0.50017E+07
         0.53775E+07
         0.45916E+07
         0.33299E+07
         0.28700E+07
         0.23336E+07
         0.13879E+07
         0.27099E+07
         0.62245E+06
        -0.10396E+07
        -0.80710E+06
        -0.55498E+06
         0.68811E+05
         0.20851E+07
         0.21583E+07
         0.14489E+07
         0.40153E+06
         0.39003E+06
         0.16801E+07
         0.28774E+07
         0.29573E+07
         0.17344E+07
         0.20620E+07
         0.32555E+07
         0.23843E+07
         0.34122E+07
        -0.32372E+06
        -0.34040E+06
         0.35845E+07
        -0.64534E+06
        -0.18510E+07
         0.10041E+07
         0.15490E+07
        -0.38636E+07
        -0.27106E+06
         0.13362E+07
         0.20642E+07
         0.28546E+07
         0.42987E+06
         0.35130E+06
         0.53254E+06
         0.15355E+07
        -0.48540E+06
        -0.63685E+06
        -0.17143E+07
        -0.82471E+06
        -0.57019E+07
        -0.71968E+07
        -0.36886E+07
        -0.15619E+07
         0.12896E+07
         0.81871E+05
         0.28142E+07
         0.41391E+07
         0.10625E+07
         0.97531E+06
         0.14734E+07
        -0.63274E+06
        -0.46525E+06
         0.11486E+06
         0.96643E+06
         0.21178E+06
         0.35284E+06
        -0.42432E+06
        -0.33235E+05
         0.37857E+06
         0.95373E+06
         0.12990E+07
         0.19135E+07
         0.26299E+07
         0.25564E+07
         0.33475E+07
        -0.75835E+06
         0.22785E+07
         0.36244E+06
         0.27019E+07
         0.45888E+07
         0.58667E+07
         0.49841E+07
         0.53480E+07
         0.45549E+07
         0.32975E+07
         0.28196E+07
         0.22413E+07
         0.13015E+07
         0.26633E+07
         0.57489E+06
        -0.11592E+07
        -0.94427E+06
        -0.62007E+06
         0.49033E+05
         0.20476E+07
         0.21164E+07
         0.14059E+07
         0.35118E+06
         0.34677E+06
         0.16534E+07
         0.28574E+07
         0.28846E+07
         0.16913E+07
         0.20433E+07
         0.32733E+07
         0.24030E+07
         0.34379E+07
        -0.33706E+06
        -0.39082E+06
         0.35194E+07
        -0.73293E+06
        -0.18363E+07
         0.10402E+07
         0.15635E+07
        -0.38597E+07
        -0.22592E+06
         0.13492E+07
         0.20460E+07
         0.28933E+07
         0.44905E+06
         0.36792E+06
         0.55284E+06
         0.15601E+07
        -0.48227E+06
        -0.64041E+06
        -0.17742E+07
        -0.85204E+06
        -0.57097E+07
        -0.72112E+07
        -0.36699E+07
        -0.15678E+07
         0.12100E+07
         0.25140E+05
         0.27476E+07
         0.41312E+07
         0.10796E+07
         0.97720E+06
         0.14704E+07
        -0.60355E+06
        -0.43853E+06
         0.14460E+06
         0.99815E+06
         0.23116E+06
         0.36849E+06
        -0.43367E+06
        -0.43158E+05
         0.37201E+06
         0.91786E+06
         0.12144E+07
         0.18162E+07
         0.25805E+07
         0.25457E+07
         0.33591E+07
        -0.69990E+06
         0.23388E+07
         0.41152E+06
         0.27348E+07
         0.46232E+07
         0.59133E+07
         0.50370E+07
         0.53992E+07
         0.46136E+07
         0.33749E+07
         0.28873E+07
         0.22822E+07
         0.13471E+07
         0.27109E+07
         0.62075E+06
        -0.11227E+07
        -0.91788E+06
        -0.59390E+06
         0.80472E+05
         0.20694E+07
         0.21115E+07
         0.13759E+07
         0.33134E+06
         0.35663E+06
         0.16827E+07
         0.28995E+07
         0.27739E+07
         0.16148E+07
         0.19982E+07
         0.32604E+07
         0.23883E+07
         0.34366E+07
        -0.40262E+06
        -0.48945E+06
         0.34097E+07
        -0.86258E+06
        -0.18771E+07
         0.10264E+07
         0.15401E+07
        -0.39115E+07
        -0.23545E+06
         0.13280E+07
         0.19816E+07
         0.28838E+07
         0.43319E+06
         0.33840E+06
         0.54302E+06
         0.15532E+07
        -0.49330E+06
        -0.66184E+06
        -0.18605E+07
        -0.90126E+06
        -0.57699E+07
        -0.72734E+07
        -0.36813E+07
        -0.15903E+07
         0.10987E+07
        -0.68015E+05
         0.26459E+07
         0.40896E+07
         0.10564E+07
         0.94780E+06
         0.14385E+07
        -0.62699E+06
        -0.46131E+06
         0.13215E+06
         0.99268E+06
         0.22859E+06
         0.36708E+06
        -0.45618E+06
        -0.86008E+05
         0.31611E+06
         0.83517E+06
         0.10871E+07
         0.16775E+07
         0.24941E+07
         0.25022E+07
         0.33431E+07
        -0.72449E+06
         0.23197E+07
         0.39687E+06
         0.27182E+07
         0.45992E+07
         0.58847E+07
         0.50132E+07
         0.53787E+07
         0.45930E+07
         0.33595E+07
         0.28750E+07
         0.22673E+07
         0.13444E+07
         0.27071E+07
         0.61071E+06
        -0.11283E+07
        -0.92946E+06
        -0.63511E+06
         0.18991E+05
         0.20017E+07
         0.20350E+07
         0.12812E+07
         0.24836E+06
         0.31259E+06
         0.16590E+07
         0.28809E+07
         0.27416E+07
         0.15865E+07
         0.19797E+07
         0.32429E+07
         0.23724E+07
         0.34211E+07
        -0.43489E+06
        -0.52332E+06
         0.33773E+07
        -0.90083E+06
        -0.19060E+07
         0.10070E+07
         0.15170E+07
        -0.39412E+07
        -0.25177E+06
         0.13089E+07
         0.19558E+07
         0.28627E+07
         0.41866E+06
         0.31507E+06
         0.52760E+06
         0.15371E+07
        -0.50783E+06
        -0.67825E+06
        -0.18890E+07
        -0.92935E+06
        -0.57953E+07
        -0.73067E+07
        -0.37066E+07
        -0.16117E+07
         0.10625E+07
        -0.10508E+06
         0.26133E+07
         0.40662E+07
         0.10368E+07
         0.93187E+06
         0.14190E+07
        -0.65661E+06
        -0.48774E+06
         0.10511E+06
         0.96554E+06
         0.20686E+06
         0.35312E+06
        -0.47631E+06
        -0.11162E+06
         0.28996E+06
         0.80783E+06
         0.10556E+07
         0.16429E+07
         0.24641E+07
         0.24753E+07
         0.33231E+07
        -0.75821E+06
         0.22867E+07
         0.37447E+06
         0.26953E+07
         0.45714E+07
         0.58604E+07
         0.49882E+07
         0.53440E+07
         0.45469E+07
         0.33113E+07
         0.28313E+07
         0.22475E+07
         0.13286E+07
         0.26732E+07
         0.57534E+06
        -0.11618E+07
        -0.97302E+06
        -0.67667E+06
        -0.16052E+05
         0.19734E+07
         0.20117E+07
         0.12496E+07
         0.20657E+06
         0.27364E+06
         0.16263E+07
         0.28485E+07
         0.27621E+07
         0.16057E+07
         0.19940E+07
         0.32484E+07
         0.23897E+07
         0.34262E+07
        -0.40957E+06
        -0.49802E+06
         0.33980E+07
        -0.87517E+06
        -0.18851E+07
         0.10266E+07
         0.15319E+07
        -0.39155E+07
        -0.22085E+06
         0.13339E+07
         0.19807E+07
         0.28793E+07
         0.44670E+06
         0.34296E+06
         0.54833E+06
         0.15568E+07
        -0.48649E+06
        -0.64906E+06
        -0.18630E+07
        -0.89878E+06
        -0.57576E+07
        -0.72689E+07
        -0.36706E+07
        -0.15892E+07
         0.10839E+07
        -0.84142E+05
         0.26299E+07
         0.40739E+07
         0.10591E+07
         0.95015E+06
         0.14341E+07
        -0.63481E+06
        -0.46935E+06
         0.12154E+06
         0.98427E+06
         0.22751E+06
         0.37413E+06
        -0.45664E+06
        -0.94992E+05
         0.30667E+06
         0.82563E+06
         0.10775E+07
         0.16654E+07
         0.24811E+07
         0.24868E+07
         0.33282E+07
        -0.70831E+06
         0.23357E+07
         0.40364E+06
         0.27073E+07
         0.45956E+07
         0.58982E+07
         0.50304E+07
         0.53743E+07
         0.45585E+07
         0.33290E+07
         0.28635E+07
         0.22932E+07
         0.13689E+07
         0.26994E+07
         0.59997E+06
        -0.11334E+07
        -0.94430E+06
        -0.64133E+06
         0.17493E+05
         0.20128E+07
         0.20525E+07
         0.12861E+07
         0.23685E+06
         0.30057E+06
         0.16533E+07
         0.28778E+07
         0.27569E+07
         0.16040E+07
         0.19904E+07
         0.32368E+07
         0.23865E+07
         0.34179E+07
        -0.41182E+06
        -0.50680E+06
         0.33819E+07
        -0.88942E+06
        -0.18972E+07
         0.10148E+07
         0.15284E+07
        -0.39315E+07
        -0.23802E+06
         0.13221E+07
         0.19641E+07
         0.28569E+07
         0.43475E+06
         0.32452E+06
         0.54034E+06
         0.15465E+07
        -0.49399E+06
        -0.65981E+06
        -0.18691E+07
        -0.91049E+06
        -0.57652E+07
        -0.72731E+07
        -0.36710E+07
        -0.15986E+07
         0.10728E+07
        -0.95633E+05
         0.26123E+07
         0.40566E+07
         0.10519E+07
         0.94299E+06
         0.14296E+07
        -0.66038E+06
        -0.48386E+06
         0.10810E+06
         0.97112E+06
         0.21920E+06
         0.36221E+06
        -0.46234E+06
        -0.10098E+06
         0.29834E+06
         0.81290E+06
         0.10631E+07
         0.16517E+07
         0.24694E+07
         0.24762E+07
         0.33168E+07
        -0.72292E+06
         0.23242E+07
         0.38021E+06
         0.26874E+07
         0.45928E+07
         0.58842E+07
         0.49978E+07
         0.53378E+07
         0.45371E+07
         0.32969E+07
         0.28285E+07
         0.22757E+07
         0.13481E+07
         0.26879E+07
         0.58931E+06
        -0.11433E+07
        -0.94587E+06
        -0.64830E+06
         0.74253E+04
         0.19861E+07
         0.20192E+07
         0.12604E+07
         0.22372E+06
         0.29412E+06
         0.16386E+07
         0.28571E+07
         0.27421E+07
         0.15896E+07
         0.19798E+07
         0.32302E+07
         0.23753E+07
         0.34128E+07
        -0.42382E+06
        -0.52000E+06
         0.33672E+07
        -0.90360E+06
        -0.19109E+07
         0.99918E+06
         0.15180E+07
        -0.39445E+07
        -0.25558E+06
         0.13057E+07
         0.19509E+07
         0.28431E+07
         0.42003E+06
         0.31026E+06
         0.53006E+06
         0.15360E+07
        -0.50541E+06
        -0.67660E+06
        -0.18750E+07
        -0.93247E+06
        -0.57706E+07
        -0.72819E+07
        -0.36727E+07
        -0.16053E+07
         0.10567E+07
        -0.11436E+06
         0.26023E+07
         0.40533E+07
         0.10346E+07
         0.93049E+06
         0.14191E+07
        -0.68510E+06
        -0.50015E+06
         0.96408E+05
         0.96365E+06
         0.21214E+06
         0.35134E+06
        -0.47314E+06
        -0.11163E+06
         0.28711E+06
         0.80103E+06
         0.10506E+07
         0.16386E+07
         0.24592E+07
         0.24662E+07
         0.33118E+07
        -0.75203E+06
         0.23000E+07
         0.36237E+06
         0.26814E+07
         0.45849E+07
         0.58560E+07
         0.49570E+07
         0.53049E+07
         0.45149E+07
         0.32738E+07
         0.28141E+07
         0.22585E+07
         0.13231E+07
         0.26708E+07
         0.57154E+06
        -0.11639E+07
        -0.95950E+06
        -0.66431E+06
        -0.12376E+05
         0.19641E+07
         0.19940E+07
         0.12342E+07
         0.20480E+06
         0.27616E+06
         0.16162E+07
         0.28335E+07
         0.27518E+07
         0.15956E+07
         0.19851E+07
         0.32401E+07
         0.23871E+07
         0.34248E+07
        -0.40687E+06
        -0.50229E+06
         0.33766E+07
        -0.89229E+06
        -0.18910E+07
         0.10126E+07
         0.15225E+07
        -0.39211E+07
        -0.22691E+06
         0.13197E+07
         0.19610E+07
         0.28597E+07
         0.43700E+06
         0.33244E+06
         0.54661E+06
         0.15536E+07
        -0.49097E+06
        -0.65862E+06
        -0.18612E+07
        -0.91311E+06
        -0.57462E+07
        -0.72578E+07
        -0.36335E+07
        -0.15809E+07
         0.10737E+07
        -0.10016E+06
         0.26224E+07
         0.40724E+07
         0.10484E+07
         0.94220E+06
         0.14255E+07
        -0.66754E+06
        -0.48187E+06
         0.12028E+06
         0.98451E+06
         0.22787E+06
         0.36824E+06
        -0.46110E+06
        -0.10156E+06
         0.29640E+06
         0.81185E+06
         0.10640E+07
         0.16534E+07
         0.24737E+07
         0.24783E+07
         0.33258E+07
        -0.71557E+06
         0.23394E+07
         0.39947E+06
         0.26996E+07
         0.45789E+07
         0.58579E+07
         0.49862E+07
         0.53374E+07
         0.45368E+07
         0.33070E+07
         0.28457E+07
         0.22735E+07
         0.13501E+07
         0.26983E+07
         0.59643E+06
        -0.11447E+07
        -0.94661E+06
        -0.64815E+06
         0.28125E+04
         0.19878E+07
         0.20220E+07
         0.12613E+07
         0.22810E+06
         0.29596E+06
         0.16455E+07
         0.28679E+07
         0.27450E+07
         0.15840E+07
         0.19749E+07
         0.32270E+07
         0.23757E+07
         0.34130E+07
        -0.42256E+06
        -0.51420E+06
         0.33648E+07
        -0.90991E+06
        -0.19108E+07
         0.99315E+06
         0.15014E+07
        -0.39411E+07
        -0.23934E+06
         0.13064E+07
         0.19441E+07
         0.28359E+07
         0.41889E+06
         0.31083E+06
         0.52803E+06
         0.15348E+07
        -0.51053E+06
        -0.67802E+06
        -0.18768E+07
        -0.93240E+06
        -0.57678E+07
        -0.72894E+07
        -0.36502E+07
        -0.15935E+07
         0.10587E+07
        -0.11787E+06
         0.26010E+07
         0.40568E+07
         0.10319E+07
         0.92761E+06
         0.14082E+07
        -0.69449E+06
        -0.50842E+06
         0.97019E+05
         0.95918E+06
         0.20409E+06
         0.34969E+06
        -0.48314E+06
        -0.12108E+06
         0.28005E+06
         0.79492E+06
         0.10444E+07
         0.16366E+07
         0.24622E+07
         0.24649E+07
         0.33127E+07
        -0.74433E+06
         0.23146E+07
         0.37124E+06
         0.26671E+07
         0.45411E+07
         0.58218E+07
         0.49640E+07
         0.53089E+07
         0.44993E+07
         0.32699E+07
         0.28005E+07
         0.22289E+07
         0.13202E+07
         0.26672E+07
         0.56988E+06
        -0.11750E+07
        -0.99341E+06
        -0.68992E+06
        -0.18184E+05
         0.19588E+07
         0.19919E+07
         0.12458E+07
         0.21743E+06
         0.27378E+06
         0.16153E+07
         0.28378E+07
         0.27438E+07
         0.15802E+07
         0.19719E+07
         0.32230E+07
         0.23744E+07
         0.34098E+07
        -0.42362E+06
        -0.51472E+06
         0.33654E+07
        -0.90959E+06
        -0.19135E+07
         0.99052E+06
         0.14980E+07
        -0.39417E+07
        -0.23821E+06
         0.13040E+07
         0.19450E+07
         0.28294E+07
         0.41742E+06
         0.30802E+06
         0.52407E+06
         0.15318E+07
        -0.51483E+06
        -0.68161E+06
        -0.18756E+07
        -0.93806E+06
        -0.57624E+07
        -0.72939E+07
        -0.36483E+07
        -0.15954E+07
         0.10508E+07
        -0.12499E+06
         0.25925E+07
         0.40534E+07
         0.10280E+07
         0.92298E+06
         0.14030E+07
        -0.70729E+06
        -0.52329E+06
         0.87924E+05
         0.95646E+06
         0.20210E+06
         0.34717E+06
        -0.48682E+06
        -0.12467E+06
         0.27618E+06
         0.78945E+06
         0.10367E+07
         0.16299E+07
         0.24599E+07
         0.24624E+07
         0.33098E+07
        -0.74519E+06
         0.23151E+07
         0.36357E+06
         0.26546E+07
         0.45403E+07
         0.58212E+07
         0.49550E+07
         0.52851E+07
         0.44722E+07
         0.32549E+07
         0.27990E+07
         0.22245E+07
         0.13126E+07
         0.26551E+07
         0.55603E+06
        -0.11847E+07
        -0.99976E+06
        -0.69541E+06
        -0.24163E+05
         0.19483E+07
         0.19786E+07
         0.12372E+07
         0.21639E+06
         0.27083E+06
         0.16018E+07
         0.28256E+07
         0.27744E+07
         0.16168E+07
         0.20029E+07
         0.32488E+07
         0.24087E+07
         0.34373E+07
        -0.37197E+06
        -0.47789E+06
         0.33901E+07
        -0.88029E+06
        -0.18664E+07
         0.10329E+07
         0.15361E+07
        -0.39002E+07
        -0.19560E+06
         0.13342E+07
         0.19789E+07
         0.28621E+07
         0.45424E+06
         0.35495E+06
         0.56075E+06
         0.15667E+07
        -0.47952E+06
        -0.64275E+06
        -0.18350E+07
        -0.89484E+06
        -0.57150E+07
        -0.72291E+07
        -0.35795E+07
        -0.15514E+07
         0.10848E+07
        -0.84700E+05
         0.26234E+07
         0.40789E+07
         0.10649E+07
         0.95694E+06
         0.14363E+07
        -0.67979E+06
        -0.48776E+06
         0.12652E+06
         0.99127E+06
         0.23758E+06
         0.37861E+06
        -0.44965E+06
        -0.86868E+05
         0.31294E+06
         0.82409E+06
         0.10705E+07
         0.16599E+07
         0.24859E+07
         0.24875E+07
         0.33340E+07
        -0.67884E+06
         0.23811E+07
         0.41910E+06
         0.26948E+07
         0.45892E+07
         0.58831E+07
         0.50069E+07
         0.53247E+07
         0.45168E+07
         0.33035E+07
         0.28429E+07
         0.22760E+07
         0.13538E+07
         0.27010E+07
         0.60818E+06
        -0.11305E+07
        -0.93885E+06
        -0.63007E+06
         0.31973E+05
         0.20069E+07
         0.20288E+07
         0.12746E+07
         0.25744E+06
         0.31984E+06
         0.16549E+07
         0.28793E+07
         0.27617E+07
         0.16063E+07
         0.19934E+07
         0.32327E+07
         0.23944E+07
         0.34252E+07
        -0.38574E+06
        -0.49343E+06
         0.33733E+07
        -0.90245E+06
        -0.18858E+07
         0.10179E+07
         0.15268E+07
        -0.39213E+07
        -0.21356E+06
         0.13171E+07
         0.19576E+07
         0.28424E+07
         0.43024E+06
         0.32863E+06
         0.54832E+06
         0.15495E+07
        -0.49155E+06
        -0.66617E+06
        -0.18540E+07
        -0.92204E+06
        -0.57342E+07
        -0.72506E+07
        -0.35762E+07
        -0.15600E+07
         0.10739E+07
        -0.10477E+06
         0.26087E+07
         0.40599E+07
         0.10436E+07
         0.94372E+06
         0.14279E+07
        -0.71032E+06
        -0.50927E+06
         0.11654E+06
         0.97536E+06
         0.21917E+06
         0.35723E+06
        -0.46606E+06
        -0.10386E+06
         0.29755E+06
         0.81002E+06
         0.10595E+07
         0.16457E+07
         0.24685E+07
         0.24715E+07
         0.33205E+07
        -0.72126E+06
         0.23454E+07
         0.38650E+06
         0.26777E+07
         0.45833E+07
         0.58670E+07
         0.49715E+07
         0.52818E+07
         0.44752E+07
         0.32666E+07
         0.27993E+07
         0.22262E+07
         0.13183E+07
         0.26833E+07
         0.59996E+06
        -0.11357E+07
        -0.95589E+06
        -0.65956E+06
         0.99602E+04
         0.19808E+07
         0.20046E+07
         0.12474E+07
         0.22831E+06
         0.30134E+06
         0.16376E+07
         0.28509E+07
         0.27404E+07
         0.15797E+07
         0.19672E+07
         0.32112E+07
         0.23716E+07
         0.34019E+07
        -0.40985E+06
        -0.51198E+06
         0.33493E+07
        -0.94247E+06
        -0.19094E+07
         0.99376E+06
         0.15061E+07
        -0.39430E+07
        -0.23639E+06
         0.12962E+07
         0.19251E+07
         0.28198E+07
         0.41063E+06
         0.31543E+06
         0.53296E+06
         0.15293E+07
        -0.50610E+06
        -0.68624E+06
        -0.18903E+07
        -0.94875E+06
        -0.57795E+07
        -0.72857E+07
        -0.34973E+07
        -0.15284E+07
         0.10541E+07
        -0.13292E+06
         0.25941E+07
         0.40468E+07
         0.10197E+07
         0.92184E+06
         0.14077E+07
        -0.75560E+06
        -0.53041E+06
         0.15218E+06
         0.97406E+06
         0.19921E+06
         0.32863E+06
        -0.48382E+06
        -0.12550E+06
         0.27292E+06
         0.78548E+06
         0.10399E+07
         0.16294E+07
         0.24545E+07
         0.24573E+07
         0.33039E+07
        -0.74956E+06
         0.23194E+07
         0.36431E+06
         0.26583E+07
         0.45564E+07
         0.58233E+07
         0.49215E+07
         0.52340E+07
         0.44333E+07
         0.32568E+07
         0.27234E+07
         0.21068E+07
         0.12682E+07
         0.26554E+07
         0.57523E+06
        -0.11577E+07
        -0.98310E+06
        -0.69050E+06
        -0.26192E+05
         0.19400E+07
         0.19770E+07
         0.12215E+07
         0.19863E+06
         0.27934E+06
         0.16039E+07
         0.28131E+07
         0.27695E+07
         0.16133E+07
         0.20009E+07
         0.32424E+07
         0.24080E+07
         0.34316E+07
        -0.36444E+06
        -0.47572E+06
         0.33663E+07
        -0.94836E+06
        -0.18670E+07
         0.10254E+07
         0.15343E+07
        -0.39038E+07
        -0.19830E+06
         0.13267E+07
         0.19484E+07
         0.28504E+07
         0.45310E+06
         0.39349E+06
         0.56348E+06
         0.15598E+07
        -0.47769E+06
        -0.64433E+06
        -0.18780E+07
        -0.90163E+06
        -0.57866E+07
        -0.72452E+07
        -0.32702E+07
        -0.13948E+07
         0.10831E+07
        -0.91938E+05
         0.26244E+07
         0.40807E+07
         0.10592E+07
         0.95969E+06
         0.14391E+07
        -0.75289E+06
        -0.48980E+06
         0.28504E+06
         0.10408E+07
         0.23512E+06
         0.34696E+06
        -0.45192E+06
        -0.88536E+05
         0.31378E+06
         0.82161E+06
         0.10708E+07
         0.16623E+07
         0.24899E+07
         0.24907E+07
         0.33325E+07
        -0.68127E+06
         0.23865E+07
         0.43281E+06
         0.27063E+07
         0.45869E+07
         0.58584E+07
         0.49701E+07
         0.52836E+07
         0.44878E+07
         0.33628E+07
         0.26987E+07
         0.20107E+07
         0.12719E+07
         0.26935E+07
         0.60706E+06
        -0.11311E+07
        -0.95017E+06
        -0.63580E+06
         0.40905E+05
         0.20027E+07
         0.20313E+07
         0.12777E+07
         0.26173E+06
         0.33789E+06
         0.16512E+07
         0.28629E+07
         0.26613E+07
         0.14900E+07
         0.18800E+07
         0.31162E+07
         0.22787E+07
         0.33021E+07
        -0.51938E+06
        -0.60240E+06
         0.32376E+07
        -0.11059E+07
        -0.20283E+07
         0.87523E+06
         0.13898E+07
        -0.40593E+07
        -0.34998E+06
         0.12122E+07
         0.17946E+07
         0.27015E+07
         0.31183E+06
         0.22965E+06
         0.42889E+06
         0.14265E+07
        -0.60969E+06
        -0.79199E+06
        -0.20362E+07
        -0.10596E+07
        -0.59683E+07
        -0.74433E+07
        -0.33486E+07
        -0.14838E+07
         0.96589E+06
        -0.24221E+06
         0.24907E+07
         0.39352E+07
         0.91416E+06
         0.82097E+06
         0.13001E+07
        -0.93134E+06
        -0.63434E+06
         0.19892E+06
         0.91021E+06
         0.92436E+05
         0.20361E+06
        -0.58325E+06
        -0.22835E+06
         0.16052E+06
         0.68104E+06
         0.94007E+06
         0.15288E+07
         0.23501E+07
         0.23415E+07
         0.31941E+07
        -0.91997E+06
         0.21552E+07
         0.19276E+06
         0.24619E+07
         0.43439E+07
         0.56250E+07
         0.47323E+07
         0.50272E+07
         0.42470E+07
         0.31441E+07
         0.23938E+07
         0.16789E+07
         0.10346E+07
         0.24960E+07
         0.40124E+06
        -0.13442E+07
        -0.11700E+07
        -0.88069E+06
        -0.21131E+06
         0.17612E+07
         0.18062E+07
         0.10616E+07
         0.41105E+05
         0.11085E+06
         0.14335E+07
         0.26466E+07
         0.27234E+07
         0.14986E+07
         0.19027E+07
         0.31642E+07
         0.23221E+07
         0.33446E+07
        -0.49482E+06
        -0.52463E+06
         0.33212E+07
        -0.99104E+06
        -0.19834E+07
         0.87811E+06
         0.13529E+07
        -0.39631E+07
        -0.28117E+06
         0.13015E+07
         0.18949E+07
         0.27793E+07
         0.38853E+06
         0.32530E+06
         0.48984E+06
         0.14723E+07
        -0.51485E+06
        -0.68123E+06
        -0.18923E+07
        -0.94363E+06
        -0.58127E+07
        -0.72162E+07
        -0.31584E+07
        -0.13490E+07
         0.10385E+07
        -0.17631E+06
         0.25287E+07
         0.39139E+07
         0.93620E+06
         0.81048E+06
         0.12607E+07
        -0.84837E+06
        -0.53012E+06
         0.29106E+06
         0.96926E+06
         0.17359E+06
         0.28937E+06
        -0.49388E+06
        -0.17752E+06
         0.18402E+06
         0.70219E+06
         0.99599E+06
         0.15733E+07
         0.23526E+07
         0.23511E+07
         0.31970E+07
        -0.82834E+06
         0.22743E+07
         0.22279E+06
         0.24092E+07
         0.42347E+07
         0.55586E+07
         0.48410E+07
         0.51395E+07
         0.43364E+07
         0.31970E+07
         0.24085E+07
         0.17244E+07
         0.11243E+07
         0.25405E+07
         0.49472E+06
        -0.12110E+07
        -0.10567E+07
        -0.79429E+06
        -0.17391E+06
         0.17568E+07
         0.18562E+07
         0.11333E+07
         0.15445E+06
         0.24877E+06
         0.15420E+07
         0.27591E+07
         0.42339E+09
         0.47141E+09
         0.47165E+09
         0.45828E+09
         0.50418E+09
         0.49418E+09
         0.54861E+09
         0.48067E+09
         0.44308E+09
         0.48292E+09
         0.58091E+09
         0.57518E+09
         0.52760E+09
         0.56451E+09
         0.58791E+09
         0.42238E+09
         0.49849E+09
         0.47924E+09
         0.49911E+09
         0.56583E+09
         0.48331E+09
         0.49102E+09
         0.46681E+09
         0.50025E+09
         0.50984E+09
         0.52195E+09
         0.55784E+09
         0.63784E+09
         0.60815E+09
         0.52497E+09
         0.43632E+09
         0.50400E+09
         0.46259E+09
         0.48897E+09
         0.54329E+09
         0.51634E+09
         0.50200E+09
         0.56548E+09
         0.55643E+09
         0.55325E+09
         0.55349E+09
         0.52687E+09
         0.49965E+09
         0.46022E+09
         0.48638E+09
         0.54211E+09
         0.51295E+09
         0.48811E+09
         0.49128E+09
         0.49973E+09
         0.52208E+09
         0.49769E+09
         0.87472E+09
         0.85597E+09
         0.86953E+09
         0.84219E+09
         0.86662E+09
         0.90670E+09
         0.91204E+09
         0.90643E+09
         0.91453E+09
         0.93709E+09
         0.90941E+09
         0.85770E+09
         0.76787E+09
         0.72693E+09
         0.73384E+09
         0.74818E+09
         0.75656E+09
         0.82115E+09
         0.88108E+09
         0.88408E+09
         0.81471E+09
         0.78767E+09
         0.81347E+09
         0.80608E+09
         0.79960E+09
         0.80158E+09
         0.41677E+10
         0.43740E+10
         0.43162E+10
         0.39693E+10
         0.47975E+10
         0.45342E+10
         0.47165E+10
         0.47280E+10
         0.41002E+10
         0.47269E+10
         0.51479E+10
         0.56822E+10
         0.51873E+10
         0.52826E+10
         0.58684E+10
         0.40182E+10
         0.43122E+10
         0.38052E+10
         0.44410E+10
         0.46628E+10
         0.47649E+10
         0.48692E+10
         0.45884E+10
         0.42860E+10
         0.47923E+10
         0.41497E+10
         0.52644E+10
         0.51913E+10
         0.52117E+10
         0.49513E+10
         0.40637E+10
         0.42695E+10
         0.39989E+10
         0.41695E+10
         0.52168E+10
         0.48276E+10
         0.48328E+10
         0.57023E+10
         0.55769E+10
         0.55174E+10
         0.55900E+10
         0.53249E+10
         0.50461E+10
         0.44945E+10
         0.46777E+10
         0.52103E+10
         0.48556E+10
         0.45865E+10
         0.45070E+10
         0.46586E+10
         0.50149E+10
         0.46681E+10
         0.80279E+10
         0.78178E+10
         0.79736E+10
         0.77239E+10
         0.79449E+10
         0.83431E+10
         0.84834E+10
         0.84816E+10
         0.85458E+10
         0.87324E+10
         0.84816E+10
         0.79743E+10
         0.71745E+10
         0.67887E+10
         0.67945E+10
         0.68721E+10
         0.69334E+10
         0.75069E+10
         0.80529E+10
         0.80812E+10
         0.74925E+10
         0.72678E+10
         0.74996E+10
         0.74501E+10
         0.73614E+10
         0.73425E+10
  
SCALARS                      stress_yz  double 1
LOOKUP_TABLE default
         0.38715E+06
        -0.12878E+06
        -0.33459E+06
        -0.17208E+06
        -0.10088E+02
        -0.27803E+01
        -0.12502E+02
        -0.95354E+01
        -0.12541E+07
         0.82486E+06
        -0.18605E+02
        -0.16379E+02
        -0.11002E+07
        -0.55945E+05
         0.13315E+02
        -0.85365E+00
         0.37822E+06
         0.14099E+07
         0.19589E+00
         0.20043E+01
        -0.73163E+06
        -0.27540E+07
        -0.28628E+07
         0.30522E+02
         0.52710E+02
         0.44059E+02
        -0.27145E+06
        -0.27922E+07
         0.21955E+02
         0.42592E+02
         0.43225E+06
         0.37680E+06
        -0.32001E+06
         0.11382E+02
         0.11619E+02
        -0.24122E+00
         0.12846E+07
         0.12380E+07
         0.20945E+02
         0.16296E+02
         0.12629E+07
         0.80389E+06
         0.15829E+02
         0.14465E+02
         0.11452E+07
         0.39483E+06
        -0.52507E+00
         0.81217E+01
         0.10635E+07
         0.38239E+01
         0.10480E+06
        -0.30971E+00
         0.62661E+05
         0.14791E+02
        -0.41528E+06
         0.86045E+01
        -0.13544E+07
         0.24049E+06
         0.23343E+00
        -0.47378E+00
         0.52419E+06
         0.19127E+07
        -0.31805E+01
        -0.11897E+02
         0.31653E+06
        -0.64199E+01
         0.13589E+07
        -0.78209E+01
        -0.11037E+07
        -0.58464E+06
        -0.96652E+00
         0.12761E+02
        -0.20442E+07
         0.28022E+02
        -0.35444E+07
         0.27133E+02
        -0.35770E+07
         0.20597E+02
        -0.29465E+07
         0.17264E+02
        -0.43214E+07
        -0.33166E+07
         0.11075E+02
        -0.24554E+01
        -0.46383E+06
        -0.27475E+00
         0.17898E+07
        -0.17211E+02
         0.42301E+07
        -0.30130E+02
         0.59113E+07
         0.36642E+07
        -0.44688E+02
        -0.36171E+02
         0.25771E+07
        -0.28078E+02
         0.23123E+07
        -0.28726E+02
         0.22502E+07
        -0.30886E+02
         0.37444E+07
         0.31117E+07
        -0.28723E+02
        -0.13763E+02
        -0.25120E+07
         0.95082E+06
         0.10099E+02
        -0.12550E+02
        -0.61755E+07
         0.33598E+02
        -0.88403E+07
         0.49146E+02
        -0.10824E+08
         0.60696E+02
        -0.12695E+08
         0.60206E+02
        -0.14946E+08
         0.47645E+02
        -0.15278E+08
         0.36871E+02
        -0.14386E+08
         0.34294E+02
        -0.12801E+08
         0.32628E+02
        -0.93354E+07
         0.20852E+02
        -0.63042E+07
         0.68843E+01
        -0.31624E+07
         0.44484E+01
         0.22748E+06
         0.66863E+01
         0.30173E+07
         0.34534E+01
         0.54127E+07
        -0.10444E+02
         0.83766E+07
        -0.29479E+02
         0.94260E+07
        -0.46032E+02
         0.10311E+08
        -0.60347E+02
         0.13173E+08
        -0.60294E+02
         0.13644E+08
        -0.52635E+02
         0.12608E+08
        -0.51298E+02
         0.10255E+08
        -0.51617E+02
         0.69719E+07
        -0.40817E+02
         0.49380E+07
        -0.24137E+02
         0.35510E+07
        -0.18663E+02
         0.28818E+07
         0.14920E+07
         0.13023E+07
         0.40397E+06
         0.13354E+07
         0.14187E+07
         0.14974E+06
         0.23001E+07
         0.19713E+07
         0.28941E+07
        -0.15138E+07
        -0.64591E+07
        -0.44111E+07
        -0.51161E+06
        -0.65238E+07
        -0.76316E+06
         0.67625E+06
        -0.43522E+06
        -0.56878E+06
         0.42985E+06
        -0.39481E+06
        -0.32548E+06
         0.10940E+07
        -0.92201E+05
         0.19759E+07
        -0.29212E+06
        -0.15134E+05
        -0.26460E+06
        -0.32122E+06
         0.15494E+07
        -0.74498E+06
         0.80872E+06
        -0.54178E+06
         0.13202E+06
        -0.21825E+06
        -0.11824E+07
        -0.26511E+07
        -0.57320E+07
        -0.52377E+07
        -0.44276E+07
        -0.41702E+07
        -0.10351E+07
         0.84643E+06
         0.23218E+07
         0.38372E+07
         0.62703E+07
         0.41130E+07
         0.29487E+07
         0.31461E+07
         0.33431E+07
         0.39224E+07
         0.17919E+07
        -0.33802E+07
         0.40604E+07
        -0.10998E+08
        -0.15192E+08
        -0.19366E+08
        -0.23003E+08
        -0.23139E+08
        -0.20952E+08
        -0.19936E+08
        -0.18842E+08
        -0.12176E+08
        -0.53398E+07
        -0.23490E+07
        -0.10355E+07
         0.15854E+07
         0.62664E+07
         0.11517E+08
         0.15033E+08
         0.18214E+08
         0.20877E+08
         0.19659E+08
         0.18586E+08
         0.17292E+08
         0.12031E+08
         0.70235E+07
         0.61655E+07
        -0.17121E+09
        -0.17372E+09
        -0.16983E+09
        -0.57553E+08
        -0.12532E+09
        -0.79466E+08
        -0.13652E+09
        -0.16433E+09
        -0.16675E+09
        -0.16333E+09
         0.16936E+09
         0.18846E+09
         0.14375E+09
         0.39266E+08
         0.17798E+09
         0.87415E+08
        -0.50311E+08
         0.68902E+08
         0.16530E+09
         0.57335E+08
         0.49241E+08
         0.37075E+08
        -0.22025E+08
         0.65518E+08
        -0.16560E+09
         0.92978E+08
         0.88959E+07
         0.43373E+08
        -0.68482E+08
        -0.15306E+09
         0.10919E+09
         0.52281E+08
         0.10634E+09
         0.10599E+09
        -0.14261E+08
         0.69974E+08
         0.10510E+09
         0.16307E+09
         0.18309E+09
         0.17241E+09
         0.91684E+08
        -0.24793E+08
        -0.50757E+08
        -0.80275E+08
        -0.11478E+09
        -0.17556E+09
        -0.15093E+09
        -0.11606E+09
        -0.17467E+09
        -0.17652E+09
        -0.11592E+09
        -0.12322E+08
         0.37463E+08
        -0.52453E+08
         0.11726E+09
         0.15255E+09
         0.18582E+09
         0.20909E+09
         0.21259E+09
         0.20648E+09
         0.20255E+09
         0.18846E+09
         0.12053E+09
         0.40220E+08
         0.19043E+08
         0.17084E+08
        -0.72659E+07
        -0.57917E+08
        -0.11220E+09
        -0.14419E+09
        -0.19437E+09
        -0.21038E+09
        -0.20314E+09
        -0.20129E+09
        -0.18932E+09
        -0.13607E+09
        -0.68876E+08
        -0.65718E+08
        -0.17120E+09
        -0.17372E+09
        -0.16983E+09
        -0.57897E+08
        -0.12538E+09
        -0.79572E+08
        -0.13629E+09
        -0.16446E+09
        -0.16678E+09
        -0.16349E+09
         0.16947E+09
         0.18845E+09
         0.14374E+09
         0.39353E+08
         0.17804E+09
         0.87355E+08
        -0.50634E+08
         0.68799E+08
         0.16533E+09
         0.57137E+08
         0.49359E+08
         0.37113E+08
        -0.22032E+08
         0.65488E+08
        -0.16568E+09
         0.92809E+08
         0.89979E+07
         0.43616E+08
        -0.67720E+08
        -0.15313E+09
         0.10911E+09
         0.52183E+08
         0.10675E+09
         0.10607E+09
        -0.14121E+08
         0.70038E+08
         0.10512E+09
         0.16309E+09
         0.18310E+09
         0.17238E+09
         0.91698E+08
        -0.24714E+08
        -0.50804E+08
        -0.80318E+08
        -0.11480E+09
        -0.17557E+09
        -0.15095E+09
        -0.11600E+09
        -0.17467E+09
        -0.17651E+09
        -0.11593E+09
        -0.12153E+08
         0.37440E+08
        -0.52467E+08
         0.11729E+09
         0.15255E+09
         0.18582E+09
         0.20908E+09
         0.21259E+09
         0.20646E+09
         0.20256E+09
         0.18846E+09
         0.12052E+09
         0.40237E+08
         0.19043E+08
         0.17120E+08
        -0.72059E+07
        -0.57935E+08
        -0.11222E+09
        -0.14419E+09
        -0.19437E+09
        -0.21038E+09
        -0.20315E+09
        -0.20129E+09
        -0.18933E+09
        -0.13605E+09
        -0.68835E+08
        -0.65663E+08
        -0.17118E+09
        -0.17371E+09
        -0.16982E+09
        -0.58243E+08
        -0.12545E+09
        -0.79678E+08
        -0.13607E+09
        -0.16459E+09
        -0.16681E+09
        -0.16366E+09
         0.16957E+09
         0.18844E+09
         0.14372E+09
         0.39436E+08
         0.17810E+09
         0.87294E+08
        -0.50957E+08
         0.68694E+08
         0.16535E+09
         0.56929E+08
         0.49478E+08
         0.37150E+08
        -0.22041E+08
         0.65451E+08
        -0.16576E+09
         0.92617E+08
         0.91072E+07
         0.43874E+08
        -0.66926E+08
        -0.15320E+09
         0.10902E+09
         0.52061E+08
         0.10716E+09
         0.10615E+09
        -0.13981E+08
         0.70103E+08
         0.10514E+09
         0.16311E+09
         0.18312E+09
         0.17236E+09
         0.91716E+08
        -0.24629E+08
        -0.50847E+08
        -0.80368E+08
        -0.11483E+09
        -0.17558E+09
        -0.15096E+09
        -0.11593E+09
        -0.17467E+09
        -0.17650E+09
        -0.11594E+09
        -0.11984E+08
         0.37417E+08
        -0.52481E+08
         0.11731E+09
         0.15255E+09
         0.18583E+09
         0.20908E+09
         0.21258E+09
         0.20645E+09
         0.20256E+09
         0.18846E+09
         0.12051E+09
         0.40256E+08
         0.19043E+08
         0.17155E+08
        -0.71456E+07
        -0.57954E+08
        -0.11225E+09
        -0.14420E+09
        -0.19438E+09
        -0.21037E+09
        -0.20316E+09
        -0.20130E+09
        -0.18935E+09
        -0.13604E+09
        -0.68795E+08
        -0.65608E+08
        -0.17117E+09
        -0.17371E+09
        -0.16982E+09
        -0.58591E+08
        -0.12552E+09
        -0.79785E+08
        -0.13585E+09
        -0.16472E+09
        -0.16684E+09
        -0.16382E+09
         0.16967E+09
         0.18843E+09
         0.14370E+09
         0.39523E+08
         0.17816E+09
         0.87228E+08
        -0.51282E+08
         0.68587E+08
         0.16537E+09
         0.56707E+08
         0.49598E+08
         0.37183E+08
        -0.22060E+08
         0.65393E+08
        -0.16582E+09
         0.92363E+08
         0.92205E+07
         0.44215E+08
        -0.66040E+08
        -0.15326E+09
         0.10893E+09
         0.51886E+08
         0.10757E+09
         0.10623E+09
        -0.13842E+08
         0.70167E+08
         0.10515E+09
         0.16313E+09
         0.18314E+09
         0.17235E+09
         0.91740E+08
        -0.24523E+08
        -0.50878E+08
        -0.80438E+08
        -0.11488E+09
        -0.17559E+09
        -0.15097E+09
        -0.11587E+09
        -0.17467E+09
        -0.17649E+09
        -0.11595E+09
        -0.11815E+08
         0.37394E+08
        -0.52496E+08
         0.11733E+09
         0.15255E+09
         0.18583E+09
         0.20907E+09
         0.21257E+09
         0.20644E+09
         0.20257E+09
         0.18846E+09
         0.12051E+09
         0.40278E+08
         0.19045E+08
         0.17190E+08
        -0.70848E+07
        -0.57973E+08
        -0.11228E+09
        -0.14421E+09
        -0.19439E+09
        -0.21037E+09
        -0.20316E+09
        -0.20130E+09
        -0.18936E+09
        -0.13602E+09
        -0.68754E+08
        -0.65554E+08
        -0.17116E+09
        -0.17370E+09
        -0.16981E+09
        -0.58935E+08
        -0.12559E+09
        -0.79891E+08
        -0.13563E+09
        -0.16485E+09
        -0.16687E+09
        -0.16398E+09
         0.16977E+09
         0.18842E+09
         0.14369E+09
         0.39613E+08
         0.17821E+09
         0.87158E+08
        -0.51606E+08
         0.68480E+08
         0.16539E+09
         0.56467E+08
         0.49718E+08
         0.37211E+08
        -0.22088E+08
         0.65311E+08
        -0.16588E+09
         0.92044E+08
         0.93471E+07
         0.44633E+08
        -0.65058E+08
        -0.15331E+09
         0.10882E+09
         0.51652E+08
         0.10798E+09
         0.10631E+09
        -0.13701E+08
         0.70231E+08
         0.10517E+09
         0.16315E+09
         0.18315E+09
         0.17233E+09
         0.91773E+08
        -0.24395E+08
        -0.50898E+08
        -0.80530E+08
        -0.11494E+09
        -0.17560E+09
        -0.15099E+09
        -0.11581E+09
        -0.17467E+09
        -0.17648E+09
        -0.11596E+09
        -0.11644E+08
         0.37372E+08
        -0.52510E+08
         0.11735E+09
         0.15255E+09
         0.18584E+09
         0.20906E+09
         0.21256E+09
         0.20643E+09
         0.20257E+09
         0.18846E+09
         0.12051E+09
         0.40304E+08
         0.19047E+08
         0.17225E+08
        -0.70238E+07
        -0.57993E+08
        -0.11232E+09
        -0.14422E+09
        -0.19440E+09
        -0.21037E+09
        -0.20317E+09
        -0.20130E+09
        -0.18937E+09
        -0.13600E+09
        -0.68714E+08
        -0.65499E+08
        -0.17114E+09
        -0.17370E+09
        -0.16981E+09
        -0.59284E+08
        -0.12565E+09
        -0.79998E+08
        -0.13540E+09
        -0.16497E+09
        -0.16690E+09
        -0.16414E+09
         0.16987E+09
         0.18841E+09
         0.14367E+09
         0.39707E+08
         0.17827E+09
         0.87089E+08
        -0.51938E+08
         0.68375E+08
         0.16542E+09
         0.56216E+08
         0.49837E+08
         0.37238E+08
        -0.22119E+08
         0.65220E+08
        -0.16593E+09
         0.91705E+08
         0.94834E+07
         0.45095E+08
        -0.64034E+08
        -0.15336E+09
         0.10871E+09
         0.51394E+08
         0.10840E+09
         0.10640E+09
        -0.13560E+08
         0.70297E+08
         0.10519E+09
         0.16317E+09
         0.18317E+09
         0.17231E+09
         0.91808E+08
        -0.24260E+08
        -0.50913E+08
        -0.80629E+08
        -0.11501E+09
        -0.17562E+09
        -0.15101E+09
        -0.11576E+09
        -0.17467E+09
        -0.17647E+09
        -0.11597E+09
        -0.11473E+08
         0.37349E+08
        -0.52524E+08
         0.11738E+09
         0.15255E+09
         0.18584E+09
         0.20905E+09
         0.21255E+09
         0.20641E+09
         0.20258E+09
         0.18846E+09
         0.12050E+09
         0.40331E+08
         0.19051E+08
         0.17259E+08
        -0.69629E+07
        -0.58013E+08
        -0.11235E+09
        -0.14423E+09
        -0.19440E+09
        -0.21037E+09
        -0.20317E+09
        -0.20131E+09
        -0.18938E+09
        -0.13599E+09
        -0.68673E+08
        -0.65444E+08
        -0.17113E+09
        -0.17368E+09
        -0.16981E+09
        -0.59641E+08
        -0.12572E+09
        -0.80104E+08
        -0.13515E+09
        -0.16510E+09
        -0.16694E+09
        -0.16429E+09
         0.16996E+09
         0.18840E+09
         0.14366E+09
         0.39825E+08
         0.17833E+09
         0.87022E+08
        -0.52283E+08
         0.68269E+08
         0.16544E+09
         0.55962E+08
         0.49958E+08
         0.37265E+08
        -0.22150E+08
         0.65129E+08
        -0.16598E+09
         0.91362E+08
         0.96441E+07
         0.45586E+08
        -0.63001E+08
        -0.15340E+09
         0.10860E+09
         0.51126E+08
         0.10882E+09
         0.10650E+09
        -0.13418E+08
         0.70363E+08
         0.10521E+09
         0.16319E+09
         0.18319E+09
         0.17230E+09
         0.91844E+08
        -0.24123E+08
        -0.50926E+08
        -0.80727E+08
        -0.11508E+09
        -0.17563E+09
        -0.15104E+09
        -0.11572E+09
        -0.17468E+09
        -0.17646E+09
        -0.11597E+09
        -0.11299E+08
         0.37326E+08
        -0.52538E+08
         0.11740E+09
         0.15255E+09
         0.18585E+09
         0.20905E+09
         0.21254E+09
         0.20640E+09
         0.20258E+09
         0.18846E+09
         0.12050E+09
         0.40359E+08
         0.19054E+08
         0.17293E+08
        -0.69018E+07
        -0.58034E+08
        -0.11239E+09
        -0.14425E+09
        -0.19441E+09
        -0.21037E+09
        -0.20318E+09
        -0.20131E+09
        -0.18939E+09
        -0.13597E+09
        -0.68633E+08
        -0.65388E+08
        -0.17112E+09
        -0.17367E+09
        -0.16981E+09
        -0.60004E+08
        -0.12579E+09
        -0.80212E+08
        -0.13489E+09
        -0.16522E+09
        -0.16697E+09
        -0.16444E+09
         0.17006E+09
         0.18839E+09
         0.14365E+09
         0.39947E+08
         0.17839E+09
         0.86958E+08
        -0.52633E+08
         0.68161E+08
         0.16546E+09
         0.55701E+08
         0.50078E+08
         0.37293E+08
        -0.22181E+08
         0.65041E+08
        -0.16604E+09
         0.91022E+08
         0.98110E+07
         0.46090E+08
        -0.61966E+08
        -0.15344E+09
         0.10850E+09
         0.50850E+08
         0.10926E+09
         0.10660E+09
        -0.13275E+08
         0.70431E+08
         0.10523E+09
         0.16321E+09
         0.18320E+09
         0.17228E+09
         0.91881E+08
        -0.23985E+08
        -0.50939E+08
        -0.80823E+08
        -0.11514E+09
        -0.17564E+09
        -0.15107E+09
        -0.11570E+09
        -0.17468E+09
        -0.17644E+09
        -0.11598E+09
        -0.11124E+08
         0.37303E+08
        -0.52553E+08
         0.11742E+09
         0.15255E+09
         0.18586E+09
         0.20904E+09
         0.21253E+09
         0.20639E+09
         0.20258E+09
         0.18846E+09
         0.12050E+09
         0.40386E+08
         0.19057E+08
         0.17328E+08
        -0.68407E+07
        -0.58054E+08
        -0.11242E+09
        -0.14426E+09
        -0.19441E+09
        -0.21036E+09
        -0.20319E+09
        -0.20132E+09
        -0.18940E+09
        -0.13595E+09
        -0.68592E+08
        -0.65333E+08
        -0.17111E+09
        -0.17366E+09
        -0.16981E+09
        -0.60366E+08
        -0.12585E+09
        -0.80319E+08
        -0.13463E+09
        -0.16533E+09
        -0.16701E+09
        -0.16459E+09
         0.17015E+09
         0.18838E+09
         0.14364E+09
         0.40075E+08
         0.17845E+09
         0.86894E+08
        -0.52983E+08
         0.68052E+08
         0.16549E+09
         0.55440E+08
         0.50198E+08
         0.37321E+08
        -0.22212E+08
         0.64952E+08
        -0.16610E+09
         0.90684E+08
         0.99820E+07
         0.46588E+08
        -0.60940E+08
        -0.15348E+09
         0.10839E+09
         0.50577E+08
         0.10969E+09
         0.10671E+09
        -0.13131E+08
         0.70496E+08
         0.10525E+09
         0.16323E+09
         0.18322E+09
         0.17227E+09
         0.91917E+08
        -0.23849E+08
        -0.50951E+08
        -0.80920E+08
        -0.11521E+09
        -0.17566E+09
        -0.15111E+09
        -0.11567E+09
        -0.17469E+09
        -0.17643E+09
        -0.11598E+09
        -0.10948E+08
         0.37280E+08
        -0.52567E+08
         0.11744E+09
         0.15255E+09
         0.18586E+09
         0.20903E+09
         0.21252E+09
         0.20638E+09
         0.20259E+09
         0.18846E+09
         0.12050E+09
         0.40413E+08
         0.19061E+08
         0.17364E+08
        -0.67798E+07
        -0.58074E+08
        -0.11246E+09
        -0.14427E+09
        -0.19442E+09
        -0.21036E+09
        -0.20319E+09
        -0.20132E+09
        -0.18941E+09
        -0.13594E+09
        -0.68552E+08
        -0.65278E+08
        -0.17110E+09
        -0.17365E+09
        -0.16981E+09
        -0.60723E+08
        -0.12592E+09
        -0.80425E+08
        -0.13437E+09
        -0.16545E+09
        -0.16704E+09
        -0.16473E+09
         0.17025E+09
         0.18837E+09
         0.14363E+09
         0.40198E+08
         0.17851E+09
         0.86831E+08
        -0.53333E+08
         0.67943E+08
         0.16551E+09
         0.55173E+08
         0.50318E+08
         0.37348E+08
        -0.22242E+08
         0.64863E+08
        -0.16615E+09
         0.90346E+08
         0.10148E+08
         0.47082E+08
        -0.59922E+08
        -0.15351E+09
         0.10829E+09
         0.50303E+08
         0.11012E+09
         0.10681E+09
        -0.12988E+08
         0.70564E+08
         0.10527E+09
         0.16326E+09
         0.18324E+09
         0.17225E+09
         0.91953E+08
        -0.23713E+08
        -0.50964E+08
        -0.81016E+08
        -0.11528E+09
        -0.17567E+09
        -0.15114E+09
        -0.11565E+09
        -0.17470E+09
        -0.17642E+09
        -0.11598E+09
        -0.10772E+08
         0.37257E+08
        -0.52580E+08
         0.11746E+09
         0.15255E+09
         0.18587E+09
         0.20903E+09
         0.21251E+09
         0.20636E+09
         0.20259E+09
         0.18845E+09
         0.12050E+09
         0.40439E+08
         0.19065E+08
         0.17399E+08
        -0.67190E+07
        -0.58094E+08
        -0.11250E+09
        -0.14429E+09
        -0.19443E+09
        -0.21036E+09
        -0.20320E+09
        -0.20132E+09
        -0.18942E+09
        -0.13592E+09
        -0.68512E+08
        -0.65222E+08
        -0.17109E+09
        -0.17364E+09
        -0.16981E+09
        -0.61080E+08
        -0.12598E+09
        -0.80530E+08
        -0.13412E+09
        -0.16557E+09
        -0.16707E+09
        -0.16487E+09
         0.17034E+09
         0.18836E+09
         0.14361E+09
         0.40325E+08
         0.17857E+09
         0.86768E+08
        -0.53682E+08
         0.67834E+08
         0.16553E+09
         0.54906E+08
         0.50438E+08
         0.37375E+08
        -0.22273E+08
         0.64775E+08
        -0.16621E+09
         0.90008E+08
         0.10317E+08
         0.47567E+08
        -0.58911E+08
        -0.15355E+09
         0.10818E+09
         0.50030E+08
         0.11056E+09
         0.10692E+09
        -0.12844E+08
         0.70631E+08
         0.10529E+09
         0.16328E+09
         0.18326E+09
         0.17223E+09
         0.91989E+08
        -0.23577E+08
        -0.50977E+08
        -0.81112E+08
        -0.11535E+09
        -0.17569E+09
        -0.15118E+09
        -0.11563E+09
        -0.17471E+09
        -0.17641E+09
        -0.11599E+09
        -0.10595E+08
         0.37234E+08
        -0.52594E+08
         0.11748E+09
         0.15255E+09
         0.18587E+09
         0.20902E+09
         0.21250E+09
         0.20635E+09
         0.20260E+09
         0.18845E+09
         0.12049E+09
         0.40466E+08
         0.19068E+08
         0.17434E+08
        -0.66580E+07
        -0.58115E+08
        -0.11253E+09
        -0.14430E+09
        -0.19443E+09
        -0.21036E+09
        -0.20321E+09
        -0.20133E+09
        -0.18942E+09
        -0.13590E+09
        -0.68472E+08
        -0.65167E+08
        -0.17108E+09
        -0.17363E+09
        -0.16981E+09
        -0.61439E+08
        -0.12605E+09
        -0.80637E+08
        -0.13386E+09
        -0.16569E+09
        -0.16711E+09
        -0.16501E+09
         0.17043E+09
         0.18835E+09
         0.14360E+09
         0.40452E+08
         0.17863E+09
         0.86705E+08
        -0.54030E+08
         0.67724E+08
         0.16556E+09
         0.54637E+08
         0.50558E+08
         0.37401E+08
        -0.22303E+08
         0.64688E+08
        -0.16627E+09
         0.89673E+08
         0.10482E+08
         0.48051E+08
        -0.57909E+08
        -0.15359E+09
         0.10808E+09
         0.49755E+08
         0.11099E+09
         0.10703E+09
        -0.12699E+08
         0.70698E+08
         0.10531E+09
         0.16330E+09
         0.18327E+09
         0.17222E+09
         0.92024E+08
        -0.23442E+08
        -0.50989E+08
        -0.81208E+08
        -0.11542E+09
        -0.17570E+09
        -0.15121E+09
        -0.11561E+09
        -0.17471E+09
        -0.17639E+09
        -0.11599E+09
        -0.10418E+08
         0.37210E+08
        -0.52608E+08
         0.11751E+09
         0.15255E+09
         0.18588E+09
         0.20901E+09
         0.21249E+09
         0.20634E+09
         0.20260E+09
         0.18845E+09
         0.12049E+09
         0.40493E+08
         0.19072E+08
         0.17468E+08
        -0.65968E+07
        -0.58135E+08
        -0.11257E+09
        -0.14431E+09
        -0.19444E+09
        -0.21036E+09
        -0.20321E+09
        -0.20133E+09
        -0.18943E+09
        -0.13589E+09
        -0.68432E+08
        -0.65112E+08
        -0.17106E+09
        -0.17362E+09
        -0.16981E+09
        -0.61798E+08
        -0.12611E+09
        -0.80744E+08
        -0.13361E+09
        -0.16580E+09
        -0.16714E+09
        -0.16516E+09
         0.17051E+09
         0.18834E+09
         0.14359E+09
         0.40575E+08
         0.17868E+09
         0.86642E+08
        -0.54376E+08
         0.67611E+08
         0.16558E+09
         0.54371E+08
         0.50678E+08
         0.37428E+08
        -0.22334E+08
         0.64601E+08
        -0.16632E+09
         0.89334E+08
         0.10652E+08
         0.48529E+08
        -0.56912E+08
        -0.15363E+09
         0.10797E+09
         0.49477E+08
         0.11142E+09
         0.10713E+09
        -0.12555E+08
         0.70765E+08
         0.10533E+09
         0.16333E+09
         0.18329E+09
         0.17220E+09
         0.92060E+08
        -0.23306E+08
        -0.51002E+08
        -0.81304E+08
        -0.11548E+09
        -0.17571E+09
        -0.15125E+09
        -0.11558E+09
        -0.17472E+09
        -0.17638E+09
        -0.11600E+09
        -0.10241E+08
         0.37187E+08
        -0.52621E+08
         0.11753E+09
         0.15255E+09
         0.18588E+09
         0.20900E+09
         0.21248E+09
         0.20633E+09
         0.20260E+09
         0.18845E+09
         0.12049E+09
         0.40520E+08
         0.19076E+08
         0.17503E+08
        -0.65358E+07
        -0.58155E+08
        -0.11261E+09
        -0.14432E+09
        -0.19445E+09
        -0.21035E+09
        -0.20322E+09
        -0.20134E+09
        -0.18944E+09
        -0.13587E+09
        -0.68392E+08
        -0.65056E+08
        -0.17105E+09
        -0.17360E+09
        -0.16981E+09
        -0.62156E+08
        -0.12618E+09
        -0.80851E+08
        -0.13336E+09
        -0.16592E+09
        -0.16718E+09
        -0.16530E+09
         0.17059E+09
         0.18833E+09
         0.14358E+09
         0.40703E+08
         0.17874E+09
         0.86579E+08
        -0.54721E+08
         0.67501E+08
         0.16560E+09
         0.54100E+08
         0.50798E+08
         0.37454E+08
        -0.22364E+08
         0.64514E+08
        -0.16638E+09
         0.88996E+08
         0.10817E+08
         0.49001E+08
        -0.55925E+08
        -0.15367E+09
         0.10787E+09
         0.49202E+08
         0.11186E+09
         0.10724E+09
        -0.12410E+08
         0.70831E+08
         0.10535E+09
         0.16335E+09
         0.18331E+09
         0.17218E+09
         0.92096E+08
        -0.23171E+08
        -0.51014E+08
        -0.81399E+08
        -0.11555E+09
        -0.17573E+09
        -0.15128E+09
        -0.11556E+09
        -0.17473E+09
        -0.17637E+09
        -0.11600E+09
        -0.10064E+08
         0.37164E+08
        -0.52635E+08
         0.11755E+09
         0.15255E+09
         0.18589E+09
         0.20900E+09
         0.21247E+09
         0.20631E+09
         0.20261E+09
         0.18845E+09
         0.12049E+09
         0.40547E+08
         0.19079E+08
         0.17538E+08
        -0.64751E+07
        -0.58175E+08
        -0.11264E+09
        -0.14434E+09
        -0.19445E+09
        -0.21035E+09
        -0.20323E+09
        -0.20134E+09
        -0.18945E+09
        -0.13585E+09
        -0.68352E+08
        -0.65000E+08
        -0.17104E+09
        -0.17359E+09
        -0.16981E+09
        -0.62511E+08
        -0.12624E+09
        -0.80958E+08
        -0.13311E+09
        -0.16603E+09
        -0.16721E+09
        -0.16543E+09
         0.17067E+09
         0.18832E+09
         0.14357E+09
         0.40825E+08
         0.17880E+09
         0.86516E+08
        -0.55067E+08
         0.67392E+08
         0.16563E+09
         0.53829E+08
         0.50918E+08
         0.37480E+08
        -0.22394E+08
         0.64429E+08
        -0.16643E+09
         0.88658E+08
         0.10986E+08
         0.49465E+08
        -0.54946E+08
        -0.15370E+09
         0.10776E+09
         0.48925E+08
         0.11229E+09
         0.10735E+09
        -0.12265E+08
         0.70898E+08
         0.10537E+09
         0.16338E+09
         0.18332E+09
         0.17217E+09
         0.92132E+08
        -0.23036E+08
        -0.51027E+08
        -0.81494E+08
        -0.11562E+09
        -0.17574E+09
        -0.15132E+09
        -0.11554E+09
        -0.17473E+09
        -0.17636E+09
        -0.11600E+09
        -0.98860E+07
         0.37140E+08
        -0.52648E+08
         0.11757E+09
         0.15255E+09
         0.18589E+09
         0.20899E+09
         0.21246E+09
         0.20630E+09
         0.20261E+09
         0.18845E+09
         0.12049E+09
         0.40574E+08
         0.19083E+08
         0.17573E+08
        -0.64142E+07
        -0.58195E+08
        -0.11268E+09
        -0.14435E+09
        -0.19446E+09
        -0.21035E+09
        -0.20323E+09
        -0.20134E+09
        -0.18946E+09
        -0.13583E+09
        -0.68313E+08
        -0.64945E+08
        -0.17103E+09
        -0.17358E+09
        -0.16981E+09
        -0.62865E+08
        -0.12631E+09
        -0.81063E+08
        -0.13286E+09
        -0.16615E+09
        -0.16724E+09
        -0.16557E+09
         0.17075E+09
         0.18830E+09
         0.14356E+09
         0.40953E+08
         0.17886E+09
         0.86454E+08
        -0.55413E+08
         0.67281E+08
         0.16565E+09
         0.53555E+08
         0.51038E+08
         0.37505E+08
        -0.22424E+08
         0.64344E+08
        -0.16649E+09
         0.88319E+08
         0.11149E+08
         0.49923E+08
        -0.53977E+08
        -0.15374E+09
         0.10766E+09
         0.48648E+08
         0.11272E+09
         0.10745E+09
        -0.12120E+08
         0.70964E+08
         0.10539E+09
         0.16340E+09
         0.18334E+09
         0.17215E+09
         0.92168E+08
        -0.22901E+08
        -0.51040E+08
        -0.81589E+08
        -0.11569E+09
        -0.17576E+09
        -0.15135E+09
        -0.11551E+09
        -0.17474E+09
        -0.17634E+09
        -0.11601E+09
        -0.97072E+07
         0.37117E+08
        -0.52662E+08
         0.11759E+09
         0.15255E+09
         0.18590E+09
         0.20898E+09
         0.21245E+09
         0.20629E+09
         0.20262E+09
         0.18845E+09
         0.12048E+09
         0.40601E+08
         0.19086E+08
         0.17608E+08
        -0.63532E+07
        -0.58214E+08
        -0.11272E+09
        -0.14436E+09
        -0.19447E+09
        -0.21035E+09
        -0.20324E+09
        -0.20135E+09
        -0.18947E+09
        -0.13582E+09
        -0.68273E+08
        -0.64889E+08
        -0.17102E+09
        -0.17357E+09
        -0.16981E+09
        -0.63218E+08
        -0.12637E+09
        -0.81170E+08
        -0.13261E+09
        -0.16626E+09
        -0.16728E+09
        -0.16571E+09
         0.17083E+09
         0.18829E+09
         0.14354E+09
         0.41076E+08
         0.17892E+09
         0.86391E+08
        -0.55759E+08
         0.67168E+08
         0.16567E+09
         0.53287E+08
         0.51157E+08
         0.37530E+08
        -0.22454E+08
         0.64258E+08
        -0.16655E+09
         0.87978E+08
         0.11317E+08
         0.50376E+08
        -0.53016E+08
        -0.15378E+09
         0.10755E+09
         0.48369E+08
         0.11316E+09
         0.10756E+09
        -0.11974E+08
         0.71031E+08
         0.10541E+09
         0.16343E+09
         0.18336E+09
         0.17213E+09
         0.92204E+08
        -0.22768E+08
        -0.51054E+08
        -0.81685E+08
        -0.11576E+09
        -0.17577E+09
        -0.15139E+09
        -0.11549E+09
        -0.17475E+09
        -0.17633E+09
        -0.11601E+09
        -0.95293E+07
         0.37093E+08
        -0.52675E+08
         0.11761E+09
         0.15255E+09
         0.18590E+09
         0.20898E+09
         0.21244E+09
         0.20628E+09
         0.20262E+09
         0.18844E+09
         0.12048E+09
         0.40627E+08
         0.19089E+08
         0.17642E+08
        -0.62926E+07
        -0.58234E+08
        -0.11275E+09
        -0.14438E+09
        -0.19447E+09
        -0.21035E+09
        -0.20325E+09
        -0.20135E+09
        -0.18948E+09
        -0.13580E+09
        -0.68235E+08
        -0.64833E+08
        -0.17101E+09
        -0.17356E+09
        -0.16981E+09
        -0.63573E+08
        -0.12644E+09
        -0.81276E+08
        -0.13236E+09
        -0.16637E+09
        -0.16731E+09
        -0.16585E+09
         0.17091E+09
         0.18828E+09
         0.14353E+09
         0.41204E+08
         0.17898E+09
         0.86329E+08
        -0.56109E+08
         0.67055E+08
         0.16569E+09
         0.53029E+08
         0.51276E+08
         0.37554E+08
        -0.22485E+08
         0.64172E+08
        -0.16661E+09
         0.87642E+08
         0.11485E+08
         0.50826E+08
        -0.52060E+08
        -0.15381E+09
         0.10745E+09
         0.48088E+08
         0.11359E+09
         0.10766E+09
        -0.11828E+08
         0.71099E+08
         0.10543E+09
         0.16346E+09
         0.18337E+09
         0.17211E+09
         0.92243E+08
        -0.22635E+08
        -0.51070E+08
        -0.81779E+08
        -0.11583E+09
        -0.17578E+09
        -0.15142E+09
        -0.11547E+09
        -0.17475E+09
        -0.17632E+09
        -0.11602E+09
        -0.93509E+07
         0.37070E+08
        -0.52688E+08
         0.11763E+09
         0.15255E+09
         0.18591E+09
         0.20897E+09
         0.21243E+09
         0.20626E+09
         0.20262E+09
         0.18844E+09
         0.12048E+09
         0.40654E+08
         0.19090E+08
         0.17677E+08
        -0.62322E+07
        -0.58254E+08
        -0.11279E+09
        -0.14439E+09
        -0.19448E+09
        -0.21034E+09
        -0.20326E+09
        -0.20136E+09
        -0.18949E+09
        -0.13578E+09
        -0.68196E+08
        -0.64777E+08
        -0.17099E+09
        -0.17354E+09
        -0.16981E+09
        -0.63925E+08
        -0.12650E+09
        -0.81382E+08
        -0.13211E+09
        -0.16649E+09
        -0.16735E+09
        -0.16599E+09
         0.17098E+09
         0.18827E+09
         0.14352E+09
         0.41333E+08
         0.17903E+09
         0.86266E+08
        -0.56465E+08
         0.66941E+08
         0.16571E+09
         0.52787E+08
         0.51396E+08
         0.37578E+08
        -0.22515E+08
         0.64088E+08
        -0.16667E+09
         0.87302E+08
         0.11660E+08
         0.51270E+08
        -0.51114E+08
        -0.15384E+09
         0.10734E+09
         0.47809E+08
         0.11403E+09
         0.10777E+09
        -0.11681E+08
         0.71165E+08
         0.10545E+09
         0.16349E+09
         0.18339E+09
         0.17209E+09
         0.92283E+08
        -0.22503E+08
        -0.51088E+08
        -0.81874E+08
        -0.11590E+09
        -0.17580E+09
        -0.15146E+09
        -0.11544E+09
        -0.17476E+09
        -0.17631E+09
        -0.11602E+09
        -0.91707E+07
         0.37046E+08
        -0.52701E+08
         0.11765E+09
         0.15255E+09
         0.18591E+09
         0.20896E+09
         0.21242E+09
         0.20625E+09
         0.20263E+09
         0.18844E+09
         0.12049E+09
         0.40679E+08
         0.19089E+08
         0.17711E+08
        -0.61713E+07
        -0.58274E+08
        -0.11282E+09
        -0.14440E+09
        -0.19449E+09
        -0.21034E+09
        -0.20326E+09
        -0.20136E+09
        -0.18950E+09
        -0.13576E+09
        -0.68158E+08
        -0.64721E+08
        -0.17098E+09
        -0.17353E+09
        -0.16981E+09
        -0.64275E+08
        -0.12657E+09
        -0.81487E+08
        -0.13187E+09
        -0.16660E+09
        -0.16739E+09
        -0.16613E+09
         0.17105E+09
         0.18826E+09
         0.14351E+09
         0.41457E+08
         0.17909E+09
         0.86205E+08
        -0.56820E+08
         0.66828E+08
         0.16574E+09
         0.52550E+08
         0.51516E+08
         0.37601E+08
        -0.22543E+08
         0.64009E+08
        -0.16673E+09
         0.86973E+08
         0.11831E+08
         0.51697E+08
        -0.50184E+08
        -0.15387E+09
         0.10724E+09
         0.47535E+08
         0.11446E+09
         0.10787E+09
        -0.11536E+08
         0.71229E+08
         0.10547E+09
         0.16352E+09
         0.18340E+09
         0.17207E+09
         0.92324E+08
        -0.22374E+08
        -0.51109E+08
        -0.81967E+08
        -0.11597E+09
        -0.17581E+09
        -0.15149E+09
        -0.11542E+09
        -0.17477E+09
        -0.17629E+09
        -0.11602E+09
        -0.89909E+07
         0.37022E+08
        -0.52715E+08
         0.11767E+09
         0.15256E+09
         0.18592E+09
         0.20895E+09
         0.21241E+09
         0.20624E+09
         0.20263E+09
         0.18844E+09
         0.12049E+09
         0.40704E+08
         0.19087E+08
         0.17745E+08
        -0.61105E+07
        -0.58293E+08
        -0.11286E+09
        -0.14442E+09
        -0.19449E+09
        -0.21034E+09
        -0.20327E+09
        -0.20136E+09
        -0.18951E+09
        -0.13575E+09
        -0.68119E+08
        -0.64666E+08
        -0.16463E+09
        -0.15581E+09
        -0.15120E+09
        -0.53665E+08
        -0.12031E+09
        -0.74510E+08
        -0.95609E+08
        -0.15866E+09
        -0.15338E+09
        -0.15785E+09
         0.13528E+09
         0.18424E+09
         0.13934E+09
         0.36978E+08
         0.17562E+09
         0.80883E+08
        -0.45743E+08
         0.49384E+08
         0.14132E+09
         0.32703E+08
         0.50428E+08
         0.36608E+08
        -0.21978E+08
         0.49991E+08
        -0.14913E+09
         0.64748E+08
         0.10676E+08
         0.35869E+08
        -0.30867E+08
        -0.13758E+09
         0.98296E+08
         0.35537E+08
         0.94374E+08
         0.84468E+08
        -0.10993E+08
         0.65699E+08
         0.10029E+09
         0.15931E+09
         0.17633E+09
         0.16442E+09
         0.90065E+08
        -0.21671E+08
        -0.49892E+08
        -0.79357E+08
        -0.11090E+09
        -0.17026E+09
        -0.14274E+09
        -0.10745E+09
        -0.15786E+09
        -0.16254E+09
        -0.11174E+09
        -0.82402E+07
         0.36757E+08
        -0.52431E+08
         0.11706E+09
         0.15177E+09
         0.18504E+09
         0.20800E+09
         0.21134E+09
         0.20493E+09
         0.20127E+09
         0.18727E+09
         0.11976E+09
         0.40498E+08
         0.18957E+08
         0.17662E+08
        -0.60204E+07
        -0.58024E+08
        -0.11237E+09
        -0.14377E+09
        -0.19339E+09
        -0.20919E+09
        -0.20211E+09
        -0.20017E+09
        -0.18845E+09
        -0.13493E+09
        -0.67715E+08
        -0.64256E+08
        -0.82384E+08
        -0.52671E+08
        -0.49696E+08
        -0.14890E+08
        -0.53755E+08
        -0.26926E+08
        -0.21915E+08
        -0.71831E+08
        -0.56227E+08
        -0.70211E+08
         0.34342E+08
         0.11056E+09
         0.75661E+08
         0.12063E+08
         0.10807E+09
         0.33428E+08
        -0.11914E+08
         0.10367E+08
         0.41171E+08
         0.66679E+07
         0.29469E+08
         0.20389E+08
        -0.12410E+08
         0.12443E+08
        -0.49657E+08
         0.12491E+08
         0.35249E+07
         0.61045E+07
        -0.62895E+07
        -0.45797E+08
         0.36081E+08
         0.83949E+07
         0.25544E+08
         0.21183E+08
        -0.54451E+07
         0.24663E+08
         0.45059E+08
         0.89954E+08
         0.86739E+08
         0.76915E+08
         0.51651E+08
        -0.12051E+08
        -0.28756E+08
        -0.41311E+08
        -0.51776E+08
        -0.89485E+08
        -0.60185E+08
        -0.42412E+08
        -0.54426E+08
        -0.61133E+08
        -0.55780E+08
        -0.32815E+07
         0.29391E+08
        -0.42736E+08
         0.96376E+08
         0.12611E+09
         0.15536E+09
         0.17593E+09
         0.17625E+09
         0.16489E+09
         0.15983E+09
         0.15086E+09
         0.96920E+08
         0.33333E+08
         0.15175E+08
         0.14201E+08
        -0.49417E+07
        -0.48668E+08
        -0.94984E+08
        -0.12159E+09
        -0.15758E+09
        -0.17193E+09
        -0.16501E+09
        -0.16251E+09
        -0.15425E+09
        -0.10974E+09
        -0.55793E+08
        -0.52754E+08
  
SCALARS                      stress_xz  double 1
LOOKUP_TABLE default
         0.63886E+05
        -0.45057E+06
        -0.14874E+07
         0.10218E+06
        -0.10441E+02
         0.37021E+01
         0.12379E+02
         0.24723E+01
        -0.41853E+07
        -0.27962E+07
         0.37027E+02
         0.33352E+02
         0.17846E+06
        -0.72820E+06
        -0.45667E+01
        -0.21393E+02
        -0.14939E+06
        -0.69882E+06
        -0.15453E+02
        -0.23014E+02
        -0.10242E+07
        -0.17257E+07
        -0.16342E+07
        -0.15368E+02
        -0.70865E+01
         0.12381E+02
        -0.18229E+07
        -0.14802E+07
        -0.28767E+02
        -0.22819E+02
         0.34955E+06
        -0.77651E+06
         0.74306E+05
         0.29288E+01
        -0.11318E+02
        -0.69728E+01
         0.10371E+07
         0.49991E+06
        -0.16804E+02
        -0.17892E+02
         0.20672E+07
         0.29291E+07
        -0.37904E+02
        -0.27953E+02
         0.22116E+07
         0.11778E+07
        -0.41625E+02
        -0.20035E+02
        -0.63492E+06
        -0.12576E+02
         0.15119E+07
        -0.35008E+01
        -0.66233E+06
        -0.24574E+02
         0.49478E+06
        -0.65004E+01
         0.21648E+07
         0.59385E+06
        -0.55686E+01
        -0.13460E+02
        -0.37324E+05
         0.10297E+07
         0.11138E+02
         0.76376E+01
        -0.26742E+06
        -0.11203E+01
        -0.89519E+06
         0.73688E+01
        -0.58899E+07
        -0.40361E+07
         0.46057E+02
         0.33404E+02
        -0.25959E+07
         0.24323E+02
         0.61189E+06
        -0.16825E+02
         0.19148E+07
        -0.33022E+01
         0.40593E+07
        -0.51231E+01
         0.53709E+07
         0.38139E+07
        -0.18775E+02
        -0.21473E+02
         0.33687E+07
        -0.23093E+02
         0.26820E+07
        -0.33248E+02
         0.16703E+07
        -0.21206E+02
         0.26294E+07
         0.19338E+07
        -0.90506E+01
         0.12412E+02
        -0.44206E+06
         0.14559E+02
        -0.12134E+07
         0.61129E+01
        -0.29136E+07
         0.15095E+02
        -0.43070E+07
        -0.29559E+07
         0.34806E+02
         0.36320E+02
        -0.10549E+08
        -0.11680E+08
         0.64314E+02
         0.63380E+02
        -0.10448E+08
         0.54943E+02
        -0.95218E+07
         0.41060E+02
        -0.68314E+07
         0.22564E+02
        -0.49638E+07
         0.24129E+01
        -0.18418E+07
        -0.85939E+01
         0.23730E+07
        -0.68756E+01
         0.56631E+07
        -0.67579E+01
         0.84144E+07
        -0.15240E+02
         0.11318E+08
        -0.28993E+02
         0.13753E+08
        -0.34598E+02
         0.14619E+08
        -0.32644E+02
         0.13924E+08
        -0.35498E+02
         0.12760E+08
        -0.46072E+02
         0.11476E+08
        -0.54328E+02
         0.10121E+08
        -0.50503E+02
         0.80493E+07
        -0.41044E+02
         0.47230E+07
        -0.19376E+02
         0.40490E+06
         0.37000E+01
        -0.26413E+07
         0.89829E+01
        -0.41339E+07
         0.14689E+02
        -0.62175E+07
         0.28747E+02
        -0.81976E+07
         0.47172E+02
        -0.10774E+08
         0.56675E+02
        -0.12378E+08
         0.57968E+02
         0.89244E+06
        -0.46511E+06
        -0.54557E+06
         0.10972E+07
        -0.42576E+07
        -0.32892E+07
        -0.49740E+06
         0.73003E+06
         0.37599E+06
         0.66970E+06
        -0.36849E+06
        -0.15960E+07
        -0.33310E+07
         0.10655E+07
         0.12825E+07
        -0.14603E+07
        -0.12256E+07
         0.56797E+06
         0.88520E+06
         0.95188E+06
         0.52060E+07
         0.55411E+07
         0.50078E+07
         0.15561E+07
        -0.62355E+06
         0.46468E+06
         0.14944E+07
         0.16755E+06
         0.17158E+07
         0.11783E+07
        -0.13038E+07
        -0.25619E+06
         0.61440E+06
         0.19882E+06
        -0.63080E+07
        -0.40148E+07
        -0.36316E+07
         0.25435E+07
         0.14490E+07
         0.31027E+07
         0.63891E+07
         0.59445E+07
         0.58602E+07
         0.43087E+07
         0.30932E+07
         0.24234E+07
        -0.45457E+06
        -0.18963E+07
        -0.54842E+06
        -0.17402E+07
        -0.46534E+07
        -0.39141E+07
        -0.18467E+08
        -0.19360E+08
        -0.17308E+08
        -0.14720E+08
        -0.10961E+08
        -0.55869E+07
         0.33174E+06
         0.39839E+07
         0.60696E+07
         0.10421E+08
         0.16992E+08
         0.20638E+08
         0.18894E+08
         0.18116E+08
         0.19128E+08
         0.19117E+08
         0.17366E+08
         0.15214E+08
         0.77226E+07
        -0.12202E+07
        -0.46865E+07
        -0.52244E+07
        -0.88478E+07
        -0.14139E+08
        -0.18324E+08
        -0.19252E+08
        -0.58135E+08
         0.19199E+08
        -0.38615E+08
        -0.16064E+09
         0.13103E+09
         0.15787E+09
         0.99647E+08
        -0.74900E+08
        -0.53252E+08
        -0.75249E+08
        -0.29815E+08
         0.27969E+08
         0.11847E+09
        -0.17268E+09
        -0.70056E+08
         0.15377E+09
         0.16258E+09
        -0.13968E+09
        -0.50036E+08
        -0.15764E+09
        -0.18019E+09
        -0.18211E+09
        -0.18415E+09
        -0.15697E+09
         0.55752E+08
         0.85212E+08
        -0.17619E+09
         0.61359E+08
        -0.15287E+09
        -0.86085E+08
         0.13692E+09
         0.16105E+09
        -0.13382E+09
        -0.13256E+09
         0.18431E+09
         0.16374E+09
         0.14776E+09
        -0.93659E+08
        -0.19965E+08
        -0.61850E+08
        -0.16448E+09
        -0.18516E+09
        -0.17989E+09
        -0.16469E+09
        -0.14082E+09
        -0.61695E+08
         0.98515E+08
         0.13524E+09
        -0.21407E+08
         0.22065E+08
         0.14334E+09
         0.17888E+09
         0.20644E+09
         0.20363E+09
         0.17561E+09
         0.14580E+09
         0.10267E+09
         0.44343E+08
        -0.11428E+08
        -0.41181E+08
        -0.55532E+08
        -0.95729E+08
        -0.17316E+09
        -0.20683E+09
        -0.20609E+09
        -0.20528E+09
        -0.20768E+09
        -0.20098E+09
        -0.17738E+09
        -0.15493E+09
        -0.81762E+08
         0.20743E+08
         0.50448E+08
         0.53567E+08
         0.89846E+08
         0.15879E+09
         0.19804E+09
         0.19894E+09
        -0.58204E+08
         0.19266E+08
        -0.38667E+08
        -0.16053E+09
         0.13095E+09
         0.15781E+09
         0.99990E+08
        -0.74644E+08
        -0.53224E+08
        -0.74984E+08
        -0.29212E+08
         0.28038E+08
         0.11849E+09
        -0.17263E+09
        -0.69952E+08
         0.15382E+09
         0.16250E+09
        -0.13930E+09
        -0.49984E+08
        -0.15770E+09
        -0.18016E+09
        -0.18211E+09
        -0.18415E+09
        -0.15699E+09
         0.55652E+08
         0.85354E+08
        -0.17619E+09
         0.60206E+08
        -0.15324E+09
        -0.85998E+08
         0.13700E+09
         0.16108E+09
        -0.13347E+09
        -0.13251E+09
         0.18433E+09
         0.16371E+09
         0.14774E+09
        -0.93676E+08
        -0.20114E+08
        -0.61965E+08
        -0.16449E+09
        -0.18518E+09
        -0.17988E+09
        -0.16467E+09
        -0.14079E+09
        -0.61666E+08
         0.98495E+08
         0.13529E+09
        -0.21279E+08
         0.22017E+08
         0.14332E+09
         0.17888E+09
         0.20643E+09
         0.20362E+09
         0.17559E+09
         0.14580E+09
         0.10266E+09
         0.44343E+08
        -0.11445E+08
        -0.41216E+08
        -0.55498E+08
        -0.95717E+08
        -0.17316E+09
        -0.20683E+09
        -0.20609E+09
        -0.20528E+09
        -0.20769E+09
        -0.20098E+09
        -0.17737E+09
        -0.15493E+09
        -0.81744E+08
         0.20754E+08
         0.50416E+08
         0.53549E+08
         0.89808E+08
         0.15879E+09
         0.19805E+09
         0.19894E+09
        -0.58273E+08
         0.19332E+08
        -0.38719E+08
        -0.16041E+09
         0.13088E+09
         0.15775E+09
         0.10033E+09
        -0.74388E+08
        -0.53192E+08
        -0.74719E+08
        -0.28610E+08
         0.28107E+08
         0.11852E+09
        -0.17258E+09
        -0.69849E+08
         0.15386E+09
         0.16243E+09
        -0.13891E+09
        -0.49931E+08
        -0.15776E+09
        -0.18013E+09
        -0.18210E+09
        -0.18415E+09
        -0.15700E+09
         0.55564E+08
         0.85508E+08
        -0.17619E+09
         0.59066E+08
        -0.15362E+09
        -0.85915E+08
         0.13708E+09
         0.16112E+09
        -0.13313E+09
        -0.13246E+09
         0.18435E+09
         0.16368E+09
         0.14773E+09
        -0.93691E+08
        -0.20263E+08
        -0.62082E+08
        -0.16449E+09
        -0.18520E+09
        -0.17987E+09
        -0.16464E+09
        -0.14077E+09
        -0.61638E+08
         0.98476E+08
         0.13535E+09
        -0.21147E+08
         0.21968E+08
         0.14330E+09
         0.17887E+09
         0.20643E+09
         0.20361E+09
         0.17558E+09
         0.14580E+09
         0.10264E+09
         0.44343E+08
        -0.11463E+08
        -0.41251E+08
        -0.55464E+08
        -0.95705E+08
        -0.17316E+09
        -0.20683E+09
        -0.20609E+09
        -0.20527E+09
        -0.20769E+09
        -0.20098E+09
        -0.17736E+09
        -0.15493E+09
        -0.81725E+08
         0.20764E+08
         0.50384E+08
         0.53531E+08
         0.89769E+08
         0.15878E+09
         0.19805E+09
         0.19895E+09
        -0.58343E+08
         0.19401E+08
        -0.38769E+08
        -0.16030E+09
         0.13081E+09
         0.15769E+09
         0.10067E+09
        -0.74132E+08
        -0.53154E+08
        -0.74448E+08
        -0.28009E+08
         0.28177E+08
         0.11855E+09
        -0.17254E+09
        -0.69746E+08
         0.15391E+09
         0.16235E+09
        -0.13852E+09
        -0.49880E+08
        -0.15782E+09
        -0.18010E+09
        -0.18209E+09
        -0.18414E+09
        -0.15702E+09
         0.55507E+08
         0.85697E+08
        -0.17619E+09
         0.57962E+08
        -0.15404E+09
        -0.85842E+08
         0.13717E+09
         0.16117E+09
        -0.13278E+09
        -0.13240E+09
         0.18436E+09
         0.16364E+09
         0.14771E+09
        -0.93706E+08
        -0.20410E+08
        -0.62192E+08
        -0.16449E+09
        -0.18522E+09
        -0.17987E+09
        -0.16461E+09
        -0.14073E+09
        -0.61606E+08
         0.98454E+08
         0.13540E+09
        -0.21014E+08
         0.21918E+08
         0.14329E+09
         0.17886E+09
         0.20643E+09
         0.20360E+09
         0.17556E+09
         0.14580E+09
         0.10263E+09
         0.44343E+08
        -0.11480E+08
        -0.41287E+08
        -0.55430E+08
        -0.95693E+08
        -0.17316E+09
        -0.20682E+09
        -0.20608E+09
        -0.20527E+09
        -0.20770E+09
        -0.20098E+09
        -0.17735E+09
        -0.15493E+09
        -0.81706E+08
         0.20775E+08
         0.50352E+08
         0.53514E+08
         0.89731E+08
         0.15878E+09
         0.19805E+09
         0.19896E+09
        -0.58411E+08
         0.19469E+08
        -0.38820E+08
        -0.16019E+09
         0.13073E+09
         0.15763E+09
         0.10101E+09
        -0.73876E+08
        -0.53110E+08
        -0.74172E+08
        -0.27406E+08
         0.28246E+08
         0.11858E+09
        -0.17249E+09
        -0.69642E+08
         0.15396E+09
         0.16227E+09
        -0.13812E+09
        -0.49822E+08
        -0.15789E+09
        -0.18007E+09
        -0.18208E+09
        -0.18414E+09
        -0.15706E+09
         0.55479E+08
         0.85914E+08
        -0.17618E+09
         0.56894E+08
        -0.15449E+09
        -0.85778E+08
         0.13727E+09
         0.16125E+09
        -0.13242E+09
        -0.13234E+09
         0.18438E+09
         0.16361E+09
         0.14769E+09
        -0.93720E+08
        -0.20555E+08
        -0.62300E+08
        -0.16448E+09
        -0.18525E+09
        -0.17986E+09
        -0.16457E+09
        -0.14068E+09
        -0.61567E+08
         0.98432E+08
         0.13545E+09
        -0.20881E+08
         0.21869E+08
         0.14327E+09
         0.17885E+09
         0.20642E+09
         0.20360E+09
         0.17555E+09
         0.14580E+09
         0.10261E+09
         0.44343E+08
        -0.11498E+08
        -0.41322E+08
        -0.55396E+08
        -0.95681E+08
        -0.17316E+09
        -0.20682E+09
        -0.20608E+09
        -0.20527E+09
        -0.20770E+09
        -0.20098E+09
        -0.17733E+09
        -0.15492E+09
        -0.81687E+08
         0.20786E+08
         0.50320E+08
         0.53495E+08
         0.89693E+08
         0.15878E+09
         0.19805E+09
         0.19897E+09
        -0.58477E+08
         0.19544E+08
        -0.38864E+08
        -0.16007E+09
         0.13066E+09
         0.15756E+09
         0.10135E+09
        -0.73621E+08
        -0.53065E+08
        -0.73901E+08
        -0.26801E+08
         0.28315E+08
         0.11861E+09
        -0.17244E+09
        -0.69539E+08
         0.15402E+09
         0.16219E+09
        -0.13773E+09
        -0.49763E+08
        -0.15797E+09
        -0.18004E+09
        -0.18208E+09
        -0.18414E+09
        -0.15709E+09
         0.55456E+08
         0.86138E+08
        -0.17618E+09
         0.55831E+08
        -0.15494E+09
        -0.85726E+08
         0.13737E+09
         0.16133E+09
        -0.13206E+09
        -0.13228E+09
         0.18440E+09
         0.16358E+09
         0.14768E+09
        -0.93733E+08
        -0.20699E+08
        -0.62406E+08
        -0.16448E+09
        -0.18528E+09
        -0.17986E+09
        -0.16452E+09
        -0.14062E+09
        -0.61531E+08
         0.98405E+08
         0.13550E+09
        -0.20742E+08
         0.21826E+08
         0.14325E+09
         0.17885E+09
         0.20642E+09
         0.20359E+09
         0.17553E+09
         0.14580E+09
         0.10259E+09
         0.44344E+08
        -0.11515E+08
        -0.41358E+08
        -0.55362E+08
        -0.95669E+08
        -0.17316E+09
        -0.20681E+09
        -0.20608E+09
        -0.20526E+09
        -0.20771E+09
        -0.20098E+09
        -0.17732E+09
        -0.15492E+09
        -0.81668E+08
         0.20795E+08
         0.50287E+08
         0.53477E+08
         0.89655E+08
         0.15877E+09
         0.19806E+09
         0.19897E+09
        -0.58538E+08
         0.19638E+08
        -0.38894E+08
        -0.15995E+09
         0.13059E+09
         0.15750E+09
         0.10172E+09
        -0.73372E+08
        -0.53019E+08
        -0.73643E+08
        -0.26190E+08
         0.28383E+08
         0.11863E+09
        -0.17238E+09
        -0.69434E+08
         0.15407E+09
         0.16211E+09
        -0.13733E+09
        -0.49708E+08
        -0.15804E+09
        -0.18001E+09
        -0.18207E+09
        -0.18414E+09
        -0.15713E+09
         0.55418E+08
         0.86334E+08
        -0.17617E+09
         0.54745E+08
        -0.15539E+09
        -0.85683E+08
         0.13747E+09
         0.16141E+09
        -0.13169E+09
        -0.13221E+09
         0.18441E+09
         0.16355E+09
         0.14766E+09
        -0.93744E+08
        -0.20843E+08
        -0.62515E+08
        -0.16447E+09
        -0.18530E+09
        -0.17986E+09
        -0.16448E+09
        -0.14057E+09
        -0.61496E+08
         0.98363E+08
         0.13553E+09
        -0.20585E+08
         0.21797E+08
         0.14324E+09
         0.17884E+09
         0.20642E+09
         0.20358E+09
         0.17552E+09
         0.14580E+09
         0.10258E+09
         0.44344E+08
        -0.11532E+08
        -0.41393E+08
        -0.55328E+08
        -0.95658E+08
        -0.17316E+09
        -0.20681E+09
        -0.20608E+09
        -0.20526E+09
        -0.20771E+09
        -0.20098E+09
        -0.17730E+09
        -0.15491E+09
        -0.81649E+08
         0.20803E+08
         0.50253E+08
         0.53459E+08
         0.89619E+08
         0.15877E+09
         0.19806E+09
         0.19898E+09
        -0.58596E+08
         0.19737E+08
        -0.38917E+08
        -0.15983E+09
         0.13052E+09
         0.15744E+09
         0.10210E+09
        -0.73125E+08
        -0.52975E+08
        -0.73393E+08
        -0.25575E+08
         0.28451E+08
         0.11866E+09
        -0.17233E+09
        -0.69330E+08
         0.15412E+09
         0.16202E+09
        -0.13693E+09
        -0.49651E+08
        -0.15812E+09
        -0.17998E+09
        -0.18207E+09
        -0.18413E+09
        -0.15717E+09
         0.55374E+08
         0.86519E+08
        -0.17617E+09
         0.53651E+08
        -0.15584E+09
        -0.85645E+08
         0.13756E+09
         0.16149E+09
        -0.13131E+09
        -0.13213E+09
         0.18443E+09
         0.16352E+09
         0.14764E+09
        -0.93754E+08
        -0.20986E+08
        -0.62622E+08
        -0.16447E+09
        -0.18533E+09
        -0.17986E+09
        -0.16444E+09
        -0.14051E+09
        -0.61464E+08
         0.98315E+08
         0.13555E+09
        -0.20420E+08
         0.21776E+08
         0.14323E+09
         0.17883E+09
         0.20641E+09
         0.20357E+09
         0.17550E+09
         0.14580E+09
         0.10256E+09
         0.44344E+08
        -0.11549E+08
        -0.41429E+08
        -0.55294E+08
        -0.95647E+08
        -0.17315E+09
        -0.20681E+09
        -0.20608E+09
        -0.20526E+09
        -0.20772E+09
        -0.20098E+09
        -0.17729E+09
        -0.15491E+09
        -0.81630E+08
         0.20811E+08
         0.50218E+08
         0.53441E+08
         0.89583E+08
         0.15877E+09
         0.19806E+09
         0.19899E+09
        -0.58654E+08
         0.19838E+08
        -0.38940E+08
        -0.15970E+09
         0.13045E+09
         0.15738E+09
         0.10247E+09
        -0.72878E+08
        -0.52931E+08
        -0.73146E+08
        -0.24963E+08
         0.28520E+08
         0.11868E+09
        -0.17227E+09
        -0.69224E+08
         0.15416E+09
         0.16193E+09
        -0.13653E+09
        -0.49593E+08
        -0.15819E+09
        -0.17995E+09
        -0.18206E+09
        -0.18413E+09
        -0.15720E+09
         0.55329E+08
         0.86702E+08
        -0.17616E+09
         0.52560E+08
        -0.15627E+09
        -0.85606E+08
         0.13766E+09
         0.16157E+09
        -0.13093E+09
        -0.13206E+09
         0.18445E+09
         0.16349E+09
         0.14763E+09
        -0.93763E+08
        -0.21130E+08
        -0.62729E+08
        -0.16446E+09
        -0.18536E+09
        -0.17986E+09
        -0.16439E+09
        -0.14046E+09
        -0.61432E+08
         0.98269E+08
         0.13558E+09
        -0.20255E+08
         0.21755E+08
         0.14322E+09
         0.17882E+09
         0.20641E+09
         0.20356E+09
         0.17549E+09
         0.14580E+09
         0.10254E+09
         0.44344E+08
        -0.11566E+08
        -0.41464E+08
        -0.55260E+08
        -0.95636E+08
        -0.17315E+09
        -0.20680E+09
        -0.20608E+09
        -0.20525E+09
        -0.20772E+09
        -0.20098E+09
        -0.17727E+09
        -0.15490E+09
        -0.81611E+08
         0.20819E+08
         0.50182E+08
         0.53422E+08
         0.89547E+08
         0.15877E+09
         0.19806E+09
         0.19899E+09
        -0.58712E+08
         0.19939E+08
        -0.38963E+08
        -0.15958E+09
         0.13038E+09
         0.15732E+09
         0.10284E+09
        -0.72632E+08
        -0.52888E+08
        -0.72900E+08
        -0.24350E+08
         0.28588E+08
         0.11871E+09
        -0.17221E+09
        -0.69120E+08
         0.15421E+09
         0.16184E+09
        -0.13614E+09
        -0.49536E+08
        -0.15827E+09
        -0.17991E+09
        -0.18206E+09
        -0.18413E+09
        -0.15724E+09
         0.55285E+08
         0.86885E+08
        -0.17616E+09
         0.51475E+08
        -0.15670E+09
        -0.85567E+08
         0.13775E+09
         0.16165E+09
        -0.13055E+09
        -0.13198E+09
         0.18447E+09
         0.16346E+09
         0.14761E+09
        -0.93772E+08
        -0.21273E+08
        -0.62837E+08
        -0.16445E+09
        -0.18538E+09
        -0.17986E+09
        -0.16435E+09
        -0.14040E+09
        -0.61398E+08
         0.98221E+08
         0.13560E+09
        -0.20091E+08
         0.21732E+08
         0.14320E+09
         0.17881E+09
         0.20641E+09
         0.20355E+09
         0.17547E+09
         0.14580E+09
         0.10253E+09
         0.44344E+08
        -0.11583E+08
        -0.41499E+08
        -0.55225E+08
        -0.95624E+08
        -0.17315E+09
        -0.20680E+09
        -0.20608E+09
        -0.20525E+09
        -0.20773E+09
        -0.20098E+09
        -0.17726E+09
        -0.15489E+09
        -0.81593E+08
         0.20827E+08
         0.50147E+08
         0.53404E+08
         0.89511E+08
         0.15876E+09
         0.19806E+09
         0.19900E+09
        -0.58770E+08
         0.20040E+08
        -0.38987E+08
        -0.15946E+09
         0.13031E+09
         0.15726E+09
         0.10320E+09
        -0.72386E+08
        -0.52844E+08
        -0.72656E+08
        -0.23736E+08
         0.28657E+08
         0.11873E+09
        -0.17216E+09
        -0.69015E+08
         0.15426E+09
         0.16175E+09
        -0.13575E+09
        -0.49483E+08
        -0.15835E+09
        -0.17988E+09
        -0.18205E+09
        -0.18413E+09
        -0.15727E+09
         0.55241E+08
         0.87066E+08
        -0.17615E+09
         0.50388E+08
        -0.15711E+09
        -0.85527E+08
         0.13785E+09
         0.16173E+09
        -0.13016E+09
        -0.13190E+09
         0.18448E+09
         0.16343E+09
         0.14759E+09
        -0.93780E+08
        -0.21415E+08
        -0.62944E+08
        -0.16445E+09
        -0.18541E+09
        -0.17987E+09
        -0.16431E+09
        -0.14035E+09
        -0.61367E+08
         0.98172E+08
         0.13562E+09
        -0.19924E+08
         0.21710E+08
         0.14319E+09
         0.17881E+09
         0.20641E+09
         0.20354E+09
         0.17546E+09
         0.14579E+09
         0.10251E+09
         0.44344E+08
        -0.11600E+08
        -0.41534E+08
        -0.55191E+08
        -0.95613E+08
        -0.17315E+09
        -0.20680E+09
        -0.20608E+09
        -0.20525E+09
        -0.20773E+09
        -0.20098E+09
        -0.17724E+09
        -0.15489E+09
        -0.81574E+08
         0.20834E+08
         0.50111E+08
         0.53385E+08
         0.89476E+08
         0.15876E+09
         0.19807E+09
         0.19901E+09
        -0.58828E+08
         0.20141E+08
        -0.39009E+08
        -0.15933E+09
         0.13024E+09
         0.15719E+09
         0.10357E+09
        -0.72141E+08
        -0.52799E+08
        -0.72413E+08
        -0.23125E+08
         0.28726E+08
         0.11876E+09
        -0.17210E+09
        -0.68910E+08
         0.15431E+09
         0.16166E+09
        -0.13535E+09
        -0.49427E+08
        -0.15843E+09
        -0.17985E+09
        -0.18204E+09
        -0.18413E+09
        -0.15731E+09
         0.55196E+08
         0.87253E+08
        -0.17614E+09
         0.49307E+08
        -0.15751E+09
        -0.85491E+08
         0.13794E+09
         0.16181E+09
        -0.12977E+09
        -0.13183E+09
         0.18450E+09
         0.16340E+09
         0.14758E+09
        -0.93788E+08
        -0.21558E+08
        -0.63053E+08
        -0.16444E+09
        -0.18544E+09
        -0.17987E+09
        -0.16426E+09
        -0.14029E+09
        -0.61335E+08
         0.98125E+08
         0.13564E+09
        -0.19757E+08
         0.21689E+08
         0.14318E+09
         0.17880E+09
         0.20640E+09
         0.20354E+09
         0.17544E+09
         0.14579E+09
         0.10249E+09
         0.44344E+08
        -0.11617E+08
        -0.41569E+08
        -0.55157E+08
        -0.95602E+08
        -0.17314E+09
        -0.20679E+09
        -0.20608E+09
        -0.20524E+09
        -0.20773E+09
        -0.20098E+09
        -0.17723E+09
        -0.15488E+09
        -0.81555E+08
         0.20842E+08
         0.50076E+08
         0.53367E+08
         0.89440E+08
         0.15876E+09
         0.19807E+09
         0.19902E+09
        -0.58886E+08
         0.20242E+08
        -0.39031E+08
        -0.15921E+09
         0.13016E+09
         0.15713E+09
         0.10394E+09
        -0.71895E+08
        -0.52754E+08
        -0.72170E+08
        -0.22515E+08
         0.28794E+08
         0.11878E+09
        -0.17204E+09
        -0.68805E+08
         0.15436E+09
         0.16157E+09
        -0.13495E+09
        -0.49372E+08
        -0.15850E+09
        -0.17982E+09
        -0.18204E+09
        -0.18412E+09
        -0.15734E+09
         0.55151E+08
         0.87434E+08
        -0.17614E+09
         0.48224E+08
        -0.15791E+09
        -0.85453E+08
         0.13804E+09
         0.16189E+09
        -0.12938E+09
        -0.13175E+09
         0.18452E+09
         0.16337E+09
         0.14756E+09
        -0.93796E+08
        -0.21700E+08
        -0.63160E+08
        -0.16444E+09
        -0.18546E+09
        -0.17987E+09
        -0.16422E+09
        -0.14024E+09
        -0.61301E+08
         0.98076E+08
         0.13567E+09
        -0.19589E+08
         0.21667E+08
         0.14317E+09
         0.17879E+09
         0.20640E+09
         0.20353E+09
         0.17543E+09
         0.14579E+09
         0.10248E+09
         0.44344E+08
        -0.11634E+08
        -0.41604E+08
        -0.55123E+08
        -0.95591E+08
        -0.17314E+09
        -0.20679E+09
        -0.20607E+09
        -0.20524E+09
        -0.20774E+09
        -0.20098E+09
        -0.17721E+09
        -0.15488E+09
        -0.81536E+08
         0.20849E+08
         0.50040E+08
         0.53349E+08
         0.89404E+08
         0.15876E+09
         0.19807E+09
         0.19902E+09
        -0.58944E+08
         0.20342E+08
        -0.39052E+08
        -0.15908E+09
         0.13009E+09
         0.15707E+09
         0.10429E+09
        -0.71651E+08
        -0.52709E+08
        -0.71928E+08
        -0.21906E+08
         0.28862E+08
         0.11881E+09
        -0.17198E+09
        -0.68701E+08
         0.15441E+09
         0.16148E+09
        -0.13456E+09
        -0.49321E+08
        -0.15858E+09
        -0.17979E+09
        -0.18203E+09
        -0.18412E+09
        -0.15738E+09
         0.55105E+08
         0.87616E+08
        -0.17613E+09
         0.47147E+08
        -0.15829E+09
        -0.85414E+08
         0.13813E+09
         0.16197E+09
        -0.12899E+09
        -0.13167E+09
         0.18453E+09
         0.16333E+09
         0.14755E+09
        -0.93802E+08
        -0.21842E+08
        -0.63269E+08
        -0.16443E+09
        -0.18549E+09
        -0.17987E+09
        -0.16418E+09
        -0.14019E+09
        -0.61269E+08
         0.98027E+08
         0.13569E+09
        -0.19421E+08
         0.21644E+08
         0.14316E+09
         0.17878E+09
         0.20640E+09
         0.20352E+09
         0.17541E+09
         0.14579E+09
         0.10246E+09
         0.44344E+08
        -0.11651E+08
        -0.41638E+08
        -0.55088E+08
        -0.95580E+08
        -0.17314E+09
        -0.20678E+09
        -0.20607E+09
        -0.20524E+09
        -0.20774E+09
        -0.20099E+09
        -0.17720E+09
        -0.15487E+09
        -0.81517E+08
         0.20856E+08
         0.50005E+08
         0.53331E+08
         0.89369E+08
         0.15876E+09
         0.19807E+09
         0.19903E+09
        -0.59003E+08
         0.20441E+08
        -0.39074E+08
        -0.15896E+09
         0.13002E+09
         0.15701E+09
         0.10464E+09
        -0.71406E+08
        -0.52665E+08
        -0.71689E+08
        -0.21298E+08
         0.28932E+08
         0.11883E+09
        -0.17193E+09
        -0.68595E+08
         0.15446E+09
         0.16139E+09
        -0.13417E+09
        -0.49266E+08
        -0.15866E+09
        -0.17976E+09
        -0.18203E+09
        -0.18412E+09
        -0.15741E+09
         0.55059E+08
         0.87797E+08
        -0.17612E+09
         0.46070E+08
        -0.15866E+09
        -0.85374E+08
         0.13823E+09
         0.16205E+09
        -0.12859E+09
        -0.13159E+09
         0.18455E+09
         0.16330E+09
         0.14753E+09
        -0.93807E+08
        -0.21983E+08
        -0.63377E+08
        -0.16442E+09
        -0.18552E+09
        -0.17987E+09
        -0.16414E+09
        -0.14013E+09
        -0.61238E+08
         0.97980E+08
         0.13571E+09
        -0.19250E+08
         0.21623E+08
         0.14314E+09
         0.17877E+09
         0.20639E+09
         0.20351E+09
         0.17540E+09
         0.14579E+09
         0.10244E+09
         0.44344E+08
        -0.11668E+08
        -0.41673E+08
        -0.55054E+08
        -0.95570E+08
        -0.17314E+09
        -0.20678E+09
        -0.20607E+09
        -0.20523E+09
        -0.20775E+09
        -0.20099E+09
        -0.17718E+09
        -0.15487E+09
        -0.81498E+08
         0.20863E+08
         0.49969E+08
         0.53313E+08
         0.89333E+08
         0.15875E+09
         0.19808E+09
         0.19904E+09
        -0.59062E+08
         0.20543E+08
        -0.39096E+08
        -0.15883E+09
         0.12995E+09
         0.15695E+09
         0.10500E+09
        -0.71162E+08
        -0.52619E+08
        -0.71450E+08
        -0.20689E+08
         0.29000E+08
         0.11885E+09
        -0.17187E+09
        -0.68491E+08
         0.15450E+09
         0.16130E+09
        -0.13378E+09
        -0.49211E+08
        -0.15873E+09
        -0.17973E+09
        -0.18202E+09
        -0.18412E+09
        -0.15745E+09
         0.55012E+08
         0.87979E+08
        -0.17611E+09
         0.44995E+08
        -0.15903E+09
        -0.85335E+08
         0.13832E+09
         0.16213E+09
        -0.12819E+09
        -0.13152E+09
         0.18457E+09
         0.16327E+09
         0.14751E+09
        -0.93812E+08
        -0.22124E+08
        -0.63484E+08
        -0.16442E+09
        -0.18554E+09
        -0.17987E+09
        -0.16409E+09
        -0.14008E+09
        -0.61204E+08
         0.97932E+08
         0.13573E+09
        -0.19080E+08
         0.21600E+08
         0.14313E+09
         0.17876E+09
         0.20639E+09
         0.20350E+09
         0.17539E+09
         0.14579E+09
         0.10243E+09
         0.44344E+08
        -0.11684E+08
        -0.41707E+08
        -0.55020E+08
        -0.95559E+08
        -0.17313E+09
        -0.20678E+09
        -0.20607E+09
        -0.20523E+09
        -0.20775E+09
        -0.20099E+09
        -0.17717E+09
        -0.15486E+09
        -0.81479E+08
         0.20871E+08
         0.49934E+08
         0.53294E+08
         0.89297E+08
         0.15875E+09
         0.19808E+09
         0.19904E+09
        -0.59120E+08
         0.20643E+08
        -0.39119E+08
        -0.15870E+09
         0.12988E+09
         0.15688E+09
         0.10534E+09
        -0.70918E+08
        -0.52573E+08
        -0.71209E+08
        -0.20082E+08
         0.29069E+08
         0.11888E+09
        -0.17181E+09
        -0.68385E+08
         0.15455E+09
         0.16120E+09
        -0.13339E+09
        -0.49158E+08
        -0.15881E+09
        -0.17970E+09
        -0.18202E+09
        -0.18412E+09
        -0.15748E+09
         0.54962E+08
         0.88160E+08
        -0.17611E+09
         0.43909E+08
        -0.15938E+09
        -0.85298E+08
         0.13841E+09
         0.16221E+09
        -0.12779E+09
        -0.13144E+09
         0.18458E+09
         0.16324E+09
         0.14750E+09
        -0.93816E+08
        -0.22267E+08
        -0.63594E+08
        -0.16441E+09
        -0.18557E+09
        -0.17987E+09
        -0.16405E+09
        -0.14002E+09
        -0.61172E+08
         0.97883E+08
         0.13575E+09
        -0.18911E+08
         0.21577E+08
         0.14312E+09
         0.17875E+09
         0.20639E+09
         0.20349E+09
         0.17537E+09
         0.14579E+09
         0.10241E+09
         0.44345E+08
        -0.11701E+08
        -0.41742E+08
        -0.54986E+08
        -0.95548E+08
        -0.17313E+09
        -0.20677E+09
        -0.20607E+09
        -0.20523E+09
        -0.20776E+09
        -0.20099E+09
        -0.17715E+09
        -0.15485E+09
        -0.81460E+08
         0.20878E+08
         0.49898E+08
         0.53276E+08
         0.89262E+08
         0.15875E+09
         0.19808E+09
         0.19905E+09
        -0.59179E+08
         0.20743E+08
        -0.39139E+08
        -0.15858E+09
         0.12981E+09
         0.15682E+09
         0.10569E+09
        -0.70675E+08
        -0.52522E+08
        -0.70962E+08
        -0.19475E+08
         0.29138E+08
         0.11890E+09
        -0.17175E+09
        -0.68279E+08
         0.15460E+09
         0.16111E+09
        -0.13299E+09
        -0.49110E+08
        -0.15888E+09
        -0.17967E+09
        -0.18201E+09
        -0.18411E+09
        -0.15751E+09
         0.54906E+08
         0.88348E+08
        -0.17610E+09
         0.42796E+08
        -0.15973E+09
        -0.85269E+08
         0.13851E+09
         0.16229E+09
        -0.12739E+09
        -0.13136E+09
         0.18460E+09
         0.16321E+09
         0.14748E+09
        -0.93816E+08
        -0.22415E+08
        -0.63703E+08
        -0.16440E+09
        -0.18559E+09
        -0.17987E+09
        -0.16401E+09
        -0.13997E+09
        -0.61138E+08
         0.97837E+08
         0.13578E+09
        -0.18742E+08
         0.21554E+08
         0.14311E+09
         0.17874E+09
         0.20638E+09
         0.20349E+09
         0.17536E+09
         0.14579E+09
         0.10239E+09
         0.44345E+08
        -0.11718E+08
        -0.41776E+08
        -0.54952E+08
        -0.95538E+08
        -0.17313E+09
        -0.20677E+09
        -0.20607E+09
        -0.20522E+09
        -0.20776E+09
        -0.20099E+09
        -0.17714E+09
        -0.15485E+09
        -0.81441E+08
         0.20885E+08
         0.49863E+08
         0.53257E+08
         0.89227E+08
         0.15875E+09
         0.19808E+09
         0.19906E+09
        -0.59237E+08
         0.20843E+08
        -0.39160E+08
        -0.15845E+09
         0.12974E+09
         0.15676E+09
         0.10603E+09
        -0.70432E+08
        -0.52467E+08
        -0.70709E+08
        -0.18871E+08
         0.29207E+08
         0.11893E+09
        -0.17169E+09
        -0.68172E+08
         0.15465E+09
         0.16101E+09
        -0.13260E+09
        -0.49057E+08
        -0.15895E+09
        -0.17963E+09
        -0.18201E+09
        -0.18411E+09
        -0.15755E+09
         0.54840E+08
         0.88527E+08
        -0.17609E+09
         0.41650E+08
        -0.16007E+09
        -0.85244E+08
         0.13860E+09
         0.16236E+09
        -0.12698E+09
        -0.13129E+09
         0.18462E+09
         0.16318E+09
         0.14746E+09
        -0.93812E+08
        -0.22568E+08
        -0.63815E+08
        -0.16439E+09
        -0.18561E+09
        -0.17986E+09
        -0.16396E+09
        -0.13991E+09
        -0.61106E+08
         0.97788E+08
         0.13580E+09
        -0.18570E+08
         0.21532E+08
         0.14310E+09
         0.17873E+09
         0.20638E+09
         0.20348E+09
         0.17534E+09
         0.14579E+09
         0.10238E+09
         0.44345E+08
        -0.11734E+08
        -0.41810E+08
        -0.54920E+08
        -0.95528E+08
        -0.17312E+09
        -0.20677E+09
        -0.20607E+09
        -0.20522E+09
        -0.20777E+09
        -0.20099E+09
        -0.17712E+09
        -0.15484E+09
        -0.81422E+08
         0.20892E+08
         0.49828E+08
         0.53239E+08
         0.89191E+08
         0.15874E+09
         0.19808E+09
         0.19907E+09
        -0.59295E+08
         0.20943E+08
        -0.39181E+08
        -0.15832E+09
         0.12967E+09
         0.15670E+09
         0.10637E+09
        -0.70190E+08
        -0.52411E+08
        -0.70456E+08
        -0.18271E+08
         0.29275E+08
         0.11895E+09
        -0.17164E+09
        -0.68066E+08
         0.15469E+09
         0.16091E+09
        -0.13221E+09
        -0.49003E+08
        -0.15901E+09
        -0.17960E+09
        -0.18200E+09
        -0.18411E+09
        -0.15758E+09
         0.54772E+08
         0.88707E+08
        -0.17608E+09
         0.40499E+08
        -0.16039E+09
        -0.85218E+08
         0.13870E+09
         0.16244E+09
        -0.12657E+09
        -0.13121E+09
         0.18463E+09
         0.16315E+09
         0.14745E+09
        -0.93808E+08
        -0.22722E+08
        -0.63925E+08
        -0.16438E+09
        -0.18564E+09
        -0.17986E+09
        -0.16392E+09
        -0.13986E+09
        -0.61075E+08
         0.97741E+08
         0.13582E+09
        -0.18400E+08
         0.21508E+08
         0.14309E+09
         0.17872E+09
         0.20638E+09
         0.20347E+09
         0.17533E+09
         0.14579E+09
         0.10236E+09
         0.44345E+08
        -0.11750E+08
        -0.41843E+08
        -0.54887E+08
        -0.95517E+08
        -0.17311E+09
        -0.20676E+09
        -0.20607E+09
        -0.20522E+09
        -0.20777E+09
        -0.20099E+09
        -0.17711E+09
        -0.15484E+09
        -0.81403E+08
         0.20900E+08
         0.49793E+08
         0.53221E+08
         0.89156E+08
         0.15874E+09
         0.19808E+09
         0.19907E+09
        -0.57150E+08
         0.18873E+08
        -0.34901E+08
        -0.13138E+09
         0.12310E+09
         0.14304E+09
         0.77436E+08
        -0.66603E+08
        -0.47960E+08
        -0.66685E+08
        -0.14032E+08
         0.28701E+08
         0.11552E+09
        -0.15262E+09
        -0.66633E+08
         0.14525E+09
         0.12871E+09
        -0.97589E+08
        -0.41723E+08
        -0.99348E+08
        -0.17538E+09
        -0.17707E+09
        -0.17938E+09
        -0.12315E+09
         0.48908E+08
         0.66319E+08
        -0.15683E+09
         0.27183E+08
        -0.10037E+09
        -0.76145E+08
         0.12729E+09
         0.12195E+09
        -0.10368E+09
        -0.10258E+09
         0.17796E+09
         0.15038E+09
         0.14020E+09
        -0.91385E+08
        -0.21977E+08
        -0.61178E+08
        -0.16029E+09
        -0.18063E+09
        -0.17546E+09
        -0.15854E+09
        -0.13365E+09
        -0.59113E+08
         0.92058E+08
         0.12654E+09
        -0.16485E+08
         0.19807E+08
         0.13779E+09
         0.16710E+09
         0.20506E+09
         0.20229E+09
         0.17437E+09
         0.14505E+09
         0.10186E+09
         0.44137E+08
        -0.11710E+08
        -0.41606E+08
        -0.54484E+08
        -0.94914E+08
        -0.17207E+09
        -0.20564E+09
        -0.20474E+09
        -0.20390E+09
        -0.20666E+09
        -0.20002E+09
        -0.17629E+09
        -0.15413E+09
        -0.80920E+08
         0.20799E+08
         0.49482E+08
         0.52889E+08
         0.88626E+08
         0.15781E+09
         0.19701E+09
         0.19798E+09
        -0.28613E+08
         0.64000E+07
        -0.11472E+08
        -0.36270E+08
         0.54939E+08
         0.51605E+08
         0.17791E+08
        -0.30098E+08
        -0.17562E+08
        -0.29613E+08
        -0.35102E+07
         0.17228E+08
         0.62725E+08
        -0.49698E+08
        -0.40966E+08
         0.60046E+08
         0.33336E+08
        -0.20482E+08
        -0.12148E+08
        -0.20297E+08
        -0.10230E+09
        -0.98567E+08
        -0.10133E+09
        -0.30654E+08
         0.16261E+08
         0.12806E+08
        -0.51292E+08
         0.45355E+07
        -0.20635E+08
        -0.25324E+08
         0.46754E+08
         0.28836E+08
        -0.27927E+08
        -0.25701E+08
         0.89312E+08
         0.56425E+08
         0.62989E+08
        -0.51623E+08
        -0.10848E+08
        -0.28644E+08
        -0.91910E+08
        -0.10063E+09
        -0.10103E+09
        -0.82506E+08
        -0.62385E+08
        -0.31063E+08
         0.38807E+08
         0.50009E+08
        -0.56517E+07
         0.74462E+07
         0.68762E+08
         0.67523E+08
         0.16409E+09
         0.16481E+09
         0.14356E+09
         0.12052E+09
         0.85511E+08
         0.37321E+08
        -0.97811E+07
        -0.33485E+08
        -0.43245E+08
        -0.76448E+08
        -0.13924E+09
        -0.16925E+09
        -0.16398E+09
        -0.16375E+09
        -0.17073E+09
        -0.16776E+09
        -0.14899E+09
        -0.13034E+09
        -0.65922E+08
         0.17105E+08
         0.40392E+08
         0.42931E+08
         0.72533E+08
         0.12836E+09
         0.16238E+09
         0.16262E+09
  
SCALARS                      stress_xy  double 1
LOOKUP_TABLE default
        -0.78806E+00
        -0.18500E+01
        -0.15860E+02
         0.55995E+00
        -0.17475E-08
         0.17078E-09
         0.25677E-08
         0.39114E-09
        -0.16735E+03
         0.73520E+02
         0.11430E-07
         0.90636E-08
         0.62655E+01
        -0.13001E+01
         0.10088E-08
        -0.30300E-09
         0.17996E+01
         0.31439E+02
         0.50224E-10
         0.76535E-09
        -0.23927E+02
        -0.15184E+03
        -0.14934E+03
         0.77823E-08
         0.61975E-08
        -0.90503E-08
        -0.15809E+02
        -0.13215E+03
         0.10479E-07
         0.16126E-07
        -0.48125E+01
         0.93269E+01
         0.75678E+00
        -0.55308E-09
         0.21819E-08
        -0.27907E-10
        -0.42455E+02
        -0.19742E+02
         0.58394E-08
         0.48374E-08
        -0.83222E+02
        -0.75126E+02
         0.99546E-08
         0.67087E-08
        -0.80690E+02
        -0.14811E+02
        -0.36263E-09
         0.26998E-08
         0.21558E+02
         0.79790E-09
        -0.50465E+01
        -0.17989E-10
         0.13262E+01
         0.60308E-08
         0.65677E+01
         0.92802E-09
         0.93716E+02
        -0.45608E+01
         0.21567E-10
        -0.10581E-09
         0.62318E+00
        -0.62750E+02
         0.58773E-09
         0.15075E-08
         0.26956E+01
        -0.11933E-09
         0.38755E+02
         0.95619E-09
        -0.20729E+03
        -0.75253E+02
         0.73858E-09
        -0.70727E-08
        -0.16927E+03
        -0.11308E-07
         0.69361E+02
         0.75743E-08
         0.21908E+03
         0.11285E-08
         0.38255E+03
         0.14674E-08
         0.74203E+03
         0.40425E+03
         0.34499E-08
        -0.87477E-09
         0.49896E+02
        -0.10527E-09
        -0.15292E+03
        -0.94943E-08
        -0.22517E+03
        -0.10601E-07
        -0.49548E+03
        -0.22593E+03
        -0.67106E-08
         0.74487E-08
         0.36316E+02
         0.67823E-08
         0.89433E+02
         0.29135E-08
         0.20899E+03
         0.77357E-08
         0.51410E+03
         0.29318E+03
         0.16587E-07
         0.82935E-08
        -0.84524E+03
         0.35411E+03
        -0.10777E-07
         0.13198E-07
        -0.20581E+04
        -0.30628E-07
        -0.26839E+04
        -0.33481E-07
        -0.23585E+04
        -0.22723E-07
        -0.20117E+04
        -0.24102E-08
        -0.87954E+03
         0.67935E-08
         0.11590E+04
         0.42062E-08
         0.26045E+04
         0.38452E-08
         0.34435E+04
         0.82499E-08
         0.33761E+04
         0.10031E-07
         0.27673E+04
         0.39519E-08
         0.14738E+04
         0.24094E-08
        -0.10091E+03
         0.39381E-08
        -0.12258E+04
         0.26398E-08
        -0.19768E+04
        -0.94138E-08
        -0.26982E+04
        -0.24701E-07
        -0.24173E+04
        -0.31347E-07
        -0.15528E+04
        -0.19401E-07
        -0.17010E+03
         0.37014E-08
         0.11488E+04
         0.78448E-08
         0.16612E+04
         0.12502E-07
         0.20329E+04
         0.24620E-07
         0.18224E+04
         0.31946E-07
         0.16960E+04
         0.22697E-07
         0.14006E+04
         0.17950E-07
        -0.85949E+02
         0.23191E+02
         0.23744E+02
        -0.14812E+02
         0.18999E+03
         0.15594E+03
         0.24888E+01
        -0.56112E+02
        -0.24769E+02
        -0.64770E+02
        -0.18641E+02
        -0.34447E+03
        -0.49100E+03
         0.18216E+02
         0.27958E+03
        -0.37243E+02
         0.27699E+02
         0.82610E+01
         0.16825E+02
        -0.13674E+02
         0.68686E+02
         0.60270E+02
        -0.18308E+03
         0.47946E+01
         0.41172E+02
         0.45362E+01
         0.75579E+00
         0.14815E+01
         0.18418E+02
        -0.61011E+02
        -0.32461E+02
         0.69236E+01
         0.11124E+02
        -0.87714E+00
        -0.46003E+02
        -0.15864E+03
        -0.32172E+03
         0.48720E+03
         0.25361E+03
         0.45904E+03
         0.89029E+03
         0.20562E+03
        -0.16576E+03
        -0.33431E+03
        -0.39663E+03
        -0.50776E+03
         0.62477E+02
         0.18686E+03
         0.57658E+02
         0.19441E+03
         0.60992E+03
         0.23438E+03
        -0.20858E+04
         0.26267E+04
        -0.63604E+04
        -0.74724E+04
        -0.70929E+04
        -0.42942E+04
         0.25647E+03
         0.27890E+04
         0.40431E+04
         0.65608E+04
         0.69128E+04
         0.36823E+04
         0.14830E+04
         0.62683E+03
        -0.10134E+04
        -0.40030E+04
        -0.66831E+04
        -0.76423E+04
        -0.46998E+04
         0.85117E+03
         0.30786E+04
         0.32445E+04
         0.51122E+04
         0.56837E+04
         0.43003E+04
         0.39663E+04
        -0.31457E+06
         0.94525E+05
        -0.18212E+06
        -0.21421E+06
         0.52113E+06
         0.37415E+06
         0.27432E+06
        -0.38823E+06
        -0.25372E+06
        -0.38465E+06
         0.12716E+06
        -0.17262E+06
        -0.55360E+06
         0.20362E+06
         0.40866E+06
        -0.40203E+06
         0.18320E+06
         0.15969E+06
         0.21634E+06
         0.15688E+06
         0.28881E+06
         0.21923E+06
        -0.13154E+06
         0.22869E+06
         0.26125E+06
        -0.13145E+06
         0.46409E+05
        -0.44154E+05
        -0.17571E+06
        -0.38245E+06
        -0.42818E+06
        -0.17504E+06
         0.33641E+06
         0.30304E+06
         0.85076E+05
        -0.35015E+06
        -0.49295E+06
         0.49842E+06
         0.11799E+06
         0.34257E+06
         0.49236E+06
        -0.14944E+06
        -0.29729E+06
        -0.42483E+06
        -0.51438E+06
        -0.35192E+06
         0.46737E+06
         0.48086E+06
        -0.10957E+06
         0.11871E+06
         0.53677E+06
         0.68567E+05
        -0.25568E+06
         0.35316E+06
        -0.68102E+06
        -0.73551E+06
        -0.63112E+06
        -0.30680E+06
         0.80380E+05
         0.28116E+06
         0.37190E+06
         0.59668E+06
         0.69019E+06
         0.27508E+06
         0.12965E+06
         0.11582E+06
        -0.49862E+05
        -0.38476E+06
        -0.65798E+06
        -0.73885E+06
        -0.52553E+06
         0.14433E+06
         0.33877E+06
         0.35634E+06
         0.56233E+06
         0.71419E+06
         0.45095E+06
         0.43220E+06
        -0.31495E+06
         0.94861E+05
        -0.18240E+06
        -0.21552E+06
         0.52110E+06
         0.37445E+06
         0.27545E+06
        -0.38725E+06
        -0.25377E+06
        -0.38384E+06
         0.12466E+06
        -0.17304E+06
        -0.55368E+06
         0.20390E+06
         0.40819E+06
        -0.40194E+06
         0.18462E+06
         0.15901E+06
         0.21620E+06
         0.15608E+06
         0.28945E+06
         0.21945E+06
        -0.13158E+06
         0.22861E+06
         0.26128E+06
        -0.13143E+06
         0.46945E+05
        -0.43567E+05
        -0.17497E+06
        -0.38243E+06
        -0.42824E+06
        -0.17470E+06
         0.33650E+06
         0.30333E+06
         0.84252E+05
        -0.35038E+06
        -0.49297E+06
         0.49858E+06
         0.11890E+06
         0.34321E+06
         0.49245E+06
        -0.14898E+06
        -0.29755E+06
        -0.42500E+06
        -0.51440E+06
        -0.35177E+06
         0.46731E+06
         0.48078E+06
        -0.10887E+06
         0.11841E+06
         0.53673E+06
         0.67607E+05
        -0.25552E+06
         0.35324E+06
        -0.68109E+06
        -0.73551E+06
        -0.63104E+06
        -0.30679E+06
         0.80498E+05
         0.28138E+06
         0.37168E+06
         0.59661E+06
         0.69016E+06
         0.27520E+06
         0.12965E+06
         0.11606E+06
        -0.49452E+05
        -0.38488E+06
        -0.65809E+06
        -0.73888E+06
        -0.52543E+06
         0.14440E+06
         0.33857E+06
         0.35623E+06
         0.56212E+06
         0.71409E+06
         0.45069E+06
         0.43185E+06
        -0.31533E+06
         0.95190E+05
        -0.18268E+06
        -0.21685E+06
         0.52106E+06
         0.37475E+06
         0.27658E+06
        -0.38627E+06
        -0.25380E+06
        -0.38301E+06
         0.12217E+06
        -0.17345E+06
        -0.55376E+06
         0.20416E+06
         0.40773E+06
        -0.40186E+06
         0.18605E+06
         0.15832E+06
         0.21606E+06
         0.15526E+06
         0.29010E+06
         0.21965E+06
        -0.13163E+06
         0.22849E+06
         0.26136E+06
        -0.13140E+06
         0.47519E+05
        -0.42995E+05
        -0.17412E+06
        -0.38242E+06
        -0.42829E+06
        -0.17429E+06
         0.33658E+06
         0.30362E+06
         0.83424E+05
        -0.35062E+06
        -0.49298E+06
         0.49874E+06
         0.11981E+06
         0.34384E+06
         0.49256E+06
        -0.14848E+06
        -0.29778E+06
        -0.42520E+06
        -0.51442E+06
        -0.35163E+06
         0.46726E+06
         0.48070E+06
        -0.10815E+06
         0.11811E+06
         0.53669E+06
         0.66648E+05
        -0.25536E+06
         0.35332E+06
        -0.68117E+06
        -0.73551E+06
        -0.63096E+06
        -0.30678E+06
         0.80616E+05
         0.28161E+06
         0.37146E+06
         0.59653E+06
         0.69012E+06
         0.27532E+06
         0.12965E+06
         0.11630E+06
        -0.49039E+05
        -0.38500E+06
        -0.65821E+06
        -0.73892E+06
        -0.52533E+06
         0.14447E+06
         0.33836E+06
         0.35611E+06
         0.56191E+06
         0.71399E+06
         0.45043E+06
         0.43151E+06
        -0.31570E+06
         0.95531E+05
        -0.18294E+06
        -0.21818E+06
         0.52103E+06
         0.37506E+06
         0.27768E+06
        -0.38529E+06
        -0.25381E+06
        -0.38216E+06
         0.11967E+06
        -0.17387E+06
        -0.55384E+06
         0.20445E+06
         0.40727E+06
        -0.40177E+06
         0.18750E+06
         0.15763E+06
         0.21593E+06
         0.15439E+06
         0.29075E+06
         0.21984E+06
        -0.13174E+06
         0.22831E+06
         0.26154E+06
        -0.13133E+06
         0.48113E+05
        -0.42519E+05
        -0.17299E+06
        -0.38242E+06
        -0.42833E+06
        -0.17373E+06
         0.33665E+06
         0.30391E+06
         0.82602E+05
        -0.35086E+06
        -0.49299E+06
         0.49890E+06
         0.12070E+06
         0.34445E+06
         0.49270E+06
        -0.14786E+06
        -0.29796E+06
        -0.42549E+06
        -0.51448E+06
        -0.35146E+06
         0.46721E+06
         0.48062E+06
        -0.10743E+06
         0.11780E+06
         0.53665E+06
         0.65690E+05
        -0.25520E+06
         0.35340E+06
        -0.68124E+06
        -0.73551E+06
        -0.63087E+06
        -0.30677E+06
         0.80736E+05
         0.28183E+06
         0.37124E+06
         0.59645E+06
         0.69009E+06
         0.27547E+06
         0.12966E+06
         0.11654E+06
        -0.48623E+05
        -0.38513E+06
        -0.65834E+06
        -0.73895E+06
        -0.52523E+06
         0.14455E+06
         0.33815E+06
         0.35600E+06
         0.56170E+06
         0.71389E+06
         0.45017E+06
         0.43116E+06
        -0.31608E+06
         0.95872E+05
        -0.18322E+06
        -0.21949E+06
         0.52099E+06
         0.37536E+06
         0.27879E+06
        -0.38430E+06
        -0.25378E+06
        -0.38126E+06
         0.11717E+06
        -0.17429E+06
        -0.55392E+06
         0.20474E+06
         0.40680E+06
        -0.40167E+06
         0.18896E+06
         0.15694E+06
         0.21577E+06
         0.15348E+06
         0.29141E+06
         0.22000E+06
        -0.13191E+06
         0.22804E+06
         0.26184E+06
        -0.13120E+06
         0.48775E+05
        -0.42130E+05
        -0.17157E+06
        -0.38242E+06
        -0.42836E+06
        -0.17300E+06
         0.33670E+06
         0.30421E+06
         0.81772E+05
        -0.35109E+06
        -0.49301E+06
         0.49906E+06
         0.12159E+06
         0.34506E+06
         0.49287E+06
        -0.14712E+06
        -0.29807E+06
        -0.42588E+06
        -0.51457E+06
        -0.35128E+06
         0.46717E+06
         0.48055E+06
        -0.10671E+06
         0.11750E+06
         0.53661E+06
         0.64722E+05
        -0.25504E+06
         0.35349E+06
        -0.68131E+06
        -0.73551E+06
        -0.63079E+06
        -0.30676E+06
         0.80854E+05
         0.28206E+06
         0.37101E+06
         0.59637E+06
         0.69007E+06
         0.27564E+06
         0.12968E+06
         0.11677E+06
        -0.48206E+05
        -0.38527E+06
        -0.65849E+06
        -0.73899E+06
        -0.52512E+06
         0.14462E+06
         0.33795E+06
         0.35589E+06
         0.56149E+06
         0.71379E+06
         0.44990E+06
         0.43081E+06
        -0.31644E+06
         0.96245E+05
        -0.18346E+06
        -0.22082E+06
         0.52096E+06
         0.37566E+06
         0.27989E+06
        -0.38331E+06
        -0.25375E+06
        -0.38038E+06
         0.11465E+06
        -0.17471E+06
        -0.55400E+06
         0.20506E+06
         0.40634E+06
        -0.40158E+06
         0.19045E+06
         0.15625E+06
         0.21561E+06
         0.15254E+06
         0.29206E+06
         0.22015E+06
        -0.13209E+06
         0.22776E+06
         0.26215E+06
        -0.13106E+06
         0.49488E+05
        -0.41771E+05
        -0.17001E+06
        -0.38245E+06
        -0.42838E+06
        -0.17218E+06
         0.33674E+06
         0.30450E+06
         0.80937E+05
        -0.35134E+06
        -0.49303E+06
         0.49921E+06
         0.12247E+06
         0.34565E+06
         0.49305E+06
        -0.14633E+06
        -0.29816E+06
        -0.42629E+06
        -0.51467E+06
        -0.35110E+06
         0.46711E+06
         0.48049E+06
        -0.10596E+06
         0.11723E+06
         0.53657E+06
         0.63752E+05
        -0.25488E+06
         0.35357E+06
        -0.68138E+06
        -0.73552E+06
        -0.63071E+06
        -0.30675E+06
         0.80970E+05
         0.28228E+06
         0.37079E+06
         0.59630E+06
         0.69005E+06
         0.27582E+06
         0.12970E+06
         0.11700E+06
        -0.47788E+05
        -0.38541E+06
        -0.65865E+06
        -0.73904E+06
        -0.52502E+06
         0.14468E+06
         0.33774E+06
         0.35577E+06
         0.56128E+06
         0.71369E+06
         0.44964E+06
         0.43046E+06
        -0.31677E+06
         0.96702E+05
        -0.18363E+06
        -0.22218E+06
         0.52092E+06
         0.37596E+06
         0.28097E+06
        -0.38233E+06
        -0.25373E+06
        -0.37953E+06
         0.11211E+06
        -0.17512E+06
        -0.55408E+06
         0.20549E+06
         0.40587E+06
        -0.40150E+06
         0.19198E+06
         0.15556E+06
         0.21547E+06
         0.15161E+06
         0.29272E+06
         0.22031E+06
        -0.13228E+06
         0.22747E+06
         0.26238E+06
        -0.13087E+06
         0.50329E+05
        -0.41404E+05
        -0.16840E+06
        -0.38250E+06
        -0.42839E+06
        -0.17131E+06
         0.33677E+06
         0.30481E+06
         0.80101E+05
        -0.35159E+06
        -0.49305E+06
         0.49936E+06
         0.12335E+06
         0.34626E+06
         0.49324E+06
        -0.14552E+06
        -0.29824E+06
        -0.42670E+06
        -0.51478E+06
        -0.35093E+06
         0.46702E+06
         0.48047E+06
        -0.10513E+06
         0.11703E+06
         0.53653E+06
         0.62766E+05
        -0.25472E+06
         0.35365E+06
        -0.68145E+06
        -0.73552E+06
        -0.63062E+06
        -0.30674E+06
         0.81087E+05
         0.28251E+06
         0.37057E+06
         0.59622E+06
         0.69003E+06
         0.27600E+06
         0.12972E+06
         0.11723E+06
        -0.47371E+05
        -0.38554E+06
        -0.65881E+06
        -0.73908E+06
        -0.52492E+06
         0.14474E+06
         0.33752E+06
         0.35566E+06
         0.56109E+06
         0.71358E+06
         0.44938E+06
         0.43011E+06
        -0.31708E+06
         0.97185E+05
        -0.18378E+06
        -0.22355E+06
         0.52089E+06
         0.37627E+06
         0.28205E+06
        -0.38135E+06
        -0.25371E+06
        -0.37871E+06
         0.10956E+06
        -0.17553E+06
        -0.55416E+06
         0.20594E+06
         0.40540E+06
        -0.40143E+06
         0.19351E+06
         0.15486E+06
         0.21532E+06
         0.15067E+06
         0.29338E+06
         0.22046E+06
        -0.13246E+06
         0.22720E+06
         0.26257E+06
        -0.13066E+06
         0.51201E+05
        -0.41026E+05
        -0.16675E+06
        -0.38257E+06
        -0.42840E+06
        -0.17040E+06
         0.33680E+06
         0.30512E+06
         0.79255E+05
        -0.35185E+06
        -0.49309E+06
         0.49950E+06
         0.12423E+06
         0.34687E+06
         0.49343E+06
        -0.14472E+06
        -0.29832E+06
        -0.42711E+06
        -0.51489E+06
        -0.35078E+06
         0.46691E+06
         0.48047E+06
        -0.10426E+06
         0.11688E+06
         0.53649E+06
         0.61777E+05
        -0.25456E+06
         0.35373E+06
        -0.68151E+06
        -0.73552E+06
        -0.63054E+06
        -0.30673E+06
         0.81203E+05
         0.28273E+06
         0.37035E+06
         0.59615E+06
         0.69001E+06
         0.27618E+06
         0.12974E+06
         0.11747E+06
        -0.46952E+05
        -0.38568E+06
        -0.65897E+06
        -0.73912E+06
        -0.52481E+06
         0.14479E+06
         0.33729E+06
         0.35554E+06
         0.56089E+06
         0.71348E+06
         0.44912E+06
         0.42977E+06
        -0.31740E+06
         0.97672E+05
        -0.18392E+06
        -0.22492E+06
         0.52085E+06
         0.37657E+06
         0.28311E+06
        -0.38037E+06
        -0.25369E+06
        -0.37790E+06
         0.10702E+06
        -0.17594E+06
        -0.55424E+06
         0.20642E+06
         0.40492E+06
        -0.40136E+06
         0.19506E+06
         0.15416E+06
         0.21516E+06
         0.14973E+06
         0.29403E+06
         0.22062E+06
        -0.13265E+06
         0.22693E+06
         0.26275E+06
        -0.13045E+06
         0.52095E+05
        -0.40625E+05
        -0.16509E+06
        -0.38264E+06
        -0.42840E+06
        -0.16950E+06
         0.33681E+06
         0.30542E+06
         0.78406E+05
        -0.35210E+06
        -0.49312E+06
         0.49964E+06
         0.12510E+06
         0.34747E+06
         0.49361E+06
        -0.14392E+06
        -0.29840E+06
        -0.42752E+06
        -0.51500E+06
        -0.35062E+06
         0.46681E+06
         0.48046E+06
        -0.10339E+06
         0.11673E+06
         0.53645E+06
         0.60782E+05
        -0.25440E+06
         0.35380E+06
        -0.68158E+06
        -0.73552E+06
        -0.63046E+06
        -0.30672E+06
         0.81320E+05
         0.28295E+06
         0.37013E+06
         0.59607E+06
         0.68998E+06
         0.27636E+06
         0.12977E+06
         0.11770E+06
        -0.46535E+05
        -0.38582E+06
        -0.65913E+06
        -0.73916E+06
        -0.52471E+06
         0.14484E+06
         0.33707E+06
         0.35543E+06
         0.56069E+06
         0.71338E+06
         0.44886E+06
         0.42942E+06
        -0.31772E+06
         0.98166E+05
        -0.18406E+06
        -0.22627E+06
         0.52081E+06
         0.37686E+06
         0.28416E+06
        -0.37938E+06
        -0.25367E+06
        -0.37708E+06
         0.10447E+06
        -0.17635E+06
        -0.55432E+06
         0.20686E+06
         0.40445E+06
        -0.40128E+06
         0.19660E+06
         0.15347E+06
         0.21500E+06
         0.14877E+06
         0.29469E+06
         0.22078E+06
        -0.13282E+06
         0.22665E+06
         0.26294E+06
        -0.13024E+06
         0.52965E+05
        -0.40208E+05
        -0.16341E+06
        -0.38271E+06
        -0.42840E+06
        -0.16859E+06
         0.33680E+06
         0.30573E+06
         0.77560E+05
        -0.35236E+06
        -0.49315E+06
         0.49978E+06
         0.12598E+06
         0.34807E+06
         0.49380E+06
        -0.14312E+06
        -0.29848E+06
        -0.42792E+06
        -0.51511E+06
        -0.35046E+06
         0.46670E+06
         0.48046E+06
        -0.10253E+06
         0.11657E+06
         0.53640E+06
         0.59789E+05
        -0.25424E+06
         0.35388E+06
        -0.68165E+06
        -0.73552E+06
        -0.63037E+06
        -0.30671E+06
         0.81436E+05
         0.28317E+06
         0.36991E+06
         0.59600E+06
         0.68996E+06
         0.27654E+06
         0.12979E+06
         0.11794E+06
        -0.46119E+05
        -0.38595E+06
        -0.65929E+06
        -0.73920E+06
        -0.52460E+06
         0.14490E+06
         0.33684E+06
         0.35531E+06
         0.56049E+06
         0.71328E+06
         0.44860E+06
         0.42907E+06
        -0.31803E+06
         0.98655E+05
        -0.18421E+06
        -0.22762E+06
         0.52078E+06
         0.37716E+06
         0.28521E+06
        -0.37840E+06
        -0.25365E+06
        -0.37627E+06
         0.10191E+06
        -0.17677E+06
        -0.55440E+06
         0.20733E+06
         0.40398E+06
        -0.40121E+06
         0.19814E+06
         0.15279E+06
         0.21487E+06
         0.14781E+06
         0.29534E+06
         0.22093E+06
        -0.13301E+06
         0.22638E+06
         0.26312E+06
        -0.13002E+06
         0.53848E+05
        -0.39766E+05
        -0.16170E+06
        -0.38277E+06
        -0.42840E+06
        -0.16768E+06
         0.33679E+06
         0.30603E+06
         0.76710E+05
        -0.35262E+06
        -0.49319E+06
         0.49992E+06
         0.12685E+06
         0.34867E+06
         0.49398E+06
        -0.14232E+06
        -0.29855E+06
        -0.42833E+06
        -0.51522E+06
        -0.35031E+06
         0.46660E+06
         0.48046E+06
        -0.10165E+06
         0.11641E+06
         0.53636E+06
         0.58790E+05
        -0.25407E+06
         0.35396E+06
        -0.68172E+06
        -0.73552E+06
        -0.63029E+06
        -0.30670E+06
         0.81550E+05
         0.28340E+06
         0.36969E+06
         0.59592E+06
         0.68994E+06
         0.27672E+06
         0.12982E+06
         0.11817E+06
        -0.45702E+05
        -0.38609E+06
        -0.65945E+06
        -0.73924E+06
        -0.52450E+06
         0.14495E+06
         0.33661E+06
         0.35519E+06
         0.56030E+06
         0.71317E+06
         0.44834E+06
         0.42871E+06
        -0.31834E+06
         0.99142E+05
        -0.18434E+06
        -0.22898E+06
         0.52074E+06
         0.37746E+06
         0.28624E+06
        -0.37741E+06
        -0.25362E+06
        -0.37545E+06
         0.99352E+05
        -0.17719E+06
        -0.55448E+06
         0.20780E+06
         0.40350E+06
        -0.40114E+06
         0.19967E+06
         0.15209E+06
         0.21472E+06
         0.14686E+06
         0.29599E+06
         0.22108E+06
        -0.13319E+06
         0.22612E+06
         0.26329E+06
        -0.12982E+06
         0.54712E+05
        -0.39308E+05
        -0.15998E+06
        -0.38284E+06
        -0.42840E+06
        -0.16677E+06
         0.33675E+06
         0.30634E+06
         0.75855E+05
        -0.35287E+06
        -0.49322E+06
         0.50005E+06
         0.12772E+06
         0.34928E+06
         0.49417E+06
        -0.14153E+06
        -0.29863E+06
        -0.42873E+06
        -0.51534E+06
        -0.35016E+06
         0.46650E+06
         0.48046E+06
        -0.10077E+06
         0.11626E+06
         0.53632E+06
         0.57790E+05
        -0.25391E+06
         0.35404E+06
        -0.68178E+06
        -0.73552E+06
        -0.63020E+06
        -0.30669E+06
         0.81665E+05
         0.28362E+06
         0.36946E+06
         0.59585E+06
         0.68992E+06
         0.27690E+06
         0.12984E+06
         0.11841E+06
        -0.45283E+05
        -0.38623E+06
        -0.65960E+06
        -0.73928E+06
        -0.52440E+06
         0.14500E+06
         0.33639E+06
         0.35508E+06
         0.56010E+06
         0.71307E+06
         0.44808E+06
         0.42836E+06
        -0.31866E+06
         0.99635E+05
        -0.18448E+06
        -0.23034E+06
         0.52070E+06
         0.37776E+06
         0.28727E+06
        -0.37642E+06
        -0.25359E+06
        -0.37463E+06
         0.96800E+05
        -0.17760E+06
        -0.55456E+06
         0.20825E+06
         0.40303E+06
        -0.40106E+06
         0.20121E+06
         0.15139E+06
         0.21457E+06
         0.14591E+06
         0.29665E+06
         0.22123E+06
        -0.13337E+06
         0.22585E+06
         0.26346E+06
        -0.12959E+06
         0.55601E+05
        -0.38827E+05
        -0.15823E+06
        -0.38291E+06
        -0.42840E+06
        -0.16585E+06
         0.33670E+06
         0.30664E+06
         0.75002E+05
        -0.35313E+06
        -0.49325E+06
         0.50019E+06
         0.12860E+06
         0.34987E+06
         0.49435E+06
        -0.14074E+06
        -0.29871E+06
        -0.42913E+06
        -0.51545E+06
        -0.35000E+06
         0.46639E+06
         0.48046E+06
        -0.99890E+05
         0.11610E+06
         0.53628E+06
         0.56791E+05
        -0.25375E+06
         0.35411E+06
        -0.68185E+06
        -0.73552E+06
        -0.63012E+06
        -0.30668E+06
         0.81783E+05
         0.28384E+06
         0.36924E+06
         0.59577E+06
         0.68989E+06
         0.27708E+06
         0.12986E+06
         0.11864E+06
        -0.44865E+05
        -0.38636E+06
        -0.65976E+06
        -0.73932E+06
        -0.52429E+06
         0.14505E+06
         0.33616E+06
         0.35496E+06
         0.55990E+06
         0.71297E+06
         0.44783E+06
         0.42801E+06
        -0.31898E+06
         0.10012E+06
        -0.18462E+06
        -0.23168E+06
         0.52066E+06
         0.37805E+06
         0.28828E+06
        -0.37543E+06
        -0.25357E+06
        -0.37381E+06
         0.94249E+05
        -0.17801E+06
        -0.55464E+06
         0.20871E+06
         0.40255E+06
        -0.40099E+06
         0.20274E+06
         0.15071E+06
         0.21444E+06
         0.14495E+06
         0.29730E+06
         0.22138E+06
        -0.13355E+06
         0.22559E+06
         0.26363E+06
        -0.12937E+06
         0.56466E+05
        -0.38329E+05
        -0.15647E+06
        -0.38297E+06
        -0.42840E+06
        -0.16494E+06
         0.33664E+06
         0.30694E+06
         0.74145E+05
        -0.35339E+06
        -0.49328E+06
         0.50031E+06
         0.12946E+06
         0.35048E+06
         0.49453E+06
        -0.13994E+06
        -0.29878E+06
        -0.42953E+06
        -0.51556E+06
        -0.34984E+06
         0.46628E+06
         0.48045E+06
        -0.99008E+05
         0.11594E+06
         0.53624E+06
         0.55795E+05
        -0.25358E+06
         0.35419E+06
        -0.68192E+06
        -0.73552E+06
        -0.63004E+06
        -0.30667E+06
         0.81899E+05
         0.28406E+06
         0.36902E+06
         0.59570E+06
         0.68987E+06
         0.27726E+06
         0.12989E+06
         0.11888E+06
        -0.44449E+05
        -0.38650E+06
        -0.65992E+06
        -0.73936E+06
        -0.52419E+06
         0.14510E+06
         0.33593E+06
         0.35485E+06
         0.55971E+06
         0.71287E+06
         0.44757E+06
         0.42766E+06
        -0.31930E+06
         0.10060E+06
        -0.18475E+06
        -0.23302E+06
         0.52062E+06
         0.37835E+06
         0.28929E+06
        -0.37444E+06
        -0.25354E+06
        -0.37300E+06
         0.91695E+05
        -0.17843E+06
        -0.55472E+06
         0.20915E+06
         0.40207E+06
        -0.40091E+06
         0.20427E+06
         0.15002E+06
         0.21429E+06
         0.14399E+06
         0.29795E+06
         0.22152E+06
        -0.13373E+06
         0.22533E+06
         0.26379E+06
        -0.12915E+06
         0.57345E+05
        -0.37808E+05
        -0.15470E+06
        -0.38303E+06
        -0.42839E+06
        -0.16401E+06
         0.33657E+06
         0.30725E+06
         0.73290E+05
        -0.35365E+06
        -0.49331E+06
         0.50044E+06
         0.13033E+06
         0.35108E+06
         0.49472E+06
        -0.13915E+06
        -0.29886E+06
        -0.42993E+06
        -0.51567E+06
        -0.34969E+06
         0.46617E+06
         0.48045E+06
        -0.98110E+05
         0.11579E+06
         0.53620E+06
         0.54791E+05
        -0.25342E+06
         0.35426E+06
        -0.68198E+06
        -0.73552E+06
        -0.62995E+06
        -0.30666E+06
         0.82012E+05
         0.28427E+06
         0.36880E+06
         0.59563E+06
         0.68985E+06
         0.27743E+06
         0.12991E+06
         0.11911E+06
        -0.44032E+05
        -0.38663E+06
        -0.66008E+06
        -0.73940E+06
        -0.52408E+06
         0.14515E+06
         0.33570E+06
         0.35474E+06
         0.55951E+06
         0.71276E+06
         0.44731E+06
         0.42731E+06
        -0.31961E+06
         0.10109E+06
        -0.18489E+06
        -0.23436E+06
         0.52058E+06
         0.37864E+06
         0.29029E+06
        -0.37345E+06
        -0.25351E+06
        -0.37218E+06
         0.89138E+05
        -0.17884E+06
        -0.55480E+06
         0.20962E+06
         0.40160E+06
        -0.40084E+06
         0.20580E+06
         0.14934E+06
         0.21415E+06
         0.14303E+06
         0.29860E+06
         0.22167E+06
        -0.13391E+06
         0.22507E+06
         0.26393E+06
        -0.12892E+06
         0.58201E+05
        -0.37267E+05
        -0.15291E+06
        -0.38309E+06
        -0.42839E+06
        -0.16310E+06
         0.33647E+06
         0.30755E+06
         0.72427E+05
        -0.35390E+06
        -0.49334E+06
         0.50056E+06
         0.13120E+06
         0.35168E+06
         0.49490E+06
        -0.13836E+06
        -0.29894E+06
        -0.43033E+06
        -0.51578E+06
        -0.34953E+06
         0.46607E+06
         0.48045E+06
        -0.97219E+05
         0.11563E+06
         0.53616E+06
         0.53784E+05
        -0.25326E+06
         0.35434E+06
        -0.68205E+06
        -0.73552E+06
        -0.62987E+06
        -0.30664E+06
         0.82125E+05
         0.28449E+06
         0.36857E+06
         0.59556E+06
         0.68983E+06
         0.27761E+06
         0.12993E+06
         0.11935E+06
        -0.43615E+05
        -0.38677E+06
        -0.66024E+06
        -0.73944E+06
        -0.52398E+06
         0.14519E+06
         0.33548E+06
         0.35462E+06
         0.55931E+06
         0.71266E+06
         0.44706E+06
         0.42696E+06
        -0.31993E+06
         0.10158E+06
        -0.18503E+06
        -0.23569E+06
         0.52055E+06
         0.37894E+06
         0.29128E+06
        -0.37245E+06
        -0.25347E+06
        -0.37135E+06
         0.86579E+05
        -0.17925E+06
        -0.55488E+06
         0.21005E+06
         0.40111E+06
        -0.40076E+06
         0.20734E+06
         0.14865E+06
         0.21401E+06
         0.14208E+06
         0.29925E+06
         0.22180E+06
        -0.13409E+06
         0.22481E+06
         0.26407E+06
        -0.12869E+06
         0.59080E+05
        -0.36698E+05
        -0.15110E+06
        -0.38315E+06
        -0.42838E+06
        -0.16217E+06
         0.33637E+06
         0.30786E+06
         0.71563E+05
        -0.35415E+06
        -0.49337E+06
         0.50068E+06
         0.13207E+06
         0.35229E+06
         0.49509E+06
        -0.13757E+06
        -0.29902E+06
        -0.43073E+06
        -0.51589E+06
        -0.34938E+06
         0.46596E+06
         0.48045E+06
        -0.96331E+05
         0.11546E+06
         0.53612E+06
         0.52783E+05
        -0.25309E+06
         0.35441E+06
        -0.68211E+06
        -0.73552E+06
        -0.62978E+06
        -0.30664E+06
         0.82237E+05
         0.28471E+06
         0.36835E+06
         0.59548E+06
         0.68981E+06
         0.27779E+06
         0.12995E+06
         0.11958E+06
        -0.43200E+05
        -0.38690E+06
        -0.66039E+06
        -0.73947E+06
        -0.52387E+06
         0.14524E+06
         0.33525E+06
         0.35451E+06
         0.55911E+06
         0.71256E+06
         0.44681E+06
         0.42660E+06
        -0.32025E+06
         0.10206E+06
        -0.18516E+06
        -0.23702E+06
         0.52050E+06
         0.37923E+06
         0.29226E+06
        -0.37146E+06
        -0.25342E+06
        -0.37049E+06
         0.84020E+05
        -0.17967E+06
        -0.55496E+06
         0.21051E+06
         0.40063E+06
        -0.40069E+06
         0.20889E+06
         0.14796E+06
         0.21389E+06
         0.14117E+06
         0.29990E+06
         0.22194E+06
        -0.13427E+06
         0.22454E+06
         0.26417E+06
        -0.12847E+06
         0.59953E+05
        -0.36088E+05
        -0.14928E+06
        -0.38323E+06
        -0.42837E+06
        -0.16124E+06
         0.33625E+06
         0.30816E+06
         0.70701E+05
        -0.35441E+06
        -0.49340E+06
         0.50079E+06
         0.13298E+06
         0.35289E+06
         0.49528E+06
        -0.13679E+06
        -0.29912E+06
        -0.43112E+06
        -0.51600E+06
        -0.34921E+06
         0.46586E+06
         0.48045E+06
        -0.95445E+05
         0.11530E+06
         0.53608E+06
         0.51779E+05
        -0.25293E+06
         0.35449E+06
        -0.68218E+06
        -0.73552E+06
        -0.62970E+06
        -0.30663E+06
         0.82350E+05
         0.28492E+06
         0.36814E+06
         0.59541E+06
         0.68979E+06
         0.27797E+06
         0.12996E+06
         0.11981E+06
        -0.42786E+05
        -0.38703E+06
        -0.66055E+06
        -0.73951E+06
        -0.52377E+06
         0.14529E+06
         0.33502E+06
         0.35439E+06
         0.55892E+06
         0.71246E+06
         0.44656E+06
         0.42625E+06
        -0.32056E+06
         0.10255E+06
        -0.18529E+06
        -0.23835E+06
         0.52046E+06
         0.37952E+06
         0.29323E+06
        -0.37046E+06
        -0.25335E+06
        -0.36959E+06
         0.81467E+05
        -0.18008E+06
        -0.55504E+06
         0.21097E+06
         0.40014E+06
        -0.40061E+06
         0.21045E+06
         0.14728E+06
         0.21375E+06
         0.14029E+06
         0.30054E+06
         0.22207E+06
        -0.13445E+06
         0.22429E+06
         0.26423E+06
        -0.12823E+06
         0.60867E+05
        -0.35428E+05
        -0.14745E+06
        -0.38331E+06
        -0.42836E+06
        -0.16031E+06
         0.33611E+06
         0.30846E+06
         0.69832E+05
        -0.35466E+06
        -0.49343E+06
         0.50089E+06
         0.13391E+06
         0.35350E+06
         0.49547E+06
        -0.13601E+06
        -0.29922E+06
        -0.43152E+06
        -0.51611E+06
        -0.34906E+06
         0.46575E+06
         0.48044E+06
        -0.94545E+05
         0.11515E+06
         0.53603E+06
         0.50766E+05
        -0.25276E+06
         0.35456E+06
        -0.68224E+06
        -0.73552E+06
        -0.62962E+06
        -0.30662E+06
         0.82462E+05
         0.28514E+06
         0.36792E+06
         0.59534E+06
         0.68978E+06
         0.27814E+06
         0.12995E+06
         0.12004E+06
        -0.42369E+05
        -0.38717E+06
        -0.66071E+06
        -0.73955E+06
        -0.52366E+06
         0.14534E+06
         0.33480E+06
         0.35428E+06
         0.55872E+06
         0.71235E+06
         0.44631E+06
         0.42590E+06
        -0.32088E+06
         0.10303E+06
        -0.18543E+06
        -0.23966E+06
         0.52042E+06
         0.37981E+06
         0.29418E+06
        -0.36946E+06
        -0.25326E+06
        -0.36869E+06
         0.78929E+05
        -0.18049E+06
        -0.55512E+06
         0.21141E+06
         0.39965E+06
        -0.40054E+06
         0.21202E+06
         0.14660E+06
         0.21361E+06
         0.13944E+06
         0.30120E+06
         0.22221E+06
        -0.13461E+06
         0.22405E+06
         0.26427E+06
        -0.12801E+06
         0.61757E+05
        -0.34736E+05
        -0.14562E+06
        -0.38338E+06
        -0.42835E+06
        -0.15940E+06
         0.33597E+06
         0.30877E+06
         0.68971E+05
        -0.35491E+06
        -0.49346E+06
         0.50098E+06
         0.13485E+06
         0.35410E+06
         0.49566E+06
        -0.13525E+06
        -0.29934E+06
        -0.43190E+06
        -0.51621E+06
        -0.34891E+06
         0.46565E+06
         0.48044E+06
        -0.93654E+05
         0.11498E+06
         0.53600E+06
         0.49756E+05
        -0.25259E+06
         0.35464E+06
        -0.68231E+06
        -0.73552E+06
        -0.62953E+06
        -0.30660E+06
         0.82572E+05
         0.28535E+06
         0.36771E+06
         0.59526E+06
         0.68978E+06
         0.27830E+06
         0.12994E+06
         0.12027E+06
        -0.41953E+05
        -0.38730E+06
        -0.66086E+06
        -0.73959E+06
        -0.52356E+06
         0.14539E+06
         0.33458E+06
         0.35416E+06
         0.55853E+06
         0.71225E+06
         0.44606E+06
         0.42554E+06
        -0.29970E+06
         0.86602E+05
        -0.15368E+06
        -0.18477E+06
         0.47327E+06
         0.32499E+06
         0.19089E+06
        -0.33660E+06
        -0.21873E+06
        -0.33458E+06
         0.53497E+05
        -0.17346E+06
        -0.52481E+06
         0.17291E+06
         0.38425E+06
        -0.35906E+06
         0.15532E+06
         0.10406E+06
         0.16647E+06
         0.78606E+05
         0.28854E+06
         0.21104E+06
        -0.12821E+06
         0.15900E+06
         0.21884E+06
        -0.92182E+05
         0.51216E+05
        -0.22134E+05
        -0.78840E+05
        -0.31678E+06
        -0.37110E+06
        -0.10844E+06
         0.25438E+06
         0.22082E+06
         0.63578E+05
        -0.30731E+06
        -0.44955E+06
         0.47650E+06
         0.12590E+06
         0.32547E+06
         0.47249E+06
        -0.12778E+06
        -0.28571E+06
        -0.40612E+06
        -0.47485E+06
        -0.32799E+06
         0.41740E+06
         0.42339E+06
        -0.78193E+05
         0.99533E+05
         0.49909E+06
         0.43208E+05
        -0.24938E+06
         0.35094E+06
        -0.67552E+06
        -0.72853E+06
        -0.62388E+06
        -0.30398E+06
         0.81931E+05
         0.28215E+06
         0.36285E+06
         0.58830E+06
         0.68200E+06
         0.27558E+06
         0.12832E+06
         0.11903E+06
        -0.41142E+05
        -0.38392E+06
        -0.65539E+06
        -0.73345E+06
        -0.51788E+06
         0.14400E+06
         0.33083E+06
         0.35013E+06
         0.55250E+06
         0.70436E+06
         0.44133E+06
         0.42083E+06
        -0.78106E+05
         0.11172E+05
        -0.18892E+05
        -0.17882E+05
         0.97955E+05
         0.46064E+05
         0.12928E+05
        -0.71702E+05
        -0.32708E+05
        -0.68954E+05
         0.40000E+04
        -0.63258E+05
        -0.15751E+06
         0.19897E+05
         0.14705E+06
        -0.66480E+05
         0.13160E+05
         0.70273E+04
         0.16577E+05
         0.44872E+04
         0.10000E+06
         0.66673E+05
        -0.41703E+05
         0.12638E+05
         0.26781E+05
        -0.52981E+04
         0.60005E+04
        -0.91875E+03
        -0.43069E+04
        -0.38473E+05
        -0.55874E+05
        -0.80203E+04
         0.23622E+05
         0.18034E+05
         0.16140E+05
        -0.46157E+05
        -0.94144E+05
         0.15422E+06
         0.31244E+05
         0.73148E+05
         0.15764E+06
        -0.40253E+05
        -0.96412E+05
        -0.11301E+06
        -0.10712E+06
        -0.92259E+05
         0.77473E+05
         0.70322E+05
        -0.10197E+05
         0.15094E+05
         0.12727E+06
         0.73477E+04
        -0.16042E+06
         0.23425E+06
        -0.46018E+06
        -0.50544E+06
        -0.44185E+06
        -0.21842E+06
         0.57351E+05
         0.18369E+06
         0.22995E+06
         0.38372E+06
         0.44897E+06
         0.18764E+06
         0.82734E+05
         0.77302E+05
        -0.28046E+05
        -0.27141E+06
        -0.47046E+06
        -0.52699E+06
        -0.34552E+06
         0.97820E+05
         0.22164E+06
         0.23198E+06
         0.37206E+06
         0.46843E+06
         0.30126E+06
         0.28527E+06
  
SCALARS                      strain_xx  double 1
LOOKUP_TABLE default
         0.26903E-04
         0.12848E-02
         0.14363E-01
         0.70985E-04
        -0.60138E-19
        -0.75606E-20
        -0.84535E-19
        -0.33718E-20
         0.11033E+00
         0.50028E-01
        -0.75629E-18
        -0.61361E-18
         0.18976E-03
         0.31528E-02
        -0.11504E-19
        -0.25246E-18
         0.15073E-03
         0.29122E-02
        -0.13173E-18
        -0.29218E-18
         0.59679E-02
         0.16303E-01
         0.15505E-01
        -0.13028E-18
        -0.27702E-19
        -0.84554E-19
         0.18237E-01
         0.11367E-01
        -0.45649E-18
        -0.28725E-18
         0.82341E-03
         0.38522E-02
         0.39144E-04
        -0.47319E-20
        -0.70664E-19
        -0.26821E-19
         0.70261E-02
         0.15240E-02
        -0.15576E-18
        -0.17658E-18
         0.27154E-01
         0.51646E-01
        -0.79256E-18
        -0.43102E-18
         0.32493E-01
         0.94050E-02
        -0.95581E-18
        -0.22144E-18
         0.23256E-02
        -0.87248E-19
         0.15436E-01
        -0.67605E-20
         0.23709E-02
        -0.33313E-18
         0.13003E-02
        -0.23310E-19
         0.24875E-01
         0.19918E-02
        -0.17106E-19
        -0.99941E-19
         0.93781E-05
         0.69880E-02
        -0.68429E-19
        -0.32179E-19
         0.48755E-03
        -0.69235E-21
         0.53309E-02
        -0.29954E-19
         0.21510E+00
         0.10069E+00
        -0.11702E-17
        -0.61553E-18
         0.41077E-01
        -0.32635E-18
         0.19033E-02
        -0.15616E-18
         0.18445E-01
        -0.60153E-20
         0.83200E-01
        -0.14479E-19
         0.14914E+00
         0.77582E-01
        -0.19446E-18
        -0.25435E-18
         0.64103E-01
        -0.29418E-18
         0.47698E-01
        -0.60980E-18
         0.18022E-01
        -0.24807E-18
         0.43608E-01
         0.23429E-01
        -0.45187E-19
        -0.84980E-19
         0.12434E-02
        -0.11692E-18
         0.94604E-02
        -0.20614E-19
         0.54002E-01
        -0.12570E-18
         0.11725E+00
         0.55854E-01
        -0.66830E-18
        -0.72771E-18
         0.66000E+00
         0.82548E+00
        -0.22817E-17
        -0.22159E-17
         0.64128E+00
        -0.16653E-17
         0.54514E+00
        -0.93001E-18
         0.27350E+00
        -0.28086E-18
         0.13553E+00
        -0.32116E-20
         0.17476E-01
        -0.40741E-19
         0.27933E-01
        -0.26078E-19
         0.15850E+00
        -0.25193E-19
         0.35055E+00
        -0.12812E-18
         0.66148E+00
        -0.46372E-18
         0.10466E+01
        -0.66034E-18
         0.12769E+01
        -0.58786E-18
         0.12163E+01
        -0.69514E-18
         0.10700E+01
        -0.11709E-17
         0.89152E+00
        -0.16282E-17
         0.69127E+00
        -0.14070E-17
         0.40999E+00
        -0.92931E-18
         0.13507E+00
        -0.20711E-18
         0.96850E-03
        -0.75518E-20
         0.42163E-01
        -0.44514E-19
         0.10500E+00
        -0.11903E-18
         0.23349E+00
        -0.45588E-18
         0.40801E+00
        -0.12275E-17
         0.71404E+00
        -0.17719E-17
         0.95935E+00
        -0.18537E-17
        -0.15641E-05
        -0.39675E-06
        -0.55114E-06
        -0.24301E-05
        -0.30962E-04
        -0.20196E-04
        -0.41301E-06
        -0.94474E-06
        -0.28169E-06
        -0.83259E-06
        -0.21166E-06
        -0.38871E-05
        -0.17927E-04
        -0.18406E-05
        -0.25724E-05
        -0.42878E-05
        -0.29743E-05
        -0.66647E-06
        -0.14260E-05
        -0.16901E-05
        -0.48815E-04
        -0.56624E-04
        -0.44251E-04
        -0.43212E-05
        -0.72381E-06
        -0.40076E-06
        -0.38507E-05
        -0.48743E-07
        -0.48227E-05
        -0.24805E-05
        -0.33925E-05
        -0.12025E-06
        -0.75286E-06
        -0.74615E-07
        -0.59794E-04
        -0.26210E-04
        -0.22223E-04
        -0.10456E-04
        -0.33740E-05
        -0.14379E-04
        -0.57655E-04
        -0.56971E-04
        -0.61952E-04
        -0.33003E-04
        -0.16068E-04
        -0.88524E-05
        -0.34175E-06
        -0.65142E-05
        -0.54154E-06
        -0.50833E-05
        -0.33656E-04
        -0.26385E-04
        -0.41675E-03
        -0.51351E-03
        -0.40320E-03
        -0.29929E-03
        -0.16500E-03
        -0.40408E-04
        -0.13347E-06
        -0.18813E-04
        -0.44068E-04
        -0.12909E-03
        -0.33327E-03
        -0.58130E-03
        -0.51522E-03
        -0.48364E-03
        -0.55895E-03
        -0.57338E-03
        -0.47282E-03
        -0.34708E-03
        -0.75833E-04
        -0.19739E-05
        -0.30816E-04
        -0.38254E-04
        -0.10866E-03
        -0.26249E-03
        -0.47800E-03
        -0.54304E-03
        -0.25082E-04
        -0.10570E-05
        -0.38308E-05
        -0.32478E-04
        -0.13665E-03
        -0.99797E-04
        -0.84712E-05
        -0.40369E-04
        -0.85231E-05
        -0.36486E-04
        -0.14890E-05
        -0.19820E-04
        -0.21451E-03
        -0.12615E-03
        -0.13534E-03
        -0.96812E-04
        -0.30004E-04
        -0.10764E-04
        -0.48748E-05
        -0.15034E-04
        -0.52928E-03
        -0.48074E-03
        -0.46812E-03
        -0.27386E-04
        -0.88349E-05
        -0.40055E-05
        -0.11780E-03
        -0.20768E-05
        -0.13194E-04
        -0.24536E-04
        -0.57145E-04
        -0.23928E-04
        -0.24039E-04
        -0.17906E-04
        -0.43462E-03
        -0.13239E-03
        -0.17420E-03
        -0.16644E-03
        -0.46657E-05
        -0.39220E-04
        -0.52935E-03
        -0.56012E-03
        -0.53517E-03
        -0.27979E-03
        -0.16593E-03
        -0.56804E-04
        -0.66351E-04
        -0.92476E-04
        -0.16159E-05
        -0.23426E-05
        -0.24612E-03
        -0.19099E-03
        -0.75915E-02
        -0.77094E-02
        -0.62119E-02
        -0.42259E-02
        -0.23526E-02
        -0.49898E-03
        -0.30762E-04
        -0.32301E-03
        -0.56056E-03
        -0.18834E-02
        -0.59421E-02
        -0.82697E-02
        -0.58167E-02
        -0.52650E-02
        -0.63897E-02
        -0.67765E-02
        -0.56449E-02
        -0.50501E-02
        -0.13111E-02
        -0.88568E-04
        -0.43330E-03
        -0.44478E-03
        -0.14058E-02
        -0.42145E-02
        -0.69047E-02
        -0.68613E-02
        -0.25177E-04
        -0.10648E-05
        -0.38453E-05
        -0.32522E-04
        -0.13639E-03
        -0.99613E-04
        -0.85792E-05
        -0.40165E-04
        -0.85417E-05
        -0.36428E-04
        -0.14294E-05
        -0.19917E-04
        -0.21477E-03
        -0.12553E-03
        -0.13520E-03
        -0.97012E-04
        -0.30136E-04
        -0.10704E-04
        -0.48700E-05
        -0.14981E-04
        -0.52918E-03
        -0.48063E-03
        -0.46806E-03
        -0.27389E-04
        -0.88748E-05
        -0.40189E-05
        -0.11787E-03
        -0.19994E-05
        -0.13380E-04
        -0.24567E-04
        -0.57312E-04
        -0.23921E-04
        -0.23839E-04
        -0.17922E-04
        -0.43506E-03
        -0.13227E-03
        -0.17409E-03
        -0.16698E-03
        -0.47555E-05
        -0.39468E-04
        -0.53001E-03
        -0.56077E-03
        -0.53522E-03
        -0.27971E-03
        -0.16581E-03
        -0.56746E-04
        -0.66325E-04
        -0.92537E-04
        -0.15924E-05
        -0.23266E-05
        -0.24580E-03
        -0.19042E-03
        -0.75863E-02
        -0.77054E-02
        -0.62108E-02
        -0.42260E-02
        -0.23512E-02
        -0.49868E-03
        -0.30831E-04
        -0.32341E-03
        -0.55962E-03
        -0.18819E-02
        -0.59403E-02
        -0.82700E-02
        -0.58155E-02
        -0.52644E-02
        -0.63913E-02
        -0.67794E-02
        -0.56469E-02
        -0.50521E-02
        -0.13104E-02
        -0.88649E-04
        -0.43267E-03
        -0.44442E-03
        -0.14037E-02
        -0.42094E-02
        -0.68978E-02
        -0.68552E-02
        -0.25273E-04
        -0.10726E-05
        -0.38597E-05
        -0.32565E-04
        -0.13612E-03
        -0.99433E-04
        -0.86885E-05
        -0.39961E-04
        -0.85593E-05
        -0.36367E-04
        -0.13710E-05
        -0.20013E-04
        -0.21503E-03
        -0.12491E-03
        -0.13505E-03
        -0.97220E-04
        -0.30271E-04
        -0.10644E-04
        -0.48651E-05
        -0.14930E-04
        -0.52909E-03
        -0.48052E-03
        -0.46800E-03
        -0.27392E-04
        -0.89175E-05
        -0.40334E-05
        -0.11794E-03
        -0.19245E-05
        -0.13569E-04
        -0.24598E-04
        -0.57483E-04
        -0.23917E-04
        -0.23639E-04
        -0.17938E-04
        -0.43550E-03
        -0.13216E-03
        -0.17398E-03
        -0.16751E-03
        -0.48462E-05
        -0.39718E-04
        -0.53069E-03
        -0.56143E-03
        -0.53530E-03
        -0.27964E-03
        -0.16569E-03
        -0.56690E-04
        -0.66301E-04
        -0.92599E-04
        -0.15685E-05
        -0.23101E-05
        -0.24550E-03
        -0.18986E-03
        -0.75811E-02
        -0.77015E-02
        -0.62097E-02
        -0.42261E-02
        -0.23497E-02
        -0.49838E-03
        -0.30902E-04
        -0.32381E-03
        -0.55867E-03
        -0.18804E-02
        -0.59385E-02
        -0.82704E-02
        -0.58145E-02
        -0.52639E-02
        -0.63930E-02
        -0.67825E-02
        -0.56489E-02
        -0.50541E-02
        -0.13096E-02
        -0.88730E-04
        -0.43204E-03
        -0.44408E-03
        -0.14017E-02
        -0.42042E-02
        -0.68909E-02
        -0.68491E-02
        -0.25368E-04
        -0.10806E-05
        -0.38739E-05
        -0.32608E-04
        -0.13585E-03
        -0.99250E-04
        -0.87971E-05
        -0.39757E-04
        -0.85748E-05
        -0.36295E-04
        -0.13141E-05
        -0.20112E-04
        -0.21529E-03
        -0.12429E-03
        -0.13491E-03
        -0.97444E-04
        -0.30412E-04
        -0.10584E-04
        -0.48609E-05
        -0.14877E-04
        -0.52903E-03
        -0.48045E-03
        -0.46800E-03
        -0.27395E-04
        -0.89683E-05
        -0.40513E-05
        -0.11799E-03
        -0.18532E-05
        -0.13758E-04
        -0.24627E-04
        -0.57668E-04
        -0.23922E-04
        -0.23438E-04
        -0.17954E-04
        -0.43592E-03
        -0.13204E-03
        -0.17386E-03
        -0.16804E-03
        -0.49375E-05
        -0.39967E-04
        -0.53138E-03
        -0.56214E-03
        -0.53544E-03
        -0.27959E-03
        -0.16556E-03
        -0.56630E-04
        -0.66282E-04
        -0.92662E-04
        -0.15447E-05
        -0.22938E-05
        -0.24517E-03
        -0.18930E-03
        -0.75759E-02
        -0.76975E-02
        -0.62086E-02
        -0.42261E-02
        -0.23483E-02
        -0.49808E-03
        -0.30973E-04
        -0.32421E-03
        -0.55773E-03
        -0.18789E-02
        -0.59367E-02
        -0.82708E-02
        -0.58137E-02
        -0.52634E-02
        -0.63949E-02
        -0.67860E-02
        -0.56512E-02
        -0.50560E-02
        -0.13089E-02
        -0.88811E-04
        -0.43140E-03
        -0.44373E-03
        -0.13996E-02
        -0.41991E-02
        -0.68841E-02
        -0.68430E-02
        -0.25463E-04
        -0.10887E-05
        -0.38883E-05
        -0.32650E-04
        -0.13559E-03
        -0.99066E-04
        -0.89079E-05
        -0.39551E-04
        -0.85880E-05
        -0.36212E-04
        -0.12582E-05
        -0.20210E-04
        -0.21556E-03
        -0.12368E-03
        -0.13476E-03
        -0.97686E-04
        -0.30559E-04
        -0.10524E-04
        -0.48556E-05
        -0.14824E-04
        -0.52900E-03
        -0.48040E-03
        -0.46804E-03
        -0.27399E-04
        -0.90274E-05
        -0.40718E-05
        -0.11804E-03
        -0.17855E-05
        -0.13948E-04
        -0.24654E-04
        -0.57866E-04
        -0.23934E-04
        -0.23238E-04
        -0.17970E-04
        -0.43637E-03
        -0.13192E-03
        -0.17375E-03
        -0.16858E-03
        -0.50292E-05
        -0.40220E-04
        -0.53210E-03
        -0.56289E-03
        -0.53565E-03
        -0.27956E-03
        -0.16543E-03
        -0.56564E-04
        -0.66267E-04
        -0.92732E-04
        -0.15212E-05
        -0.22777E-05
        -0.24487E-03
        -0.18874E-03
        -0.75707E-02
        -0.76935E-02
        -0.62075E-02
        -0.42261E-02
        -0.23468E-02
        -0.49778E-03
        -0.31043E-04
        -0.32461E-03
        -0.55679E-03
        -0.18774E-02
        -0.59348E-02
        -0.82715E-02
        -0.58131E-02
        -0.52630E-02
        -0.63969E-02
        -0.67899E-02
        -0.56536E-02
        -0.50579E-02
        -0.13082E-02
        -0.88892E-04
        -0.43077E-03
        -0.44338E-03
        -0.13976E-02
        -0.41939E-02
        -0.68772E-02
        -0.68369E-02
        -0.25554E-04
        -0.10975E-05
        -0.39011E-05
        -0.32692E-04
        -0.13532E-03
        -0.98883E-04
        -0.90192E-05
        -0.39343E-04
        -0.86008E-05
        -0.36127E-04
        -0.12035E-05
        -0.20308E-04
        -0.21581E-03
        -0.12306E-03
        -0.13462E-03
        -0.97933E-04
        -0.30707E-04
        -0.10464E-04
        -0.48501E-05
        -0.14773E-04
        -0.52900E-03
        -0.48036E-03
        -0.46812E-03
        -0.27403E-04
        -0.90864E-05
        -0.40930E-05
        -0.11809E-03
        -0.17194E-05
        -0.14140E-04
        -0.24686E-04
        -0.58063E-04
        -0.23945E-04
        -0.23037E-04
        -0.17984E-04
        -0.43682E-03
        -0.13182E-03
        -0.17365E-03
        -0.16911E-03
        -0.51218E-05
        -0.40474E-04
        -0.53282E-03
        -0.56367E-03
        -0.53590E-03
        -0.27953E-03
        -0.16531E-03
        -0.56507E-04
        -0.66248E-04
        -0.92799E-04
        -0.14973E-05
        -0.22629E-05
        -0.24457E-03
        -0.18819E-03
        -0.75655E-02
        -0.76895E-02
        -0.62063E-02
        -0.42262E-02
        -0.23454E-02
        -0.49748E-03
        -0.31111E-04
        -0.32501E-03
        -0.55585E-03
        -0.18759E-02
        -0.59329E-02
        -0.82722E-02
        -0.58127E-02
        -0.52626E-02
        -0.63989E-02
        -0.67941E-02
        -0.56562E-02
        -0.50598E-02
        -0.13074E-02
        -0.88964E-04
        -0.43013E-03
        -0.44303E-03
        -0.13955E-02
        -0.41888E-02
        -0.68704E-02
        -0.68308E-02
        -0.25639E-04
        -0.11082E-05
        -0.39110E-05
        -0.32733E-04
        -0.13507E-03
        -0.98705E-04
        -0.91333E-05
        -0.39131E-04
        -0.86143E-05
        -0.36047E-04
        -0.11498E-05
        -0.20406E-04
        -0.21608E-03
        -0.12245E-03
        -0.13447E-03
        -0.98179E-04
        -0.30849E-04
        -0.10404E-04
        -0.48457E-05
        -0.14723E-04
        -0.52898E-03
        -0.48034E-03
        -0.46820E-03
        -0.27410E-04
        -0.91387E-05
        -0.41117E-05
        -0.11814E-03
        -0.16532E-05
        -0.14336E-04
        -0.24722E-04
        -0.58250E-04
        -0.23946E-04
        -0.22832E-04
        -0.17995E-04
        -0.43727E-03
        -0.13172E-03
        -0.17356E-03
        -0.16964E-03
        -0.52160E-05
        -0.40734E-04
        -0.53356E-03
        -0.56445E-03
        -0.53615E-03
        -0.27951E-03
        -0.16520E-03
        -0.56456E-04
        -0.66218E-04
        -0.92861E-04
        -0.14715E-05
        -0.22516E-05
        -0.24431E-03
        -0.18765E-03
        -0.75603E-02
        -0.76856E-02
        -0.62052E-02
        -0.42262E-02
        -0.23439E-02
        -0.49718E-03
        -0.31181E-04
        -0.32541E-03
        -0.55491E-03
        -0.18744E-02
        -0.59310E-02
        -0.82728E-02
        -0.58123E-02
        -0.52623E-02
        -0.64010E-02
        -0.67982E-02
        -0.56588E-02
        -0.50616E-02
        -0.13067E-02
        -0.89024E-04
        -0.42947E-03
        -0.44269E-03
        -0.13935E-02
        -0.41837E-02
        -0.68636E-02
        -0.68247E-02
        -0.25719E-04
        -0.11194E-05
        -0.39195E-05
        -0.32772E-04
        -0.13482E-03
        -0.98521E-04
        -0.92496E-05
        -0.38918E-04
        -0.86284E-05
        -0.35970E-04
        -0.10971E-05
        -0.20505E-04
        -0.21635E-03
        -0.12183E-03
        -0.13432E-03
        -0.98425E-04
        -0.30989E-04
        -0.10344E-04
        -0.48406E-05
        -0.14676E-04
        -0.52897E-03
        -0.48031E-03
        -0.46828E-03
        -0.27415E-04
        -0.91878E-05
        -0.41293E-05
        -0.11819E-03
        -0.15878E-05
        -0.14536E-04
        -0.24762E-04
        -0.58432E-04
        -0.23943E-04
        -0.22626E-04
        -0.18003E-04
        -0.43775E-03
        -0.13163E-03
        -0.17348E-03
        -0.17017E-03
        -0.53111E-05
        -0.40994E-04
        -0.53430E-03
        -0.56526E-03
        -0.53641E-03
        -0.27951E-03
        -0.16510E-03
        -0.56414E-04
        -0.66184E-04
        -0.92919E-04
        -0.14452E-05
        -0.22417E-05
        -0.24405E-03
        -0.18711E-03
        -0.75551E-02
        -0.76817E-02
        -0.62040E-02
        -0.42262E-02
        -0.23425E-02
        -0.49687E-03
        -0.31249E-04
        -0.32581E-03
        -0.55398E-03
        -0.18729E-02
        -0.59290E-02
        -0.82735E-02
        -0.58119E-02
        -0.52619E-02
        -0.64030E-02
        -0.68024E-02
        -0.56614E-02
        -0.50633E-02
        -0.13059E-02
        -0.89081E-04
        -0.42880E-03
        -0.44235E-03
        -0.13915E-02
        -0.41786E-02
        -0.68568E-02
        -0.68186E-02
        -0.25800E-04
        -0.11308E-05
        -0.39278E-05
        -0.32811E-04
        -0.13456E-03
        -0.98338E-04
        -0.93657E-05
        -0.38705E-04
        -0.86427E-05
        -0.35894E-04
        -0.10459E-05
        -0.20603E-04
        -0.21662E-03
        -0.12122E-03
        -0.13417E-03
        -0.98671E-04
        -0.31129E-04
        -0.10284E-04
        -0.48354E-05
        -0.14628E-04
        -0.52895E-03
        -0.48028E-03
        -0.46837E-03
        -0.27423E-04
        -0.92368E-05
        -0.41468E-05
        -0.11824E-03
        -0.15238E-05
        -0.14736E-04
        -0.24801E-04
        -0.58614E-04
        -0.23940E-04
        -0.22421E-04
        -0.18012E-04
        -0.43824E-03
        -0.13154E-03
        -0.17339E-03
        -0.17070E-03
        -0.54074E-05
        -0.41253E-04
        -0.53504E-03
        -0.56605E-03
        -0.53668E-03
        -0.27952E-03
        -0.16501E-03
        -0.56372E-04
        -0.66150E-04
        -0.92977E-04
        -0.14190E-05
        -0.22323E-05
        -0.24380E-03
        -0.18657E-03
        -0.75499E-02
        -0.76778E-02
        -0.62028E-02
        -0.42263E-02
        -0.23410E-02
        -0.49657E-03
        -0.31318E-04
        -0.32620E-03
        -0.55304E-03
        -0.18715E-02
        -0.59271E-02
        -0.82742E-02
        -0.58114E-02
        -0.52616E-02
        -0.64051E-02
        -0.68066E-02
        -0.56639E-02
        -0.50651E-02
        -0.13051E-02
        -0.89138E-04
        -0.42812E-03
        -0.44201E-03
        -0.13895E-02
        -0.41736E-02
        -0.68501E-02
        -0.68125E-02
        -0.25880E-04
        -0.11424E-05
        -0.39361E-05
        -0.32852E-04
        -0.13431E-03
        -0.98156E-04
        -0.94834E-05
        -0.38493E-04
        -0.86569E-05
        -0.35818E-04
        -0.99586E-06
        -0.20702E-04
        -0.21690E-03
        -0.12062E-03
        -0.13402E-03
        -0.98916E-04
        -0.31269E-04
        -0.10225E-04
        -0.48301E-05
        -0.14580E-04
        -0.52894E-03
        -0.48025E-03
        -0.46844E-03
        -0.27430E-04
        -0.92860E-05
        -0.41643E-05
        -0.11830E-03
        -0.14616E-05
        -0.14938E-04
        -0.24840E-04
        -0.58795E-04
        -0.23937E-04
        -0.22218E-04
        -0.18021E-04
        -0.43870E-03
        -0.13146E-03
        -0.17331E-03
        -0.17123E-03
        -0.55046E-05
        -0.41516E-04
        -0.53578E-03
        -0.56685E-03
        -0.53693E-03
        -0.27952E-03
        -0.16491E-03
        -0.56326E-04
        -0.66115E-04
        -0.93037E-04
        -0.13934E-05
        -0.22222E-05
        -0.24354E-03
        -0.18603E-03
        -0.75447E-02
        -0.76739E-02
        -0.62016E-02
        -0.42263E-02
        -0.23396E-02
        -0.49626E-03
        -0.31386E-04
        -0.32659E-03
        -0.55211E-03
        -0.18700E-02
        -0.59251E-02
        -0.82748E-02
        -0.58109E-02
        -0.52613E-02
        -0.64072E-02
        -0.68108E-02
        -0.56665E-02
        -0.50669E-02
        -0.13044E-02
        -0.89193E-04
        -0.42745E-03
        -0.44166E-03
        -0.13876E-02
        -0.41686E-02
        -0.68433E-02
        -0.68065E-02
        -0.25961E-04
        -0.11539E-05
        -0.39448E-05
        -0.32890E-04
        -0.13406E-03
        -0.97979E-04
        -0.96006E-05
        -0.38281E-04
        -0.86711E-05
        -0.35742E-04
        -0.94699E-06
        -0.20803E-04
        -0.21717E-03
        -0.12001E-03
        -0.13387E-03
        -0.99161E-04
        -0.31410E-04
        -0.10166E-04
        -0.48259E-05
        -0.14532E-04
        -0.52892E-03
        -0.48022E-03
        -0.46853E-03
        -0.27438E-04
        -0.93348E-05
        -0.41817E-05
        -0.11835E-03
        -0.14005E-05
        -0.15140E-04
        -0.24878E-04
        -0.58977E-04
        -0.23933E-04
        -0.22015E-04
        -0.18029E-04
        -0.43918E-03
        -0.13136E-03
        -0.17323E-03
        -0.17176E-03
        -0.56029E-05
        -0.41777E-04
        -0.53652E-03
        -0.56764E-03
        -0.53719E-03
        -0.27951E-03
        -0.16481E-03
        -0.56286E-04
        -0.66080E-04
        -0.93096E-04
        -0.13676E-05
        -0.22124E-05
        -0.24330E-03
        -0.18550E-03
        -0.75394E-02
        -0.76699E-02
        -0.62004E-02
        -0.42262E-02
        -0.23381E-02
        -0.49596E-03
        -0.31453E-04
        -0.32699E-03
        -0.55118E-03
        -0.18685E-02
        -0.59232E-02
        -0.82755E-02
        -0.58104E-02
        -0.52609E-02
        -0.64092E-02
        -0.68149E-02
        -0.56691E-02
        -0.50686E-02
        -0.13036E-02
        -0.89247E-04
        -0.42677E-03
        -0.44132E-03
        -0.13856E-02
        -0.41635E-02
        -0.68366E-02
        -0.68004E-02
        -0.26042E-04
        -0.11655E-05
        -0.39530E-05
        -0.32930E-04
        -0.13381E-03
        -0.97797E-04
        -0.97194E-05
        -0.38069E-04
        -0.86851E-05
        -0.35667E-04
        -0.89948E-06
        -0.20903E-04
        -0.21744E-03
        -0.11941E-03
        -0.13371E-03
        -0.99406E-04
        -0.31550E-04
        -0.10106E-04
        -0.48210E-05
        -0.14485E-04
        -0.52890E-03
        -0.48019E-03
        -0.46861E-03
        -0.27446E-04
        -0.93834E-05
        -0.41996E-05
        -0.11841E-03
        -0.13411E-05
        -0.15342E-04
        -0.24919E-04
        -0.59160E-04
        -0.23930E-04
        -0.21812E-04
        -0.18038E-04
        -0.43967E-03
        -0.13128E-03
        -0.17314E-03
        -0.17229E-03
        -0.57023E-05
        -0.42043E-04
        -0.53726E-03
        -0.56843E-03
        -0.53745E-03
        -0.27951E-03
        -0.16472E-03
        -0.56245E-04
        -0.66046E-04
        -0.93157E-04
        -0.13421E-05
        -0.22031E-05
        -0.24304E-03
        -0.18497E-03
        -0.75342E-02
        -0.76661E-02
        -0.61992E-02
        -0.42262E-02
        -0.23367E-02
        -0.49566E-03
        -0.31520E-04
        -0.32738E-03
        -0.55025E-03
        -0.18670E-02
        -0.59213E-02
        -0.82761E-02
        -0.58100E-02
        -0.52606E-02
        -0.64113E-02
        -0.68191E-02
        -0.56716E-02
        -0.50704E-02
        -0.13029E-02
        -0.89302E-04
        -0.42610E-03
        -0.44098E-03
        -0.13836E-02
        -0.41585E-02
        -0.68298E-02
        -0.67943E-02
        -0.26123E-04
        -0.11773E-05
        -0.39611E-05
        -0.32968E-04
        -0.13356E-03
        -0.97615E-04
        -0.98385E-05
        -0.37859E-04
        -0.86988E-05
        -0.35590E-04
        -0.85332E-06
        -0.21003E-04
        -0.21771E-03
        -0.11881E-03
        -0.13356E-03
        -0.99651E-04
        -0.31691E-04
        -0.10047E-04
        -0.48162E-05
        -0.14437E-04
        -0.52888E-03
        -0.48016E-03
        -0.46869E-03
        -0.27454E-04
        -0.94315E-05
        -0.42171E-05
        -0.11846E-03
        -0.12828E-05
        -0.15547E-04
        -0.24957E-04
        -0.59343E-04
        -0.23926E-04
        -0.21610E-04
        -0.18047E-04
        -0.44014E-03
        -0.13119E-03
        -0.17306E-03
        -0.17282E-03
        -0.58028E-05
        -0.42307E-04
        -0.53801E-03
        -0.56921E-03
        -0.53771E-03
        -0.27951E-03
        -0.16463E-03
        -0.56197E-04
        -0.66012E-04
        -0.93216E-04
        -0.13168E-05
        -0.21932E-05
        -0.24278E-03
        -0.18443E-03
        -0.75290E-02
        -0.76622E-02
        -0.61980E-02
        -0.42263E-02
        -0.23352E-02
        -0.49536E-03
        -0.31589E-04
        -0.32777E-03
        -0.54931E-03
        -0.18655E-02
        -0.59193E-02
        -0.82768E-02
        -0.58095E-02
        -0.52602E-02
        -0.64134E-02
        -0.68232E-02
        -0.56742E-02
        -0.50721E-02
        -0.13021E-02
        -0.89356E-04
        -0.42543E-03
        -0.44064E-03
        -0.13816E-02
        -0.41534E-02
        -0.68231E-02
        -0.67883E-02
        -0.26205E-04
        -0.11889E-05
        -0.39693E-05
        -0.33007E-04
        -0.13331E-03
        -0.97433E-04
        -0.99570E-05
        -0.37649E-04
        -0.87127E-05
        -0.35513E-04
        -0.80845E-06
        -0.21102E-04
        -0.21799E-03
        -0.11821E-03
        -0.13341E-03
        -0.99896E-04
        -0.31832E-04
        -0.99885E-05
        -0.48123E-05
        -0.14390E-04
        -0.52886E-03
        -0.48013E-03
        -0.46878E-03
        -0.27462E-04
        -0.94798E-05
        -0.42347E-05
        -0.11851E-03
        -0.12261E-05
        -0.15754E-04
        -0.24995E-04
        -0.59525E-04
        -0.23923E-04
        -0.21409E-04
        -0.18055E-04
        -0.44063E-03
        -0.13110E-03
        -0.17298E-03
        -0.17335E-03
        -0.59042E-05
        -0.42575E-04
        -0.53875E-03
        -0.57000E-03
        -0.53796E-03
        -0.27951E-03
        -0.16453E-03
        -0.56156E-04
        -0.65976E-04
        -0.93274E-04
        -0.12917E-05
        -0.21835E-05
        -0.24253E-03
        -0.18390E-03
        -0.75238E-02
        -0.76583E-02
        -0.61968E-02
        -0.42263E-02
        -0.23338E-02
        -0.49505E-03
        -0.31657E-04
        -0.32815E-03
        -0.54837E-03
        -0.18640E-02
        -0.59174E-02
        -0.82775E-02
        -0.58090E-02
        -0.52599E-02
        -0.64154E-02
        -0.68274E-02
        -0.56768E-02
        -0.50739E-02
        -0.13014E-02
        -0.89408E-04
        -0.42476E-03
        -0.44031E-03
        -0.13797E-02
        -0.41484E-02
        -0.68164E-02
        -0.67822E-02
        -0.26286E-04
        -0.12005E-05
        -0.39775E-05
        -0.33046E-04
        -0.13306E-03
        -0.97251E-04
        -0.10077E-04
        -0.37439E-04
        -0.87266E-05
        -0.35437E-04
        -0.76481E-06
        -0.21205E-04
        -0.21826E-03
        -0.11762E-03
        -0.13325E-03
        -0.10014E-03
        -0.31973E-04
        -0.99301E-05
        -0.48074E-05
        -0.14342E-04
        -0.52885E-03
        -0.48010E-03
        -0.46885E-03
        -0.27470E-04
        -0.95279E-05
        -0.42522E-05
        -0.11857E-03
        -0.11708E-05
        -0.15961E-04
        -0.25033E-04
        -0.59707E-04
        -0.23919E-04
        -0.21208E-04
        -0.18064E-04
        -0.44110E-03
        -0.13102E-03
        -0.17290E-03
        -0.17387E-03
        -0.60066E-05
        -0.42842E-04
        -0.53949E-03
        -0.57079E-03
        -0.53822E-03
        -0.27951E-03
        -0.16443E-03
        -0.56115E-04
        -0.65941E-04
        -0.93334E-04
        -0.12665E-05
        -0.21740E-05
        -0.24228E-03
        -0.18336E-03
        -0.75186E-02
        -0.76544E-02
        -0.61956E-02
        -0.42263E-02
        -0.23323E-02
        -0.49474E-03
        -0.31724E-04
        -0.32852E-03
        -0.54745E-03
        -0.18625E-02
        -0.59155E-02
        -0.82782E-02
        -0.58086E-02
        -0.52595E-02
        -0.64175E-02
        -0.68316E-02
        -0.56794E-02
        -0.50756E-02
        -0.13006E-02
        -0.89460E-04
        -0.42409E-03
        -0.43997E-03
        -0.13777E-02
        -0.41433E-02
        -0.68097E-02
        -0.67762E-02
        -0.26368E-04
        -0.12125E-05
        -0.39857E-05
        -0.33084E-04
        -0.13281E-03
        -0.97076E-04
        -0.10198E-04
        -0.37229E-04
        -0.87405E-05
        -0.35361E-04
        -0.72236E-06
        -0.21306E-04
        -0.21853E-03
        -0.11703E-03
        -0.13310E-03
        -0.10039E-03
        -0.32114E-04
        -0.98724E-05
        -0.48027E-05
        -0.14295E-04
        -0.52883E-03
        -0.48007E-03
        -0.46894E-03
        -0.27478E-04
        -0.95753E-05
        -0.42699E-05
        -0.11862E-03
        -0.11167E-05
        -0.16169E-04
        -0.25071E-04
        -0.59889E-04
        -0.23915E-04
        -0.21009E-04
        -0.18073E-04
        -0.44159E-03
        -0.13094E-03
        -0.17282E-03
        -0.17439E-03
        -0.61104E-05
        -0.43109E-04
        -0.54022E-03
        -0.57158E-03
        -0.53847E-03
        -0.27950E-03
        -0.16434E-03
        -0.56069E-04
        -0.65907E-04
        -0.93393E-04
        -0.12418E-05
        -0.21642E-05
        -0.24203E-03
        -0.18283E-03
        -0.75134E-02
        -0.76505E-02
        -0.61945E-02
        -0.42263E-02
        -0.23309E-02
        -0.49443E-03
        -0.31789E-04
        -0.32890E-03
        -0.54652E-03
        -0.18610E-02
        -0.59136E-02
        -0.82789E-02
        -0.58081E-02
        -0.52592E-02
        -0.64196E-02
        -0.68358E-02
        -0.56820E-02
        -0.50773E-02
        -0.12998E-02
        -0.89512E-04
        -0.42341E-03
        -0.43964E-03
        -0.13757E-02
        -0.41383E-02
        -0.68029E-02
        -0.67701E-02
        -0.26450E-04
        -0.12243E-05
        -0.39941E-05
        -0.33123E-04
        -0.13257E-03
        -0.96894E-04
        -0.10319E-04
        -0.37021E-04
        -0.87538E-05
        -0.35282E-04
        -0.68116E-06
        -0.21407E-04
        -0.21880E-03
        -0.11643E-03
        -0.13294E-03
        -0.10064E-03
        -0.32256E-04
        -0.98149E-05
        -0.47982E-05
        -0.14247E-04
        -0.52882E-03
        -0.48003E-03
        -0.46901E-03
        -0.27487E-04
        -0.96218E-05
        -0.42874E-05
        -0.11867E-03
        -0.10635E-05
        -0.16377E-04
        -0.25109E-04
        -0.60074E-04
        -0.23912E-04
        -0.20811E-04
        -0.18082E-04
        -0.44208E-03
        -0.13085E-03
        -0.17274E-03
        -0.17491E-03
        -0.62162E-05
        -0.43380E-04
        -0.54094E-03
        -0.57236E-03
        -0.53872E-03
        -0.27950E-03
        -0.16424E-03
        -0.56028E-04
        -0.65873E-04
        -0.93454E-04
        -0.12174E-05
        -0.21544E-05
        -0.24177E-03
        -0.18230E-03
        -0.75082E-02
        -0.76467E-02
        -0.61933E-02
        -0.42263E-02
        -0.23294E-02
        -0.49413E-03
        -0.31853E-04
        -0.32928E-03
        -0.54560E-03
        -0.18595E-02
        -0.59117E-02
        -0.82797E-02
        -0.58077E-02
        -0.52588E-02
        -0.64216E-02
        -0.68399E-02
        -0.56845E-02
        -0.50790E-02
        -0.12991E-02
        -0.89564E-04
        -0.42274E-03
        -0.43929E-03
        -0.13737E-02
        -0.41333E-02
        -0.67962E-02
        -0.67641E-02
        -0.26532E-04
        -0.12362E-05
        -0.40020E-05
        -0.33161E-04
        -0.13232E-03
        -0.96714E-04
        -0.10440E-04
        -0.36813E-04
        -0.87659E-05
        -0.35194E-04
        -0.64121E-06
        -0.21509E-04
        -0.21907E-03
        -0.11584E-03
        -0.13278E-03
        -0.10088E-03
        -0.32397E-04
        -0.97570E-05
        -0.47950E-05
        -0.14202E-04
        -0.52880E-03
        -0.48000E-03
        -0.46911E-03
        -0.27495E-04
        -0.96655E-05
        -0.43057E-05
        -0.11869E-03
        -0.10103E-05
        -0.16587E-04
        -0.25149E-04
        -0.60258E-04
        -0.23908E-04
        -0.20613E-04
        -0.18091E-04
        -0.44255E-03
        -0.13077E-03
        -0.17266E-03
        -0.17542E-03
        -0.63259E-05
        -0.43647E-04
        -0.54161E-03
        -0.57307E-03
        -0.53894E-03
        -0.27950E-03
        -0.16414E-03
        -0.55983E-04
        -0.65839E-04
        -0.93515E-04
        -0.11934E-05
        -0.21448E-05
        -0.24153E-03
        -0.18177E-03
        -0.75030E-02
        -0.76429E-02
        -0.61920E-02
        -0.42263E-02
        -0.23280E-02
        -0.49383E-03
        -0.31919E-04
        -0.32967E-03
        -0.54469E-03
        -0.18580E-02
        -0.59097E-02
        -0.82810E-02
        -0.58076E-02
        -0.52585E-02
        -0.64236E-02
        -0.68440E-02
        -0.56871E-02
        -0.50808E-02
        -0.12983E-02
        -0.89616E-04
        -0.42208E-03
        -0.43895E-03
        -0.13718E-02
        -0.41283E-02
        -0.67895E-02
        -0.67581E-02
        -0.26614E-04
        -0.12480E-05
        -0.40100E-05
        -0.33199E-04
        -0.13207E-03
        -0.96533E-04
        -0.10563E-04
        -0.36605E-04
        -0.87767E-05
        -0.35098E-04
        -0.60258E-06
        -0.21611E-04
        -0.21935E-03
        -0.11524E-03
        -0.13262E-03
        -0.10113E-03
        -0.32537E-04
        -0.96995E-05
        -0.47906E-05
        -0.14155E-04
        -0.52879E-03
        -0.47995E-03
        -0.46919E-03
        -0.27504E-04
        -0.97058E-05
        -0.43232E-05
        -0.11870E-03
        -0.95688E-06
        -0.16799E-04
        -0.25188E-04
        -0.60442E-04
        -0.23904E-04
        -0.20416E-04
        -0.18100E-04
        -0.44304E-03
        -0.13068E-03
        -0.17258E-03
        -0.17592E-03
        -0.64394E-05
        -0.43916E-04
        -0.54223E-03
        -0.57372E-03
        -0.53913E-03
        -0.27950E-03
        -0.16405E-03
        -0.55942E-04
        -0.65804E-04
        -0.93575E-04
        -0.11693E-05
        -0.21352E-05
        -0.24126E-03
        -0.18123E-03
        -0.74977E-02
        -0.76390E-02
        -0.61908E-02
        -0.42263E-02
        -0.23266E-02
        -0.49353E-03
        -0.31983E-04
        -0.33004E-03
        -0.54379E-03
        -0.18564E-02
        -0.59076E-02
        -0.82826E-02
        -0.58076E-02
        -0.52582E-02
        -0.64257E-02
        -0.68482E-02
        -0.56897E-02
        -0.50824E-02
        -0.12975E-02
        -0.89667E-04
        -0.42141E-03
        -0.43861E-03
        -0.13698E-02
        -0.41232E-02
        -0.67828E-02
        -0.67520E-02
        -0.26696E-04
        -0.12600E-05
        -0.40183E-05
        -0.33238E-04
        -0.13183E-03
        -0.96359E-04
        -0.10685E-04
        -0.36399E-04
        -0.87868E-05
        -0.35000E-04
        -0.56541E-06
        -0.21712E-04
        -0.21962E-03
        -0.11465E-03
        -0.13245E-03
        -0.10137E-03
        -0.32677E-04
        -0.96427E-05
        -0.47860E-05
        -0.14109E-04
        -0.52876E-03
        -0.47990E-03
        -0.46926E-03
        -0.27512E-04
        -0.97449E-05
        -0.43408E-05
        -0.11871E-03
        -0.90475E-06
        -0.17010E-04
        -0.25226E-04
        -0.60626E-04
        -0.23900E-04
        -0.20222E-04
        -0.18110E-04
        -0.44354E-03
        -0.13060E-03
        -0.17250E-03
        -0.17642E-03
        -0.65553E-05
        -0.44178E-04
        -0.54281E-03
        -0.57435E-03
        -0.53931E-03
        -0.27950E-03
        -0.16395E-03
        -0.55900E-04
        -0.65772E-04
        -0.93639E-04
        -0.11457E-05
        -0.21253E-05
        -0.24102E-03
        -0.18071E-03
        -0.74925E-02
        -0.76352E-02
        -0.61897E-02
        -0.42263E-02
        -0.23251E-02
        -0.49321E-03
        -0.32047E-04
        -0.33040E-03
        -0.54289E-03
        -0.18548E-02
        -0.59056E-02
        -0.82844E-02
        -0.58077E-02
        -0.52579E-02
        -0.64277E-02
        -0.68524E-02
        -0.56923E-02
        -0.50842E-02
        -0.12968E-02
        -0.89724E-04
        -0.42076E-03
        -0.43828E-03
        -0.13679E-02
        -0.41183E-02
        -0.67761E-02
        -0.67460E-02
        -0.27056E-04
        -0.12830E-05
        -0.40698E-05
        -0.33613E-04
        -0.13298E-03
        -0.97200E-04
        -0.10909E-04
        -0.36611E-04
        -0.88863E-05
        -0.35299E-04
        -0.53999E-06
        -0.22035E-04
        -0.22225E-03
        -0.11539E-03
        -0.13386E-03
        -0.10264E-03
        -0.33154E-04
        -0.96873E-05
        -0.48296E-05
        -0.14208E-04
        -0.53423E-03
        -0.48494E-03
        -0.47412E-03
        -0.27803E-04
        -0.98860E-05
        -0.44013E-05
        -0.12008E-03
        -0.86691E-06
        -0.17396E-04
        -0.25535E-04
        -0.61425E-04
        -0.24141E-04
        -0.20250E-04
        -0.18309E-04
        -0.44886E-03
        -0.13192E-03
        -0.17425E-03
        -0.17894E-03
        -0.67375E-05
        -0.44921E-04
        -0.54955E-03
        -0.58137E-03
        -0.54534E-03
        -0.28233E-03
        -0.16556E-03
        -0.56453E-04
        -0.66449E-04
        -0.94705E-04
        -0.11368E-05
        -0.21378E-05
        -0.24340E-03
        -0.18212E-03
        -0.75889E-02
        -0.77325E-02
        -0.62720E-02
        -0.42820E-02
        -0.23550E-02
        -0.49964E-03
        -0.32581E-04
        -0.33532E-03
        -0.54969E-03
        -0.18799E-02
        -0.59871E-02
        -0.83978E-02
        -0.58803E-02
        -0.53208E-02
        -0.65065E-02
        -0.69383E-02
        -0.57633E-02
        -0.51508E-02
        -0.13136E-02
        -0.91039E-04
        -0.42565E-03
        -0.44345E-03
        -0.13837E-02
        -0.41664E-02
        -0.68556E-02
        -0.68254E-02
        -0.61630E-04
        -0.29654E-05
        -0.92413E-05
        -0.76708E-04
        -0.28143E-03
        -0.20932E-03
        -0.25126E-04
        -0.82561E-04
        -0.20104E-04
        -0.79334E-04
        -0.11642E-05
        -0.45302E-04
        -0.46923E-03
        -0.25341E-03
        -0.27809E-03
        -0.23395E-03
        -0.75305E-04
        -0.21998E-04
        -0.10729E-04
        -0.31745E-04
        -0.11234E-02
        -0.10468E-02
        -0.10015E-02
        -0.62694E-04
        -0.22678E-04
        -0.10095E-04
        -0.26838E-03
        -0.19229E-05
        -0.40479E-04
        -0.58476E-04
        -0.14018E-03
        -0.54813E-04
        -0.46002E-04
        -0.41840E-04
        -0.91815E-03
        -0.28430E-03
        -0.37591E-03
        -0.38907E-03
        -0.15156E-04
        -0.10118E-03
        -0.12021E-02
        -0.12884E-02
        -0.12047E-02
        -0.60461E-03
        -0.35253E-03
        -0.11380E-03
        -0.14068E-03
        -0.20560E-03
        -0.24576E-05
        -0.46322E-05
        -0.50398E-03
        -0.39011E-03
        -0.12405E-01
        -0.12582E-01
        -0.10225E-01
        -0.70119E-02
        -0.38545E-02
        -0.82327E-03
        -0.55130E-04
        -0.57560E-03
        -0.93906E-03
        -0.31789E-02
        -0.10139E-01
        -0.14132E-01
        -0.10069E-01
        -0.91475E-02
        -0.10903E-01
        -0.11369E-01
        -0.93892E-02
        -0.83265E-02
        -0.21261E-02
        -0.14798E-03
        -0.70284E-03
        -0.73779E-03
        -0.22883E-02
        -0.69371E-02
        -0.11339E-01
        -0.11207E-01
  
SCALARS                      strain_yy  double 1
LOOKUP_TABLE default
         0.98799E-03
         0.10496E-03
         0.72681E-03
         0.20133E-03
        -0.56135E-19
        -0.42644E-20
        -0.86216E-19
        -0.50157E-19
         0.99070E-02
         0.43534E-02
        -0.19094E-18
        -0.14799E-18
         0.72125E-02
         0.18609E-04
        -0.97795E-19
        -0.40199E-21
         0.96616E-03
         0.11853E-01
        -0.21168E-22
        -0.22162E-20
         0.30454E-02
         0.41519E-01
         0.47582E-01
        -0.51389E-18
        -0.15327E-17
        -0.10708E-17
         0.40441E-03
         0.40448E-01
        -0.26590E-18
        -0.10007E-17
         0.12591E-02
         0.90703E-03
         0.72599E-03
        -0.71462E-19
        -0.74471E-19
        -0.32098E-22
         0.10780E-01
         0.93467E-02
        -0.24199E-18
        -0.14649E-18
         0.10134E-01
         0.38901E-02
        -0.13821E-18
        -0.11543E-18
         0.87129E-02
         0.10569E-02
        -0.15209E-21
        -0.36388E-19
         0.65254E-02
        -0.80663E-20
         0.74168E-04
        -0.52914E-22
         0.21221E-04
        -0.12069E-18
         0.91604E-03
        -0.40842E-19
         0.97372E-02
         0.32666E-03
        -0.30059E-22
        -0.12383E-21
         0.18497E-02
         0.24111E-01
        -0.55801E-20
        -0.78072E-19
         0.68305E-03
        -0.22736E-19
         0.12285E-01
        -0.33742E-19
         0.75536E-02
         0.21126E-02
        -0.51532E-21
        -0.89837E-19
         0.25473E-01
        -0.43318E-18
         0.63861E-01
        -0.40610E-18
         0.64369E-01
        -0.23401E-18
         0.43837E-01
        -0.16440E-18
         0.96549E-01
         0.58672E-01
        -0.67656E-19
        -0.33258E-20
         0.12153E-02
        -0.41641E-22
         0.21241E-01
        -0.16341E-18
         0.11559E+00
        -0.50079E-18
         0.22040E+00
         0.84119E-01
        -0.11017E-17
        -0.72174E-18
         0.42259E-01
        -0.43491E-18
         0.34353E-01
        -0.45520E-18
         0.32210E-01
        -0.52625E-18
         0.88616E-01
         0.61899E-01
        -0.45510E-18
        -0.10449E-18
         0.37426E-01
         0.54701E-02
        -0.56267E-19
        -0.86891E-19
         0.22405E+00
        -0.62272E-18
         0.46990E+00
        -0.13324E-17
         0.68657E+00
        -0.20322E-17
         0.88649E+00
        -0.19996E-17
         0.11507E+01
        -0.12522E-17
         0.11578E+01
        -0.74995E-18
         0.10228E+01
        -0.64876E-18
         0.81129E+00
        -0.58726E-18
         0.45000E+00
        -0.23985E-18
         0.21991E+00
        -0.26144E-19
         0.59755E-01
        -0.10916E-19
         0.32463E-03
        -0.24662E-19
         0.59825E-01
        -0.65787E-20
         0.19833E+00
        -0.60167E-19
         0.47348E+00
        -0.47937E-18
         0.56222E+00
        -0.11689E-17
         0.64374E+00
        -0.20089E-17
         0.10251E+01
        -0.20054E-17
         0.11251E+01
        -0.15283E-17
         0.97676E+00
        -0.14516E-17
         0.63515E+00
        -0.14697E-17
         0.29512E+00
        -0.91905E-18
         0.14998E+00
        -0.32138E-18
         0.78950E-01
        -0.19214E-18
        -0.16310E-04
        -0.40830E-05
        -0.31405E-05
        -0.32942E-06
        -0.30459E-05
        -0.37572E-05
        -0.37429E-07
        -0.93782E-05
        -0.77432E-05
        -0.15549E-04
        -0.35722E-05
        -0.63670E-04
        -0.31438E-04
        -0.42433E-06
        -0.66567E-04
        -0.11712E-05
        -0.90546E-06
        -0.39132E-06
        -0.58877E-06
        -0.34466E-06
        -0.28074E-06
        -0.19536E-06
        -0.21118E-05
        -0.15170E-07
        -0.72678E-05
        -0.15838E-06
        -0.39495E-09
        -0.12156E-06
        -0.16903E-06
        -0.42887E-05
        -0.11076E-05
        -0.11983E-05
        -0.58540E-06
        -0.32897E-07
        -0.71575E-07
        -0.22735E-05
        -0.11843E-04
        -0.53101E-04
        -0.44084E-04
        -0.29282E-04
        -0.24563E-04
        -0.17275E-05
        -0.12924E-05
        -0.95834E-05
        -0.24728E-04
        -0.59265E-04
        -0.27978E-04
        -0.15750E-04
        -0.17821E-04
        -0.18760E-04
        -0.23913E-04
        -0.55300E-05
        -0.13962E-04
        -0.22587E-04
        -0.16280E-03
        -0.31880E-03
        -0.51505E-03
        -0.68502E-03
        -0.64936E-03
        -0.52034E-03
        -0.47542E-03
        -0.42201E-03
        -0.17111E-03
        -0.38915E-04
        -0.79636E-05
        -0.15801E-05
        -0.38400E-05
        -0.61610E-04
        -0.20793E-03
        -0.33883E-03
        -0.42180E-03
        -0.57788E-03
        -0.54227E-03
        -0.48411E-03
        -0.41502E-03
        -0.19004E-03
        -0.70229E-04
        -0.55697E-04
        -0.21754E-03
        -0.86538E-04
        -0.74104E-04
        -0.41691E-05
        -0.12501E-03
        -0.25286E-04
        -0.15900E-04
        -0.19432E-03
        -0.83569E-04
        -0.17189E-03
        -0.48048E-04
        -0.89993E-03
        -0.31586E-03
        -0.65229E-05
        -0.87354E-03
        -0.31287E-04
        -0.28733E-05
        -0.26190E-05
        -0.53205E-04
        -0.19888E-05
        -0.39525E-04
        -0.19924E-04
        -0.66966E-05
        -0.47709E-05
        -0.77948E-04
        -0.47689E-05
        -0.30028E-06
        -0.10377E-05
        -0.26478E-05
        -0.77565E-04
        -0.36339E-04
        -0.25215E-05
        -0.15181E-04
        -0.11446E-04
        -0.26021E-05
        -0.24179E-04
        -0.88142E-04
        -0.50456E-03
        -0.39238E-03
        -0.30475E-03
        -0.16447E-03
        -0.10042E-04
        -0.42606E-04
        -0.66478E-04
        -0.11023E-03
        -0.45996E-03
        -0.15574E-03
        -0.68106E-04
        -0.10758E-03
        -0.14993E-03
        -0.16097E-03
        -0.90621E-06
        -0.25000E-03
        -0.51153E-03
        -0.27700E-02
        -0.46263E-02
        -0.77056E-02
        -0.11094E-01
        -0.10645E-01
        -0.81202E-02
        -0.74579E-02
        -0.72997E-02
        -0.28786E-02
        -0.31271E-03
        -0.49661E-04
        -0.36464E-04
        -0.78210E-05
        -0.56277E-03
        -0.22585E-02
        -0.43741E-02
        -0.74094E-02
        -0.91101E-02
        -0.70261E-02
        -0.62805E-02
        -0.62423E-02
        -0.30948E-02
        -0.83514E-03
        -0.74877E-03
        -0.21781E-03
        -0.86569E-04
        -0.74177E-04
        -0.42305E-05
        -0.12503E-03
        -0.25326E-04
        -0.15940E-04
        -0.19498E-03
        -0.83868E-04
        -0.17318E-03
        -0.48106E-04
        -0.89977E-03
        -0.31602E-03
        -0.65232E-05
        -0.87577E-03
        -0.31290E-04
        -0.29258E-05
        -0.26111E-05
        -0.53277E-04
        -0.19666E-05
        -0.39721E-04
        -0.19963E-04
        -0.66998E-05
        -0.47664E-05
        -0.78657E-04
        -0.47516E-05
        -0.30740E-06
        -0.10494E-05
        -0.26130E-05
        -0.77893E-04
        -0.36351E-04
        -0.25105E-05
        -0.15249E-04
        -0.11483E-04
        -0.25534E-05
        -0.24211E-04
        -0.88135E-04
        -0.50612E-03
        -0.39408E-03
        -0.30545E-03
        -0.16472E-03
        -0.99883E-05
        -0.42693E-04
        -0.66546E-04
        -0.11024E-03
        -0.45997E-03
        -0.15577E-03
        -0.68025E-04
        -0.10729E-03
        -0.14953E-03
        -0.16083E-03
        -0.87897E-06
        -0.24954E-03
        -0.51159E-03
        -0.27710E-02
        -0.46263E-02
        -0.77037E-02
        -0.11087E-01
        -0.10636E-01
        -0.81152E-02
        -0.74547E-02
        -0.72957E-02
        -0.28774E-02
        -0.31300E-03
        -0.49653E-04
        -0.36614E-04
        -0.76941E-05
        -0.56337E-03
        -0.22606E-02
        -0.43761E-02
        -0.74091E-02
        -0.91090E-02
        -0.70251E-02
        -0.62799E-02
        -0.62391E-02
        -0.30904E-02
        -0.83330E-03
        -0.74679E-03
        -0.21809E-03
        -0.86603E-04
        -0.74252E-04
        -0.42930E-05
        -0.12506E-03
        -0.25368E-04
        -0.15980E-04
        -0.19563E-03
        -0.84171E-04
        -0.17446E-03
        -0.48163E-04
        -0.89961E-03
        -0.31618E-03
        -0.65219E-05
        -0.87799E-03
        -0.31294E-04
        -0.29794E-05
        -0.26032E-05
        -0.53351E-04
        -0.19442E-05
        -0.39919E-04
        -0.20000E-04
        -0.67049E-05
        -0.47605E-05
        -0.79359E-04
        -0.47319E-05
        -0.31510E-06
        -0.10618E-05
        -0.25752E-05
        -0.78211E-04
        -0.36363E-04
        -0.24972E-05
        -0.15317E-04
        -0.11520E-04
        -0.25050E-05
        -0.24244E-04
        -0.88122E-04
        -0.50768E-03
        -0.39578E-03
        -0.30616E-03
        -0.16499E-03
        -0.99289E-05
        -0.42776E-04
        -0.66632E-04
        -0.11026E-03
        -0.45999E-03
        -0.15580E-03
        -0.67940E-04
        -0.10701E-03
        -0.14913E-03
        -0.16070E-03
        -0.85226E-06
        -0.24907E-03
        -0.51165E-03
        -0.27721E-02
        -0.46264E-02
        -0.77019E-02
        -0.11080E-01
        -0.10628E-01
        -0.81104E-02
        -0.74516E-02
        -0.72917E-02
        -0.28762E-02
        -0.31331E-03
        -0.49648E-04
        -0.36765E-04
        -0.75675E-05
        -0.56398E-03
        -0.22627E-02
        -0.43782E-02
        -0.74088E-02
        -0.91078E-02
        -0.70241E-02
        -0.62794E-02
        -0.62360E-02
        -0.30860E-02
        -0.83147E-03
        -0.74483E-03
        -0.21836E-03
        -0.86634E-04
        -0.74327E-04
        -0.43563E-05
        -0.12509E-03
        -0.25409E-04
        -0.16022E-04
        -0.19629E-03
        -0.84475E-04
        -0.17574E-03
        -0.48220E-04
        -0.89946E-03
        -0.31635E-03
        -0.65222E-05
        -0.88024E-03
        -0.31299E-04
        -0.30344E-05
        -0.25951E-05
        -0.53430E-04
        -0.19207E-05
        -0.40122E-04
        -0.20034E-04
        -0.67164E-05
        -0.47511E-05
        -0.80042E-04
        -0.47060E-05
        -0.32315E-06
        -0.10784E-05
        -0.25288E-05
        -0.78499E-04
        -0.36368E-04
        -0.24792E-05
        -0.15384E-04
        -0.11557E-04
        -0.24572E-05
        -0.24275E-04
        -0.88111E-04
        -0.50926E-03
        -0.39752E-03
        -0.30693E-03
        -0.16529E-03
        -0.98534E-05
        -0.42843E-04
        -0.66763E-04
        -0.11033E-03
        -0.46004E-03
        -0.15586E-03
        -0.67858E-04
        -0.10673E-03
        -0.14873E-03
        -0.16055E-03
        -0.82602E-06
        -0.24861E-03
        -0.51171E-03
        -0.27731E-02
        -0.46265E-02
        -0.77000E-02
        -0.11072E-01
        -0.10619E-01
        -0.81055E-02
        -0.74485E-02
        -0.72877E-02
        -0.28752E-02
        -0.31368E-03
        -0.49649E-04
        -0.36913E-04
        -0.74411E-05
        -0.56464E-03
        -0.22651E-02
        -0.43806E-02
        -0.74087E-02
        -0.91067E-02
        -0.70231E-02
        -0.62789E-02
        -0.62328E-02
        -0.30816E-02
        -0.82965E-03
        -0.74287E-03
        -0.21863E-03
        -0.86666E-04
        -0.74402E-04
        -0.44196E-05
        -0.12512E-03
        -0.25449E-04
        -0.16061E-04
        -0.19694E-03
        -0.84779E-04
        -0.17700E-03
        -0.48279E-04
        -0.89931E-03
        -0.31651E-03
        -0.65230E-05
        -0.88248E-03
        -0.31305E-04
        -0.30907E-05
        -0.25870E-05
        -0.53511E-04
        -0.18960E-05
        -0.40328E-04
        -0.20064E-04
        -0.67341E-05
        -0.47378E-05
        -0.80701E-04
        -0.46736E-05
        -0.33224E-06
        -0.10989E-05
        -0.24736E-05
        -0.78757E-04
        -0.36368E-04
        -0.24559E-05
        -0.15451E-04
        -0.11595E-04
        -0.24095E-05
        -0.24307E-04
        -0.88103E-04
        -0.51084E-03
        -0.39929E-03
        -0.30774E-03
        -0.16565E-03
        -0.97614E-05
        -0.42895E-04
        -0.66941E-04
        -0.11044E-03
        -0.46015E-03
        -0.15592E-03
        -0.67785E-04
        -0.10645E-03
        -0.14832E-03
        -0.16042E-03
        -0.80004E-06
        -0.24814E-03
        -0.51177E-03
        -0.27741E-02
        -0.46266E-02
        -0.76981E-02
        -0.11064E-01
        -0.10610E-01
        -0.81006E-02
        -0.74454E-02
        -0.72836E-02
        -0.28742E-02
        -0.31412E-03
        -0.49659E-04
        -0.37059E-04
        -0.73154E-05
        -0.56536E-03
        -0.22679E-02
        -0.43833E-02
        -0.74085E-02
        -0.91056E-02
        -0.70222E-02
        -0.62784E-02
        -0.62296E-02
        -0.30772E-02
        -0.82783E-03
        -0.74091E-03
        -0.21889E-03
        -0.86686E-04
        -0.74475E-04
        -0.44842E-05
        -0.12515E-03
        -0.25489E-04
        -0.16097E-04
        -0.19756E-03
        -0.85087E-04
        -0.17823E-03
        -0.48344E-04
        -0.89917E-03
        -0.31668E-03
        -0.65252E-05
        -0.88472E-03
        -0.31313E-04
        -0.31488E-05
        -0.25790E-05
        -0.53593E-04
        -0.18709E-05
        -0.40535E-04
        -0.20092E-04
        -0.67545E-05
        -0.47232E-05
        -0.81348E-04
        -0.46391E-05
        -0.34215E-06
        -0.11217E-05
        -0.24152E-05
        -0.79002E-04
        -0.36364E-04
        -0.24300E-05
        -0.15520E-04
        -0.11634E-04
        -0.23620E-05
        -0.24343E-04
        -0.88102E-04
        -0.51244E-03
        -0.40109E-03
        -0.30858E-03
        -0.16601E-03
        -0.96645E-05
        -0.42939E-04
        -0.67135E-04
        -0.11057E-03
        -0.46030E-03
        -0.15601E-03
        -0.67724E-04
        -0.10618E-03
        -0.14793E-03
        -0.16028E-03
        -0.77448E-06
        -0.24767E-03
        -0.51183E-03
        -0.27751E-02
        -0.46266E-02
        -0.76963E-02
        -0.11057E-01
        -0.10601E-01
        -0.80957E-02
        -0.74423E-02
        -0.72795E-02
        -0.28733E-02
        -0.31458E-03
        -0.49673E-04
        -0.37205E-04
        -0.71910E-05
        -0.56610E-03
        -0.22708E-02
        -0.43860E-02
        -0.74083E-02
        -0.91044E-02
        -0.70213E-02
        -0.62780E-02
        -0.62265E-02
        -0.30728E-02
        -0.82602E-03
        -0.73895E-03
        -0.21912E-03
        -0.86681E-04
        -0.74547E-04
        -0.45510E-05
        -0.12518E-03
        -0.25531E-04
        -0.16125E-04
        -0.19813E-03
        -0.85401E-04
        -0.17941E-03
        -0.48424E-04
        -0.89909E-03
        -0.31689E-03
        -0.65353E-05
        -0.88700E-03
        -0.31323E-04
        -0.32088E-05
        -0.25711E-05
        -0.53677E-04
        -0.18460E-05
        -0.40744E-04
        -0.20122E-04
        -0.67752E-05
        -0.47090E-05
        -0.81982E-04
        -0.46046E-05
        -0.35401E-06
        -0.11463E-05
        -0.23565E-05
        -0.79240E-04
        -0.36358E-04
        -0.24025E-05
        -0.15592E-04
        -0.11675E-04
        -0.23149E-05
        -0.24380E-04
        -0.88106E-04
        -0.51407E-03
        -0.40291E-03
        -0.30942E-03
        -0.16638E-03
        -0.95658E-05
        -0.42982E-04
        -0.67330E-04
        -0.11072E-03
        -0.46049E-03
        -0.15613E-03
        -0.67702E-04
        -0.10596E-03
        -0.14755E-03
        -0.16015E-03
        -0.74903E-06
        -0.24721E-03
        -0.51188E-03
        -0.27761E-02
        -0.46267E-02
        -0.76944E-02
        -0.11049E-01
        -0.10592E-01
        -0.80908E-02
        -0.74392E-02
        -0.72754E-02
        -0.28724E-02
        -0.31505E-03
        -0.49687E-04
        -0.37353E-04
        -0.70674E-05
        -0.56684E-03
        -0.22737E-02
        -0.43887E-02
        -0.74079E-02
        -0.91032E-02
        -0.70205E-02
        -0.62776E-02
        -0.62232E-02
        -0.30684E-02
        -0.82421E-03
        -0.73700E-03
        -0.21935E-03
        -0.86670E-04
        -0.74620E-04
        -0.46191E-05
        -0.12522E-03
        -0.25572E-04
        -0.16146E-04
        -0.19866E-03
        -0.85718E-04
        -0.18057E-03
        -0.48510E-04
        -0.89899E-03
        -0.31710E-03
        -0.65470E-05
        -0.88927E-03
        -0.31335E-04
        -0.32702E-05
        -0.25629E-05
        -0.53760E-04
        -0.18213E-05
        -0.40954E-04
        -0.20152E-04
        -0.67953E-05
        -0.46952E-05
        -0.82611E-04
        -0.45703E-05
        -0.36656E-06
        -0.11718E-05
        -0.22982E-05
        -0.79477E-04
        -0.36350E-04
        -0.23740E-05
        -0.15664E-04
        -0.11718E-04
        -0.22678E-05
        -0.24420E-04
        -0.88120E-04
        -0.51571E-03
        -0.40474E-03
        -0.31027E-03
        -0.16676E-03
        -0.94676E-05
        -0.43023E-04
        -0.67527E-04
        -0.11087E-03
        -0.46070E-03
        -0.15628E-03
        -0.67692E-04
        -0.10576E-03
        -0.14718E-03
        -0.16002E-03
        -0.72402E-06
        -0.24674E-03
        -0.51194E-03
        -0.27771E-02
        -0.46268E-02
        -0.76926E-02
        -0.11042E-01
        -0.10583E-01
        -0.80859E-02
        -0.74361E-02
        -0.72713E-02
        -0.28714E-02
        -0.31551E-03
        -0.49701E-04
        -0.37502E-04
        -0.69447E-05
        -0.56758E-03
        -0.22766E-02
        -0.43913E-02
        -0.74075E-02
        -0.91020E-02
        -0.70199E-02
        -0.62774E-02
        -0.62199E-02
        -0.30640E-02
        -0.82240E-03
        -0.73504E-03
        -0.21957E-03
        -0.86659E-04
        -0.74691E-04
        -0.46878E-05
        -0.12525E-03
        -0.25613E-04
        -0.16168E-04
        -0.19920E-03
        -0.86037E-04
        -0.18173E-03
        -0.48593E-04
        -0.89890E-03
        -0.31731E-03
        -0.65604E-05
        -0.89157E-03
        -0.31348E-04
        -0.33325E-05
        -0.25547E-05
        -0.53842E-04
        -0.17965E-05
        -0.41163E-04
        -0.20182E-04
        -0.68156E-05
        -0.46815E-05
        -0.83242E-04
        -0.45364E-05
        -0.37965E-06
        -0.11972E-05
        -0.22409E-05
        -0.79715E-04
        -0.36342E-04
        -0.23459E-05
        -0.15737E-04
        -0.11761E-04
        -0.22210E-05
        -0.24457E-04
        -0.88130E-04
        -0.51737E-03
        -0.40658E-03
        -0.31111E-03
        -0.16713E-03
        -0.93706E-05
        -0.43065E-04
        -0.67726E-04
        -0.11102E-03
        -0.46091E-03
        -0.15641E-03
        -0.67683E-04
        -0.10556E-03
        -0.14682E-03
        -0.15989E-03
        -0.69931E-06
        -0.24628E-03
        -0.51199E-03
        -0.27780E-02
        -0.46268E-02
        -0.76907E-02
        -0.11034E-01
        -0.10573E-01
        -0.80810E-02
        -0.74331E-02
        -0.72671E-02
        -0.28705E-02
        -0.31597E-03
        -0.49717E-04
        -0.37654E-04
        -0.68234E-05
        -0.56831E-03
        -0.22795E-02
        -0.43939E-02
        -0.74071E-02
        -0.91008E-02
        -0.70192E-02
        -0.62771E-02
        -0.62166E-02
        -0.30596E-02
        -0.82060E-03
        -0.73309E-03
        -0.21979E-03
        -0.86645E-04
        -0.74761E-04
        -0.47566E-05
        -0.12528E-03
        -0.25653E-04
        -0.16190E-04
        -0.19974E-03
        -0.86356E-04
        -0.18289E-03
        -0.48681E-04
        -0.89881E-03
        -0.31753E-03
        -0.65719E-05
        -0.89386E-03
        -0.31359E-04
        -0.33956E-05
        -0.25465E-05
        -0.53924E-04
        -0.17718E-05
        -0.41373E-04
        -0.20212E-04
        -0.68350E-05
        -0.46678E-05
        -0.83875E-04
        -0.45027E-05
        -0.39261E-06
        -0.12227E-05
        -0.21844E-05
        -0.79953E-04
        -0.36333E-04
        -0.23179E-05
        -0.15809E-04
        -0.11804E-04
        -0.21747E-05
        -0.24498E-04
        -0.88143E-04
        -0.51902E-03
        -0.40843E-03
        -0.31196E-03
        -0.16751E-03
        -0.92742E-05
        -0.43108E-04
        -0.67922E-04
        -0.11117E-03
        -0.46111E-03
        -0.15656E-03
        -0.67679E-04
        -0.10535E-03
        -0.14644E-03
        -0.15976E-03
        -0.67514E-06
        -0.24581E-03
        -0.51204E-03
        -0.27790E-02
        -0.46269E-02
        -0.76889E-02
        -0.11027E-01
        -0.10564E-01
        -0.80760E-02
        -0.74300E-02
        -0.72630E-02
        -0.28696E-02
        -0.31643E-03
        -0.49733E-04
        -0.37806E-04
        -0.67035E-05
        -0.56905E-03
        -0.22824E-02
        -0.43966E-02
        -0.74066E-02
        -0.90996E-02
        -0.70185E-02
        -0.62768E-02
        -0.62134E-02
        -0.30552E-02
        -0.81881E-03
        -0.73114E-03
        -0.22001E-03
        -0.86630E-04
        -0.74833E-04
        -0.48258E-05
        -0.12531E-03
        -0.25694E-04
        -0.16214E-04
        -0.20027E-03
        -0.86677E-04
        -0.18405E-03
        -0.48768E-04
        -0.89872E-03
        -0.31774E-03
        -0.65847E-05
        -0.89616E-03
        -0.31372E-04
        -0.34595E-05
        -0.25384E-05
        -0.54006E-04
        -0.17471E-05
        -0.41583E-04
        -0.20240E-04
        -0.68555E-05
        -0.46544E-05
        -0.84508E-04
        -0.44690E-05
        -0.40601E-06
        -0.12481E-05
        -0.21287E-05
        -0.80191E-04
        -0.36326E-04
        -0.22902E-05
        -0.15882E-04
        -0.11846E-04
        -0.21287E-05
        -0.24537E-04
        -0.88158E-04
        -0.52068E-03
        -0.41028E-03
        -0.31280E-03
        -0.16788E-03
        -0.91783E-05
        -0.43150E-04
        -0.68116E-04
        -0.11133E-03
        -0.46133E-03
        -0.15670E-03
        -0.67670E-04
        -0.10515E-03
        -0.14608E-03
        -0.15963E-03
        -0.65132E-06
        -0.24534E-03
        -0.51209E-03
        -0.27799E-02
        -0.46270E-02
        -0.76870E-02
        -0.11019E-01
        -0.10555E-01
        -0.80711E-02
        -0.74269E-02
        -0.72588E-02
        -0.28686E-02
        -0.31688E-03
        -0.49749E-04
        -0.37956E-04
        -0.65841E-05
        -0.56980E-03
        -0.22853E-02
        -0.43992E-02
        -0.74062E-02
        -0.90984E-02
        -0.70179E-02
        -0.62765E-02
        -0.62100E-02
        -0.30508E-02
        -0.81703E-03
        -0.72920E-03
        -0.22023E-03
        -0.86618E-04
        -0.74904E-04
        -0.48962E-05
        -0.12534E-03
        -0.25735E-04
        -0.16236E-04
        -0.20081E-03
        -0.86999E-04
        -0.18522E-03
        -0.48855E-04
        -0.89862E-03
        -0.31794E-03
        -0.65974E-05
        -0.89845E-03
        -0.31384E-04
        -0.35241E-05
        -0.25302E-05
        -0.54089E-04
        -0.17228E-05
        -0.41795E-04
        -0.20269E-04
        -0.68758E-05
        -0.46411E-05
        -0.85143E-04
        -0.44359E-05
        -0.41934E-06
        -0.12736E-05
        -0.20737E-05
        -0.80428E-04
        -0.36317E-04
        -0.22625E-05
        -0.15954E-04
        -0.11890E-04
        -0.20830E-05
        -0.24576E-04
        -0.88167E-04
        -0.52235E-03
        -0.41213E-03
        -0.31365E-03
        -0.16825E-03
        -0.90838E-05
        -0.43191E-04
        -0.68312E-04
        -0.11148E-03
        -0.46154E-03
        -0.15684E-03
        -0.67666E-04
        -0.10495E-03
        -0.14571E-03
        -0.15950E-03
        -0.62796E-06
        -0.24487E-03
        -0.51214E-03
        -0.27809E-02
        -0.46271E-02
        -0.76851E-02
        -0.11012E-01
        -0.10546E-01
        -0.80662E-02
        -0.74239E-02
        -0.72546E-02
        -0.28677E-02
        -0.31734E-03
        -0.49764E-04
        -0.38106E-04
        -0.64654E-05
        -0.57053E-03
        -0.22882E-02
        -0.44018E-02
        -0.74058E-02
        -0.90972E-02
        -0.70172E-02
        -0.62763E-02
        -0.62067E-02
        -0.30465E-02
        -0.81525E-03
        -0.72726E-03
        -0.22045E-03
        -0.86604E-04
        -0.74976E-04
        -0.49673E-05
        -0.12537E-03
        -0.25775E-04
        -0.16258E-04
        -0.20135E-03
        -0.87321E-04
        -0.18638E-03
        -0.48942E-04
        -0.89854E-03
        -0.31817E-03
        -0.66085E-05
        -0.90077E-03
        -0.31396E-04
        -0.35892E-05
        -0.25218E-05
        -0.54171E-04
        -0.16987E-05
        -0.42006E-04
        -0.20298E-04
        -0.68958E-05
        -0.46279E-05
        -0.85779E-04
        -0.44024E-05
        -0.43327E-06
        -0.12991E-05
        -0.20196E-05
        -0.80664E-04
        -0.36308E-04
        -0.22348E-05
        -0.16027E-04
        -0.11933E-04
        -0.20377E-05
        -0.24617E-04
        -0.88180E-04
        -0.52402E-03
        -0.41399E-03
        -0.31449E-03
        -0.16863E-03
        -0.89889E-05
        -0.43233E-04
        -0.68511E-04
        -0.11164E-03
        -0.46173E-03
        -0.15699E-03
        -0.67659E-04
        -0.10476E-03
        -0.14535E-03
        -0.15937E-03
        -0.60508E-06
        -0.24440E-03
        -0.51219E-03
        -0.27818E-02
        -0.46271E-02
        -0.76833E-02
        -0.11004E-01
        -0.10537E-01
        -0.80612E-02
        -0.74208E-02
        -0.72503E-02
        -0.28667E-02
        -0.31780E-03
        -0.49779E-04
        -0.38258E-04
        -0.63481E-05
        -0.57127E-03
        -0.22911E-02
        -0.44044E-02
        -0.74055E-02
        -0.90961E-02
        -0.70166E-02
        -0.62760E-02
        -0.62034E-02
        -0.30421E-02
        -0.81348E-03
        -0.72532E-03
        -0.22067E-03
        -0.86592E-04
        -0.75047E-04
        -0.50388E-05
        -0.12541E-03
        -0.25816E-04
        -0.16283E-04
        -0.20188E-03
        -0.87644E-04
        -0.18755E-03
        -0.49030E-04
        -0.89845E-03
        -0.31838E-03
        -0.66212E-05
        -0.90306E-03
        -0.31408E-04
        -0.36553E-05
        -0.25136E-05
        -0.54252E-04
        -0.16748E-05
        -0.42219E-04
        -0.20326E-04
        -0.69161E-05
        -0.46148E-05
        -0.86418E-04
        -0.43691E-05
        -0.44706E-06
        -0.13245E-05
        -0.19664E-05
        -0.80901E-04
        -0.36299E-04
        -0.22075E-05
        -0.16099E-04
        -0.11976E-04
        -0.19927E-05
        -0.24656E-04
        -0.88189E-04
        -0.52571E-03
        -0.41586E-03
        -0.31533E-03
        -0.16901E-03
        -0.88945E-05
        -0.43274E-04
        -0.68707E-04
        -0.11179E-03
        -0.46194E-03
        -0.15714E-03
        -0.67651E-04
        -0.10455E-03
        -0.14498E-03
        -0.15924E-03
        -0.58277E-06
        -0.24394E-03
        -0.51223E-03
        -0.27827E-02
        -0.46272E-02
        -0.76815E-02
        -0.10997E-01
        -0.10528E-01
        -0.80562E-02
        -0.74178E-02
        -0.72460E-02
        -0.28658E-02
        -0.31826E-03
        -0.49794E-04
        -0.38410E-04
        -0.62324E-05
        -0.57200E-03
        -0.22940E-02
        -0.44071E-02
        -0.74051E-02
        -0.90949E-02
        -0.70159E-02
        -0.62757E-02
        -0.62001E-02
        -0.30377E-02
        -0.81172E-03
        -0.72338E-03
        -0.22089E-03
        -0.86580E-04
        -0.75118E-04
        -0.51107E-05
        -0.12544E-03
        -0.25856E-04
        -0.16305E-04
        -0.20241E-03
        -0.87970E-04
        -0.18871E-03
        -0.49117E-04
        -0.89836E-03
        -0.31858E-03
        -0.66320E-05
        -0.90539E-03
        -0.31420E-04
        -0.37223E-05
        -0.25055E-05
        -0.54335E-04
        -0.16509E-05
        -0.42432E-04
        -0.20355E-04
        -0.69359E-05
        -0.46020E-05
        -0.87060E-04
        -0.43360E-05
        -0.46131E-06
        -0.13496E-05
        -0.19142E-05
        -0.81140E-04
        -0.36291E-04
        -0.21802E-05
        -0.16172E-04
        -0.12020E-04
        -0.19483E-05
        -0.24696E-04
        -0.88201E-04
        -0.52740E-03
        -0.41773E-03
        -0.31617E-03
        -0.16939E-03
        -0.88009E-05
        -0.43317E-04
        -0.68904E-04
        -0.11194E-03
        -0.46216E-03
        -0.15728E-03
        -0.67648E-04
        -0.10435E-03
        -0.14461E-03
        -0.15912E-03
        -0.56073E-06
        -0.24347E-03
        -0.51227E-03
        -0.27836E-02
        -0.46273E-02
        -0.76796E-02
        -0.10989E-01
        -0.10519E-01
        -0.80513E-02
        -0.74147E-02
        -0.72417E-02
        -0.28649E-02
        -0.31872E-03
        -0.49809E-04
        -0.38562E-04
        -0.61174E-05
        -0.57274E-03
        -0.22969E-02
        -0.44097E-02
        -0.74047E-02
        -0.90937E-02
        -0.70153E-02
        -0.62754E-02
        -0.61968E-02
        -0.30333E-02
        -0.80997E-03
        -0.72145E-03
        -0.22111E-03
        -0.86563E-04
        -0.75189E-04
        -0.51829E-05
        -0.12547E-03
        -0.25897E-04
        -0.16328E-04
        -0.20295E-03
        -0.88297E-04
        -0.18989E-03
        -0.49205E-04
        -0.89827E-03
        -0.31881E-03
        -0.66443E-05
        -0.90768E-03
        -0.31432E-04
        -0.37902E-05
        -0.24972E-05
        -0.54417E-04
        -0.16272E-05
        -0.42645E-04
        -0.20382E-04
        -0.69559E-05
        -0.45892E-05
        -0.87704E-04
        -0.43029E-05
        -0.47539E-06
        -0.13748E-05
        -0.18628E-05
        -0.81378E-04
        -0.36282E-04
        -0.21532E-05
        -0.16245E-04
        -0.12064E-04
        -0.19041E-05
        -0.24735E-04
        -0.88213E-04
        -0.52909E-03
        -0.41961E-03
        -0.31700E-03
        -0.16976E-03
        -0.87079E-05
        -0.43360E-04
        -0.69098E-04
        -0.11210E-03
        -0.46237E-03
        -0.15742E-03
        -0.67640E-04
        -0.10416E-03
        -0.14425E-03
        -0.15898E-03
        -0.53911E-06
        -0.24300E-03
        -0.51231E-03
        -0.27846E-02
        -0.46273E-02
        -0.76778E-02
        -0.10981E-01
        -0.10509E-01
        -0.80463E-02
        -0.74117E-02
        -0.72374E-02
        -0.28639E-02
        -0.31918E-03
        -0.49823E-04
        -0.38712E-04
        -0.60034E-05
        -0.57347E-03
        -0.22998E-02
        -0.44124E-02
        -0.74043E-02
        -0.90925E-02
        -0.70146E-02
        -0.62751E-02
        -0.61935E-02
        -0.30290E-02
        -0.80822E-03
        -0.71952E-03
        -0.22133E-03
        -0.86550E-04
        -0.75260E-04
        -0.52558E-05
        -0.12550E-03
        -0.25938E-04
        -0.16351E-04
        -0.20348E-03
        -0.88625E-04
        -0.19106E-03
        -0.49293E-04
        -0.89819E-03
        -0.31902E-03
        -0.66548E-05
        -0.91001E-03
        -0.31444E-04
        -0.38591E-05
        -0.24888E-05
        -0.54500E-04
        -0.16040E-05
        -0.42859E-04
        -0.20408E-04
        -0.69760E-05
        -0.45765E-05
        -0.88349E-04
        -0.42698E-05
        -0.49008E-06
        -0.13998E-05
        -0.18120E-05
        -0.81610E-04
        -0.36272E-04
        -0.21263E-05
        -0.16318E-04
        -0.12108E-04
        -0.18602E-05
        -0.24774E-04
        -0.88221E-04
        -0.53080E-03
        -0.42148E-03
        -0.31783E-03
        -0.17014E-03
        -0.86163E-05
        -0.43403E-04
        -0.69297E-04
        -0.11226E-03
        -0.46258E-03
        -0.15757E-03
        -0.67637E-04
        -0.10396E-03
        -0.14388E-03
        -0.15886E-03
        -0.51809E-06
        -0.24253E-03
        -0.51236E-03
        -0.27855E-02
        -0.46274E-02
        -0.76759E-02
        -0.10974E-01
        -0.10500E-01
        -0.80413E-02
        -0.74087E-02
        -0.72330E-02
        -0.28630E-02
        -0.31965E-03
        -0.49833E-04
        -0.38862E-04
        -0.58910E-05
        -0.57420E-03
        -0.23027E-02
        -0.44150E-02
        -0.74039E-02
        -0.90913E-02
        -0.70140E-02
        -0.62748E-02
        -0.61901E-02
        -0.30246E-02
        -0.80649E-03
        -0.71759E-03
        -0.22154E-03
        -0.86537E-04
        -0.75332E-04
        -0.53297E-05
        -0.12553E-03
        -0.25978E-04
        -0.16374E-04
        -0.20400E-03
        -0.88957E-04
        -0.19224E-03
        -0.49381E-04
        -0.89810E-03
        -0.31923E-03
        -0.66666E-05
        -0.91231E-03
        -0.31456E-04
        -0.39294E-05
        -0.24804E-05
        -0.54582E-04
        -0.15821E-05
        -0.43072E-04
        -0.20434E-04
        -0.69964E-05
        -0.45636E-05
        -0.88997E-04
        -0.42372E-05
        -0.50485E-06
        -0.14249E-05
        -0.17621E-05
        -0.81829E-04
        -0.36263E-04
        -0.20991E-05
        -0.16390E-04
        -0.12152E-04
        -0.18169E-05
        -0.24815E-04
        -0.88234E-04
        -0.53253E-03
        -0.42336E-03
        -0.31861E-03
        -0.17051E-03
        -0.85240E-05
        -0.43448E-04
        -0.69494E-04
        -0.11241E-03
        -0.46280E-03
        -0.15771E-03
        -0.67630E-04
        -0.10376E-03
        -0.14352E-03
        -0.15873E-03
        -0.49746E-06
        -0.24206E-03
        -0.51240E-03
        -0.27864E-02
        -0.46275E-02
        -0.76740E-02
        -0.10966E-01
        -0.10491E-01
        -0.80364E-02
        -0.74056E-02
        -0.72284E-02
        -0.28622E-02
        -0.32012E-03
        -0.49838E-04
        -0.39012E-04
        -0.57798E-05
        -0.57493E-03
        -0.23056E-02
        -0.44176E-02
        -0.74035E-02
        -0.90901E-02
        -0.70133E-02
        -0.62746E-02
        -0.61867E-02
        -0.30202E-02
        -0.80476E-03
        -0.71566E-03
        -0.22176E-03
        -0.86524E-04
        -0.75403E-04
        -0.54039E-05
        -0.12556E-03
        -0.26017E-04
        -0.16397E-04
        -0.20453E-03
        -0.89292E-04
        -0.19341E-03
        -0.49468E-04
        -0.89801E-03
        -0.31945E-03
        -0.66785E-05
        -0.91465E-03
        -0.31468E-04
        -0.40014E-05
        -0.24720E-05
        -0.54665E-04
        -0.15611E-05
        -0.43287E-04
        -0.20458E-04
        -0.70165E-05
        -0.45511E-05
        -0.89648E-04
        -0.42043E-05
        -0.52049E-06
        -0.14500E-05
        -0.17130E-05
        -0.82035E-04
        -0.36253E-04
        -0.20725E-05
        -0.16463E-04
        -0.12196E-04
        -0.17737E-05
        -0.24854E-04
        -0.88244E-04
        -0.53428E-03
        -0.42522E-03
        -0.31938E-03
        -0.17087E-03
        -0.84324E-05
        -0.43495E-04
        -0.69691E-04
        -0.11257E-03
        -0.46301E-03
        -0.15786E-03
        -0.67623E-04
        -0.10356E-03
        -0.14315E-03
        -0.15860E-03
        -0.47710E-06
        -0.24159E-03
        -0.51243E-03
        -0.27873E-02
        -0.46275E-02
        -0.76721E-02
        -0.10959E-01
        -0.10482E-01
        -0.80314E-02
        -0.74024E-02
        -0.72236E-02
        -0.28615E-02
        -0.32059E-03
        -0.49834E-04
        -0.39163E-04
        -0.56691E-05
        -0.57566E-03
        -0.23085E-02
        -0.44202E-02
        -0.74031E-02
        -0.90889E-02
        -0.70127E-02
        -0.62743E-02
        -0.61833E-02
        -0.30159E-02
        -0.80305E-03
        -0.71373E-03
        -0.22198E-03
        -0.86511E-04
        -0.75478E-04
        -0.54783E-05
        -0.12560E-03
        -0.26058E-04
        -0.16422E-04
        -0.20506E-03
        -0.89630E-04
        -0.19459E-03
        -0.49556E-04
        -0.89793E-03
        -0.31966E-03
        -0.66887E-05
        -0.91696E-03
        -0.31480E-04
        -0.40745E-05
        -0.24637E-05
        -0.54749E-04
        -0.15409E-05
        -0.43503E-04
        -0.20483E-04
        -0.70354E-05
        -0.45394E-05
        -0.90301E-04
        -0.41728E-05
        -0.53595E-06
        -0.14742E-05
        -0.16652E-05
        -0.82238E-04
        -0.36245E-04
        -0.20466E-05
        -0.16536E-04
        -0.12241E-04
        -0.17315E-05
        -0.24893E-04
        -0.88250E-04
        -0.53604E-03
        -0.42709E-03
        -0.32011E-03
        -0.17123E-03
        -0.83430E-05
        -0.43546E-04
        -0.69885E-04
        -0.11272E-03
        -0.46322E-03
        -0.15800E-03
        -0.67618E-04
        -0.10336E-03
        -0.14279E-03
        -0.15848E-03
        -0.45731E-06
        -0.24112E-03
        -0.51248E-03
        -0.27882E-02
        -0.46276E-02
        -0.76704E-02
        -0.10951E-01
        -0.10472E-01
        -0.80266E-02
        -0.73993E-02
        -0.72186E-02
        -0.28608E-02
        -0.32106E-03
        -0.49824E-04
        -0.39313E-04
        -0.55594E-05
        -0.57638E-03
        -0.23114E-02
        -0.44229E-02
        -0.74028E-02
        -0.90877E-02
        -0.70120E-02
        -0.62739E-02
        -0.61800E-02
        -0.30116E-02
        -0.80135E-03
        -0.71182E-03
        -0.22453E-03
        -0.87446E-04
        -0.76380E-04
        -0.56080E-05
        -0.12702E-03
        -0.26376E-04
        -0.16630E-04
        -0.20777E-03
        -0.90886E-04
        -0.19780E-03
        -0.50190E-04
        -0.90801E-03
        -0.32335E-03
        -0.67739E-05
        -0.92987E-03
        -0.31826E-04
        -0.41877E-05
        -0.24807E-05
        -0.55412E-04
        -0.15395E-05
        -0.44168E-04
        -0.20727E-04
        -0.71167E-05
        -0.45817E-05
        -0.91914E-04
        -0.41952E-05
        -0.55644E-06
        -0.15094E-05
        -0.16452E-05
        -0.83362E-04
        -0.36628E-04
        -0.20500E-05
        -0.16778E-04
        -0.12414E-04
        -0.17128E-05
        -0.25180E-04
        -0.89172E-04
        -0.54382E-03
        -0.43371E-03
        -0.32445E-03
        -0.17350E-03
        -0.83679E-05
        -0.44093E-04
        -0.70735E-04
        -0.11399E-03
        -0.46832E-03
        -0.15976E-03
        -0.68280E-04
        -0.10424E-03
        -0.14396E-03
        -0.16008E-03
        -0.44289E-06
        -0.24383E-03
        -0.51946E-03
        -0.28264E-02
        -0.46885E-02
        -0.77718E-02
        -0.11097E-01
        -0.10612E-01
        -0.81353E-02
        -0.75013E-02
        -0.73184E-02
        -0.29005E-02
        -0.32571E-03
        -0.50412E-04
        -0.39925E-04
        -0.55220E-05
        -0.58388E-03
        -0.23418E-02
        -0.44818E-02
        -0.75028E-02
        -0.92099E-02
        -0.71011E-02
        -0.63520E-02
        -0.62558E-02
        -0.30460E-02
        -0.80989E-03
        -0.71901E-03
        -0.51094E-03
        -0.20085E-03
        -0.17342E-03
        -0.12927E-04
        -0.26943E-03
        -0.56985E-04
        -0.38128E-04
        -0.47025E-03
        -0.20608E-03
        -0.44598E-03
        -0.11143E-03
        -0.18656E-02
        -0.68272E-03
        -0.14930E-04
        -0.19351E-02
        -0.72507E-04
        -0.96183E-05
        -0.56354E-05
        -0.12323E-03
        -0.34261E-05
        -0.93215E-04
        -0.44789E-04
        -0.15020E-04
        -0.10331E-04
        -0.21147E-03
        -0.96042E-05
        -0.12675E-05
        -0.34834E-05
        -0.37605E-05
        -0.19125E-03
        -0.83482E-04
        -0.46456E-05
        -0.38485E-04
        -0.28423E-04
        -0.34127E-05
        -0.54314E-04
        -0.19236E-03
        -0.11814E-02
        -0.96891E-03
        -0.72949E-03
        -0.37963E-03
        -0.18478E-04
        -0.97591E-04
        -0.15158E-03
        -0.24282E-03
        -0.94436E-03
        -0.33837E-03
        -0.14788E-03
        -0.22791E-03
        -0.31222E-03
        -0.33165E-03
        -0.92138E-06
        -0.39797E-03
        -0.84607E-03
        -0.46085E-02
        -0.76772E-02
        -0.12723E-01
        -0.18295E-01
        -0.17902E-01
        -0.13957E-01
        -0.12827E-01
        -0.12379E-01
        -0.49118E-02
        -0.54815E-03
        -0.86232E-04
        -0.68795E-04
        -0.91339E-05
        -0.95683E-03
        -0.38162E-02
        -0.72457E-02
        -0.12148E-01
        -0.14950E-01
        -0.11729E-01
        -0.10572E-01
        -0.10349E-01
        -0.50704E-02
        -0.13386E-02
        -0.11793E-02
  
SCALARS                      strain_zz  double 1
LOOKUP_TABLE default
         0.21702E+02
         0.21427E+02
         0.21588E+02
         0.21915E+02
        -0.43357E-08
        -0.48618E-08
        -0.46553E-08
        -0.42292E-08
         0.21299E+02
         0.21458E+02
        -0.43720E-08
        -0.42310E-08
         0.21023E+02
         0.21013E+02
        -0.51948E-08
        -0.48844E-08
         0.21868E+02
         0.21023E+02
        -0.38384E-08
        -0.42574E-08
         0.20722E+02
         0.20435E+02
         0.20809E+02
        -0.51486E-08
        -0.44964E-08
        -0.46430E-08
         0.20484E+02
         0.20103E+02
        -0.49394E-08
        -0.41655E-08
         0.21852E+02
         0.21488E+02
         0.22204E+02
        -0.42151E-08
        -0.39185E-08
        -0.38098E-08
         0.21627E+02
         0.21173E+02
        -0.44594E-08
        -0.40692E-08
         0.21425E+02
         0.21051E+02
        -0.38541E-08
        -0.34120E-08
         0.21722E+02
         0.21887E+02
        -0.42236E-08
        -0.47193E-08
         0.20812E+02
        -0.41261E-08
         0.21856E+02
        -0.48484E-08
         0.20400E+02
        -0.43573E-08
         0.20291E+02
        -0.41796E-08
         0.20260E+02
         0.20681E+02
        -0.42585E-08
        -0.41473E-08
         0.21845E+02
         0.21677E+02
        -0.42702E-08
        -0.48274E-08
         0.21933E+02
        -0.41204E-08
         0.21751E+02
        -0.44969E-08
         0.21111E+02
         0.21187E+02
        -0.43287E-08
        -0.45357E-08
         0.21125E+02
        -0.45738E-08
         0.19965E+02
        -0.36136E-08
         0.19887E+02
        -0.35076E-08
         0.19873E+02
        -0.36984E-08
         0.19923E+02
         0.20207E+02
        -0.35237E-08
        -0.36737E-08
         0.20630E+02
        -0.34215E-08
         0.21688E+02
        -0.44869E-08
         0.21458E+02
        -0.45922E-08
         0.21192E+02
         0.21274E+02
        -0.44100E-08
        -0.44615E-08
         0.21429E+02
        -0.40523E-08
         0.21494E+02
        -0.39945E-08
         0.21393E+02
        -0.42762E-08
         0.21252E+02
         0.21400E+02
        -0.41934E-08
        -0.43165E-08
         0.20433E+02
         0.20457E+02
        -0.32558E-08
        -0.30622E-08
         0.20235E+02
        -0.31089E-08
         0.20267E+02
        -0.29809E-08
         0.20143E+02
        -0.29393E-08
         0.19684E+02
        -0.27777E-08
         0.19153E+02
        -0.24677E-08
         0.18905E+02
        -0.22220E-08
         0.18886E+02
        -0.22066E-08
         0.18912E+02
        -0.23929E-08
         0.19213E+02
        -0.25149E-08
         0.19525E+02
        -0.22963E-08
         0.19968E+02
        -0.20699E-08
         0.20388E+02
        -0.20676E-08
         0.20770E+02
        -0.23110E-08
         0.21006E+02
        -0.26351E-08
         0.20924E+02
        -0.28309E-08
         0.20641E+02
        -0.30573E-08
         0.20503E+02
        -0.32755E-08
         0.20142E+02
        -0.30006E-08
         0.20179E+02
        -0.26323E-08
         0.20357E+02
        -0.26242E-08
         0.20415E+02
        -0.28712E-08
         0.20583E+02
        -0.30609E-08
         0.20539E+02
        -0.29047E-08
         0.20517E+02
        -0.28082E-08
        -0.40804E+00
        -0.39568E+00
        -0.39739E+00
        -0.41316E+00
        -0.38306E+00
        -0.39880E+00
        -0.37918E+00
        -0.38962E+00
        -0.41074E+00
        -0.39782E+00
        -0.36755E+00
        -0.36386E+00
        -0.37348E+00
        -0.37417E+00
        -0.36795E+00
        -0.41243E+00
        -0.40957E+00
        -0.41748E+00
        -0.39430E+00
        -0.39871E+00
        -0.39233E+00
        -0.39653E+00
        -0.38871E+00
        -0.39081E+00
        -0.39834E+00
        -0.39782E+00
        -0.38478E+00
        -0.38600E+00
        -0.37594E+00
        -0.39099E+00
        -0.41102E+00
        -0.39550E+00
        -0.41092E+00
        -0.40086E+00
        -0.36132E+00
        -0.37461E+00
        -0.38071E+00
        -0.37349E+00
        -0.37256E+00
        -0.36038E+00
        -0.35120E+00
        -0.37309E+00
        -0.39258E+00
        -0.39004E+00
        -0.38012E+00
        -0.36182E+00
        -0.37751E+00
        -0.39343E+00
        -0.39235E+00
        -0.38007E+00
        -0.36693E+00
        -0.38450E+00
        -0.32769E+00
        -0.34512E+00
        -0.34224E+00
        -0.34621E+00
        -0.34512E+00
        -0.33572E+00
        -0.32595E+00
        -0.32281E+00
        -0.32423E+00
        -0.32320E+00
        -0.31896E+00
        -0.34429E+00
        -0.35352E+00
        -0.35702E+00
        -0.36276E+00
        -0.36703E+00
        -0.36679E+00
        -0.35935E+00
        -0.33357E+00
        -0.33984E+00
        -0.34883E+00
        -0.34879E+00
        -0.34724E+00
        -0.33866E+00
        -0.35125E+00
        -0.35578E+00
         0.26969E-03
         0.99768E-04
         0.94084E-04
         0.66279E-04
         0.28107E-03
         0.15765E-03
         0.16794E-04
         0.21869E-03
         0.12739E-03
         0.19028E-03
         0.22065E-04
         0.91937E-03
         0.53811E-03
         0.74402E-04
         0.99023E-03
         0.13731E-03
         0.51904E-04
         0.38262E-04
         0.59016E-04
         0.20867E-04
         0.56526E-03
         0.51068E-03
         0.46135E-03
         0.26654E-04
         0.62786E-04
         0.62255E-05
         0.38196E-04
        -0.61151E-04
        -0.16934E-04
         0.81646E-04
         0.10167E-03
         0.25860E-04
         0.64300E-04
         0.68048E-04
         0.43866E-03
         0.15840E-03
         0.26977E-03
         0.64881E-03
         0.37867E-03
         0.33473E-03
         0.69565E-03
         0.56463E-03
         0.57529E-03
         0.33449E-03
         0.26658E-03
         0.50965E-03
         0.22392E-03
         0.16700E-03
         0.12359E-03
         0.17534E-03
         0.42893E-03
         0.22397E-03
         0.78121E-02
         0.82363E-02
         0.89687E-02
         0.88738E-02
         0.10108E-01
         0.11662E-01
         0.10732E-01
         0.85050E-02
         0.80687E-02
         0.92146E-02
         0.88463E-02
         0.86010E-02
         0.58708E-02
         0.53241E-02
         0.63893E-02
         0.73091E-02
         0.78768E-02
         0.93986E-02
         0.87028E-02
         0.92109E-02
         0.74729E-02
         0.67281E-02
         0.76351E-02
         0.72963E-02
         0.77459E-02
         0.76341E-02
         0.26853E-03
         0.98222E-04
         0.92606E-04
         0.64977E-04
         0.27902E-03
         0.15581E-03
         0.15210E-04
         0.21738E-03
         0.12608E-03
         0.18959E-03
         0.20118E-04
         0.91703E-03
         0.53653E-03
         0.71852E-04
         0.99006E-03
         0.13585E-03
         0.50269E-04
         0.36794E-04
         0.57228E-04
         0.18850E-04
         0.56338E-03
         0.50868E-03
         0.45925E-03
         0.24761E-04
         0.61429E-04
         0.44187E-05
         0.36409E-04
        -0.63169E-04
        -0.18868E-04
         0.79834E-04
         0.10024E-03
         0.24136E-04
         0.62718E-04
         0.66667E-04
         0.43702E-03
         0.15653E-03
         0.26786E-03
         0.64860E-03
         0.37829E-03
         0.33355E-03
         0.69431E-03
         0.56301E-03
         0.57332E-03
         0.33249E-03
         0.26459E-03
         0.50755E-03
         0.22203E-03
         0.16518E-03
         0.12163E-03
         0.17327E-03
         0.42660E-03
         0.22164E-03
         0.78029E-02
         0.82288E-02
         0.89652E-02
         0.88706E-02
         0.10101E-01
         0.11651E-01
         0.10719E-01
         0.84967E-02
         0.80607E-02
         0.92051E-02
         0.88393E-02
         0.85979E-02
         0.58666E-02
         0.53207E-02
         0.63878E-02
         0.73093E-02
         0.78775E-02
         0.93991E-02
         0.86983E-02
         0.92062E-02
         0.74678E-02
         0.67241E-02
         0.76268E-02
         0.72836E-02
         0.77340E-02
         0.76227E-02
         0.26925E-03
         0.98576E-04
         0.93029E-04
         0.65462E-04
         0.27926E-03
         0.15613E-03
         0.15715E-04
         0.21823E-03
         0.12667E-03
         0.19089E-03
         0.20512E-04
         0.91741E-03
         0.53733E-03
         0.71711E-04
         0.99269E-03
         0.13573E-03
         0.50361E-04
         0.37104E-04
         0.56840E-04
         0.18408E-04
         0.56316E-03
         0.50849E-03
         0.45785E-03
         0.23394E-04
         0.61269E-04
         0.31506E-05
         0.36854E-04
        -0.63488E-04
        -0.19555E-04
         0.78665E-04
         0.10042E-03
         0.23731E-04
         0.62976E-04
         0.67193E-04
         0.43794E-03
         0.15690E-03
         0.26813E-03
         0.65109E-03
         0.38043E-03
         0.33463E-03
         0.69519E-03
         0.56281E-03
         0.57235E-03
         0.33119E-03
         0.26418E-03
         0.50781E-03
         0.22238E-03
         0.16557E-03
         0.12177E-03
         0.17336E-03
         0.42669E-03
         0.22155E-03
         0.77983E-02
         0.82259E-02
         0.89662E-02
         0.88716E-02
         0.10098E-01
         0.11643E-01
         0.10711E-01
         0.84930E-02
         0.80574E-02
         0.92004E-02
         0.88368E-02
         0.85985E-02
         0.58656E-02
         0.53208E-02
         0.63897E-02
         0.73123E-02
         0.78809E-02
         0.94034E-02
         0.86983E-02
         0.92062E-02
         0.74671E-02
         0.67243E-02
         0.76226E-02
         0.72750E-02
         0.77261E-02
         0.76154E-02
         0.26941E-03
         0.98481E-04
         0.92987E-04
         0.65347E-04
         0.27885E-03
         0.15584E-03
         0.15718E-04
         0.21845E-03
         0.12652E-03
         0.19126E-03
         0.20312E-04
         0.91712E-03
         0.53760E-03
         0.70869E-04
         0.99451E-03
         0.13464E-03
         0.49485E-04
         0.36784E-04
         0.55293E-04
         0.16696E-04
         0.56180E-03
         0.50711E-03
         0.45476E-03
         0.20335E-04
         0.59502E-04
         0.26557E-06
         0.36412E-04
        -0.65122E-04
        -0.21976E-04
         0.75344E-04
         0.99836E-04
         0.22180E-04
         0.62619E-04
         0.67014E-04
         0.43805E-03
         0.15663E-03
         0.26787E-03
         0.65277E-03
         0.38173E-03
         0.33468E-03
         0.69491E-03
         0.56093E-03
         0.56948E-03
         0.32814E-03
         0.26256E-03
         0.50697E-03
         0.22180E-03
         0.16521E-03
         0.12119E-03
         0.17263E-03
         0.42594E-03
         0.22077E-03
         0.77921E-02
         0.82216E-02
         0.89656E-02
         0.88712E-02
         0.10095E-01
         0.11635E-01
         0.10702E-01
         0.84878E-02
         0.80527E-02
         0.91941E-02
         0.88326E-02
         0.85974E-02
         0.58629E-02
         0.53196E-02
         0.63904E-02
         0.73138E-02
         0.78827E-02
         0.94063E-02
         0.86967E-02
         0.92045E-02
         0.74651E-02
         0.67229E-02
         0.76168E-02
         0.72650E-02
         0.77171E-02
         0.76070E-02
         0.26938E-03
         0.98249E-04
         0.92849E-04
         0.65225E-04
         0.27842E-03
         0.15550E-03
         0.15636E-04
         0.21851E-03
         0.12628E-03
         0.19158E-03
         0.20100E-04
         0.91692E-03
         0.53785E-03
         0.70005E-04
         0.99647E-03
         0.13399E-03
         0.48840E-04
         0.36483E-04
         0.54302E-04
         0.15441E-04
         0.56101E-03
         0.50613E-03
         0.45290E-03
         0.18435E-04
         0.58420E-04
        -0.15876E-05
         0.36028E-04
        -0.66305E-04
        -0.23609E-04
         0.73212E-04
         0.99220E-04
         0.21052E-04
         0.62049E-04
         0.66743E-04
         0.43818E-03
         0.15631E-03
         0.26754E-03
         0.65457E-03
         0.38315E-03
         0.33500E-03
         0.69507E-03
         0.55990E-03
         0.56772E-03
         0.32630E-03
         0.26151E-03
         0.50647E-03
         0.22131E-03
         0.16467E-03
         0.12040E-03
         0.17175E-03
         0.42506E-03
         0.21988E-03
         0.77860E-02
         0.82174E-02
         0.89650E-02
         0.88710E-02
         0.10091E-01
         0.11627E-01
         0.10693E-01
         0.84829E-02
         0.80481E-02
         0.91881E-02
         0.88290E-02
         0.85971E-02
         0.58611E-02
         0.53187E-02
         0.63916E-02
         0.73167E-02
         0.78859E-02
         0.94099E-02
         0.86956E-02
         0.92029E-02
         0.74628E-02
         0.67214E-02
         0.76109E-02
         0.72549E-02
         0.77081E-02
         0.75986E-02
         0.26877E-03
         0.97756E-04
         0.92710E-04
         0.65528E-04
         0.27843E-03
         0.15568E-03
         0.15622E-04
         0.21826E-03
         0.12581E-03
         0.19157E-03
         0.20277E-04
         0.91739E-03
         0.53847E-03
         0.69474E-04
         0.99919E-03
         0.13441E-03
         0.48847E-04
         0.36802E-04
         0.54597E-04
         0.15537E-04
         0.56149E-03
         0.50647E-03
         0.45304E-03
         0.18389E-04
         0.58357E-04
        -0.18567E-05
         0.35981E-04
        -0.66473E-04
        -0.23373E-04
         0.73402E-04
         0.98441E-04
         0.20449E-04
         0.61185E-04
         0.66718E-04
         0.43881E-03
         0.15627E-03
         0.26739E-03
         0.65710E-03
         0.38540E-03
         0.33649E-03
         0.69660E-03
         0.56085E-03
         0.56822E-03
         0.32635E-03
         0.26139E-03
         0.50648E-03
         0.22090E-03
         0.16360E-03
         0.11891E-03
         0.17072E-03
         0.42448E-03
         0.21945E-03
         0.77812E-02
         0.82144E-02
         0.89656E-02
         0.88716E-02
         0.10088E-01
         0.11620E-01
         0.10684E-01
         0.84791E-02
         0.80450E-02
         0.91837E-02
         0.88272E-02
         0.85988E-02
         0.58614E-02
         0.53192E-02
         0.63942E-02
         0.73221E-02
         0.78918E-02
         0.94149E-02
         0.86951E-02
         0.92022E-02
         0.74612E-02
         0.67201E-02
         0.76054E-02
         0.72455E-02
         0.76999E-02
         0.75912E-02
         0.26763E-03
         0.96837E-04
         0.92252E-04
         0.65499E-04
         0.27801E-03
         0.15553E-03
         0.15065E-04
         0.21732E-03
         0.12480E-03
         0.19096E-03
         0.19836E-04
         0.91721E-03
         0.53863E-03
         0.68255E-04
         0.10012E-02
         0.13439E-03
         0.48352E-04
         0.36663E-04
         0.54488E-04
         0.15189E-04
         0.56155E-03
         0.50638E-03
         0.45300E-03
         0.18152E-04
         0.57955E-04
        -0.23356E-05
         0.35289E-04
        -0.67094E-04
        -0.23424E-04
         0.73388E-04
         0.97261E-04
         0.19458E-04
         0.59933E-04
         0.66335E-04
         0.43890E-03
         0.15584E-03
         0.26688E-03
         0.65892E-03
         0.38699E-03
         0.33742E-03
         0.69763E-03
         0.56149E-03
         0.56850E-03
         0.32622E-03
         0.26086E-03
         0.50584E-03
         0.21992E-03
         0.16202E-03
         0.11696E-03
         0.16924E-03
         0.42349E-03
         0.21868E-03
         0.77752E-02
         0.82103E-02
         0.89653E-02
         0.88714E-02
         0.10085E-01
         0.11612E-01
         0.10675E-01
         0.84743E-02
         0.80406E-02
         0.91778E-02
         0.88242E-02
         0.85998E-02
         0.58609E-02
         0.53189E-02
         0.63960E-02
         0.73269E-02
         0.78971E-02
         0.94188E-02
         0.86930E-02
         0.92000E-02
         0.74587E-02
         0.67181E-02
         0.75989E-02
         0.72354E-02
         0.76909E-02
         0.75829E-02
         0.26751E-03
         0.96495E-04
         0.92111E-04
         0.65419E-04
         0.27759E-03
         0.15519E-03
         0.14847E-04
         0.21719E-03
         0.12474E-03
         0.19153E-03
         0.19538E-04
         0.91694E-03
         0.53879E-03
         0.67316E-04
         0.10031E-02
         0.13441E-03
         0.48271E-04
         0.36413E-04
         0.54394E-04
         0.14905E-04
         0.56153E-03
         0.50615E-03
         0.45289E-03
         0.17970E-04
         0.58246E-04
        -0.26143E-05
         0.35033E-04
        -0.67438E-04
        -0.23606E-04
         0.73388E-04
         0.96991E-04
         0.19046E-04
         0.59441E-04
         0.66144E-04
         0.43907E-03
         0.15559E-03
         0.26656E-03
         0.66068E-03
         0.38854E-03
         0.33816E-03
         0.69836E-03
         0.56190E-03
         0.56861E-03
         0.32614E-03
         0.26057E-03
         0.50565E-03
         0.21967E-03
         0.16166E-03
         0.11631E-03
         0.16848E-03
         0.42274E-03
         0.21786E-03
         0.77690E-02
         0.82059E-02
         0.89647E-02
         0.88712E-02
         0.10081E-01
         0.11604E-01
         0.10666E-01
         0.84693E-02
         0.80359E-02
         0.91715E-02
         0.88206E-02
         0.86006E-02
         0.58603E-02
         0.53182E-02
         0.63974E-02
         0.73313E-02
         0.79019E-02
         0.94225E-02
         0.86913E-02
         0.91985E-02
         0.74570E-02
         0.67170E-02
         0.75930E-02
         0.72253E-02
         0.76818E-02
         0.75744E-02
         0.26809E-03
         0.96727E-04
         0.92361E-04
         0.65590E-04
         0.27759E-03
         0.15511E-03
         0.15224E-04
         0.21785E-03
         0.12533E-03
         0.19293E-03
         0.19803E-04
         0.91722E-03
         0.53947E-03
         0.67077E-04
         0.10057E-02
         0.13498E-03
         0.48739E-04
         0.36522E-04
         0.54792E-04
         0.15111E-04
         0.56201E-03
         0.50643E-03
         0.45329E-03
         0.18277E-04
         0.59201E-04
        -0.23356E-05
         0.35565E-04
        -0.67107E-04
        -0.23196E-04
         0.73927E-04
         0.97422E-04
         0.19237E-04
         0.59490E-04
         0.66281E-04
         0.43980E-03
         0.15576E-03
         0.26668E-03
         0.66316E-03
         0.39072E-03
         0.33947E-03
         0.69974E-03
         0.56288E-03
         0.56920E-03
         0.32661E-03
         0.26086E-03
         0.50605E-03
         0.22001E-03
         0.16199E-03
         0.11636E-03
         0.16832E-03
         0.42253E-03
         0.21736E-03
         0.77641E-02
         0.82028E-02
         0.89649E-02
         0.88714E-02
         0.10078E-01
         0.11596E-01
         0.10657E-01
         0.84652E-02
         0.80321E-02
         0.91661E-02
         0.88183E-02
         0.86024E-02
         0.58604E-02
         0.53184E-02
         0.63997E-02
         0.73366E-02
         0.79078E-02
         0.94274E-02
         0.86906E-02
         0.91979E-02
         0.74563E-02
         0.67169E-02
         0.75882E-02
         0.72163E-02
         0.76737E-02
         0.75668E-02
         0.26832E-03
         0.96705E-04
         0.92395E-04
         0.65576E-04
         0.27733E-03
         0.15486E-03
         0.15318E-04
         0.21805E-03
         0.12547E-03
         0.19381E-03
         0.19698E-04
         0.91706E-03
         0.53992E-03
         0.66316E-04
         0.10075E-02
         0.13508E-03
         0.48759E-04
         0.36261E-04
         0.54726E-04
         0.14873E-04
         0.56210E-03
         0.50628E-03
         0.45328E-03
         0.18156E-04
         0.59767E-04
        -0.24585E-05
         0.35532E-04
        -0.67174E-04
        -0.23136E-04
         0.74074E-04
         0.97456E-04
         0.19090E-04
         0.59164E-04
         0.66154E-04
         0.44012E-03
         0.15563E-03
         0.26656E-03
         0.66498E-03
         0.39245E-03
         0.34039E-03
         0.70066E-03
         0.56346E-03
         0.56933E-03
         0.32673E-03
         0.26083E-03
         0.50609E-03
         0.21995E-03
         0.16186E-03
         0.11596E-03
         0.16779E-03
         0.42199E-03
         0.21665E-03
         0.77582E-02
         0.81987E-02
         0.89643E-02
         0.88712E-02
         0.10075E-01
         0.11588E-01
         0.10648E-01
         0.84601E-02
         0.80278E-02
         0.91600E-02
         0.88149E-02
         0.86033E-02
         0.58597E-02
         0.53180E-02
         0.64015E-02
         0.73414E-02
         0.79132E-02
         0.94317E-02
         0.86893E-02
         0.91964E-02
         0.74545E-02
         0.67159E-02
         0.75827E-02
         0.72067E-02
         0.76649E-02
         0.75585E-02
         0.26842E-03
         0.96527E-04
         0.92348E-04
         0.65616E-04
         0.27697E-03
         0.15466E-03
         0.15312E-04
         0.21820E-03
         0.12563E-03
         0.19469E-03
         0.19577E-04
         0.91685E-03
         0.54026E-03
         0.65597E-04
         0.10094E-02
         0.13513E-03
         0.48818E-04
         0.36083E-04
         0.54630E-04
         0.14675E-04
         0.56215E-03
         0.50614E-03
         0.45323E-03
         0.17972E-04
         0.60336E-04
        -0.26789E-05
         0.35530E-04
        -0.67282E-04
        -0.23086E-04
         0.74255E-04
         0.97430E-04
         0.18869E-04
         0.58924E-04
         0.66176E-04
         0.44032E-03
         0.15542E-03
         0.26635E-03
         0.66682E-03
         0.39416E-03
         0.34132E-03
         0.70167E-03
         0.56405E-03
         0.56948E-03
         0.32677E-03
         0.26074E-03
         0.50611E-03
         0.21990E-03
         0.16175E-03
         0.11558E-03
         0.16728E-03
         0.42148E-03
         0.21603E-03
         0.77520E-02
         0.81945E-02
         0.89638E-02
         0.88712E-02
         0.10071E-01
         0.11580E-01
         0.10638E-01
         0.84551E-02
         0.80235E-02
         0.91540E-02
         0.88118E-02
         0.86041E-02
         0.58588E-02
         0.53176E-02
         0.64031E-02
         0.73460E-02
         0.79185E-02
         0.94359E-02
         0.86878E-02
         0.91949E-02
         0.74527E-02
         0.67149E-02
         0.75771E-02
         0.71970E-02
         0.76560E-02
         0.75501E-02
         0.26885E-03
         0.96599E-04
         0.92490E-04
         0.65837E-04
         0.27690E-03
         0.15467E-03
         0.15606E-04
         0.21875E-03
         0.12608E-03
         0.19591E-03
         0.19837E-04
         0.91705E-03
         0.54079E-03
         0.65336E-04
         0.10120E-02
         0.13556E-03
         0.49128E-04
         0.36192E-04
         0.54900E-04
         0.14827E-04
         0.56257E-03
         0.50638E-03
         0.45353E-03
         0.18160E-04
         0.61147E-04
        -0.25058E-05
         0.35897E-04
        -0.67078E-04
        -0.22639E-04
         0.74819E-04
         0.97807E-04
         0.18990E-04
         0.59013E-04
         0.66436E-04
         0.44095E-03
         0.15552E-03
         0.26636E-03
         0.66926E-03
         0.39635E-03
         0.34275E-03
         0.70307E-03
         0.56496E-03
         0.57002E-03
         0.32712E-03
         0.26093E-03
         0.50641E-03
         0.22015E-03
         0.16198E-03
         0.11554E-03
         0.16709E-03
         0.42126E-03
         0.21565E-03
         0.77469E-02
         0.81912E-02
         0.89641E-02
         0.88715E-02
         0.10068E-01
         0.11572E-01
         0.10630E-01
         0.84511E-02
         0.80198E-02
         0.91488E-02
         0.88094E-02
         0.86055E-02
         0.58588E-02
         0.53178E-02
         0.64055E-02
         0.73512E-02
         0.79241E-02
         0.94405E-02
         0.86869E-02
         0.91941E-02
         0.74518E-02
         0.67147E-02
         0.75722E-02
         0.71879E-02
         0.76480E-02
         0.75426E-02
         0.26907E-03
         0.96457E-04
         0.92446E-04
         0.65808E-04
         0.27653E-03
         0.15438E-03
         0.15562E-04
         0.21892E-03
         0.12628E-03
         0.19675E-03
         0.19648E-04
         0.91679E-03
         0.54100E-03
         0.64531E-04
         0.10140E-02
         0.13565E-03
         0.49146E-04
         0.35917E-04
         0.54764E-04
         0.14560E-04
         0.56250E-03
         0.50612E-03
         0.45336E-03
         0.17948E-04
         0.61601E-04
        -0.27005E-05
         0.35690E-04
        -0.67401E-04
        -0.22732E-04
         0.74926E-04
         0.97795E-04
         0.18779E-04
         0.58647E-04
         0.66326E-04
         0.44115E-03
         0.15529E-03
         0.26606E-03
         0.67107E-03
         0.39794E-03
         0.34354E-03
         0.70385E-03
         0.56532E-03
         0.57006E-03
         0.32703E-03
         0.26074E-03
         0.50632E-03
         0.22004E-03
         0.16178E-03
         0.11511E-03
         0.16657E-03
         0.42069E-03
         0.21492E-03
         0.77408E-02
         0.81870E-02
         0.89634E-02
         0.88711E-02
         0.10064E-01
         0.11564E-01
         0.10620E-01
         0.84461E-02
         0.80153E-02
         0.91425E-02
         0.88058E-02
         0.86059E-02
         0.58579E-02
         0.53171E-02
         0.64070E-02
         0.73556E-02
         0.79289E-02
         0.94442E-02
         0.86854E-02
         0.91926E-02
         0.74500E-02
         0.67138E-02
         0.75668E-02
         0.71782E-02
         0.76390E-02
         0.75342E-02
         0.26935E-03
         0.96411E-04
         0.92488E-04
         0.65877E-04
         0.27631E-03
         0.15420E-03
         0.15671E-04
         0.21923E-03
         0.12662E-03
         0.19783E-03
         0.19655E-04
         0.91676E-03
         0.54143E-03
         0.63973E-04
         0.10161E-02
         0.13587E-03
         0.49359E-04
         0.35808E-04
         0.54820E-04
         0.14474E-04
         0.56264E-03
         0.50608E-03
         0.45341E-03
         0.17905E-04
         0.62264E-04
        -0.27655E-05
         0.35816E-04
        -0.67467E-04
        -0.22642E-04
         0.75164E-04
         0.97868E-04
         0.18678E-04
         0.58425E-04
         0.66347E-04
         0.44154E-03
         0.15519E-03
         0.26592E-03
         0.67309E-03
         0.39969E-03
         0.34451E-03
         0.70493E-03
         0.56599E-03
         0.57032E-03
         0.32717E-03
         0.26074E-03
         0.50645E-03
         0.22008E-03
         0.16173E-03
         0.11480E-03
         0.16617E-03
         0.42028E-03
         0.21433E-03
         0.77351E-02
         0.81832E-02
         0.89630E-02
         0.88710E-02
         0.10061E-01
         0.11556E-01
         0.10611E-01
         0.84411E-02
         0.80109E-02
         0.91365E-02
         0.88029E-02
         0.86070E-02
         0.58573E-02
         0.53168E-02
         0.64088E-02
         0.73604E-02
         0.79343E-02
         0.94485E-02
         0.86842E-02
         0.91913E-02
         0.74485E-02
         0.67131E-02
         0.75615E-02
         0.71687E-02
         0.76303E-02
         0.75260E-02
         0.27005E-03
         0.96853E-04
         0.92938E-04
         0.66274E-04
         0.27654E-03
         0.15440E-03
         0.16328E-04
         0.22003E-03
         0.12726E-03
         0.19928E-03
         0.20227E-04
         0.91738E-03
         0.54243E-03
         0.63941E-04
         0.10189E-02
         0.13650E-03
         0.49932E-04
         0.36071E-04
         0.55320E-04
         0.14862E-04
         0.56335E-03
         0.50655E-03
         0.45398E-03
         0.18317E-04
         0.63408E-04
        -0.23661E-05
         0.36469E-04
        -0.66872E-04
        -0.21899E-04
         0.75969E-04
         0.98453E-04
         0.19069E-04
         0.58634E-04
         0.66675E-04
         0.44246E-03
         0.15558E-03
         0.26629E-03
         0.67568E-03
         0.40214E-03
         0.34614E-03
         0.70652E-03
         0.56717E-03
         0.57106E-03
         0.32786E-03
         0.26130E-03
         0.50712E-03
         0.22063E-03
         0.16222E-03
         0.11495E-03
         0.16612E-03
         0.42024E-03
         0.21408E-03
         0.77304E-02
         0.81804E-02
         0.89636E-02
         0.88717E-02
         0.10058E-01
         0.11549E-01
         0.10603E-01
         0.84371E-02
         0.80076E-02
         0.91314E-02
         0.88008E-02
         0.86089E-02
         0.58575E-02
         0.53172E-02
         0.64115E-02
         0.73661E-02
         0.79407E-02
         0.94539E-02
         0.86839E-02
         0.91910E-02
         0.74480E-02
         0.67130E-02
         0.75568E-02
         0.71600E-02
         0.76226E-02
         0.75189E-02
         0.27018E-03
         0.96722E-04
         0.92902E-04
         0.66211E-04
         0.27613E-03
         0.15411E-03
         0.16306E-04
         0.22015E-03
         0.12740E-03
         0.20007E-03
         0.20047E-04
         0.91718E-03
         0.54280E-03
         0.63132E-04
         0.10208E-02
         0.13654E-03
         0.49906E-04
         0.35836E-04
         0.55116E-04
         0.14551E-04
         0.56337E-03
         0.50631E-03
         0.45393E-03
         0.18062E-04
         0.63828E-04
        -0.26355E-05
         0.36291E-04
        -0.67097E-04
        -0.21791E-04
         0.76126E-04
         0.98490E-04
         0.18835E-04
         0.58347E-04
         0.66531E-04
         0.44262E-03
         0.15536E-03
         0.26611E-03
         0.67747E-03
         0.40381E-03
         0.34709E-03
         0.70741E-03
         0.56761E-03
         0.57106E-03
         0.32782E-03
         0.26114E-03
         0.50707E-03
         0.22056E-03
         0.16213E-03
         0.11456E-03
         0.16553E-03
         0.41964E-03
         0.21335E-03
         0.77241E-02
         0.81760E-02
         0.89628E-02
         0.88715E-02
         0.10055E-01
         0.11541E-01
         0.10593E-01
         0.84319E-02
         0.80030E-02
         0.91251E-02
         0.87973E-02
         0.86093E-02
         0.58565E-02
         0.53168E-02
         0.64133E-02
         0.73709E-02
         0.79459E-02
         0.94578E-02
         0.86824E-02
         0.91895E-02
         0.74463E-02
         0.67120E-02
         0.75510E-02
         0.71504E-02
         0.76139E-02
         0.75104E-02
         0.27020E-03
         0.96398E-04
         0.92668E-04
         0.66090E-04
         0.27562E-03
         0.15368E-03
         0.16177E-04
         0.22022E-03
         0.12745E-03
         0.20062E-03
         0.19820E-04
         0.91685E-03
         0.54300E-03
         0.62314E-04
         0.10226E-02
         0.13654E-03
         0.49760E-04
         0.35575E-04
         0.54963E-04
         0.14366E-04
         0.56336E-03
         0.50603E-03
         0.45383E-03
         0.17845E-04
         0.64038E-04
        -0.29003E-05
         0.35784E-04
        -0.67451E-04
        -0.20944E-04
         0.76772E-04
         0.98419E-04
         0.18517E-04
         0.58061E-04
         0.66450E-04
         0.44274E-03
         0.15503E-03
         0.26577E-03
         0.67906E-03
         0.40549E-03
         0.34866E-03
         0.70848E-03
         0.56802E-03
         0.57095E-03
         0.32779E-03
         0.26091E-03
         0.50691E-03
         0.22035E-03
         0.16194E-03
         0.11414E-03
         0.16498E-03
         0.41906E-03
         0.21258E-03
         0.77180E-02
         0.81718E-02
         0.89622E-02
         0.88713E-02
         0.10051E-01
         0.11532E-01
         0.10583E-01
         0.84266E-02
         0.79984E-02
         0.91190E-02
         0.87933E-02
         0.86089E-02
         0.58554E-02
         0.53162E-02
         0.64149E-02
         0.73755E-02
         0.79510E-02
         0.94617E-02
         0.86807E-02
         0.91877E-02
         0.74445E-02
         0.67110E-02
         0.75453E-02
         0.71406E-02
         0.76049E-02
         0.75019E-02
         0.27089E-03
         0.96803E-04
         0.93149E-04
         0.66549E-04
         0.27588E-03
         0.15391E-03
         0.16772E-04
         0.22101E-03
         0.12801E-03
         0.20162E-03
         0.20343E-04
         0.91731E-03
         0.54386E-03
         0.62255E-04
         0.10253E-02
         0.13718E-03
         0.50220E-04
         0.35818E-04
         0.55530E-04
         0.15054E-04
         0.56397E-03
         0.50644E-03
         0.45432E-03
         0.18288E-04
         0.64841E-04
        -0.24629E-05
         0.35734E-04
        -0.67086E-04
        -0.18640E-04
         0.78665E-04
         0.98944E-04
         0.18915E-04
         0.58265E-04
         0.66868E-04
         0.44370E-03
         0.15548E-03
         0.26612E-03
         0.68133E-03
         0.40802E-03
         0.35150E-03
         0.71045E-03
         0.56913E-03
         0.57146E-03
         0.32841E-03
         0.26146E-03
         0.50764E-03
         0.22093E-03
         0.16239E-03
         0.11432E-03
         0.16506E-03
         0.41915E-03
         0.21240E-03
         0.77133E-02
         0.81690E-02
         0.89629E-02
         0.88721E-02
         0.10048E-01
         0.11525E-01
         0.10575E-01
         0.84228E-02
         0.79952E-02
         0.91145E-02
         0.87902E-02
         0.86091E-02
         0.58553E-02
         0.53166E-02
         0.64173E-02
         0.73807E-02
         0.79570E-02
         0.94669E-02
         0.86806E-02
         0.91875E-02
         0.74441E-02
         0.67112E-02
         0.75409E-02
         0.71321E-02
         0.75972E-02
         0.74947E-02
         0.26976E-03
         0.95312E-04
         0.91780E-04
         0.65278E-04
         0.27396E-03
         0.15215E-03
         0.15280E-04
         0.21966E-03
         0.12678E-03
         0.20062E-03
         0.18555E-04
         0.91521E-03
         0.54237E-03
         0.59767E-04
         0.10253E-02
         0.13599E-03
         0.48752E-04
         0.34357E-04
         0.53967E-04
         0.13435E-04
         0.56232E-03
         0.50458E-03
         0.45263E-03
         0.16705E-04
         0.63558E-04
        -0.39745E-05
         0.33497E-04
        -0.68988E-04
        -0.19324E-04
         0.77802E-04
         0.97684E-04
         0.17331E-04
         0.56681E-04
         0.65382E-04
         0.44218E-03
         0.15366E-03
         0.26422E-03
         0.68108E-03
         0.40802E-03
         0.35137E-03
         0.70961E-03
         0.56772E-03
         0.56972E-03
         0.32684E-03
         0.25967E-03
         0.50571E-03
         0.21921E-03
         0.16077E-03
         0.11246E-03
         0.16291E-03
         0.41673E-03
         0.21006E-03
         0.77041E-02
         0.81617E-02
         0.89590E-02
         0.88685E-02
         0.10041E-01
         0.11513E-01
         0.10562E-01
         0.84144E-02
         0.79876E-02
         0.91048E-02
         0.87828E-02
         0.86063E-02
         0.58518E-02
         0.53135E-02
         0.64161E-02
         0.73825E-02
         0.79592E-02
         0.94675E-02
         0.86757E-02
         0.91827E-02
         0.74394E-02
         0.67074E-02
         0.75323E-02
         0.71194E-02
         0.75855E-02
         0.74835E-02
         0.27088E-03
         0.95415E-04
         0.92135E-04
         0.65921E-04
         0.27433E-03
         0.15255E-03
         0.15660E-04
         0.22100E-03
         0.12815E-03
         0.20319E-03
         0.19109E-04
         0.91527E-03
         0.54234E-03
         0.60418E-04
         0.10284E-02
         0.13737E-03
         0.50055E-04
         0.35049E-04
         0.54932E-04
         0.14291E-04
         0.56335E-03
         0.50519E-03
         0.45401E-03
         0.17888E-04
         0.65971E-04
        -0.28829E-05
         0.35453E-04
        -0.66851E-04
        -0.17371E-04
         0.79693E-04
         0.98743E-04
         0.17989E-04
         0.56973E-04
         0.65215E-04
         0.44293E-03
         0.15349E-03
         0.26362E-03
         0.68448E-03
         0.41140E-03
         0.35360E-03
         0.71137E-03
         0.56937E-03
         0.57113E-03
         0.32824E-03
         0.26040E-03
         0.50620E-03
         0.21959E-03
         0.16154E-03
         0.11279E-03
         0.16257E-03
         0.41650E-03
         0.20955E-03
         0.76998E-02
         0.81597E-02
         0.89592E-02
         0.88678E-02
         0.10036E-01
         0.11505E-01
         0.10554E-01
         0.84115E-02
         0.79849E-02
         0.90990E-02
         0.87803E-02
         0.86093E-02
         0.58532E-02
         0.53140E-02
         0.64195E-02
         0.73893E-02
         0.79664E-02
         0.94732E-02
         0.86752E-02
         0.91816E-02
         0.74388E-02
         0.67077E-02
         0.75286E-02
         0.71122E-02
         0.75788E-02
         0.74773E-02
         0.58448E-02
         0.59079E-02
         0.58599E-02
         0.53282E-02
         0.69490E-02
         0.63807E-02
         0.63075E-02
         0.65946E-02
         0.56051E-02
         0.65960E-02
         0.70274E-02
         0.90233E-02
         0.78111E-02
         0.72973E-02
         0.93755E-02
         0.54916E-02
         0.58105E-02
         0.50670E-02
         0.60604E-02
         0.62963E-02
         0.72466E-02
         0.72409E-02
         0.68674E-02
         0.57634E-02
         0.64782E-02
         0.55005E-02
         0.72021E-02
         0.68797E-02
         0.69355E-02
         0.67126E-02
         0.55096E-02
         0.57106E-02
         0.53540E-02
         0.55953E-02
         0.78702E-02
         0.68075E-02
         0.69281E-02
         0.86046E-02
         0.80334E-02
         0.78553E-02
         0.84367E-02
         0.78693E-02
         0.74901E-02
         0.65534E-02
         0.67552E-02
         0.79790E-02
         0.69798E-02
         0.64558E-02
         0.62560E-02
         0.65469E-02
         0.74935E-02
         0.66477E-02
         0.20793E-01
         0.20943E-01
         0.22009E-01
         0.21472E-01
         0.23012E-01
         0.25102E-01
         0.24215E-01
         0.21917E-01
         0.21608E-01
         0.23116E-01
         0.22387E-01
         0.21451E-01
         0.17256E-01
         0.16062E-01
         0.17350E-01
         0.18597E-01
         0.19317E-01
         0.21833E-01
         0.21893E-01
         0.22432E-01
         0.19589E-01
         0.18438E-01
         0.19686E-01
         0.19139E-01
         0.19507E-01
         0.19412E-01
         0.61323E-01
         0.63901E-01
         0.62988E-01
         0.57556E-01
         0.70841E-01
         0.66432E-01
         0.68907E-01
         0.69790E-01
         0.59771E-01
         0.69733E-01
         0.75562E-01
         0.85995E-01
         0.77555E-01
         0.77833E-01
         0.89179E-01
         0.58652E-01
         0.62775E-01
         0.54950E-01
         0.64814E-01
         0.68046E-01
         0.71244E-01
         0.72658E-01
         0.68309E-01
         0.62355E-01
         0.70314E-01
         0.60190E-01
         0.77558E-01
         0.76073E-01
         0.76439E-01
         0.72758E-01
         0.59213E-01
         0.62082E-01
         0.57998E-01
         0.60575E-01
         0.77703E-01
         0.71001E-01
         0.71402E-01
         0.85885E-01
         0.83251E-01
         0.82150E-01
         0.84196E-01
         0.79837E-01
         0.75608E-01
         0.66532E-01
         0.69086E-01
         0.77782E-01
         0.71625E-01
         0.67355E-01
         0.65964E-01
         0.68398E-01
         0.74527E-01
         0.68650E-01
         0.13343E+00
         0.13090E+00
         0.13473E+00
         0.13080E+00
         0.13612E+00
         0.14479E+00
         0.14571E+00
         0.14212E+00
         0.14229E+00
         0.14699E+00
         0.14266E+00
         0.13458E+00
         0.11771E+00
         0.11087E+00
         0.11277E+00
         0.11543E+00
         0.11729E+00
         0.12844E+00
         0.13535E+00
         0.13664E+00
         0.12493E+00
         0.12035E+00
         0.12525E+00
         0.12384E+00
         0.12320E+00
         0.12261E+00
  
SCALARS                      strain_yz  double 1
LOOKUP_TABLE default
        -0.12139E+00
         0.39294E-01
         0.10380E+00
         0.55083E-01
        -0.33539E-09
        -0.92441E-10
        -0.41565E-09
        -0.31703E-09
         0.38005E+00
        -0.25312E+00
        -0.61857E-09
        -0.54458E-09
         0.32241E+00
         0.16373E-01
         0.44269E-09
        -0.28382E-10
        -0.12053E+00
        -0.41328E+00
         0.65130E-11
         0.66641E-10
         0.20788E+00
         0.76143E+00
         0.82305E+00
         0.10148E-08
         0.17525E-08
         0.14649E-08
         0.75277E-01
         0.74500E+00
         0.72996E-09
         0.14161E-08
        -0.13754E+00
        -0.11568E+00
         0.10533E+00
         0.37842E-09
         0.38631E-09
        -0.80201E-11
        -0.40015E+00
        -0.36841E+00
         0.69637E-09
         0.54180E-09
        -0.38594E+00
        -0.23682E+00
         0.52627E-09
         0.48095E-09
        -0.36050E+00
        -0.12610E+00
        -0.17458E-10
         0.27003E-09
        -0.30500E+00
         0.12714E-09
        -0.33379E-01
        -0.10297E-10
        -0.17209E-01
         0.49179E-09
         0.11274E+00
         0.28608E-09
         0.36714E+00
        -0.68015E-01
         0.77611E-11
        -0.15752E-10
        -0.16667E+00
        -0.59908E+00
        -0.10575E-09
        -0.39554E-09
        -0.10150E+00
        -0.21345E-09
        -0.42847E+00
        -0.26003E-09
         0.32991E+00
         0.17504E+00
        -0.32135E-10
         0.42429E-09
         0.60708E+00
         0.93169E-09
         0.93251E+00
         0.90211E-09
         0.93406E+00
         0.68479E-09
         0.77013E+00
         0.57398E-09
         0.11429E+01
         0.89890E+00
         0.36821E-09
        -0.81637E-10
         0.13093E+00
        -0.91348E-11
        -0.56222E+00
        -0.57223E-09
        -0.13032E+01
        -0.10018E-08
        -0.17849E+01
        -0.11069E+01
        -0.14858E-08
        -0.12026E-08
        -0.78815E+00
        -0.93355E-09
        -0.71177E+00
        -0.95508E-09
        -0.68714E+00
        -0.10269E-08
        -0.11343E+01
        -0.95243E+00
        -0.95498E-09
        -0.45758E-09
         0.71763E+00
        -0.27411E+00
         0.33579E-09
        -0.41728E-09
         0.17431E+01
         0.11171E-08
         0.25222E+01
         0.16340E-08
         0.30404E+01
         0.20180E-08
         0.34087E+01
         0.20017E-08
         0.38183E+01
         0.15841E-08
         0.38015E+01
         0.12259E-08
         0.35712E+01
         0.11402E-08
         0.31839E+01
         0.10848E-08
         0.23936E+01
         0.69328E-09
         0.16851E+01
         0.22889E-09
         0.88863E+00
         0.14790E-09
        -0.66353E-01
         0.22231E-09
        -0.91098E+00
         0.11482E-09
        -0.16698E+01
        -0.34723E-09
        -0.25722E+01
        -0.98011E-09
        -0.27881E+01
        -0.15305E-08
        -0.29791E+01
        -0.20064E-08
        -0.37121E+01
        -0.20047E-08
        -0.38863E+01
        -0.17500E-08
        -0.36424E+01
        -0.17055E-08
        -0.29490E+01
        -0.17162E-08
        -0.20231E+01
        -0.13571E-08
        -0.14379E+01
        -0.80250E-09
        -0.10406E+01
        -0.62050E-09
        -0.61056E-02
        -0.30500E-02
        -0.26755E-02
        -0.86829E-03
        -0.26301E-02
        -0.29270E-02
        -0.29141E-03
        -0.46189E-02
        -0.42084E-02
        -0.59536E-02
         0.28428E-02
         0.11996E-01
         0.84396E-02
         0.98060E-03
         0.12272E-01
         0.16370E-02
        -0.14389E-02
         0.94689E-03
         0.11580E-02
        -0.88650E-03
         0.79942E-03
         0.66723E-03
        -0.21916E-02
         0.18580E-03
        -0.40706E-02
         0.60087E-03
         0.29956E-04
         0.52562E-03
         0.61903E-03
        -0.31240E-02
         0.15917E-02
        -0.16523E-02
         0.11572E-02
        -0.27395E-03
         0.40210E-03
         0.22699E-02
         0.51846E-02
         0.10969E-01
         0.99928E-02
         0.81321E-02
         0.74399E-02
         0.19783E-02
        -0.17153E-02
        -0.46694E-02
        -0.74912E-02
        -0.11571E-01
        -0.79656E-02
        -0.59887E-02
        -0.63693E-02
        -0.65249E-02
        -0.73548E-02
        -0.35445E-02
         0.55940E-02
        -0.71290E-02
         0.19132E-01
         0.26786E-01
         0.34042E-01
         0.39217E-01
         0.38141E-01
         0.34131E-01
         0.32630E-01
         0.30739E-01
         0.19564E-01
         0.93564E-02
         0.42372E-02
         0.18882E-02
        -0.29456E-02
        -0.11805E-01
        -0.21686E-01
        -0.27657E-01
        -0.30767E-01
        -0.36037E-01
        -0.34945E-01
        -0.33018E-01
        -0.30566E-01
        -0.20663E-01
        -0.12580E-01
        -0.11209E-01
        -0.20878E-01
        -0.13168E-01
        -0.12186E-01
        -0.28904E-02
        -0.15826E-01
        -0.71181E-02
        -0.56446E-02
        -0.19732E-01
        -0.12940E-01
        -0.18559E-01
         0.98124E-02
         0.42456E-01
         0.25155E-01
         0.36153E-02
         0.41828E-01
         0.79178E-02
        -0.23995E-02
         0.22909E-02
         0.10325E-01
         0.19963E-02
         0.88985E-02
         0.63180E-02
        -0.36628E-02
         0.30920E-02
        -0.12498E-01
         0.30914E-02
         0.77570E-03
         0.14421E-02
        -0.23035E-02
        -0.12467E-01
         0.85332E-02
         0.22478E-02
         0.55156E-02
         0.47891E-02
        -0.22832E-02
         0.69605E-02
         0.13289E-01
         0.31793E-01
         0.28038E-01
         0.24710E-01
         0.18151E-01
        -0.44853E-02
        -0.92387E-02
        -0.11541E-01
        -0.14861E-01
        -0.30356E-01
        -0.17665E-01
        -0.11682E-01
        -0.14682E-01
        -0.17333E-01
        -0.17958E-01
        -0.13475E-02
         0.22339E-01
        -0.31951E-01
         0.74337E-01
         0.96071E-01
         0.12395E+00
         0.14867E+00
         0.14567E+00
         0.12729E+00
         0.12200E+00
         0.12067E+00
         0.75783E-01
         0.24979E-01
         0.99612E-02
         0.85368E-02
        -0.39525E-02
        -0.33521E-01
        -0.67142E-01
        -0.93403E-01
        -0.12159E+00
        -0.13480E+00
        -0.11844E+00
        -0.11200E+00
        -0.11163E+00
        -0.78607E-01
        -0.40830E-01
        -0.38662E-01
        -0.20891E-01
        -0.13171E-01
        -0.12192E-01
        -0.29116E-02
        -0.15828E-01
        -0.71237E-02
        -0.56517E-02
        -0.19765E-01
        -0.12964E-01
        -0.18628E-01
         0.98182E-02
         0.42453E-01
         0.25162E-01
         0.36154E-02
         0.41882E-01
         0.79182E-02
        -0.24213E-02
         0.22874E-02
         0.10332E-01
         0.19852E-02
         0.89204E-02
         0.63240E-02
        -0.36637E-02
         0.30905E-02
        -0.12554E-01
         0.30857E-02
         0.78484E-03
         0.14501E-02
        -0.22883E-02
        -0.12493E-01
         0.85347E-02
         0.22429E-02
         0.55278E-02
         0.47969E-02
        -0.22618E-02
         0.69651E-02
         0.13289E-01
         0.31841E-01
         0.28099E-01
         0.24739E-01
         0.18165E-01
        -0.44732E-02
        -0.92482E-02
        -0.11547E-01
        -0.14862E-01
        -0.30356E-01
        -0.17667E-01
        -0.11675E-01
        -0.14663E-01
        -0.17310E-01
        -0.17950E-01
        -0.13271E-02
         0.22318E-01
        -0.31953E-01
         0.74351E-01
         0.96071E-01
         0.12393E+00
         0.14862E+00
         0.14560E+00
         0.12725E+00
         0.12198E+00
         0.12063E+00
         0.75767E-01
         0.24991E-01
         0.99604E-02
         0.85544E-02
        -0.39203E-02
        -0.33538E-01
        -0.67172E-01
        -0.93425E-01
        -0.12158E+00
        -0.13479E+00
        -0.11843E+00
        -0.11199E+00
        -0.11160E+00
        -0.78551E-01
        -0.40785E-01
        -0.38611E-01
        -0.20904E-01
        -0.13173E-01
        -0.12198E-01
        -0.29330E-02
        -0.15830E-01
        -0.71296E-02
        -0.56588E-02
        -0.19799E-01
        -0.12987E-01
        -0.18697E-01
         0.98241E-02
         0.42449E-01
         0.25168E-01
         0.36151E-02
         0.41935E-01
         0.79188E-02
        -0.24434E-02
         0.22840E-02
         0.10340E-01
         0.19738E-02
         0.89427E-02
         0.63299E-02
        -0.36651E-02
         0.30886E-02
        -0.12610E-01
         0.30793E-02
         0.79461E-03
         0.14587E-02
        -0.22717E-02
        -0.12519E-01
         0.85360E-02
         0.22370E-02
         0.55401E-02
         0.48046E-02
        -0.22402E-02
         0.69698E-02
         0.13288E-01
         0.31891E-01
         0.28159E-01
         0.24767E-01
         0.18180E-01
        -0.44599E-02
        -0.92571E-02
        -0.11554E-01
        -0.14864E-01
        -0.30357E-01
        -0.17669E-01
        -0.11668E-01
        -0.14643E-01
        -0.17286E-01
        -0.17943E-01
        -0.13068E-02
         0.22297E-01
        -0.31955E-01
         0.74364E-01
         0.96072E-01
         0.12392E+00
         0.14857E+00
         0.14554E+00
         0.12722E+00
         0.12195E+00
         0.12060E+00
         0.75752E-01
         0.25003E-01
         0.99598E-02
         0.85719E-02
        -0.38880E-02
        -0.33556E-01
        -0.67204E-01
        -0.93447E-01
        -0.12158E+00
        -0.13479E+00
        -0.11842E+00
        -0.11199E+00
        -0.11157E+00
        -0.78496E-01
        -0.40740E-01
        -0.38560E-01
        -0.20917E-01
        -0.13176E-01
        -0.12204E-01
        -0.29545E-02
        -0.15832E-01
        -0.71353E-02
        -0.56663E-02
        -0.19832E-01
        -0.13010E-01
        -0.18765E-01
         0.98299E-02
         0.42445E-01
         0.25175E-01
         0.36151E-02
         0.41988E-01
         0.79194E-02
        -0.24659E-02
         0.22804E-02
         0.10347E-01
         0.19618E-02
         0.89654E-02
         0.63353E-02
        -0.36682E-02
         0.30856E-02
        -0.12665E-01
         0.30709E-02
         0.80470E-03
         0.14700E-02
        -0.22511E-02
        -0.12542E-01
         0.85366E-02
         0.22289E-02
         0.55522E-02
         0.48124E-02
        -0.22188E-02
         0.69744E-02
         0.13287E-01
         0.31940E-01
         0.28221E-01
         0.24798E-01
         0.18197E-01
        -0.44429E-02
        -0.92644E-02
        -0.11566E-01
        -0.14868E-01
        -0.30359E-01
        -0.17672E-01
        -0.11661E-01
        -0.14624E-01
        -0.17263E-01
        -0.17935E-01
        -0.12865E-02
         0.22277E-01
        -0.31956E-01
         0.74378E-01
         0.96073E-01
         0.12391E+00
         0.14852E+00
         0.14548E+00
         0.12718E+00
         0.12193E+00
         0.12057E+00
         0.75737E-01
         0.25018E-01
         0.99600E-02
         0.85892E-02
        -0.38553E-02
        -0.33576E-01
        -0.67240E-01
        -0.93472E-01
        -0.12158E+00
        -0.13478E+00
        -0.11841E+00
        -0.11198E+00
        -0.11155E+00
        -0.78440E-01
        -0.40696E-01
        -0.38510E-01
        -0.20930E-01
        -0.13178E-01
        -0.12210E-01
        -0.29759E-02
        -0.15833E-01
        -0.71410E-02
        -0.56732E-02
        -0.19865E-01
        -0.13034E-01
        -0.18832E-01
         0.98359E-02
         0.42442E-01
         0.25181E-01
         0.36154E-02
         0.42042E-01
         0.79201E-02
        -0.24886E-02
         0.22768E-02
         0.10355E-01
         0.19492E-02
         0.89884E-02
         0.63400E-02
        -0.36731E-02
         0.30812E-02
        -0.12717E-01
         0.30603E-02
         0.81594E-03
         0.14839E-02
        -0.22264E-02
        -0.12562E-01
         0.85367E-02
         0.22184E-02
         0.55643E-02
         0.48202E-02
        -0.21971E-02
         0.69790E-02
         0.13286E-01
         0.31990E-01
         0.28284E-01
         0.24831E-01
         0.18216E-01
        -0.44222E-02
        -0.92700E-02
        -0.11581E-01
        -0.14875E-01
        -0.30362E-01
        -0.17675E-01
        -0.11654E-01
        -0.14605E-01
        -0.17239E-01
        -0.17928E-01
        -0.12661E-02
         0.22256E-01
        -0.31958E-01
         0.74392E-01
         0.96074E-01
         0.12389E+00
         0.14847E+00
         0.14542E+00
         0.12714E+00
         0.12190E+00
         0.12054E+00
         0.75725E-01
         0.25035E-01
         0.99610E-02
         0.86062E-02
        -0.38226E-02
        -0.33597E-01
        -0.67281E-01
        -0.93500E-01
        -0.12158E+00
        -0.13477E+00
        -0.11840E+00
        -0.11198E+00
        -0.11152E+00
        -0.78384E-01
        -0.40651E-01
        -0.38459E-01
        -0.20942E-01
        -0.13180E-01
        -0.12216E-01
        -0.29976E-02
        -0.15835E-01
        -0.71466E-02
        -0.56795E-02
        -0.19896E-01
        -0.13057E-01
        -0.18898E-01
         0.98426E-02
         0.42439E-01
         0.25188E-01
         0.36160E-02
         0.42095E-01
         0.79211E-02
        -0.25119E-02
         0.22733E-02
         0.10363E-01
         0.19363E-02
         0.90115E-02
         0.63445E-02
        -0.36786E-02
         0.30765E-02
        -0.12767E-01
         0.30490E-02
         0.82801E-03
         0.14993E-02
        -0.22000E-02
        -0.12582E-01
         0.85362E-02
         0.22067E-02
         0.55768E-02
         0.48284E-02
        -0.21754E-02
         0.69840E-02
         0.13286E-01
         0.32040E-01
         0.28348E-01
         0.24865E-01
         0.18236E-01
        -0.44001E-02
        -0.92748E-02
        -0.11598E-01
        -0.14884E-01
        -0.30367E-01
        -0.17680E-01
        -0.11649E-01
        -0.14587E-01
        -0.17217E-01
        -0.17920E-01
        -0.12457E-02
         0.22235E-01
        -0.31960E-01
         0.74405E-01
         0.96074E-01
         0.12388E+00
         0.14842E+00
         0.14536E+00
         0.12710E+00
         0.12188E+00
         0.12050E+00
         0.75713E-01
         0.25054E-01
         0.99624E-02
         0.86231E-02
        -0.37900E-02
        -0.33619E-01
        -0.67324E-01
        -0.93530E-01
        -0.12158E+00
        -0.13476E+00
        -0.11840E+00
        -0.11197E+00
        -0.11149E+00
        -0.78329E-01
        -0.40607E-01
        -0.38408E-01
        -0.20953E-01
        -0.13179E-01
        -0.12222E-01
        -0.30198E-02
        -0.15837E-01
        -0.71525E-02
        -0.56844E-02
        -0.19924E-01
        -0.13081E-01
        -0.18960E-01
         0.98506E-02
         0.42437E-01
         0.25196E-01
         0.36188E-02
         0.42149E-01
         0.79224E-02
        -0.25358E-02
         0.22698E-02
         0.10371E-01
         0.19233E-02
         0.90346E-02
         0.63492E-02
        -0.36842E-02
         0.30718E-02
        -0.12817E-01
         0.30376E-02
         0.84225E-03
         0.15156E-02
        -0.21731E-02
        -0.12601E-01
         0.85355E-02
         0.21942E-02
         0.55896E-02
         0.48369E-02
        -0.21536E-02
         0.69893E-02
         0.13287E-01
         0.32090E-01
         0.28412E-01
         0.24899E-01
         0.18256E-01
        -0.43776E-02
        -0.92794E-02
        -0.11615E-01
        -0.14894E-01
        -0.30373E-01
        -0.17687E-01
        -0.11647E-01
        -0.14571E-01
        -0.17195E-01
        -0.17912E-01
        -0.12251E-02
         0.22214E-01
        -0.31962E-01
         0.74419E-01
         0.96075E-01
         0.12386E+00
         0.14837E+00
         0.14530E+00
         0.12706E+00
         0.12185E+00
         0.12047E+00
         0.75701E-01
         0.25072E-01
         0.99637E-02
         0.86402E-02
        -0.37573E-02
        -0.33641E-01
        -0.67367E-01
        -0.93558E-01
        -0.12157E+00
        -0.13475E+00
        -0.11839E+00
        -0.11197E+00
        -0.11146E+00
        -0.78273E-01
        -0.40562E-01
        -0.38357E-01
        -0.20964E-01
        -0.13178E-01
        -0.12228E-01
        -0.30424E-02
        -0.15839E-01
        -0.71583E-02
        -0.56882E-02
        -0.19951E-01
        -0.13106E-01
        -0.19021E-01
         0.98595E-02
         0.42434E-01
         0.25204E-01
         0.36220E-02
         0.42203E-01
         0.79240E-02
        -0.25599E-02
         0.22662E-02
         0.10379E-01
         0.19104E-02
         0.90578E-02
         0.63539E-02
        -0.36897E-02
         0.30673E-02
        -0.12866E-01
         0.30263E-02
         0.85705E-03
         0.15324E-02
        -0.21460E-02
        -0.12620E-01
         0.85346E-02
         0.21811E-02
         0.56026E-02
         0.48458E-02
        -0.21315E-02
         0.69951E-02
         0.13288E-01
         0.32142E-01
         0.28476E-01
         0.24933E-01
         0.18277E-01
        -0.43551E-02
        -0.92839E-02
        -0.11632E-01
        -0.14904E-01
        -0.30380E-01
        -0.17695E-01
        -0.11646E-01
        -0.14557E-01
        -0.17173E-01
        -0.17905E-01
        -0.12045E-02
         0.22193E-01
        -0.31964E-01
         0.74432E-01
         0.96076E-01
         0.12385E+00
         0.14832E+00
         0.14524E+00
         0.12702E+00
         0.12183E+00
         0.12043E+00
         0.75689E-01
         0.25091E-01
         0.99652E-02
         0.86574E-02
        -0.37245E-02
        -0.33663E-01
        -0.67409E-01
        -0.93586E-01
        -0.12157E+00
        -0.13474E+00
        -0.11838E+00
        -0.11197E+00
        -0.11143E+00
        -0.78217E-01
        -0.40518E-01
        -0.38307E-01
        -0.20975E-01
        -0.13178E-01
        -0.12234E-01
        -0.30649E-02
        -0.15841E-01
        -0.71639E-02
        -0.56921E-02
        -0.19978E-01
        -0.13130E-01
        -0.19082E-01
         0.98679E-02
         0.42432E-01
         0.25213E-01
         0.36257E-02
         0.42258E-01
         0.79255E-02
        -0.25842E-02
         0.22626E-02
         0.10387E-01
         0.18974E-02
         0.90810E-02
         0.63587E-02
        -0.36952E-02
         0.30629E-02
        -0.12915E-01
         0.30150E-02
         0.87222E-03
         0.15489E-02
        -0.21191E-02
        -0.12639E-01
         0.85336E-02
         0.21682E-02
         0.56156E-02
         0.48546E-02
        -0.21094E-02
         0.70004E-02
         0.13288E-01
         0.32193E-01
         0.28541E-01
         0.24967E-01
         0.18298E-01
        -0.43327E-02
        -0.92884E-02
        -0.11649E-01
        -0.14915E-01
        -0.30387E-01
        -0.17703E-01
        -0.11646E-01
        -0.14544E-01
        -0.17152E-01
        -0.17898E-01
        -0.11837E-02
         0.22172E-01
        -0.31965E-01
         0.74445E-01
         0.96077E-01
         0.12383E+00
         0.14827E+00
         0.14517E+00
         0.12698E+00
         0.12180E+00
         0.12040E+00
         0.75677E-01
         0.25109E-01
         0.99668E-02
         0.86750E-02
        -0.36918E-02
        -0.33685E-01
        -0.67452E-01
        -0.93614E-01
        -0.12157E+00
        -0.13473E+00
        -0.11838E+00
        -0.11197E+00
        -0.11140E+00
        -0.78161E-01
        -0.40473E-01
        -0.38256E-01
        -0.20985E-01
        -0.13177E-01
        -0.12240E-01
        -0.30873E-02
        -0.15843E-01
        -0.71696E-02
        -0.56959E-02
        -0.20005E-01
        -0.13154E-01
        -0.19143E-01
         0.98767E-02
         0.42430E-01
         0.25222E-01
         0.36289E-02
         0.42312E-01
         0.79270E-02
        -0.26085E-02
         0.22590E-02
         0.10395E-01
         0.18843E-02
         0.91041E-02
         0.63633E-02
        -0.37005E-02
         0.30584E-02
        -0.12964E-01
         0.30038E-02
         0.88697E-03
         0.15653E-02
        -0.20922E-02
        -0.12657E-01
         0.85326E-02
         0.21552E-02
         0.56284E-02
         0.48634E-02
        -0.20873E-02
         0.70062E-02
         0.13289E-01
         0.32245E-01
         0.28606E-01
         0.25001E-01
         0.18318E-01
        -0.43104E-02
        -0.92930E-02
        -0.11666E-01
        -0.14925E-01
        -0.30394E-01
        -0.17711E-01
        -0.11645E-01
        -0.14529E-01
        -0.17130E-01
        -0.17890E-01
        -0.11631E-02
         0.22151E-01
        -0.31967E-01
         0.74457E-01
         0.96077E-01
         0.12382E+00
         0.14822E+00
         0.14511E+00
         0.12695E+00
         0.12178E+00
         0.12037E+00
         0.75664E-01
         0.25127E-01
         0.99684E-02
         0.86924E-02
        -0.36593E-02
        -0.33707E-01
        -0.67495E-01
        -0.93642E-01
        -0.12156E+00
        -0.13473E+00
        -0.11837E+00
        -0.11196E+00
        -0.11137E+00
        -0.78105E-01
        -0.40429E-01
        -0.38205E-01
        -0.20996E-01
        -0.13175E-01
        -0.12245E-01
        -0.31097E-02
        -0.15845E-01
        -0.71753E-02
        -0.57001E-02
        -0.20032E-01
        -0.13179E-01
        -0.19204E-01
         0.98855E-02
         0.42428E-01
         0.25230E-01
         0.36324E-02
         0.42366E-01
         0.79285E-02
        -0.26329E-02
         0.22554E-02
         0.10403E-01
         0.18711E-02
         0.91272E-02
         0.63678E-02
        -0.37060E-02
         0.30540E-02
        -0.13013E-01
         0.29926E-02
         0.90199E-03
         0.15815E-02
        -0.20654E-02
        -0.12676E-01
         0.85317E-02
         0.21423E-02
         0.56413E-02
         0.48722E-02
        -0.20651E-02
         0.70118E-02
         0.13290E-01
         0.32296E-01
         0.28670E-01
         0.25034E-01
         0.18338E-01
        -0.42880E-02
        -0.92975E-02
        -0.11682E-01
        -0.14935E-01
        -0.30401E-01
        -0.17720E-01
        -0.11644E-01
        -0.14516E-01
        -0.17108E-01
        -0.17883E-01
        -0.11424E-02
         0.22130E-01
        -0.31968E-01
         0.74470E-01
         0.96078E-01
         0.12380E+00
         0.14817E+00
         0.14505E+00
         0.12691E+00
         0.12175E+00
         0.12033E+00
         0.75652E-01
         0.25145E-01
         0.99700E-02
         0.87096E-02
        -0.36265E-02
        -0.33729E-01
        -0.67538E-01
        -0.93669E-01
        -0.12156E+00
        -0.13472E+00
        -0.11837E+00
        -0.11196E+00
        -0.11134E+00
        -0.78049E-01
        -0.40385E-01
        -0.38154E-01
        -0.21006E-01
        -0.13174E-01
        -0.12251E-01
        -0.31323E-02
        -0.15847E-01
        -0.71809E-02
        -0.57039E-02
        -0.20059E-01
        -0.13203E-01
        -0.19264E-01
         0.98944E-02
         0.42426E-01
         0.25238E-01
         0.36359E-02
         0.42420E-01
         0.79301E-02
        -0.26574E-02
         0.22517E-02
         0.10411E-01
         0.18580E-02
         0.91503E-02
         0.63723E-02
        -0.37115E-02
         0.30496E-02
        -0.13062E-01
         0.29814E-02
         0.91667E-03
         0.15976E-02
        -0.20385E-02
        -0.12695E-01
         0.85306E-02
         0.21293E-02
         0.56542E-02
         0.48812E-02
        -0.20428E-02
         0.70174E-02
         0.13291E-01
         0.32348E-01
         0.28735E-01
         0.25068E-01
         0.18359E-01
        -0.42659E-02
        -0.93020E-02
        -0.11699E-01
        -0.14945E-01
        -0.30408E-01
        -0.17727E-01
        -0.11644E-01
        -0.14502E-01
        -0.17087E-01
        -0.17876E-01
        -0.11217E-02
         0.22109E-01
        -0.31970E-01
         0.74482E-01
         0.96079E-01
         0.12379E+00
         0.14812E+00
         0.14499E+00
         0.12687E+00
         0.12173E+00
         0.12030E+00
         0.75639E-01
         0.25163E-01
         0.99715E-02
         0.87269E-02
        -0.35937E-02
        -0.33750E-01
        -0.67580E-01
        -0.93697E-01
        -0.12156E+00
        -0.13471E+00
        -0.11836E+00
        -0.11196E+00
        -0.11131E+00
        -0.77993E-01
        -0.40342E-01
        -0.38103E-01
        -0.21017E-01
        -0.13173E-01
        -0.12257E-01
        -0.31550E-02
        -0.15849E-01
        -0.71866E-02
        -0.57078E-02
        -0.20086E-01
        -0.13228E-01
        -0.19325E-01
         0.99032E-02
         0.42424E-01
         0.25247E-01
         0.36390E-02
         0.42475E-01
         0.79316E-02
        -0.26819E-02
         0.22480E-02
         0.10419E-01
         0.18450E-02
         0.91735E-02
         0.63769E-02
        -0.37169E-02
         0.30453E-02
        -0.13111E-01
         0.29702E-02
         0.93178E-03
         0.16135E-02
        -0.20118E-02
        -0.12714E-01
         0.85296E-02
         0.21162E-02
         0.56670E-02
         0.48900E-02
        -0.20205E-02
         0.70232E-02
         0.13292E-01
         0.32399E-01
         0.28800E-01
         0.25102E-01
         0.18379E-01
        -0.42436E-02
        -0.93064E-02
        -0.11716E-01
        -0.14956E-01
        -0.30414E-01
        -0.17736E-01
        -0.11643E-01
        -0.14488E-01
        -0.17066E-01
        -0.17869E-01
        -0.11011E-02
         0.22088E-01
        -0.31972E-01
         0.74495E-01
         0.96079E-01
         0.12377E+00
         0.14807E+00
         0.14493E+00
         0.12683E+00
         0.12170E+00
         0.12026E+00
         0.75627E-01
         0.25182E-01
         0.99730E-02
         0.87442E-02
        -0.35609E-02
        -0.33772E-01
        -0.67623E-01
        -0.93725E-01
        -0.12155E+00
        -0.13470E+00
        -0.11836E+00
        -0.11196E+00
        -0.11128E+00
        -0.77937E-01
        -0.40298E-01
        -0.38053E-01
        -0.21027E-01
        -0.13173E-01
        -0.12263E-01
        -0.31776E-02
        -0.15851E-01
        -0.71923E-02
        -0.57121E-02
        -0.20112E-01
        -0.13252E-01
        -0.19385E-01
         0.99121E-02
         0.42421E-01
         0.25255E-01
         0.36425E-02
         0.42529E-01
         0.79331E-02
        -0.27064E-02
         0.22443E-02
         0.10427E-01
         0.18320E-02
         0.91966E-02
         0.63814E-02
        -0.37224E-02
         0.30410E-02
        -0.13159E-01
         0.29589E-02
         0.94648E-03
         0.16292E-02
        -0.19851E-02
        -0.12732E-01
         0.85286E-02
         0.21032E-02
         0.56799E-02
         0.48989E-02
        -0.19981E-02
         0.70288E-02
         0.13293E-01
         0.32452E-01
         0.28865E-01
         0.25135E-01
         0.18400E-01
        -0.42212E-02
        -0.93109E-02
        -0.11733E-01
        -0.14966E-01
        -0.30421E-01
        -0.17744E-01
        -0.11643E-01
        -0.14474E-01
        -0.17044E-01
        -0.17862E-01
        -0.10806E-02
         0.22067E-01
        -0.31973E-01
         0.74507E-01
         0.96080E-01
         0.12376E+00
         0.14802E+00
         0.14486E+00
         0.12679E+00
         0.12168E+00
         0.12023E+00
         0.75614E-01
         0.25200E-01
         0.99745E-02
         0.87616E-02
        -0.35283E-02
        -0.33794E-01
        -0.67666E-01
        -0.93753E-01
        -0.12155E+00
        -0.13469E+00
        -0.11835E+00
        -0.11195E+00
        -0.11125E+00
        -0.77881E-01
        -0.40254E-01
        -0.38002E-01
        -0.21038E-01
        -0.13172E-01
        -0.12269E-01
        -0.32002E-02
        -0.15853E-01
        -0.71979E-02
        -0.57160E-02
        -0.20139E-01
        -0.13277E-01
        -0.19446E-01
         0.99209E-02
         0.42419E-01
         0.25263E-01
         0.36455E-02
         0.42584E-01
         0.79346E-02
        -0.27311E-02
         0.22407E-02
         0.10434E-01
         0.18189E-02
         0.92198E-02
         0.63858E-02
        -0.37277E-02
         0.30367E-02
        -0.13208E-01
         0.29477E-02
         0.96145E-03
         0.16446E-02
        -0.19585E-02
        -0.12751E-01
         0.85276E-02
         0.20902E-02
         0.56927E-02
         0.49078E-02
        -0.19757E-02
         0.70345E-02
         0.13294E-01
         0.32504E-01
         0.28930E-01
         0.25169E-01
         0.18420E-01
        -0.41989E-02
        -0.93155E-02
        -0.11750E-01
        -0.14976E-01
        -0.30428E-01
        -0.17752E-01
        -0.11643E-01
        -0.14460E-01
        -0.17023E-01
        -0.17855E-01
        -0.10600E-02
         0.22045E-01
        -0.31974E-01
         0.74520E-01
         0.96081E-01
         0.12374E+00
         0.14797E+00
         0.14480E+00
         0.12675E+00
         0.12165E+00
         0.12019E+00
         0.75602E-01
         0.25218E-01
         0.99760E-02
         0.87790E-02
        -0.34956E-02
        -0.33816E-01
        -0.67709E-01
        -0.93781E-01
        -0.12155E+00
        -0.13468E+00
        -0.11835E+00
        -0.11195E+00
        -0.11122E+00
        -0.77825E-01
        -0.40211E-01
        -0.37951E-01
        -0.21048E-01
        -0.13170E-01
        -0.12275E-01
        -0.32227E-02
        -0.15855E-01
        -0.72036E-02
        -0.57200E-02
        -0.20165E-01
        -0.13301E-01
        -0.19506E-01
         0.99298E-02
         0.42417E-01
         0.25272E-01
         0.36488E-02
         0.42638E-01
         0.79361E-02
        -0.27559E-02
         0.22370E-02
         0.10442E-01
         0.18058E-02
         0.92430E-02
         0.63900E-02
        -0.37331E-02
         0.30325E-02
        -0.13257E-01
         0.29364E-02
         0.97602E-03
         0.16598E-02
        -0.19321E-02
        -0.12770E-01
         0.85266E-02
         0.20772E-02
         0.57055E-02
         0.49168E-02
        -0.19531E-02
         0.70401E-02
         0.13295E-01
         0.32556E-01
         0.28994E-01
         0.25202E-01
         0.18441E-01
        -0.41767E-02
        -0.93201E-02
        -0.11766E-01
        -0.14987E-01
        -0.30435E-01
        -0.17760E-01
        -0.11642E-01
        -0.14447E-01
        -0.17001E-01
        -0.17847E-01
        -0.10393E-02
         0.22024E-01
        -0.31976E-01
         0.74532E-01
         0.96082E-01
         0.12373E+00
         0.14792E+00
         0.14474E+00
         0.12671E+00
         0.12163E+00
         0.12015E+00
         0.75590E-01
         0.25236E-01
         0.99774E-02
         0.87960E-02
        -0.34629E-02
        -0.33837E-01
        -0.67752E-01
        -0.93809E-01
        -0.12154E+00
        -0.13467E+00
        -0.11834E+00
        -0.11195E+00
        -0.11119E+00
        -0.77769E-01
        -0.40168E-01
        -0.37900E-01
        -0.21058E-01
        -0.13169E-01
        -0.12280E-01
        -0.32453E-02
        -0.15857E-01
        -0.72092E-02
        -0.57242E-02
        -0.20192E-01
        -0.13326E-01
        -0.19566E-01
         0.99387E-02
         0.42415E-01
         0.25281E-01
         0.36517E-02
         0.42692E-01
         0.79377E-02
        -0.27809E-02
         0.22332E-02
         0.10450E-01
         0.17929E-02
         0.92661E-02
         0.63942E-02
        -0.37384E-02
         0.30283E-02
        -0.13305E-01
         0.29251E-02
         0.99099E-03
         0.16749E-02
        -0.19055E-02
        -0.12788E-01
         0.85254E-02
         0.20642E-02
         0.57183E-02
         0.49257E-02
        -0.19305E-02
         0.70457E-02
         0.13295E-01
         0.32608E-01
         0.29059E-01
         0.25235E-01
         0.18461E-01
        -0.41547E-02
        -0.93247E-02
        -0.11783E-01
        -0.14997E-01
        -0.30442E-01
        -0.17769E-01
        -0.11642E-01
        -0.14433E-01
        -0.16980E-01
        -0.17840E-01
        -0.10189E-02
         0.22003E-01
        -0.31977E-01
         0.74544E-01
         0.96082E-01
         0.12371E+00
         0.14786E+00
         0.14467E+00
         0.12667E+00
         0.12160E+00
         0.12012E+00
         0.75578E-01
         0.25255E-01
         0.99784E-02
         0.88130E-02
        -0.34303E-02
        -0.33859E-01
        -0.67794E-01
        -0.93837E-01
        -0.12154E+00
        -0.13466E+00
        -0.11833E+00
        -0.11195E+00
        -0.11116E+00
        -0.77713E-01
        -0.40125E-01
        -0.37850E-01
        -0.21069E-01
        -0.13168E-01
        -0.12286E-01
        -0.32680E-02
        -0.15859E-01
        -0.72148E-02
        -0.57282E-02
        -0.20218E-01
        -0.13351E-01
        -0.19626E-01
         0.99475E-02
         0.42413E-01
         0.25289E-01
         0.36550E-02
         0.42746E-01
         0.79392E-02
        -0.28061E-02
         0.22295E-02
         0.10458E-01
         0.17805E-02
         0.92891E-02
         0.63982E-02
        -0.37439E-02
         0.30240E-02
        -0.13354E-01
         0.29139E-02
         0.10058E-02
         0.16898E-02
        -0.18791E-02
        -0.12805E-01
         0.85244E-02
         0.20510E-02
         0.57310E-02
         0.49347E-02
        -0.19079E-02
         0.70515E-02
         0.13296E-01
         0.32661E-01
         0.29124E-01
         0.25266E-01
         0.18481E-01
        -0.41323E-02
        -0.93295E-02
        -0.11800E-01
        -0.15008E-01
        -0.30449E-01
        -0.17776E-01
        -0.11641E-01
        -0.14419E-01
        -0.16958E-01
        -0.17833E-01
        -0.99838E-03
         0.21982E-01
        -0.31978E-01
         0.74556E-01
         0.96083E-01
         0.12370E+00
         0.14781E+00
         0.14461E+00
         0.12664E+00
         0.12158E+00
         0.12008E+00
         0.75568E-01
         0.25273E-01
         0.99789E-02
         0.88301E-02
        -0.33978E-02
        -0.33880E-01
        -0.67837E-01
        -0.93865E-01
        -0.12154E+00
        -0.13466E+00
        -0.11833E+00
        -0.11194E+00
        -0.11113E+00
        -0.77658E-01
        -0.40082E-01
        -0.37799E-01
        -0.21079E-01
        -0.13167E-01
        -0.12292E-01
        -0.32907E-02
        -0.15861E-01
        -0.72203E-02
        -0.57322E-02
        -0.20244E-01
        -0.13376E-01
        -0.19686E-01
         0.99563E-02
         0.42411E-01
         0.25298E-01
         0.36582E-02
         0.42801E-01
         0.79407E-02
        -0.28317E-02
         0.22257E-02
         0.10466E-01
         0.17687E-02
         0.93123E-02
         0.64021E-02
        -0.37493E-02
         0.30199E-02
        -0.13403E-01
         0.29026E-02
         0.10213E-02
         0.17046E-02
        -0.18528E-02
        -0.12821E-01
         0.85232E-02
         0.20379E-02
         0.57436E-02
         0.49436E-02
        -0.18851E-02
         0.70571E-02
         0.13297E-01
         0.32715E-01
         0.29188E-01
         0.25296E-01
         0.18501E-01
        -0.41101E-02
        -0.93346E-02
        -0.11817E-01
        -0.15018E-01
        -0.30456E-01
        -0.17785E-01
        -0.11640E-01
        -0.14405E-01
        -0.16936E-01
        -0.17826E-01
        -0.97774E-03
         0.21960E-01
        -0.31979E-01
         0.74568E-01
         0.96084E-01
         0.12368E+00
         0.14776E+00
         0.14455E+00
         0.12660E+00
         0.12155E+00
         0.12004E+00
         0.75558E-01
         0.25292E-01
         0.99785E-02
         0.88471E-02
        -0.33651E-02
        -0.33902E-01
        -0.67880E-01
        -0.93893E-01
        -0.12154E+00
        -0.13465E+00
        -0.11832E+00
        -0.11194E+00
        -0.11110E+00
        -0.77602E-01
        -0.40039E-01
        -0.37748E-01
        -0.21089E-01
        -0.13166E-01
        -0.12298E-01
        -0.33133E-02
        -0.15864E-01
        -0.72260E-02
        -0.57366E-02
        -0.20270E-01
        -0.13401E-01
        -0.19746E-01
         0.99652E-02
         0.42409E-01
         0.25306E-01
         0.36610E-02
         0.42855E-01
         0.79423E-02
        -0.28574E-02
         0.22219E-02
         0.10474E-01
         0.17572E-02
         0.93355E-02
         0.64060E-02
        -0.37543E-02
         0.30160E-02
        -0.13452E-01
         0.28917E-02
         0.10363E-02
         0.17188E-02
        -0.18267E-02
        -0.12837E-01
         0.85223E-02
         0.20252E-02
         0.57564E-02
         0.49528E-02
        -0.18625E-02
         0.70625E-02
         0.13297E-01
         0.32769E-01
         0.29252E-01
         0.25325E-01
         0.18520E-01
        -0.40883E-02
        -0.93401E-02
        -0.11833E-01
        -0.15028E-01
        -0.30463E-01
        -0.17793E-01
        -0.11640E-01
        -0.14392E-01
        -0.16915E-01
        -0.17819E-01
        -0.95724E-03
         0.21939E-01
        -0.31981E-01
         0.74580E-01
         0.96085E-01
         0.12367E+00
         0.14771E+00
         0.14448E+00
         0.12656E+00
         0.12153E+00
         0.12000E+00
         0.75549E-01
         0.25310E-01
         0.99775E-02
         0.88640E-02
        -0.33324E-02
        -0.33923E-01
        -0.67922E-01
        -0.93920E-01
        -0.12153E+00
        -0.13464E+00
        -0.11832E+00
        -0.11194E+00
        -0.11107E+00
        -0.77547E-01
        -0.39997E-01
        -0.37698E-01
        -0.21191E-01
        -0.13224E-01
        -0.12360E-01
        -0.33493E-02
        -0.15935E-01
        -0.72623E-02
        -0.57668E-02
        -0.20382E-01
        -0.13483E-01
        -0.19887E-01
         0.10017E-01
         0.42589E-01
         0.25421E-01
         0.36798E-02
         0.43096E-01
         0.79786E-02
        -0.28941E-02
         0.22277E-02
         0.10527E-01
         0.17546E-02
         0.93961E-02
         0.64368E-02
        -0.37719E-02
         0.30272E-02
        -0.13557E-01
         0.28968E-02
         0.10547E-02
         0.17372E-02
        -0.18136E-02
        -0.12910E-01
         0.85595E-02
         0.20249E-02
         0.57933E-02
         0.49830E-02
        -0.18501E-02
         0.70952E-02
         0.13352E-01
         0.32962E-01
         0.29440E-01
         0.25464E-01
         0.18619E-01
        -0.40894E-02
        -0.93878E-02
        -0.11892E-01
        -0.15096E-01
        -0.30593E-01
        -0.17871E-01
        -0.11685E-01
        -0.14438E-01
        -0.16966E-01
        -0.17888E-01
        -0.94102E-03
         0.22014E-01
        -0.32129E-01
         0.74925E-01
         0.96510E-01
         0.12421E+00
         0.14835E+00
         0.14511E+00
         0.12712E+00
         0.12208E+00
         0.12054E+00
         0.75898E-01
         0.25438E-01
         0.10017E-01
         0.89167E-02
        -0.33151E-02
        -0.34078E-01
        -0.68237E-01
        -0.94348E-01
        -0.12208E+00
        -0.13524E+00
        -0.11882E+00
        -0.11241E+00
        -0.11153E+00
        -0.77831E-01
        -0.40129E-01
        -0.37812E-01
        -0.31669E-01
        -0.19848E-01
        -0.18446E-01
        -0.50408E-02
        -0.22960E-01
        -0.10567E-01
        -0.86403E-02
        -0.30338E-01
        -0.20119E-01
        -0.29545E-01
         0.14755E-01
         0.60255E-01
         0.36505E-01
         0.53985E-02
         0.61332E-01
         0.11936E-01
        -0.43442E-02
         0.33297E-02
         0.15544E-01
         0.25905E-02
         0.13503E-01
         0.93579E-02
        -0.54232E-02
         0.45025E-02
        -0.20343E-01
         0.43429E-02
         0.15731E-02
         0.26085E-02
        -0.27100E-02
        -0.19338E-01
         0.12806E-01
         0.30195E-02
         0.86967E-02
         0.74706E-02
        -0.25809E-02
         0.10309E-01
         0.19398E-01
         0.47950E-01
         0.43447E-01
         0.37706E-01
         0.27190E-01
        -0.60033E-02
        -0.13806E-01
        -0.17234E-01
        -0.21803E-01
        -0.42933E-01
        -0.25727E-01
        -0.17020E-01
        -0.21135E-01
        -0.24727E-01
        -0.25457E-01
        -0.13432E-02
         0.27577E-01
        -0.40225E-01
         0.93806E-01
         0.12116E+00
         0.15580E+00
         0.18650E+00
         0.18448E+00
         0.16305E+00
         0.15631E+00
         0.15341E+00
         0.96709E-01
         0.32353E-01
         0.12875E-01
         0.11514E-01
        -0.41935E-02
        -0.42896E-01
        -0.85632E-01
        -0.11774E+00
        -0.15229E+00
        -0.16889E+00
        -0.14994E+00
        -0.14248E+00
        -0.14083E+00
        -0.98605E-01
        -0.50667E-01
        -0.47562E-01
  
SCALARS                      strain_xz  double 1
LOOKUP_TABLE default
        -0.20031E-01
         0.13748E+00
         0.46145E+00
        -0.32707E-01
        -0.34715E-09
         0.12309E-09
         0.41158E-09
         0.82200E-10
         0.12683E+01
         0.85806E+00
         0.12311E-08
         0.11089E-08
        -0.52295E-01
         0.21311E+00
        -0.15183E-09
        -0.71127E-09
         0.47607E-01
         0.20485E+00
        -0.51377E-09
        -0.76518E-09
         0.29101E+00
         0.47713E+00
         0.46983E+00
        -0.51095E-09
        -0.23561E-09
         0.41163E-09
         0.50550E+00
         0.39494E+00
        -0.95643E-09
        -0.75870E-09
        -0.11122E+00
         0.23840E+00
        -0.24459E-01
         0.97377E-10
        -0.37630E-09
        -0.23183E-09
        -0.32305E+00
        -0.14876E+00
        -0.55869E-09
        -0.59486E-09
        -0.63175E+00
        -0.86290E+00
        -0.12602E-08
        -0.92937E-09
        -0.69617E+00
        -0.37618E+00
        -0.13840E-08
        -0.66614E-09
         0.18208E+00
        -0.41814E-09
        -0.48154E+00
        -0.11639E-09
         0.18190E+00
        -0.81704E-09
        -0.13432E+00
        -0.21613E-09
        -0.58680E+00
        -0.16795E+00
        -0.18514E-09
        -0.44752E-09
         0.11868E-01
        -0.32252E+00
         0.37031E-09
         0.25394E-09
         0.85754E-01
        -0.37248E-10
         0.28225E+00
         0.24500E-09
         0.17605E+01
         0.12084E+01
         0.15313E-08
         0.11106E-08
         0.77091E+00
         0.80868E-09
        -0.16099E+00
        -0.55941E-09
        -0.50001E+00
        -0.10979E-09
        -0.10610E+01
        -0.17033E-09
        -0.14204E+01
        -0.10337E+01
        -0.62424E-09
        -0.71392E-09
        -0.95088E+00
        -0.76779E-09
        -0.84251E+00
        -0.11054E-08
        -0.51456E+00
        -0.70507E-09
        -0.79395E+00
        -0.58415E+00
        -0.30092E-09
         0.41266E-09
         0.13520E+00
         0.48404E-09
         0.37352E+00
         0.20324E-09
         0.88973E+00
         0.50189E-09
         0.13047E+01
         0.90472E+00
         0.11572E-08
         0.12076E-08
         0.30136E+01
         0.33673E+01
         0.21383E-08
         0.21073E-08
         0.29491E+01
         0.18268E-08
         0.27166E+01
         0.13652E-08
         0.19189E+01
         0.75021E-09
         0.13328E+01
         0.80223E-10
         0.47055E+00
        -0.28573E-09
        -0.59048E+00
        -0.22860E-09
        -0.14058E+01
        -0.22469E-09
        -0.20929E+01
        -0.50669E-09
        -0.29021E+01
        -0.96398E-09
        -0.36761E+01
        -0.11503E-08
        -0.41079E+01
        -0.10854E-08
        -0.40614E+01
        -0.11803E-08
        -0.38526E+01
        -0.15318E-08
        -0.35402E+01
        -0.18063E-08
        -0.31080E+01
        -0.16791E-08
        -0.23809E+01
        -0.13646E-08
        -0.13646E+01
        -0.64423E-09
        -0.11410E+00
         0.12302E-09
         0.75234E+00
         0.29867E-09
         0.11943E+01
         0.48839E-09
         0.17880E+01
         0.95580E-09
         0.23788E+01
         0.15684E-08
         0.31374E+01
         0.18843E-08
         0.36272E+01
         0.19273E-08
        -0.18908E-02
         0.95076E-03
         0.11208E-02
        -0.23583E-02
         0.83856E-02
         0.67861E-02
         0.96803E-03
        -0.14660E-02
        -0.80268E-03
        -0.13777E-02
         0.69200E-03
         0.29641E-02
         0.63732E-02
        -0.20423E-02
        -0.24125E-02
         0.31323E-02
         0.26078E-02
        -0.12357E-02
        -0.18022E-02
        -0.19631E-02
        -0.10541E-01
        -0.11359E-01
        -0.10032E-01
        -0.31358E-02
         0.12846E-02
        -0.95582E-03
        -0.29579E-02
        -0.33284E-03
        -0.33066E-02
        -0.23758E-02
         0.27857E-02
         0.52341E-03
        -0.13123E-02
        -0.41258E-03
         0.11622E-01
         0.77071E-02
         0.71022E-02
        -0.48673E-02
        -0.27645E-02
        -0.56987E-02
        -0.11398E-01
        -0.11361E-01
        -0.11876E-01
        -0.86651E-02
        -0.60386E-02
        -0.44721E-02
         0.88038E-03
         0.38514E-02
         0.11103E-02
         0.33965E-02
         0.87253E-02
         0.77424E-02
         0.30562E-01
         0.33992E-01
         0.30110E-01
         0.25953E-01
         0.19268E-01
         0.95247E-02
        -0.54682E-03
        -0.64898E-02
        -0.99342E-02
        -0.17001E-01
        -0.27304E-01
        -0.36162E-01
        -0.34082E-01
        -0.33035E-01
        -0.35538E-01
        -0.36012E-01
        -0.32701E-01
        -0.27992E-01
        -0.13045E-01
         0.21061E-02
         0.83304E-02
         0.92815E-02
         0.15640E-01
         0.24284E-01
         0.32819E-01
         0.34999E-01
        -0.70892E-02
         0.14553E-02
        -0.27706E-02
        -0.80673E-02
         0.16547E-01
         0.14141E-01
         0.41201E-02
        -0.89937E-02
        -0.41326E-02
        -0.85503E-02
        -0.17274E-02
         0.63008E-02
         0.20730E-01
        -0.15899E-01
        -0.16464E-01
         0.13928E-01
         0.77540E-02
        -0.46443E-02
        -0.31254E-02
        -0.54888E-02
        -0.32563E-01
        -0.31034E-01
        -0.30624E-01
        -0.74080E-02
         0.42076E-02
         0.28331E-02
        -0.15364E-01
         0.20400E-02
        -0.51419E-02
        -0.70118E-02
         0.10701E-01
         0.69244E-02
        -0.69405E-02
        -0.59900E-02
         0.29508E-01
         0.16288E-01
         0.18683E-01
        -0.18260E-01
        -0.30574E-02
        -0.88645E-02
        -0.32564E-01
        -0.33498E-01
        -0.32743E-01
        -0.23677E-01
        -0.18233E-01
        -0.10668E-01
         0.11530E-01
         0.13612E-01
        -0.17994E-02
         0.21665E-02
         0.22206E-01
         0.19562E-01
         0.12310E+00
         0.12404E+00
         0.11132E+00
         0.91820E-01
         0.68488E-01
         0.31529E-01
        -0.78303E-02
        -0.25388E-01
        -0.33448E-01
        -0.61293E-01
        -0.10888E+00
        -0.12845E+00
        -0.10780E+00
        -0.10258E+00
        -0.11298E+00
        -0.11632E+00
        -0.10615E+00
        -0.10036E+00
        -0.51146E-01
         0.13292E-01
         0.29412E-01
         0.29804E-01
         0.52975E-01
         0.91732E-01
         0.11740E+00
         0.11703E+00
        -0.71026E-02
         0.14607E-02
        -0.27758E-02
        -0.80727E-02
         0.16531E-01
         0.14128E-01
         0.41463E-02
        -0.89709E-02
        -0.41371E-02
        -0.85435E-02
        -0.16924E-02
         0.63161E-02
         0.20743E-01
        -0.15860E-01
        -0.16456E-01
         0.13942E-01
         0.77710E-02
        -0.46314E-02
        -0.31239E-02
        -0.54792E-02
        -0.32560E-01
        -0.31030E-01
        -0.30622E-01
        -0.74084E-02
         0.42171E-02
         0.28379E-02
        -0.15368E-01
         0.20017E-02
        -0.51781E-02
        -0.70163E-02
         0.10716E-01
         0.69235E-02
        -0.69116E-02
        -0.59927E-02
         0.29523E-01
         0.16280E-01
         0.18677E-01
        -0.18289E-01
        -0.30867E-02
        -0.88925E-02
        -0.32584E-01
        -0.33517E-01
        -0.32745E-01
        -0.23673E-01
        -0.18227E-01
        -0.10662E-01
         0.11528E-01
         0.13617E-01
        -0.17863E-02
         0.21591E-02
         0.22191E-01
         0.19533E-01
         0.12306E+00
         0.12401E+00
         0.11131E+00
         0.91821E-01
         0.68467E-01
         0.31520E-01
        -0.78392E-02
        -0.25404E-01
        -0.33420E-01
        -0.61268E-01
        -0.10886E+00
        -0.12846E+00
        -0.10779E+00
        -0.10257E+00
        -0.11299E+00
        -0.11634E+00
        -0.10617E+00
        -0.10038E+00
        -0.51132E-01
         0.13298E-01
         0.29390E-01
         0.29793E-01
         0.52936E-01
         0.91676E-01
         0.11734E+00
         0.11698E+00
        -0.71160E-02
         0.14660E-02
        -0.27810E-02
        -0.80781E-02
         0.16515E-01
         0.14115E-01
         0.41726E-02
        -0.89481E-02
        -0.41414E-02
        -0.85363E-02
        -0.16575E-02
         0.63314E-02
         0.20755E-01
        -0.15821E-01
        -0.16447E-01
         0.13957E-01
         0.77883E-02
        -0.46184E-02
        -0.31223E-02
        -0.54698E-02
        -0.32557E-01
        -0.31027E-01
        -0.30620E-01
        -0.74088E-02
         0.42272E-02
         0.28430E-02
        -0.15373E-01
         0.19638E-02
        -0.52145E-02
        -0.70207E-02
         0.10732E-01
         0.69230E-02
        -0.68825E-02
        -0.59954E-02
         0.29538E-01
         0.16273E-01
         0.18670E-01
        -0.18318E-01
        -0.31160E-02
        -0.89206E-02
        -0.32605E-01
        -0.33537E-01
        -0.32747E-01
        -0.23670E-01
        -0.18220E-01
        -0.10657E-01
         0.11526E-01
         0.13621E-01
        -0.17728E-02
         0.21515E-02
         0.22178E-01
         0.19505E-01
         0.12301E+00
         0.12397E+00
         0.11130E+00
         0.91821E-01
         0.68446E-01
         0.31511E-01
        -0.78482E-02
        -0.25419E-01
        -0.33392E-01
        -0.61244E-01
        -0.10885E+00
        -0.12846E+00
        -0.10778E+00
        -0.10257E+00
        -0.11300E+00
        -0.11637E+00
        -0.10619E+00
        -0.10040E+00
        -0.51117E-01
         0.13304E-01
         0.29369E-01
         0.29781E-01
         0.52897E-01
         0.91620E-01
         0.11728E+00
         0.11693E+00
        -0.71295E-02
         0.14715E-02
        -0.27861E-02
        -0.80834E-02
         0.16498E-01
         0.14102E-01
         0.41986E-02
        -0.89253E-02
        -0.41451E-02
        -0.85279E-02
        -0.16227E-02
         0.63470E-02
         0.20768E-01
        -0.15782E-01
        -0.16438E-01
         0.13973E-01
         0.78065E-02
        -0.46054E-02
        -0.31210E-02
        -0.54601E-02
        -0.32555E-01
        -0.31025E-01
        -0.30621E-01
        -0.74092E-02
         0.42392E-02
         0.28493E-02
        -0.15377E-01
         0.19271E-02
        -0.52507E-02
        -0.70248E-02
         0.10750E-01
         0.69237E-02
        -0.68533E-02
        -0.59981E-02
         0.29553E-01
         0.16266E-01
         0.18664E-01
        -0.18348E-01
        -0.31452E-02
        -0.89486E-02
        -0.32626E-01
        -0.33558E-01
        -0.32752E-01
        -0.23668E-01
        -0.18213E-01
        -0.10651E-01
         0.11524E-01
         0.13626E-01
        -0.17593E-02
         0.21439E-02
         0.22163E-01
         0.19476E-01
         0.12297E+00
         0.12394E+00
         0.11129E+00
         0.91822E-01
         0.68425E-01
         0.31501E-01
        -0.78572E-02
        -0.25435E-01
        -0.33364E-01
        -0.61220E-01
        -0.10883E+00
        -0.12846E+00
        -0.10778E+00
        -0.10256E+00
        -0.11302E+00
        -0.11640E+00
        -0.10621E+00
        -0.10042E+00
        -0.51103E-01
         0.13310E-01
         0.29347E-01
         0.29769E-01
         0.52859E-01
         0.91564E-01
         0.11723E+00
         0.11688E+00
        -0.71428E-02
         0.14770E-02
        -0.27913E-02
        -0.80887E-02
         0.16482E-01
         0.14089E-01
         0.42250E-02
        -0.89022E-02
        -0.41483E-02
        -0.85181E-02
        -0.15878E-02
         0.63624E-02
         0.20781E-01
        -0.15743E-01
        -0.16429E-01
         0.13991E-01
         0.78254E-02
        -0.45923E-02
        -0.31193E-02
        -0.54502E-02
        -0.32554E-01
        -0.31023E-01
        -0.30622E-01
        -0.74097E-02
         0.42532E-02
         0.28565E-02
        -0.15380E-01
         0.18916E-02
        -0.52868E-02
        -0.70287E-02
         0.10768E-01
         0.69254E-02
        -0.68240E-02
        -0.60008E-02
         0.29568E-01
         0.16258E-01
         0.18659E-01
        -0.18377E-01
        -0.31743E-02
        -0.89769E-02
        -0.32648E-01
        -0.33581E-01
        -0.32758E-01
        -0.23667E-01
        -0.18206E-01
        -0.10645E-01
         0.11523E-01
         0.13631E-01
        -0.17459E-02
         0.21363E-02
         0.22149E-01
         0.19447E-01
         0.12293E+00
         0.12391E+00
         0.11128E+00
         0.91822E-01
         0.68404E-01
         0.31492E-01
        -0.78661E-02
        -0.25451E-01
        -0.33336E-01
        -0.61195E-01
        -0.10881E+00
        -0.12847E+00
        -0.10777E+00
        -0.10256E+00
        -0.11304E+00
        -0.11643E+00
        -0.10623E+00
        -0.10044E+00
        -0.51089E-01
         0.13316E-01
         0.29326E-01
         0.29758E-01
         0.52820E-01
         0.91508E-01
         0.11717E+00
         0.11683E+00
        -0.71556E-02
         0.14830E-02
        -0.27959E-02
        -0.80938E-02
         0.16466E-01
         0.14076E-01
         0.42513E-02
        -0.88787E-02
        -0.41514E-02
        -0.85081E-02
        -0.15529E-02
         0.63778E-02
         0.20793E-01
        -0.15703E-01
        -0.16420E-01
         0.14008E-01
         0.78442E-02
        -0.45792E-02
        -0.31175E-02
        -0.54409E-02
        -0.32554E-01
        -0.31022E-01
        -0.30624E-01
        -0.74103E-02
         0.42671E-02
         0.28639E-02
        -0.15383E-01
         0.18563E-02
        -0.53232E-02
        -0.70332E-02
         0.10786E-01
         0.69269E-02
        -0.67943E-02
        -0.60032E-02
         0.29583E-01
         0.16252E-01
         0.18653E-01
        -0.18406E-01
        -0.32034E-02
        -0.90052E-02
        -0.32670E-01
        -0.33604E-01
        -0.32766E-01
        -0.23666E-01
        -0.18199E-01
        -0.10640E-01
         0.11521E-01
         0.13636E-01
        -0.17321E-02
         0.21294E-02
         0.22136E-01
         0.19419E-01
         0.12289E+00
         0.12388E+00
         0.11127E+00
         0.91822E-01
         0.68383E-01
         0.31482E-01
        -0.78748E-02
        -0.25466E-01
        -0.33308E-01
        -0.61171E-01
        -0.10880E+00
        -0.12847E+00
        -0.10777E+00
        -0.10256E+00
        -0.11306E+00
        -0.11647E+00
        -0.10625E+00
        -0.10046E+00
        -0.51074E-01
         0.13321E-01
         0.29304E-01
         0.29746E-01
         0.52781E-01
         0.91452E-01
         0.11711E+00
         0.11677E+00
        -0.71673E-02
         0.14901E-02
        -0.27994E-02
        -0.80989E-02
         0.16451E-01
         0.14063E-01
         0.42781E-02
        -0.88547E-02
        -0.41547E-02
        -0.84986E-02
        -0.15179E-02
         0.63932E-02
         0.20806E-01
        -0.15664E-01
        -0.16411E-01
         0.14026E-01
         0.78624E-02
        -0.45660E-02
        -0.31161E-02
        -0.54317E-02
        -0.32553E-01
        -0.31021E-01
        -0.30627E-01
        -0.74112E-02
         0.42793E-02
         0.28704E-02
        -0.15386E-01
         0.18201E-02
        -0.53599E-02
        -0.70384E-02
         0.10804E-01
         0.69272E-02
        -0.67640E-02
        -0.60049E-02
         0.29598E-01
         0.16246E-01
         0.18648E-01
        -0.18434E-01
        -0.32327E-02
        -0.90340E-02
        -0.32693E-01
        -0.33627E-01
        -0.32773E-01
        -0.23665E-01
        -0.18193E-01
        -0.10635E-01
         0.11519E-01
         0.13641E-01
        -0.17172E-02
         0.21240E-02
         0.22124E-01
         0.19390E-01
         0.12285E+00
         0.12385E+00
         0.11126E+00
         0.91823E-01
         0.68362E-01
         0.31473E-01
        -0.78835E-02
        -0.25482E-01
        -0.33280E-01
        -0.61147E-01
        -0.10878E+00
        -0.12848E+00
        -0.10776E+00
        -0.10255E+00
        -0.11307E+00
        -0.11650E+00
        -0.10628E+00
        -0.10047E+00
        -0.51060E-01
         0.13326E-01
         0.29282E-01
         0.29734E-01
         0.52743E-01
         0.91397E-01
         0.11705E+00
         0.11672E+00
        -0.71786E-02
         0.14977E-02
        -0.28025E-02
        -0.81037E-02
         0.16435E-01
         0.14050E-01
         0.43052E-02
        -0.88305E-02
        -0.41581E-02
        -0.84896E-02
        -0.14827E-02
         0.64087E-02
         0.20819E-01
        -0.15625E-01
        -0.16402E-01
         0.14044E-01
         0.78802E-02
        -0.45527E-02
        -0.31145E-02
        -0.54230E-02
        -0.32553E-01
        -0.31020E-01
        -0.30630E-01
        -0.74119E-02
         0.42908E-02
         0.28766E-02
        -0.15389E-01
         0.17838E-02
        -0.53971E-02
        -0.70440E-02
         0.10821E-01
         0.69267E-02
        -0.67335E-02
        -0.60063E-02
         0.29615E-01
         0.16241E-01
         0.18644E-01
        -0.18463E-01
        -0.32620E-02
        -0.90627E-02
        -0.32716E-01
        -0.33651E-01
        -0.32781E-01
        -0.23665E-01
        -0.18188E-01
        -0.10631E-01
         0.11516E-01
         0.13645E-01
        -0.17017E-02
         0.21194E-02
         0.22112E-01
         0.19363E-01
         0.12280E+00
         0.12382E+00
         0.11125E+00
         0.91823E-01
         0.68341E-01
         0.31463E-01
        -0.78923E-02
        -0.25498E-01
        -0.33252E-01
        -0.61123E-01
        -0.10876E+00
        -0.12848E+00
        -0.10776E+00
        -0.10255E+00
        -0.11309E+00
        -0.11654E+00
        -0.10630E+00
        -0.10049E+00
        -0.51045E-01
         0.13330E-01
         0.29259E-01
         0.29723E-01
         0.52706E-01
         0.91342E-01
         0.11699E+00
         0.11667E+00
        -0.71898E-02
         0.15053E-02
        -0.28054E-02
        -0.81086E-02
         0.16420E-01
         0.14037E-01
         0.43322E-02
        -0.88064E-02
        -0.41615E-02
        -0.84806E-02
        -0.14477E-02
         0.64241E-02
         0.20832E-01
        -0.15586E-01
        -0.16393E-01
         0.14061E-01
         0.78980E-02
        -0.45395E-02
        -0.31128E-02
        -0.54140E-02
        -0.32552E-01
        -0.31019E-01
        -0.30633E-01
        -0.74129E-02
         0.43022E-02
         0.28827E-02
        -0.15393E-01
         0.17475E-02
        -0.54342E-02
        -0.70496E-02
         0.10837E-01
         0.69263E-02
        -0.67029E-02
        -0.60078E-02
         0.29631E-01
         0.16235E-01
         0.18639E-01
        -0.18492E-01
        -0.32915E-02
        -0.90913E-02
        -0.32738E-01
        -0.33675E-01
        -0.32789E-01
        -0.23665E-01
        -0.18183E-01
        -0.10627E-01
         0.11513E-01
         0.13649E-01
        -0.16863E-02
         0.21150E-02
         0.22101E-01
         0.19335E-01
         0.12276E+00
         0.12378E+00
         0.11124E+00
         0.91823E-01
         0.68320E-01
         0.31454E-01
        -0.79009E-02
        -0.25513E-01
        -0.33224E-01
        -0.61099E-01
        -0.10874E+00
        -0.12849E+00
        -0.10776E+00
        -0.10255E+00
        -0.11311E+00
        -0.11657E+00
        -0.10633E+00
        -0.10051E+00
        -0.51030E-01
         0.13334E-01
         0.29236E-01
         0.29711E-01
         0.52668E-01
         0.91287E-01
         0.11694E+00
         0.11662E+00
        -0.72011E-02
         0.15130E-02
        -0.28084E-02
        -0.81136E-02
         0.16404E-01
         0.14024E-01
         0.43593E-02
        -0.87822E-02
        -0.41649E-02
        -0.84716E-02
        -0.14126E-02
         0.64395E-02
         0.20845E-01
        -0.15547E-01
        -0.16384E-01
         0.14079E-01
         0.79158E-02
        -0.45265E-02
        -0.31111E-02
        -0.54053E-02
        -0.32552E-01
        -0.31018E-01
        -0.30635E-01
        -0.74139E-02
         0.43137E-02
         0.28887E-02
        -0.15396E-01
         0.17114E-02
        -0.54712E-02
        -0.70552E-02
         0.10854E-01
         0.69258E-02
        -0.66724E-02
        -0.60093E-02
         0.29647E-01
         0.16230E-01
         0.18635E-01
        -0.18521E-01
        -0.33209E-02
        -0.91203E-02
        -0.32761E-01
        -0.33698E-01
        -0.32797E-01
        -0.23665E-01
        -0.18178E-01
        -0.10623E-01
         0.11510E-01
         0.13654E-01
        -0.16709E-02
         0.21101E-02
         0.22089E-01
         0.19307E-01
         0.12272E+00
         0.12375E+00
         0.11123E+00
         0.91823E-01
         0.68299E-01
         0.31444E-01
        -0.79096E-02
        -0.25528E-01
        -0.33196E-01
        -0.61075E-01
        -0.10873E+00
        -0.12849E+00
        -0.10775E+00
        -0.10254E+00
        -0.11313E+00
        -0.11661E+00
        -0.10635E+00
        -0.10053E+00
        -0.51015E-01
         0.13338E-01
         0.29213E-01
         0.29700E-01
         0.52631E-01
         0.91232E-01
         0.11688E+00
         0.11657E+00
        -0.72122E-02
         0.15206E-02
        -0.28115E-02
        -0.81183E-02
         0.16389E-01
         0.14012E-01
         0.43862E-02
        -0.87580E-02
        -0.41683E-02
        -0.84627E-02
        -0.13776E-02
         0.64551E-02
         0.20858E-01
        -0.15508E-01
        -0.16374E-01
         0.14096E-01
         0.79335E-02
        -0.45134E-02
        -0.31097E-02
        -0.53963E-02
        -0.32552E-01
        -0.31017E-01
        -0.30638E-01
        -0.74150E-02
         0.43250E-02
         0.28948E-02
        -0.15400E-01
         0.16753E-02
        -0.55082E-02
        -0.70606E-02
         0.10871E-01
         0.69253E-02
        -0.66419E-02
        -0.60107E-02
         0.29663E-01
         0.16224E-01
         0.18630E-01
        -0.18549E-01
        -0.33504E-02
        -0.91489E-02
        -0.32783E-01
        -0.33722E-01
        -0.32805E-01
        -0.23665E-01
        -0.18172E-01
        -0.10619E-01
         0.11507E-01
         0.13658E-01
        -0.16554E-02
         0.21055E-02
         0.22078E-01
         0.19279E-01
         0.12268E+00
         0.12372E+00
         0.11122E+00
         0.91823E-01
         0.68277E-01
         0.31434E-01
        -0.79180E-02
        -0.25544E-01
        -0.33168E-01
        -0.61051E-01
        -0.10871E+00
        -0.12850E+00
        -0.10775E+00
        -0.10254E+00
        -0.11315E+00
        -0.11665E+00
        -0.10637E+00
        -0.10054E+00
        -0.51000E-01
         0.13342E-01
         0.29190E-01
         0.29688E-01
         0.52593E-01
         0.91177E-01
         0.11682E+00
         0.11652E+00
        -0.72235E-02
         0.15282E-02
        -0.28144E-02
        -0.81232E-02
         0.16374E-01
         0.13999E-01
         0.44132E-02
        -0.87338E-02
        -0.41717E-02
        -0.84537E-02
        -0.13426E-02
         0.64706E-02
         0.20871E-01
        -0.15469E-01
        -0.16365E-01
         0.14113E-01
         0.79512E-02
        -0.45002E-02
        -0.31081E-02
        -0.53876E-02
        -0.32551E-01
        -0.31016E-01
        -0.30641E-01
        -0.74161E-02
         0.43362E-02
         0.29010E-02
        -0.15404E-01
         0.16393E-02
        -0.55448E-02
        -0.70663E-02
         0.10888E-01
         0.69248E-02
        -0.66112E-02
        -0.60122E-02
         0.29679E-01
         0.16219E-01
         0.18626E-01
        -0.18578E-01
        -0.33800E-02
        -0.91780E-02
        -0.32806E-01
        -0.33745E-01
        -0.32813E-01
        -0.23665E-01
        -0.18167E-01
        -0.10615E-01
         0.11504E-01
         0.13662E-01
        -0.16399E-02
         0.21010E-02
         0.22067E-01
         0.19251E-01
         0.12264E+00
         0.12369E+00
         0.11121E+00
         0.91823E-01
         0.68256E-01
         0.31425E-01
        -0.79265E-02
        -0.25559E-01
        -0.33140E-01
        -0.61026E-01
        -0.10869E+00
        -0.12850E+00
        -0.10774E+00
        -0.10254E+00
        -0.11317E+00
        -0.11668E+00
        -0.10640E+00
        -0.10056E+00
        -0.50985E-01
         0.13347E-01
         0.29166E-01
         0.29677E-01
         0.52556E-01
         0.91122E-01
         0.11677E+00
         0.11646E+00
        -0.72347E-02
         0.15359E-02
        -0.28173E-02
        -0.81280E-02
         0.16359E-01
         0.13986E-01
         0.44402E-02
        -0.87096E-02
        -0.41750E-02
        -0.84446E-02
        -0.13076E-02
         0.64860E-02
         0.20884E-01
        -0.15430E-01
        -0.16356E-01
         0.14131E-01
         0.79689E-02
        -0.44870E-02
        -0.31066E-02
        -0.53786E-02
        -0.32550E-01
        -0.31015E-01
        -0.30643E-01
        -0.74172E-02
         0.43473E-02
         0.29070E-02
        -0.15407E-01
         0.16033E-02
        -0.55817E-02
        -0.70718E-02
         0.10905E-01
         0.69243E-02
        -0.65805E-02
        -0.60136E-02
         0.29695E-01
         0.16214E-01
         0.18621E-01
        -0.18606E-01
        -0.34097E-02
        -0.92068E-02
        -0.32829E-01
        -0.33769E-01
        -0.32821E-01
        -0.23665E-01
        -0.18162E-01
        -0.10611E-01
         0.11501E-01
         0.13667E-01
        -0.16243E-02
         0.20964E-02
         0.22055E-01
         0.19223E-01
         0.12259E+00
         0.12366E+00
         0.11120E+00
         0.91823E-01
         0.68235E-01
         0.31415E-01
        -0.79352E-02
        -0.25574E-01
        -0.33111E-01
        -0.61002E-01
        -0.10867E+00
        -0.12851E+00
        -0.10774E+00
        -0.10253E+00
        -0.11318E+00
        -0.11672E+00
        -0.10642E+00
        -0.10058E+00
        -0.50970E-01
         0.13351E-01
         0.29144E-01
         0.29666E-01
         0.52519E-01
         0.91067E-01
         0.11671E+00
         0.11641E+00
        -0.72460E-02
         0.15435E-02
        -0.28202E-02
        -0.81327E-02
         0.16344E-01
         0.13973E-01
         0.44668E-02
        -0.86854E-02
        -0.41783E-02
        -0.84355E-02
        -0.12728E-02
         0.65014E-02
         0.20898E-01
        -0.15391E-01
        -0.16346E-01
         0.14148E-01
         0.79866E-02
        -0.44739E-02
        -0.31053E-02
        -0.53699E-02
        -0.32550E-01
        -0.31014E-01
        -0.30646E-01
        -0.74183E-02
         0.43584E-02
         0.29130E-02
        -0.15410E-01
         0.15675E-02
        -0.56186E-02
        -0.70772E-02
         0.10921E-01
         0.69238E-02
        -0.65498E-02
        -0.60150E-02
         0.29712E-01
         0.16208E-01
         0.18617E-01
        -0.18635E-01
        -0.34394E-02
        -0.92359E-02
        -0.32852E-01
        -0.33792E-01
        -0.32829E-01
        -0.23665E-01
        -0.18156E-01
        -0.10607E-01
         0.11498E-01
         0.13671E-01
        -0.16088E-02
         0.20917E-02
         0.22043E-01
         0.19196E-01
         0.12255E+00
         0.12363E+00
         0.11119E+00
         0.91824E-01
         0.68215E-01
         0.31406E-01
        -0.79437E-02
        -0.25589E-01
        -0.33083E-01
        -0.60978E-01
        -0.10865E+00
        -0.12851E+00
        -0.10773E+00
        -0.10253E+00
        -0.11320E+00
        -0.11675E+00
        -0.10645E+00
        -0.10060E+00
        -0.50956E-01
         0.13354E-01
         0.29121E-01
         0.29654E-01
         0.52481E-01
         0.91012E-01
         0.11665E+00
         0.11636E+00
        -0.72573E-02
         0.15510E-02
        -0.28231E-02
        -0.81375E-02
         0.16328E-01
         0.13960E-01
         0.44938E-02
        -0.86611E-02
        -0.41817E-02
        -0.84265E-02
        -0.12380E-02
         0.65171E-02
         0.20911E-01
        -0.15352E-01
        -0.16337E-01
         0.14165E-01
         0.80043E-02
        -0.44608E-02
        -0.31038E-02
        -0.53609E-02
        -0.32550E-01
        -0.31013E-01
        -0.30648E-01
        -0.74193E-02
         0.43695E-02
         0.29191E-02
        -0.15414E-01
         0.15317E-02
        -0.56555E-02
        -0.70825E-02
         0.10938E-01
         0.69232E-02
        -0.65190E-02
        -0.60164E-02
         0.29727E-01
         0.16203E-01
         0.18613E-01
        -0.18663E-01
        -0.34690E-02
        -0.92648E-02
        -0.32874E-01
        -0.33815E-01
        -0.32837E-01
        -0.23665E-01
        -0.18151E-01
        -0.10603E-01
         0.11495E-01
         0.13675E-01
        -0.15930E-02
         0.20871E-02
         0.22032E-01
         0.19168E-01
         0.12251E+00
         0.12360E+00
         0.11118E+00
         0.91824E-01
         0.68194E-01
         0.31396E-01
        -0.79521E-02
        -0.25604E-01
        -0.33055E-01
        -0.60953E-01
        -0.10864E+00
        -0.12852E+00
        -0.10773E+00
        -0.10253E+00
        -0.11322E+00
        -0.11679E+00
        -0.10647E+00
        -0.10061E+00
        -0.50941E-01
         0.13358E-01
         0.29098E-01
         0.29643E-01
         0.52444E-01
         0.90957E-01
         0.11659E+00
         0.11631E+00
        -0.72686E-02
         0.15587E-02
        -0.28261E-02
        -0.81422E-02
         0.16313E-01
         0.13947E-01
         0.45205E-02
        -0.86369E-02
        -0.41850E-02
        -0.84174E-02
        -0.12031E-02
         0.65326E-02
         0.20924E-01
        -0.15313E-01
        -0.16327E-01
         0.14183E-01
         0.80220E-02
        -0.44478E-02
        -0.31022E-02
        -0.53522E-02
        -0.32549E-01
        -0.31012E-01
        -0.30651E-01
        -0.74205E-02
         0.43803E-02
         0.29251E-02
        -0.15417E-01
         0.14960E-02
        -0.56923E-02
        -0.70879E-02
         0.10955E-01
         0.69227E-02
        -0.64884E-02
        -0.60179E-02
         0.29744E-01
         0.16198E-01
         0.18608E-01
        -0.18691E-01
        -0.34989E-02
        -0.92936E-02
        -0.32896E-01
        -0.33839E-01
        -0.32844E-01
        -0.23664E-01
        -0.18146E-01
        -0.10599E-01
         0.11492E-01
         0.13680E-01
        -0.15774E-02
         0.20824E-02
         0.22020E-01
         0.19140E-01
         0.12247E+00
         0.12357E+00
         0.11116E+00
         0.91824E-01
         0.68172E-01
         0.31386E-01
        -0.79603E-02
        -0.25619E-01
        -0.33027E-01
        -0.60929E-01
        -0.10862E+00
        -0.12853E+00
        -0.10773E+00
        -0.10252E+00
        -0.11324E+00
        -0.11682E+00
        -0.10649E+00
        -0.10063E+00
        -0.50926E-01
         0.13362E-01
         0.29074E-01
         0.29632E-01
         0.52406E-01
         0.90902E-01
         0.11654E+00
         0.11626E+00
        -0.72798E-02
         0.15663E-02
        -0.28290E-02
        -0.81470E-02
         0.16298E-01
         0.13934E-01
         0.45473E-02
        -0.86127E-02
        -0.41882E-02
        -0.84080E-02
        -0.11683E-02
         0.65482E-02
         0.20937E-01
        -0.15274E-01
        -0.16318E-01
         0.14200E-01
         0.80397E-02
        -0.44348E-02
        -0.31008E-02
        -0.53432E-02
        -0.32548E-01
        -0.31011E-01
        -0.30654E-01
        -0.74217E-02
         0.43910E-02
         0.29311E-02
        -0.15420E-01
         0.14599E-02
        -0.57287E-02
        -0.70932E-02
         0.10972E-01
         0.69222E-02
        -0.64578E-02
        -0.60195E-02
         0.29760E-01
         0.16192E-01
         0.18604E-01
        -0.18719E-01
        -0.35290E-02
        -0.93228E-02
        -0.32918E-01
        -0.33862E-01
        -0.32852E-01
        -0.23664E-01
        -0.18140E-01
        -0.10595E-01
         0.11489E-01
         0.13684E-01
        -0.15619E-02
         0.20777E-02
         0.22009E-01
         0.19112E-01
         0.12242E+00
         0.12353E+00
         0.11115E+00
         0.91823E-01
         0.68151E-01
         0.31377E-01
        -0.79683E-02
        -0.25634E-01
        -0.33000E-01
        -0.60905E-01
        -0.10860E+00
        -0.12853E+00
        -0.10772E+00
        -0.10252E+00
        -0.11326E+00
        -0.11686E+00
        -0.10652E+00
        -0.10065E+00
        -0.50911E-01
         0.13366E-01
         0.29051E-01
         0.29620E-01
         0.52369E-01
         0.90847E-01
         0.11648E+00
         0.11621E+00
        -0.72911E-02
         0.15739E-02
        -0.28318E-02
        -0.81517E-02
         0.16282E-01
         0.13921E-01
         0.45740E-02
        -0.85884E-02
        -0.41911E-02
        -0.83975E-02
        -0.11335E-02
         0.65638E-02
         0.20950E-01
        -0.15235E-01
        -0.16308E-01
         0.14218E-01
         0.80572E-02
        -0.44217E-02
        -0.30997E-02
        -0.53346E-02
        -0.32548E-01
        -0.31010E-01
        -0.30657E-01
        -0.74227E-02
         0.44009E-02
         0.29374E-02
        -0.15422E-01
         0.14229E-02
        -0.57654E-02
        -0.70989E-02
         0.10988E-01
         0.69216E-02
        -0.64270E-02
        -0.60210E-02
         0.29776E-01
         0.16187E-01
         0.18600E-01
        -0.18746E-01
        -0.35600E-02
        -0.93514E-02
        -0.32939E-01
        -0.33883E-01
        -0.32858E-01
        -0.23664E-01
        -0.18135E-01
        -0.10590E-01
         0.11486E-01
         0.13689E-01
        -0.15464E-02
         0.20731E-02
         0.21998E-01
         0.19084E-01
         0.12238E+00
         0.12350E+00
         0.11114E+00
         0.91823E-01
         0.68130E-01
         0.31367E-01
        -0.79765E-02
        -0.25649E-01
        -0.32972E-01
        -0.60880E-01
        -0.10858E+00
        -0.12854E+00
        -0.10772E+00
        -0.10252E+00
        -0.11327E+00
        -0.11689E+00
        -0.10654E+00
        -0.10066E+00
        -0.50896E-01
         0.13370E-01
         0.29029E-01
         0.29609E-01
         0.52331E-01
         0.90792E-01
         0.11642E+00
         0.11615E+00
        -0.73024E-02
         0.15814E-02
        -0.28347E-02
        -0.81563E-02
         0.16267E-01
         0.13908E-01
         0.46007E-02
        -0.85642E-02
        -0.41936E-02
        -0.83860E-02
        -0.10989E-02
         0.65793E-02
         0.20963E-01
        -0.15196E-01
        -0.16298E-01
         0.14235E-01
         0.80746E-02
        -0.44087E-02
        -0.30983E-02
        -0.53258E-02
        -0.32548E-01
        -0.31008E-01
        -0.30659E-01
        -0.74239E-02
         0.44101E-02
         0.29434E-02
        -0.15423E-01
         0.13848E-02
        -0.58020E-02
        -0.71044E-02
         0.11005E-01
         0.69210E-02
        -0.63962E-02
        -0.60225E-02
         0.29793E-01
         0.16182E-01
         0.18595E-01
        -0.18773E-01
        -0.35918E-02
        -0.93802E-02
        -0.32957E-01
        -0.33902E-01
        -0.32864E-01
        -0.23664E-01
        -0.18130E-01
        -0.10587E-01
         0.11483E-01
         0.13693E-01
        -0.15307E-02
         0.20684E-02
         0.21986E-01
         0.19056E-01
         0.12234E+00
         0.12347E+00
         0.11113E+00
         0.91823E-01
         0.68109E-01
         0.31358E-01
        -0.79846E-02
        -0.25663E-01
        -0.32945E-01
        -0.60854E-01
        -0.10857E+00
        -0.12855E+00
        -0.10772E+00
        -0.10251E+00
        -0.11329E+00
        -0.11693E+00
        -0.10657E+00
        -0.10068E+00
        -0.50881E-01
         0.13374E-01
         0.29006E-01
         0.29597E-01
         0.52294E-01
         0.90737E-01
         0.11636E+00
         0.11610E+00
        -0.73137E-02
         0.15890E-02
        -0.28376E-02
        -0.81611E-02
         0.16252E-01
         0.13895E-01
         0.46272E-02
        -0.85400E-02
        -0.41961E-02
        -0.83743E-02
        -0.10644E-02
         0.65946E-02
         0.20976E-01
        -0.15157E-01
        -0.16287E-01
         0.14252E-01
         0.80920E-02
        -0.43958E-02
        -0.30968E-02
        -0.53172E-02
        -0.32547E-01
        -0.31007E-01
        -0.30662E-01
        -0.74250E-02
         0.44189E-02
         0.29493E-02
        -0.15423E-01
         0.13465E-02
        -0.58384E-02
        -0.71097E-02
         0.11022E-01
         0.69205E-02
        -0.63657E-02
        -0.60240E-02
         0.29810E-01
         0.16177E-01
         0.18591E-01
        -0.18799E-01
        -0.36240E-02
        -0.94081E-02
        -0.32975E-01
        -0.33921E-01
        -0.32870E-01
        -0.23664E-01
        -0.18125E-01
        -0.10583E-01
         0.11480E-01
         0.13698E-01
        -0.15152E-02
         0.20636E-02
         0.21975E-01
         0.19028E-01
         0.12230E+00
         0.12344E+00
         0.11112E+00
         0.91824E-01
         0.68088E-01
         0.31348E-01
        -0.79926E-02
        -0.25677E-01
        -0.32918E-01
        -0.60827E-01
        -0.10855E+00
        -0.12857E+00
        -0.10772E+00
        -0.10251E+00
        -0.11331E+00
        -0.11696E+00
        -0.10659E+00
        -0.10070E+00
        -0.50866E-01
         0.13378E-01
         0.28983E-01
         0.29586E-01
         0.52257E-01
         0.90682E-01
         0.11631E+00
         0.11605E+00
        -0.73559E-02
         0.16018E-02
        -0.28530E-02
        -0.81999E-02
         0.16305E-01
         0.13941E-01
         0.46707E-02
        -0.85557E-02
        -0.42159E-02
        -0.84011E-02
        -0.10390E-02
         0.66345E-02
         0.21075E-01
        -0.15188E-01
        -0.16351E-01
         0.14328E-01
         0.81431E-02
        -0.44022E-02
        -0.31078E-02
        -0.53302E-02
        -0.32678E-01
        -0.31134E-01
        -0.30787E-01
        -0.74571E-02
         0.44461E-02
         0.29671E-02
        -0.15493E-01
         0.13165E-02
        -0.58974E-02
        -0.71453E-02
         0.11084E-01
         0.69487E-02
        -0.63645E-02
        -0.60515E-02
         0.29951E-01
         0.16240E-01
         0.18664E-01
        -0.18908E-01
        -0.36694E-02
        -0.94750E-02
        -0.33137E-01
        -0.34086E-01
        -0.33015E-01
        -0.23759E-01
        -0.18194E-01
        -0.10621E-01
         0.11526E-01
         0.13761E-01
        -0.15078E-02
         0.20675E-02
         0.22057E-01
         0.19082E-01
         0.12281E+00
         0.12396E+00
         0.11161E+00
         0.92231E-01
         0.68375E-01
         0.31479E-01
        -0.80404E-02
        -0.25809E-01
        -0.33047E-01
        -0.61093E-01
        -0.10904E+00
        -0.12917E+00
        -0.10819E+00
        -0.10294E+00
        -0.11379E+00
        -0.11748E+00
        -0.10705E+00
        -0.10114E+00
        -0.51081E-01
         0.13446E-01
         0.29092E-01
         0.29701E-01
         0.52451E-01
         0.91027E-01
         0.11675E+00
         0.11650E+00
        -0.10999E-01
         0.24116E-02
        -0.42580E-02
        -0.12279E-01
         0.23466E-01
         0.20253E-01
         0.70142E-02
        -0.12712E-01
        -0.62837E-02
        -0.12461E-01
        -0.15081E-02
         0.93894E-02
         0.30264E-01
        -0.22241E-01
        -0.23250E-01
         0.21440E-01
         0.12155E-01
        -0.65785E-02
        -0.45866E-02
        -0.78852E-02
        -0.46877E-01
        -0.45240E-01
        -0.44283E-01
        -0.11092E-01
         0.66619E-02
         0.44525E-02
        -0.22890E-01
         0.19380E-02
        -0.88914E-02
        -0.10693E-01
         0.16594E-01
         0.10372E-01
        -0.95083E-02
        -0.90640E-02
         0.42334E-01
         0.23585E-01
         0.27117E-01
        -0.27518E-01
        -0.54339E-02
        -0.14042E-01
        -0.48382E-01
        -0.50129E-01
        -0.48508E-01
        -0.34419E-01
        -0.26271E-01
        -0.14903E-01
         0.16589E-01
         0.20069E-01
        -0.21947E-02
         0.30118E-02
         0.31382E-01
         0.27638E-01
         0.15397E+00
         0.15512E+00
         0.13973E+00
         0.11579E+00
         0.85756E-01
         0.39564E-01
        -0.10238E-01
        -0.33110E-01
        -0.42293E-01
        -0.77738E-01
        -0.13894E+00
        -0.16427E+00
        -0.13912E+00
        -0.13277E+00
        -0.14488E+00
        -0.14786E+00
        -0.13432E+00
        -0.12622E+00
        -0.63712E-01
         0.16804E-01
         0.36704E-01
         0.37638E-01
         0.66222E-01
         0.11534E+00
         0.14746E+00
         0.14662E+00
  
SCALARS                      strain_xy  double 1
LOOKUP_TABLE default
         0.16303E-03
         0.36722E-03
         0.32310E-02
        -0.11955E-03
        -0.58102E-19
         0.56781E-20
         0.85371E-19
         0.13005E-19
         0.33061E-01
        -0.14758E-01
         0.38001E-18
         0.30135E-18
        -0.11699E-02
         0.24222E-03
         0.33542E-19
        -0.10074E-19
        -0.38162E-03
        -0.58753E-02
         0.16698E-20
         0.25446E-19
         0.42632E-02
         0.26017E-01
         0.27162E-01
         0.25875E-18
         0.20606E-18
        -0.30090E-18
         0.27157E-02
         0.21442E-01
         0.34840E-18
         0.53615E-18
         0.10182E-02
        -0.18692E-02
        -0.16858E-03
        -0.18389E-19
         0.72543E-19
        -0.92785E-21
         0.87030E-02
         0.37742E-02
         0.19415E-18
         0.16083E-18
         0.16588E-01
         0.14174E-01
         0.33097E-18
         0.22305E-18
         0.16826E-01
         0.31528E-02
        -0.12057E-19
         0.89764E-19
        -0.38956E-02
         0.26529E-19
         0.10700E-02
        -0.59810E-21
        -0.22430E-03
         0.20051E-18
        -0.10914E-02
         0.30855E-19
        -0.15563E-01
         0.80663E-03
         0.71707E-21
        -0.35179E-20
        -0.13171E-03
         0.12980E-01
         0.19541E-19
         0.50122E-19
        -0.57708E-03
        -0.39675E-20
        -0.80924E-02
         0.31792E-19
         0.40308E-01
         0.14585E-01
         0.24556E-19
        -0.23515E-18
         0.32347E-01
        -0.37599E-18
        -0.11025E-01
         0.25183E-18
        -0.34457E-01
         0.37519E-19
        -0.60392E-01
         0.48789E-19
        -0.12000E+00
        -0.67468E-01
         0.11470E-18
        -0.29085E-19
        -0.88264E-02
        -0.34999E-20
         0.31830E-01
        -0.31567E-18
         0.45642E-01
        -0.35247E-18
         0.98038E-01
         0.44394E-01
        -0.22312E-18
         0.24766E-18
        -0.72489E-02
         0.22550E-18
        -0.18028E-01
         0.96867E-19
        -0.41706E-01
         0.25720E-18
        -0.10193E+00
        -0.58799E-01
         0.55149E-18
         0.27574E-18
         0.15717E+00
        -0.67198E-01
        -0.35831E-18
         0.43880E-18
         0.37905E+00
        -0.10183E-17
         0.50613E+00
        -0.11132E-17
         0.43333E+00
        -0.75550E-18
         0.34663E+00
        -0.80136E-19
         0.14181E+00
         0.22587E-18
        -0.17984E+00
         0.13985E-18
        -0.40262E+00
         0.12784E-18
        -0.53329E+00
         0.27429E-18
        -0.54559E+00
         0.33350E-18
        -0.47974E+00
         0.13139E-18
        -0.27623E+00
         0.80107E-19
         0.19870E-01
         0.13093E-18
         0.25301E+00
         0.87767E-19
         0.42049E+00
        -0.31299E-18
         0.57210E+00
        -0.82126E-18
         0.48011E+00
        -0.10422E-17
         0.29487E+00
        -0.64503E-18
         0.31509E-01
         0.12306E-18
        -0.21780E+00
         0.26082E-18
        -0.32026E+00
         0.41567E-18
        -0.38509E+00
         0.81855E-18
        -0.34701E+00
         0.10621E-17
        -0.32725E+00
         0.75462E-18
        -0.27521E+00
         0.59679E-18
        -0.50508E-05
         0.12728E-05
         0.13156E-05
        -0.89472E-06
         0.97113E-05
         0.87110E-05
         0.12433E-06
        -0.29766E-05
        -0.14769E-05
        -0.35980E-05
        -0.86955E-06
        -0.15732E-04
        -0.23740E-04
         0.88375E-06
         0.13086E-04
        -0.22409E-05
         0.16411E-05
         0.51069E-06
         0.91629E-06
        -0.76323E-06
         0.37019E-05
         0.33260E-05
        -0.96669E-05
         0.25604E-06
         0.22936E-05
         0.25194E-06
         0.38998E-07
         0.76975E-07
         0.90286E-06
        -0.32616E-05
        -0.19384E-05
         0.37960E-06
         0.66387E-06
        -0.49544E-07
        -0.20688E-05
        -0.77193E-05
        -0.16223E-04
         0.23564E-04
         0.12196E-04
         0.20520E-04
         0.37632E-04
         0.99207E-05
        -0.89481E-05
        -0.17784E-04
        -0.19933E-04
        -0.22905E-04
         0.30921E-05
         0.10129E-04
         0.31066E-05
         0.97655E-05
         0.28370E-04
         0.12079E-04
        -0.76281E-04
         0.10770E-03
        -0.25620E-03
        -0.30889E-03
        -0.29152E-03
        -0.16637E-03
         0.93098E-05
         0.98940E-04
         0.14474E-03
         0.23340E-03
         0.23880E-03
         0.15041E-03
         0.64055E-04
         0.27644E-04
        -0.46328E-04
        -0.18795E-03
        -0.31355E-03
        -0.34293E-03
        -0.17885E-03
         0.33774E-04
         0.12927E-03
         0.13608E-03
         0.21236E-03
         0.22335E-03
         0.18322E-03
         0.17391E-03
        -0.73868E-04
         0.95638E-05
        -0.16849E-04
        -0.11636E-04
         0.13070E-03
         0.50235E-04
         0.11606E-04
        -0.88569E-04
        -0.26688E-04
        -0.79194E-04
         0.84585E-05
        -0.13356E-03
        -0.26030E-03
         0.28686E-04
         0.34384E-03
        -0.55036E-04
         0.92850E-05
         0.53094E-05
         0.16105E-04
         0.54680E-05
         0.14464E-03
         0.97869E-04
        -0.55990E-04
         0.11431E-04
         0.26242E-04
        -0.43706E-05
         0.59474E-05
        -0.14680E-05
        -0.59105E-05
        -0.43625E-04
        -0.45569E-04
        -0.77674E-05
         0.19103E-04
         0.14316E-04
         0.33629E-04
        -0.56579E-04
        -0.12391E-03
         0.28980E-03
         0.42787E-04
         0.10933E-03
         0.29506E-03
        -0.74999E-04
        -0.15100E-03
        -0.13638E-03
        -0.13524E-03
        -0.16164E-03
         0.10165E-03
         0.79361E-04
        -0.13185E-04
         0.18741E-04
         0.19904E-03
         0.13156E-04
        -0.13776E-02
         0.19859E-02
        -0.41481E-02
        -0.44216E-02
        -0.42577E-02
        -0.23529E-02
         0.57225E-03
         0.16195E-02
         0.20447E-02
         0.37079E-02
         0.41359E-02
         0.16081E-02
         0.53746E-03
         0.43816E-03
        -0.22355E-03
        -0.19529E-02
        -0.35706E-02
        -0.47000E-02
        -0.31168E-02
         0.89826E-03
         0.17448E-02
         0.16714E-02
         0.29624E-02
         0.36115E-02
         0.24013E-02
         0.22666E-02
        -0.74054E-04
         0.96010E-05
        -0.16889E-04
        -0.11730E-04
         0.13059E-03
         0.50228E-04
         0.11694E-04
        -0.88494E-04
        -0.26765E-04
        -0.79427E-04
         0.82922E-05
        -0.13387E-03
        -0.26052E-03
         0.28616E-04
         0.34409E-03
        -0.55096E-04
         0.93900E-05
         0.52868E-05
         0.16108E-04
         0.54280E-05
         0.14498E-03
         0.97952E-04
        -0.55999E-04
         0.11426E-04
         0.26421E-04
        -0.43699E-05
         0.60193E-05
        -0.14485E-05
        -0.59129E-05
        -0.43745E-04
        -0.45644E-04
        -0.77494E-05
         0.19066E-04
         0.14346E-04
         0.33330E-04
        -0.56590E-04
        -0.12387E-03
         0.29071E-03
         0.43290E-04
         0.10980E-03
         0.29547E-03
        -0.74841E-04
        -0.15116E-03
        -0.13643E-03
        -0.13520E-03
        -0.16156E-03
         0.10165E-03
         0.79340E-04
        -0.13071E-04
         0.18652E-04
         0.19883E-03
         0.12937E-04
        -0.13759E-02
         0.19855E-02
        -0.41485E-02
        -0.44216E-02
        -0.42559E-02
        -0.23514E-02
         0.57266E-03
         0.16200E-02
         0.20425E-02
         0.37054E-02
         0.41343E-02
         0.16089E-02
         0.53736E-03
         0.43904E-03
        -0.22176E-03
        -0.19543E-02
        -0.35728E-02
        -0.47020E-02
        -0.31159E-02
         0.89861E-03
         0.17434E-02
         0.16706E-02
         0.29594E-02
         0.36067E-02
         0.23975E-02
         0.22626E-02
        -0.74240E-04
         0.96378E-05
        -0.16929E-04
        -0.11824E-04
         0.13047E-03
         0.50223E-04
         0.11783E-04
        -0.88418E-04
        -0.26841E-04
        -0.79654E-04
         0.81261E-05
        -0.13418E-03
        -0.26075E-03
         0.28542E-04
         0.34435E-03
        -0.55158E-04
         0.94967E-05
         0.52640E-05
         0.16111E-04
         0.53878E-05
         0.14533E-03
         0.98032E-04
        -0.56017E-04
         0.11419E-04
         0.26602E-04
        -0.43687E-05
         0.60960E-05
        -0.14295E-05
        -0.59112E-05
        -0.43861E-04
        -0.45719E-04
        -0.77283E-05
         0.19028E-04
         0.14375E-04
         0.33029E-04
        -0.56604E-04
        -0.12382E-03
         0.29162E-03
         0.43795E-04
         0.11027E-03
         0.29590E-03
        -0.74662E-04
        -0.15132E-03
        -0.13650E-03
        -0.13516E-03
        -0.16148E-03
         0.10164E-03
         0.79317E-04
        -0.12955E-04
         0.18561E-04
         0.19862E-03
         0.12721E-04
        -0.13741E-02
         0.19851E-02
        -0.41489E-02
        -0.44217E-02
        -0.42541E-02
        -0.23499E-02
         0.57307E-03
         0.16206E-02
         0.20403E-02
         0.37029E-02
         0.41329E-02
         0.16097E-02
         0.53729E-03
         0.43992E-03
        -0.21995E-03
        -0.19558E-02
        -0.35752E-02
        -0.47040E-02
        -0.31149E-02
         0.89896E-03
         0.17420E-02
         0.16699E-02
         0.29565E-02
         0.36020E-02
         0.23937E-02
         0.22586E-02
        -0.74427E-04
         0.96758E-05
        -0.16969E-04
        -0.11918E-04
         0.13036E-03
         0.50217E-04
         0.11872E-04
        -0.88339E-04
        -0.26914E-04
        -0.79865E-04
         0.79602E-05
        -0.13450E-03
        -0.26098E-03
         0.28472E-04
         0.34460E-03
        -0.55226E-04
         0.96062E-05
         0.52409E-05
         0.16116E-04
         0.53455E-05
         0.14569E-03
         0.98108E-04
        -0.56065E-04
         0.11409E-04
         0.26793E-04
        -0.43664E-05
         0.61749E-05
        -0.14137E-05
        -0.58984E-05
        -0.43968E-04
        -0.45796E-04
        -0.77012E-05
         0.18989E-04
         0.14405E-04
         0.32728E-04
        -0.56616E-04
        -0.12377E-03
         0.29254E-03
         0.44303E-04
         0.11076E-03
         0.29637E-03
        -0.74425E-04
        -0.15146E-03
        -0.13662E-03
        -0.13515E-03
        -0.16141E-03
         0.10164E-03
         0.79296E-04
        -0.12840E-04
         0.18470E-04
         0.19840E-03
         0.12505E-04
        -0.13724E-02
         0.19847E-02
        -0.41493E-02
        -0.44218E-02
        -0.42523E-02
        -0.23483E-02
         0.57349E-03
         0.16211E-02
         0.20382E-02
         0.37004E-02
         0.41315E-02
         0.16107E-02
         0.53726E-03
         0.44078E-03
        -0.21814E-03
        -0.19575E-02
        -0.35778E-02
        -0.47062E-02
        -0.31140E-02
         0.89932E-03
         0.17406E-02
         0.16692E-02
         0.29536E-02
         0.35972E-02
         0.23899E-02
         0.22546E-02
        -0.74612E-04
         0.97137E-05
        -0.17009E-04
        -0.12013E-04
         0.13025E-03
         0.50211E-04
         0.11961E-04
        -0.88256E-04
        -0.26983E-04
        -0.80059E-04
         0.77938E-05
        -0.13481E-03
        -0.26120E-03
         0.28403E-04
         0.34486E-03
        -0.55300E-04
         0.97185E-05
         0.52179E-05
         0.16119E-04
         0.53014E-05
         0.14606E-03
         0.98176E-04
        -0.56141E-04
         0.11393E-04
         0.26991E-04
        -0.43623E-05
         0.62624E-05
        -0.14007E-05
        -0.58738E-05
        -0.44064E-04
        -0.45875E-04
        -0.76668E-05
         0.18949E-04
         0.14435E-04
         0.32426E-04
        -0.56627E-04
        -0.12373E-03
         0.29346E-03
         0.44812E-04
         0.11125E-03
         0.29688E-03
        -0.74126E-04
        -0.15158E-03
        -0.13680E-03
        -0.13516E-03
        -0.16133E-03
         0.10165E-03
         0.79283E-04
        -0.12725E-04
         0.18380E-04
         0.19820E-03
         0.12288E-04
        -0.13706E-02
         0.19843E-02
        -0.41497E-02
        -0.44218E-02
        -0.42504E-02
        -0.23468E-02
         0.57389E-03
         0.16216E-02
         0.20360E-02
         0.36979E-02
         0.41301E-02
         0.16119E-02
         0.53728E-03
         0.44164E-03
        -0.21632E-03
        -0.19593E-02
        -0.35808E-02
        -0.47085E-02
        -0.31131E-02
         0.89967E-03
         0.17392E-02
         0.16684E-02
         0.29506E-02
         0.35924E-02
         0.23860E-02
         0.22507E-02
        -0.74790E-04
         0.97540E-05
        -0.17045E-04
        -0.12108E-04
         0.13014E-03
         0.50204E-04
         0.12049E-04
        -0.88163E-04
        -0.27052E-04
        -0.80243E-04
         0.76277E-05
        -0.13513E-03
        -0.26143E-03
         0.28337E-04
         0.34510E-03
        -0.55376E-04
         0.98330E-05
         0.51950E-05
         0.16122E-04
         0.52572E-05
         0.14643E-03
         0.98243E-04
        -0.56231E-04
         0.11377E-04
         0.27188E-04
        -0.43575E-05
         0.63563E-05
        -0.13888E-05
        -0.58440E-05
        -0.44161E-04
        -0.45950E-04
        -0.76280E-05
         0.18909E-04
         0.14465E-04
         0.32121E-04
        -0.56646E-04
        -0.12369E-03
         0.29438E-03
         0.45325E-04
         0.11176E-03
         0.29741E-03
        -0.73808E-04
        -0.15169E-03
        -0.13699E-03
        -0.13520E-03
        -0.16128E-03
         0.10166E-03
         0.79276E-04
        -0.12609E-04
         0.18296E-04
         0.19799E-03
         0.12073E-04
        -0.13689E-02
         0.19839E-02
        -0.41501E-02
        -0.44219E-02
        -0.42486E-02
        -0.23453E-02
         0.57428E-03
         0.16221E-02
         0.20339E-02
         0.36954E-02
         0.41288E-02
         0.16132E-02
         0.53734E-03
         0.44249E-03
        -0.21451E-03
        -0.19612E-02
        -0.35839E-02
        -0.47109E-02
        -0.31122E-02
         0.89998E-03
         0.17378E-02
         0.16677E-02
         0.29477E-02
         0.35877E-02
         0.23822E-02
         0.22467E-02
        -0.74953E-04
         0.98008E-05
        -0.17075E-04
        -0.12205E-04
         0.13003E-03
         0.50200E-04
         0.12136E-04
        -0.88051E-04
        -0.27123E-04
        -0.80419E-04
         0.74616E-05
        -0.13545E-03
        -0.26168E-03
         0.28288E-04
         0.34536E-03
        -0.55455E-04
         0.99493E-05
         0.51720E-05
         0.16128E-04
         0.52133E-05
         0.14681E-03
         0.98312E-04
        -0.56322E-04
         0.11361E-04
         0.27372E-04
        -0.43512E-05
         0.64670E-05
        -0.13766E-05
        -0.58122E-05
        -0.44261E-04
        -0.46020E-04
        -0.75850E-05
         0.18868E-04
         0.14495E-04
         0.31816E-04
        -0.56668E-04
        -0.12366E-03
         0.29531E-03
         0.45843E-04
         0.11227E-03
         0.29795E-03
        -0.73481E-04
        -0.15180E-03
        -0.13718E-03
        -0.13524E-03
        -0.16124E-03
         0.10168E-03
         0.79290E-04
        -0.12487E-04
         0.18227E-04
         0.19780E-03
         0.11855E-04
        -0.13671E-02
         0.19835E-02
        -0.41504E-02
        -0.44219E-02
        -0.42468E-02
        -0.23438E-02
         0.57467E-03
         0.16226E-02
         0.20318E-02
         0.36929E-02
         0.41275E-02
         0.16144E-02
         0.53740E-03
         0.44335E-03
        -0.21269E-03
        -0.19630E-02
        -0.35870E-02
        -0.47131E-02
        -0.31112E-02
         0.90022E-03
         0.17364E-02
         0.16670E-02
         0.29448E-02
         0.35829E-02
         0.23785E-02
         0.22427E-02
        -0.75109E-04
         0.98498E-05
        -0.17102E-04
        -0.12304E-04
         0.12993E-03
         0.50194E-04
         0.12221E-04
        -0.87929E-04
        -0.27196E-04
        -0.80592E-04
         0.72953E-05
        -0.13577E-03
        -0.26193E-03
         0.28243E-04
         0.34561E-03
        -0.55535E-04
         0.10067E-04
         0.51488E-05
         0.16132E-04
         0.51700E-05
         0.14718E-03
         0.98382E-04
        -0.56410E-04
         0.11345E-04
         0.27550E-04
        -0.43442E-05
         0.65820E-05
        -0.13640E-05
        -0.57798E-05
        -0.44362E-04
        -0.46087E-04
        -0.75393E-05
         0.18826E-04
         0.14525E-04
         0.31508E-04
        -0.56697E-04
        -0.12364E-03
         0.29624E-03
         0.46364E-04
         0.11278E-03
         0.29849E-03
        -0.73155E-04
        -0.15192E-03
        -0.13738E-03
        -0.13529E-03
        -0.16121E-03
         0.10170E-03
         0.79308E-04
        -0.12363E-04
         0.18164E-04
         0.19761E-03
         0.11639E-04
        -0.13653E-02
         0.19831E-02
        -0.41508E-02
        -0.44220E-02
        -0.42449E-02
        -0.23423E-02
         0.57506E-03
         0.16231E-02
         0.20296E-02
         0.36903E-02
         0.41261E-02
         0.16157E-02
         0.53745E-03
         0.44422E-03
        -0.21087E-03
        -0.19649E-02
        -0.35901E-02
        -0.47154E-02
        -0.31102E-02
         0.90045E-03
         0.17350E-02
         0.16664E-02
         0.29420E-02
         0.35782E-02
         0.23747E-02
         0.22387E-02
        -0.75265E-04
         0.98992E-05
        -0.17128E-04
        -0.12402E-04
         0.12982E-03
         0.50187E-04
         0.12306E-04
        -0.87807E-04
        -0.27269E-04
        -0.80765E-04
         0.71290E-05
        -0.13609E-03
        -0.26218E-03
         0.28201E-04
         0.34586E-03
        -0.55615E-04
         0.10185E-04
         0.51256E-05
         0.16135E-04
         0.51263E-05
         0.14756E-03
         0.98454E-04
        -0.56500E-04
         0.11330E-04
         0.27729E-04
        -0.43372E-05
         0.67000E-05
        -0.13507E-05
        -0.57465E-05
        -0.44464E-04
        -0.46153E-04
        -0.74942E-05
         0.18784E-04
         0.14555E-04
         0.31198E-04
        -0.56719E-04
        -0.12362E-03
         0.29718E-03
         0.46889E-04
         0.11329E-03
         0.29903E-03
        -0.72830E-04
        -0.15203E-03
        -0.13759E-03
        -0.13535E-03
        -0.16119E-03
         0.10172E-03
         0.79328E-04
        -0.12239E-04
         0.18104E-04
         0.19744E-03
         0.11422E-04
        -0.13636E-02
         0.19827E-02
        -0.41511E-02
        -0.44220E-02
        -0.42431E-02
        -0.23408E-02
         0.57545E-03
         0.16236E-02
         0.20275E-02
         0.36878E-02
         0.41248E-02
         0.16169E-02
         0.53752E-03
         0.44511E-03
        -0.20906E-03
        -0.19668E-02
        -0.35932E-02
        -0.47176E-02
        -0.31092E-02
         0.90068E-03
         0.17335E-02
         0.16657E-02
         0.29391E-02
         0.35735E-02
         0.23709E-02
         0.22348E-02
        -0.75421E-04
         0.99490E-05
        -0.17154E-04
        -0.12500E-04
         0.12971E-03
         0.50180E-04
         0.12391E-04
        -0.87684E-04
        -0.27342E-04
        -0.80936E-04
         0.69627E-05
        -0.13641E-03
        -0.26243E-03
         0.28155E-04
         0.34611E-03
        -0.55695E-04
         0.10304E-04
         0.51027E-05
         0.16139E-04
         0.50827E-05
         0.14793E-03
         0.98522E-04
        -0.56584E-04
         0.11315E-04
         0.27908E-04
        -0.43302E-05
         0.68150E-05
        -0.13368E-05
        -0.57123E-05
        -0.44565E-04
        -0.46219E-04
        -0.74487E-05
         0.18741E-04
         0.14585E-04
         0.30888E-04
        -0.56748E-04
        -0.12360E-03
         0.29812E-03
         0.47415E-04
         0.11380E-03
         0.29958E-03
        -0.72505E-04
        -0.15214E-03
        -0.13779E-03
        -0.13540E-03
        -0.16116E-03
         0.10174E-03
         0.79352E-04
        -0.12116E-04
         0.18040E-04
         0.19725E-03
         0.11207E-04
        -0.13618E-02
         0.19823E-02
        -0.41514E-02
        -0.44220E-02
        -0.42413E-02
        -0.23393E-02
         0.57583E-03
         0.16241E-02
         0.20254E-02
         0.36853E-02
         0.41234E-02
         0.16181E-02
         0.53758E-03
         0.44599E-03
        -0.20724E-03
        -0.19687E-02
        -0.35963E-02
        -0.47198E-02
        -0.31082E-02
         0.90090E-03
         0.17321E-02
         0.16650E-02
         0.29362E-02
         0.35687E-02
         0.23671E-02
         0.22308E-02
        -0.75576E-04
         0.99983E-05
        -0.17181E-04
        -0.12599E-04
         0.12961E-03
         0.50174E-04
         0.12477E-04
        -0.87559E-04
        -0.27415E-04
        -0.81108E-04
         0.67958E-05
        -0.13673E-03
        -0.26269E-03
         0.28112E-04
         0.34636E-03
        -0.55775E-04
         0.10424E-04
         0.50799E-05
         0.16144E-04
         0.50386E-05
         0.14830E-03
         0.98589E-04
        -0.56674E-04
         0.11301E-04
         0.28087E-04
        -0.43230E-05
         0.69320E-05
        -0.13221E-05
        -0.56771E-05
        -0.44666E-04
        -0.46286E-04
        -0.74035E-05
         0.18698E-04
         0.14615E-04
         0.30576E-04
        -0.56774E-04
        -0.12358E-03
         0.29906E-03
         0.47945E-04
         0.11431E-03
         0.30012E-03
        -0.72180E-04
        -0.15225E-03
        -0.13798E-03
        -0.13546E-03
        -0.16114E-03
         0.10176E-03
         0.79371E-04
        -0.11992E-04
         0.17977E-04
         0.19707E-03
         0.10992E-04
        -0.13600E-02
         0.19818E-02
        -0.41517E-02
        -0.44221E-02
        -0.42394E-02
        -0.23378E-02
         0.57619E-03
         0.16245E-02
         0.20233E-02
         0.36828E-02
         0.41221E-02
         0.16194E-02
         0.53765E-03
         0.44686E-03
        -0.20542E-03
        -0.19706E-02
        -0.35994E-02
        -0.47220E-02
        -0.31072E-02
         0.90111E-03
         0.17306E-02
         0.16643E-02
         0.29333E-02
         0.35640E-02
         0.23634E-02
         0.22268E-02
        -0.75731E-04
         0.10048E-04
        -0.17207E-04
        -0.12698E-04
         0.12951E-03
         0.50167E-04
         0.12562E-04
        -0.87434E-04
        -0.27488E-04
        -0.81278E-04
         0.66290E-05
        -0.13705E-03
        -0.26293E-03
         0.28068E-04
         0.34661E-03
        -0.55855E-04
         0.10544E-04
         0.50567E-05
         0.16148E-04
         0.49954E-05
         0.14868E-03
         0.98655E-04
        -0.56764E-04
         0.11286E-04
         0.28265E-04
        -0.43161E-05
         0.70465E-05
        -0.13069E-05
        -0.56406E-05
        -0.44768E-04
        -0.46352E-04
        -0.73582E-05
         0.18655E-04
         0.14645E-04
         0.30262E-04
        -0.56800E-04
        -0.12355E-03
         0.30000E-03
         0.48478E-04
         0.11483E-03
         0.30066E-03
        -0.71857E-04
        -0.15236E-03
        -0.13818E-03
        -0.13551E-03
        -0.16112E-03
         0.10178E-03
         0.79395E-04
        -0.11869E-04
         0.17917E-04
         0.19689E-03
         0.10777E-04
        -0.13583E-02
         0.19814E-02
        -0.41520E-02
        -0.44221E-02
        -0.42376E-02
        -0.23363E-02
         0.57656E-03
         0.16250E-02
         0.20211E-02
         0.36803E-02
         0.41207E-02
         0.16206E-02
         0.53771E-03
         0.44773E-03
        -0.20360E-03
        -0.19724E-02
        -0.36024E-02
        -0.47243E-02
        -0.31063E-02
         0.90133E-03
         0.17292E-02
         0.16636E-02
         0.29305E-02
         0.35593E-02
         0.23597E-02
         0.22229E-02
        -0.75888E-04
         0.10097E-04
        -0.17233E-04
        -0.12797E-04
         0.12940E-03
         0.50161E-04
         0.12647E-04
        -0.87308E-04
        -0.27561E-04
        -0.81444E-04
         0.64624E-05
        -0.13737E-03
        -0.26319E-03
         0.28021E-04
         0.34685E-03
        -0.55934E-04
         0.10665E-04
         0.50336E-05
         0.16152E-04
         0.49521E-05
         0.14905E-03
         0.98723E-04
        -0.56850E-04
         0.11272E-04
         0.28443E-04
        -0.43088E-05
         0.71643E-05
        -0.12909E-05
        -0.56036E-05
        -0.44868E-04
        -0.46418E-04
        -0.73123E-05
         0.18610E-04
         0.14675E-04
         0.29948E-04
        -0.56829E-04
        -0.12353E-03
         0.30093E-03
         0.49014E-04
         0.11535E-03
         0.30121E-03
        -0.71530E-04
        -0.15247E-03
        -0.13838E-03
        -0.13557E-03
        -0.16108E-03
         0.10180E-03
         0.79416E-04
        -0.11745E-04
         0.17854E-04
         0.19670E-03
         0.10564E-04
        -0.13565E-02
         0.19810E-02
        -0.41523E-02
        -0.44222E-02
        -0.42358E-02
        -0.23347E-02
         0.57694E-03
         0.16255E-02
         0.20190E-02
         0.36777E-02
         0.41194E-02
         0.16218E-02
         0.53776E-03
         0.44860E-03
        -0.20177E-03
        -0.19743E-02
        -0.36055E-02
        -0.47265E-02
        -0.31053E-02
         0.90155E-03
         0.17277E-02
         0.16630E-02
         0.29276E-02
         0.35546E-02
         0.23560E-02
         0.22189E-02
        -0.76044E-04
         0.10146E-04
        -0.17259E-04
        -0.12896E-04
         0.12930E-03
         0.50153E-04
         0.12733E-04
        -0.87180E-04
        -0.27634E-04
        -0.81611E-04
         0.62959E-05
        -0.13769E-03
        -0.26344E-03
         0.27977E-04
         0.34710E-03
        -0.56013E-04
         0.10787E-04
         0.50107E-05
         0.16158E-04
         0.49093E-05
         0.14943E-03
         0.98789E-04
        -0.56939E-04
         0.11258E-04
         0.28622E-04
        -0.43013E-05
         0.72789E-05
        -0.12744E-05
        -0.55658E-05
        -0.44968E-04
        -0.46483E-04
        -0.72670E-05
         0.18565E-04
         0.14705E-04
         0.29632E-04
        -0.56855E-04
        -0.12351E-03
         0.30188E-03
         0.49551E-04
         0.11587E-03
         0.30175E-03
        -0.71203E-04
        -0.15258E-03
        -0.13858E-03
        -0.13562E-03
        -0.16106E-03
         0.10182E-03
         0.79436E-04
        -0.11621E-04
         0.17792E-04
         0.19652E-03
         0.10352E-04
        -0.13547E-02
         0.19806E-02
        -0.41526E-02
        -0.44222E-02
        -0.42340E-02
        -0.23332E-02
         0.57731E-03
         0.16259E-02
         0.20169E-02
         0.36751E-02
         0.41180E-02
         0.16231E-02
         0.53782E-03
         0.44948E-03
        -0.19996E-03
        -0.19762E-02
        -0.36087E-02
        -0.47287E-02
        -0.31043E-02
         0.90175E-03
         0.17263E-02
         0.16623E-02
         0.29247E-02
         0.35499E-02
         0.23522E-02
         0.22150E-02
        -0.76200E-04
         0.10195E-04
        -0.17285E-04
        -0.12996E-04
         0.12919E-03
         0.50145E-04
         0.12818E-04
        -0.87052E-04
        -0.27707E-04
        -0.81777E-04
         0.61291E-05
        -0.13802E-03
        -0.26369E-03
         0.27929E-04
         0.34734E-03
        -0.56093E-04
         0.10909E-04
         0.49879E-05
         0.16162E-04
         0.48659E-05
         0.14980E-03
         0.98854E-04
        -0.57025E-04
         0.11243E-04
         0.28801E-04
        -0.42939E-05
         0.73957E-05
        -0.12570E-05
        -0.55274E-05
        -0.45069E-04
        -0.46549E-04
        -0.72212E-05
         0.18520E-04
         0.14735E-04
         0.29316E-04
        -0.56884E-04
        -0.12349E-03
         0.30282E-03
         0.50092E-04
         0.11638E-03
         0.30229E-03
        -0.70877E-04
        -0.15269E-03
        -0.13878E-03
        -0.13567E-03
        -0.16104E-03
         0.10184E-03
         0.79460E-04
        -0.11496E-04
         0.17731E-04
         0.19634E-03
         0.10140E-04
        -0.13530E-02
         0.19802E-02
        -0.41529E-02
        -0.44222E-02
        -0.42322E-02
        -0.23317E-02
         0.57766E-03
         0.16264E-02
         0.20147E-02
         0.36726E-02
         0.41167E-02
         0.16243E-02
         0.53788E-03
         0.45035E-03
        -0.19814E-03
        -0.19781E-02
        -0.36118E-02
        -0.47310E-02
        -0.31033E-02
         0.90195E-03
         0.17248E-02
         0.16616E-02
         0.29219E-02
         0.35452E-02
         0.23485E-02
         0.22110E-02
        -0.76356E-04
         0.10245E-04
        -0.17311E-04
        -0.13095E-04
         0.12909E-03
         0.50140E-04
         0.12904E-04
        -0.86923E-04
        -0.27781E-04
        -0.81943E-04
         0.59619E-05
        -0.13834E-03
        -0.26395E-03
         0.27885E-04
         0.34758E-03
        -0.56173E-04
         0.11033E-04
         0.49652E-05
         0.16166E-04
         0.48231E-05
         0.15017E-03
         0.98917E-04
        -0.57113E-04
         0.11230E-04
         0.28979E-04
        -0.42864E-05
         0.75094E-05
        -0.12391E-05
        -0.54881E-05
        -0.45169E-04
        -0.46614E-04
        -0.71760E-05
         0.18474E-04
         0.14766E-04
         0.28997E-04
        -0.56909E-04
        -0.12347E-03
         0.30376E-03
         0.50636E-04
         0.11690E-03
         0.30284E-03
        -0.70550E-04
        -0.15280E-03
        -0.13897E-03
        -0.13573E-03
        -0.16101E-03
         0.10186E-03
         0.79480E-04
        -0.11373E-04
         0.17669E-04
         0.19616E-03
         0.99279E-05
        -0.13512E-02
         0.19798E-02
        -0.41532E-02
        -0.44223E-02
        -0.42304E-02
        -0.23301E-02
         0.57800E-03
         0.16268E-02
         0.20126E-02
         0.36700E-02
         0.41154E-02
         0.16256E-02
         0.53794E-03
         0.45121E-03
        -0.19631E-03
        -0.19799E-02
        -0.36149E-02
        -0.47332E-02
        -0.31023E-02
         0.90215E-03
         0.17234E-02
         0.16610E-02
         0.29190E-02
         0.35405E-02
         0.23448E-02
         0.22071E-02
        -0.76512E-04
         0.10294E-04
        -0.17338E-04
        -0.13194E-04
         0.12899E-03
         0.50132E-04
         0.12990E-04
        -0.86793E-04
        -0.27853E-04
        -0.82103E-04
         0.57945E-05
        -0.13866E-03
        -0.26420E-03
         0.27836E-04
         0.34782E-03
        -0.56253E-04
         0.11157E-04
         0.49424E-05
         0.16171E-04
         0.47805E-05
         0.15055E-03
         0.98977E-04
        -0.57200E-04
         0.11216E-04
         0.29156E-04
        -0.42786E-05
         0.76261E-05
        -0.12201E-05
        -0.54475E-05
        -0.45267E-04
        -0.46680E-04
        -0.71305E-05
         0.18428E-04
         0.14797E-04
         0.28677E-04
        -0.56935E-04
        -0.12345E-03
         0.30470E-03
         0.51186E-04
         0.11742E-03
         0.30337E-03
        -0.70225E-04
        -0.15291E-03
        -0.13917E-03
        -0.13578E-03
        -0.16099E-03
         0.10188E-03
         0.79504E-04
        -0.11250E-04
         0.17606E-04
         0.19598E-03
         0.97184E-05
        -0.13494E-02
         0.19794E-02
        -0.41534E-02
        -0.44223E-02
        -0.42285E-02
        -0.23286E-02
         0.57833E-03
         0.16272E-02
         0.20105E-02
         0.36674E-02
         0.41140E-02
         0.16268E-02
         0.53798E-03
         0.45207E-03
        -0.19450E-03
        -0.19818E-02
        -0.36180E-02
        -0.47354E-02
        -0.31013E-02
         0.90236E-03
         0.17219E-02
         0.16603E-02
         0.29161E-02
         0.35357E-02
         0.23412E-02
         0.22031E-02
        -0.76668E-04
         0.10343E-04
        -0.17363E-04
        -0.13294E-04
         0.12888E-03
         0.50124E-04
         0.13075E-04
        -0.86660E-04
        -0.27925E-04
        -0.82253E-04
         0.56270E-05
        -0.13899E-03
        -0.26445E-03
         0.27789E-04
         0.34805E-03
        -0.56332E-04
         0.11283E-04
         0.49195E-05
         0.16178E-04
         0.47400E-05
         0.15092E-03
         0.99036E-04
        -0.57289E-04
         0.11202E-04
         0.29329E-04
        -0.42713E-05
         0.77410E-05
        -0.11998E-05
        -0.54063E-05
        -0.45365E-04
        -0.46746E-04
        -0.70842E-05
         0.18381E-04
         0.14827E-04
         0.28356E-04
        -0.56965E-04
        -0.12343E-03
         0.30564E-03
         0.51751E-04
         0.11793E-03
         0.30389E-03
        -0.69891E-04
        -0.15302E-03
        -0.13937E-03
        -0.13584E-03
        -0.16096E-03
         0.10190E-03
         0.79526E-04
        -0.11128E-04
         0.17545E-04
         0.19580E-03
         0.95090E-05
        -0.13477E-02
         0.19789E-02
        -0.41537E-02
        -0.44223E-02
        -0.42267E-02
        -0.23271E-02
         0.57867E-03
         0.16277E-02
         0.20084E-02
         0.36648E-02
         0.41128E-02
         0.16282E-02
         0.53799E-03
         0.45293E-03
        -0.19268E-03
        -0.19836E-02
        -0.36211E-02
        -0.47376E-02
        -0.31003E-02
         0.90256E-03
         0.17205E-02
         0.16596E-02
         0.29132E-02
         0.35311E-02
         0.23375E-02
         0.21992E-02
        -0.76824E-04
         0.10392E-04
        -0.17389E-04
        -0.13394E-04
         0.12877E-03
         0.50115E-04
         0.13161E-04
        -0.86527E-04
        -0.27994E-04
        -0.82391E-04
         0.54597E-05
        -0.13931E-03
        -0.26471E-03
         0.27742E-04
         0.34828E-03
        -0.56411E-04
         0.11410E-04
         0.48966E-05
         0.16183E-04
         0.47007E-05
         0.15129E-03
         0.99091E-04
        -0.57377E-04
         0.11188E-04
         0.29497E-04
        -0.42634E-05
         0.78603E-05
        -0.11779E-05
        -0.53644E-05
        -0.45456E-04
        -0.46810E-04
        -0.70386E-05
         0.18333E-04
         0.14858E-04
         0.28033E-04
        -0.56991E-04
        -0.12341E-03
         0.30658E-03
         0.52328E-04
         0.11843E-03
         0.30439E-03
        -0.69555E-04
        -0.15313E-03
        -0.13957E-03
        -0.13589E-03
        -0.16094E-03
         0.10192E-03
         0.79547E-04
        -0.11004E-04
         0.17483E-04
         0.19561E-03
         0.92986E-05
        -0.13459E-02
         0.19785E-02
        -0.41540E-02
        -0.44223E-02
        -0.42249E-02
        -0.23256E-02
         0.57900E-03
         0.16281E-02
         0.20063E-02
         0.36620E-02
         0.41115E-02
         0.16295E-02
         0.53797E-03
         0.45379E-03
        -0.19086E-03
        -0.19855E-02
        -0.36242E-02
        -0.47398E-02
        -0.30993E-02
         0.90276E-03
         0.17191E-02
         0.16589E-02
         0.29103E-02
         0.35264E-02
         0.23339E-02
         0.21953E-02
        -0.76981E-04
         0.10441E-04
        -0.17415E-04
        -0.13494E-04
         0.12868E-03
         0.50109E-04
         0.13246E-04
        -0.86394E-04
        -0.28064E-04
        -0.82527E-04
         0.52934E-05
        -0.13963E-03
        -0.26496E-03
         0.27692E-04
         0.34850E-03
        -0.56491E-04
         0.11539E-04
         0.48741E-05
         0.16187E-04
         0.46627E-05
         0.15167E-03
         0.99146E-04
        -0.57458E-04
         0.11175E-04
         0.29664E-04
        -0.42560E-05
         0.79764E-05
        -0.11549E-05
        -0.53222E-05
        -0.45547E-04
        -0.46877E-04
        -0.69939E-05
         0.18286E-04
         0.14889E-04
         0.27712E-04
        -0.57018E-04
        -0.12338E-03
         0.30752E-03
         0.52912E-04
         0.11892E-03
         0.30487E-03
        -0.69223E-04
        -0.15325E-03
        -0.13976E-03
        -0.13594E-03
        -0.16092E-03
         0.10194E-03
         0.79572E-04
        -0.10882E-04
         0.17420E-04
         0.19544E-03
         0.90906E-05
        -0.13441E-02
         0.19781E-02
        -0.41543E-02
        -0.44224E-02
        -0.42231E-02
        -0.23240E-02
         0.57932E-03
         0.16285E-02
         0.20042E-02
         0.36591E-02
         0.41103E-02
         0.16309E-02
         0.53793E-03
         0.45465E-03
        -0.18904E-03
        -0.19874E-02
        -0.36273E-02
        -0.47420E-02
        -0.30984E-02
         0.90298E-03
         0.17177E-02
         0.16582E-02
         0.29075E-02
         0.35217E-02
         0.23302E-02
         0.21913E-02
        -0.77941E-04
         0.10592E-04
        -0.17631E-04
        -0.13730E-04
         0.12996E-03
         0.50633E-04
         0.13469E-04
        -0.87215E-04
        -0.28419E-04
        -0.83560E-04
         0.52060E-05
        -0.14145E-03
        -0.26807E-03
         0.27958E-04
         0.35281E-03
        -0.57154E-04
         0.11783E-04
         0.49021E-05
         0.16359E-04
         0.46768E-05
         0.15361E-03
         0.10026E-03
        -0.58088E-04
         0.11287E-04
         0.30144E-04
        -0.42970E-05
         0.81740E-05
        -0.11439E-05
        -0.53498E-05
        -0.46137E-04
        -0.47433E-04
        -0.70349E-05
         0.18433E-04
         0.15076E-04
         0.27727E-04
        -0.57634E-04
        -0.12465E-03
         0.31194E-03
         0.54057E-04
         0.12073E-03
         0.30878E-03
        -0.69749E-04
        -0.15507E-03
        -0.14132E-03
        -0.13738E-03
        -0.16260E-03
         0.10303E-03
         0.80415E-04
        -0.10886E-04
         0.17543E-04
         0.19739E-03
         0.89810E-05
        -0.13603E-02
         0.20042E-02
        -0.42103E-02
        -0.44806E-02
        -0.42782E-02
        -0.23546E-02
         0.58800E-03
         0.16516E-02
         0.20306E-02
         0.37091E-02
         0.41672E-02
         0.16539E-02
         0.54446E-03
         0.46091E-03
        -0.18955E-03
        -0.20127E-02
        -0.36737E-02
        -0.48047E-02
        -0.31394E-02
         0.91567E-03
         0.17386E-02
         0.16783E-02
         0.29421E-02
         0.35624E-02
         0.23563E-02
         0.22153E-02
        -0.17745E-03
         0.24405E-04
        -0.40033E-04
        -0.31490E-04
         0.27537E-03
         0.10921E-03
         0.30952E-04
        -0.19704E-03
        -0.64367E-04
        -0.18810E-03
         0.11390E-04
        -0.29072E-03
        -0.56600E-03
         0.61509E-04
         0.73358E-03
        -0.13024E-03
         0.26913E-04
         0.11134E-04
         0.36361E-04
         0.10429E-04
         0.32360E-03
         0.21653E-03
        -0.12265E-03
         0.25449E-04
         0.69250E-04
        -0.98466E-05
         0.18444E-04
        -0.25881E-05
        -0.12338E-04
        -0.10575E-03
        -0.10818E-03
        -0.15957E-04
         0.42076E-04
         0.34485E-04
         0.55976E-04
        -0.12426E-03
        -0.26891E-03
         0.67797E-03
         0.12118E-03
         0.27167E-03
         0.67552E-03
        -0.15430E-03
        -0.34289E-03
        -0.30273E-03
        -0.29258E-03
        -0.32782E-03
         0.21818E-03
         0.17437E-03
        -0.23667E-04
         0.38030E-04
         0.40883E-03
         0.18959E-04
        -0.22219E-02
         0.32627E-02
        -0.68646E-02
        -0.73370E-02
        -0.70030E-02
        -0.38809E-02
         0.99344E-03
         0.28344E-02
         0.34706E-02
         0.62732E-02
         0.70568E-02
         0.27832E-02
         0.93180E-03
         0.79329E-03
        -0.31557E-03
        -0.32983E-02
        -0.59859E-02
        -0.77674E-02
        -0.50822E-02
         0.14874E-02
         0.28712E-02
         0.27928E-02
         0.48664E-02
         0.59307E-02
         0.38959E-02
         0.36354E-02
  
SCALARS                      strain_eq  double 1
LOOKUP_TABLE default
         0.17721E+02
         0.17496E+02
         0.17635E+02
         0.17894E+02
         0.35837E-08
         0.39736E-08
         0.38606E-08
         0.34738E-08
         0.17458E+02
         0.17551E+02
         0.39081E-08
         0.37375E-08
         0.17169E+02
         0.17159E+02
         0.42758E-08
         0.40719E-08
         0.17856E+02
         0.17173E+02
         0.31897E-08
         0.35875E-08
         0.16925E+02
         0.16718E+02
         0.17025E+02
         0.44038E-08
         0.42009E-08
         0.41784E-08
         0.16735E+02
         0.16443E+02
         0.42656E-08
         0.38741E-08
         0.17844E+02
         0.17547E+02
         0.18130E+02
         0.34710E-08
         0.32595E-08
         0.31222E-08
         0.17669E+02
         0.17294E+02
         0.37842E-08
         0.34499E-08
         0.17515E+02
         0.17219E+02
         0.35199E-08
         0.30367E-08
         0.17759E+02
         0.17876E+02
         0.38009E-08
         0.39417E-08
         0.16998E+02
         0.34065E-08
         0.17854E+02
         0.39610E-08
         0.16658E+02
         0.37242E-08
         0.16568E+02
         0.34376E-08
         0.16562E+02
         0.16887E+02
         0.34836E-08
         0.34255E-08
         0.17838E+02
         0.17717E+02
         0.35148E-08
         0.39787E-08
         0.17909E+02
         0.33736E-08
         0.17770E+02
         0.36948E-08
         0.17362E+02
         0.17357E+02
         0.39522E-08
         0.39497E-08
         0.17286E+02
         0.39970E-08
         0.16338E+02
         0.31950E-08
         0.16284E+02
         0.29738E-08
         0.16297E+02
         0.30979E-08
         0.16404E+02
         0.16575E+02
         0.29963E-08
         0.31122E-08
         0.16881E+02
         0.29310E-08
         0.17747E+02
         0.39354E-08
         0.17595E+02
         0.40075E-08
         0.17451E+02
         0.17430E+02
         0.40037E-08
         0.39275E-08
         0.17521E+02
         0.35245E-08
         0.17575E+02
         0.34509E-08
         0.17516E+02
         0.37326E-08
         0.17468E+02
         0.17539E+02
         0.38373E-08
         0.38268E-08
         0.17072E+02
         0.17166E+02
         0.36488E-08
         0.35220E-08
         0.17004E+02
         0.35435E-08
         0.17113E+02
         0.34596E-08
         0.16981E+02
         0.34554E-08
         0.16640E+02
         0.32396E-08
         0.16285E+02
         0.27412E-08
         0.16091E+02
         0.23162E-08
         0.16073E+02
         0.22465E-08
         0.16084E+02
         0.23935E-08
         0.16303E+02
         0.24691E-08
         0.16644E+02
         0.23129E-08
         0.17046E+02
         0.21110E-08
         0.17323E+02
         0.21847E-08
         0.17588E+02
         0.25897E-08
         0.17759E+02
         0.30233E-08
         0.17733E+02
         0.32222E-08
         0.17395E+02
         0.34406E-08
         0.17175E+02
         0.36157E-08
         0.17017E+02
         0.33735E-08
         0.17125E+02
         0.29701E-08
         0.17223E+02
         0.29644E-08
         0.17152E+02
         0.32620E-08
         0.17198E+02
         0.34614E-08
         0.17251E+02
         0.33493E-08
         0.17331E+02
         0.32747E-08
         0.33324E+00
         0.32309E+00
         0.32448E+00
         0.33735E+00
         0.31293E+00
         0.32573E+00
         0.30961E+00
         0.31817E+00
         0.33540E+00
         0.32489E+00
         0.30012E+00
         0.29743E+00
         0.30519E+00
         0.30552E+00
         0.30078E+00
         0.33677E+00
         0.33443E+00
         0.34088E+00
         0.32195E+00
         0.32556E+00
         0.32057E+00
         0.32403E+00
         0.31760E+00
         0.31911E+00
         0.32528E+00
         0.32482E+00
         0.31419E+00
         0.31517E+00
         0.30698E+00
         0.31928E+00
         0.33562E+00
         0.32293E+00
         0.33552E+00
         0.32730E+00
         0.29533E+00
         0.30601E+00
         0.31102E+00
         0.30527E+00
         0.30443E+00
         0.29447E+00
         0.28718E+00
         0.30492E+00
         0.32084E+00
         0.31867E+00
         0.31056E+00
         0.29577E+00
         0.30838E+00
         0.32134E+00
         0.32044E+00
         0.31044E+00
         0.29989E+00
         0.31410E+00
         0.26995E+00
         0.28463E+00
         0.28246E+00
         0.28594E+00
         0.28539E+00
         0.27805E+00
         0.26976E+00
         0.26661E+00
         0.26765E+00
         0.26699E+00
         0.26330E+00
         0.28441E+00
         0.29136E+00
         0.29400E+00
         0.29904E+00
         0.30286E+00
         0.30289E+00
         0.29690E+00
         0.27508E+00
         0.28059E+00
         0.28782E+00
         0.28752E+00
         0.28628E+00
         0.27896E+00
         0.28965E+00
         0.29358E+00
         0.25461E-01
         0.15298E-01
         0.14430E-01
         0.98953E-02
         0.26441E-01
         0.18281E-01
         0.80695E-02
         0.25041E-01
         0.15686E-01
         0.23596E-01
         0.11505E-01
         0.49573E-01
         0.37644E-01
         0.18828E-01
         0.51919E-01
         0.18500E-01
         0.93726E-02
         0.59798E-02
         0.12457E-01
         0.67442E-02
         0.38984E-01
         0.36575E-01
         0.35618E-01
         0.92693E-02
         0.15227E-01
         0.48419E-02
         0.17763E-01
         0.28852E-02
         0.65060E-02
         0.16517E-01
         0.15804E-01
         0.84064E-02
         0.10237E-01
         0.88558E-02
         0.34179E-01
         0.20453E-01
         0.26475E-01
         0.42342E-01
         0.32571E-01
         0.30316E-01
         0.43056E-01
         0.39031E-01
         0.39291E-01
         0.30417E-01
         0.27163E-01
         0.37158E-01
         0.24360E-01
         0.20714E-01
         0.17081E-01
         0.20171E-01
         0.32980E-01
         0.22643E-01
         0.14475E+00
         0.14821E+00
         0.15491E+00
         0.15379E+00
         0.16393E+00
         0.17600E+00
         0.16890E+00
         0.15020E+00
         0.14637E+00
         0.15664E+00
         0.15352E+00
         0.15143E+00
         0.12520E+00
         0.11902E+00
         0.13074E+00
         0.14003E+00
         0.14532E+00
         0.15868E+00
         0.15264E+00
         0.15677E+00
         0.14118E+00
         0.13405E+00
         0.14295E+00
         0.13975E+00
         0.14380E+00
         0.14259E+00
         0.25480E-01
         0.15302E-01
         0.14438E-01
         0.99095E-02
         0.26429E-01
         0.18271E-01
         0.80940E-02
         0.25065E-01
         0.15713E-01
         0.23665E-01
         0.11504E-01
         0.49571E-01
         0.37659E-01
         0.18784E-01
         0.51973E-01
         0.18515E-01
         0.93988E-02
         0.59647E-02
         0.12464E-01
         0.67293E-02
         0.38988E-01
         0.36572E-01
         0.35616E-01
         0.92691E-02
         0.15293E-01
         0.48408E-02
         0.17769E-01
         0.28546E-02
         0.65370E-02
         0.16546E-01
         0.15819E-01
         0.84037E-02
         0.10220E-01
         0.88638E-02
         0.34194E-01
         0.20448E-01
         0.26469E-01
         0.42408E-01
         0.32644E-01
         0.30358E-01
         0.43084E-01
         0.39051E-01
         0.39295E-01
         0.30416E-01
         0.27158E-01
         0.37156E-01
         0.24360E-01
         0.20712E-01
         0.17057E-01
         0.20143E-01
         0.32962E-01
         0.22608E-01
         0.14469E+00
         0.14817E+00
         0.15491E+00
         0.15379E+00
         0.16391E+00
         0.17594E+00
         0.16882E+00
         0.15016E+00
         0.14633E+00
         0.15659E+00
         0.15349E+00
         0.15144E+00
         0.12518E+00
         0.11901E+00
         0.13076E+00
         0.14007E+00
         0.14535E+00
         0.15872E+00
         0.15263E+00
         0.15676E+00
         0.14116E+00
         0.13404E+00
         0.14290E+00
         0.13966E+00
         0.14372E+00
         0.14252E+00
         0.25500E-01
         0.15305E-01
         0.14447E-01
         0.99237E-02
         0.26417E-01
         0.18261E-01
         0.81185E-02
         0.25089E-01
         0.15741E-01
         0.23734E-01
         0.11504E-01
         0.49569E-01
         0.37674E-01
         0.18740E-01
         0.52026E-01
         0.18530E-01
         0.94255E-02
         0.59495E-02
         0.12472E-01
         0.67147E-02
         0.38991E-01
         0.36570E-01
         0.35614E-01
         0.92687E-02
         0.15358E-01
         0.48394E-02
         0.17775E-01
         0.28252E-02
         0.65677E-02
         0.16574E-01
         0.15835E-01
         0.84010E-02
         0.10202E-01
         0.88718E-02
         0.34210E-01
         0.20442E-01
         0.26463E-01
         0.42474E-01
         0.32717E-01
         0.30400E-01
         0.43113E-01
         0.39072E-01
         0.39301E-01
         0.30417E-01
         0.27153E-01
         0.37155E-01
         0.24360E-01
         0.20711E-01
         0.17033E-01
         0.20115E-01
         0.32944E-01
         0.22574E-01
         0.14464E+00
         0.14814E+00
         0.15491E+00
         0.15379E+00
         0.16388E+00
         0.17588E+00
         0.16876E+00
         0.15012E+00
         0.14630E+00
         0.15655E+00
         0.15347E+00
         0.15144E+00
         0.12517E+00
         0.11901E+00
         0.13077E+00
         0.14010E+00
         0.14539E+00
         0.15875E+00
         0.15263E+00
         0.15675E+00
         0.14114E+00
         0.13403E+00
         0.14285E+00
         0.13957E+00
         0.14364E+00
         0.14244E+00
         0.25519E-01
         0.15309E-01
         0.14455E-01
         0.99380E-02
         0.26405E-01
         0.18250E-01
         0.81433E-02
         0.25113E-01
         0.15768E-01
         0.23802E-01
         0.11504E-01
         0.49568E-01
         0.37689E-01
         0.18696E-01
         0.52080E-01
         0.18547E-01
         0.94533E-02
         0.59342E-02
         0.12480E-01
         0.66994E-02
         0.38996E-01
         0.36568E-01
         0.35614E-01
         0.92677E-02
         0.15421E-01
         0.48372E-02
         0.17780E-01
         0.27993E-02
         0.65967E-02
         0.16599E-01
         0.15851E-01
         0.83989E-02
         0.10185E-01
         0.88799E-02
         0.34224E-01
         0.20437E-01
         0.26457E-01
         0.42540E-01
         0.32792E-01
         0.30445E-01
         0.43144E-01
         0.39093E-01
         0.39308E-01
         0.30420E-01
         0.27150E-01
         0.37155E-01
         0.24362E-01
         0.20710E-01
         0.17008E-01
         0.20088E-01
         0.32925E-01
         0.22539E-01
         0.14459E+00
         0.14810E+00
         0.15491E+00
         0.15380E+00
         0.16385E+00
         0.17582E+00
         0.16868E+00
         0.15008E+00
         0.14626E+00
         0.15650E+00
         0.15344E+00
         0.15145E+00
         0.12516E+00
         0.11900E+00
         0.13079E+00
         0.14014E+00
         0.14543E+00
         0.15879E+00
         0.15262E+00
         0.15675E+00
         0.14113E+00
         0.13402E+00
         0.14280E+00
         0.13947E+00
         0.14356E+00
         0.14237E+00
         0.25538E-01
         0.15312E-01
         0.14463E-01
         0.99522E-02
         0.26393E-01
         0.18240E-01
         0.81679E-02
         0.25137E-01
         0.15795E-01
         0.23868E-01
         0.11505E-01
         0.49567E-01
         0.37704E-01
         0.18652E-01
         0.52134E-01
         0.18565E-01
         0.94820E-02
         0.59188E-02
         0.12488E-01
         0.66838E-02
         0.39002E-01
         0.36567E-01
         0.35617E-01
         0.92663E-02
         0.15484E-01
         0.48339E-02
         0.17784E-01
         0.27766E-02
         0.66240E-02
         0.16622E-01
         0.15868E-01
         0.83970E-02
         0.10167E-01
         0.88879E-02
         0.34240E-01
         0.20431E-01
         0.26451E-01
         0.42606E-01
         0.32868E-01
         0.30491E-01
         0.43177E-01
         0.39116E-01
         0.39317E-01
         0.30427E-01
         0.27149E-01
         0.37156E-01
         0.24365E-01
         0.20709E-01
         0.16985E-01
         0.20060E-01
         0.32907E-01
         0.22504E-01
         0.14454E+00
         0.14807E+00
         0.15491E+00
         0.15380E+00
         0.16383E+00
         0.17576E+00
         0.16861E+00
         0.15004E+00
         0.14622E+00
         0.15645E+00
         0.15342E+00
         0.15146E+00
         0.12516E+00
         0.11900E+00
         0.13081E+00
         0.14019E+00
         0.14548E+00
         0.15883E+00
         0.15261E+00
         0.15674E+00
         0.14111E+00
         0.13401E+00
         0.14275E+00
         0.13938E+00
         0.14348E+00
         0.14229E+00
         0.25556E-01
         0.15315E-01
         0.14471E-01
         0.99665E-02
         0.26381E-01
         0.18229E-01
         0.81919E-02
         0.25159E-01
         0.15822E-01
         0.23932E-01
         0.11506E-01
         0.49565E-01
         0.37719E-01
         0.18608E-01
         0.52187E-01
         0.18583E-01
         0.95110E-02
         0.59035E-02
         0.12496E-01
         0.66686E-02
         0.39009E-01
         0.36567E-01
         0.35620E-01
         0.92649E-02
         0.15544E-01
         0.48302E-02
         0.17788E-01
         0.27558E-02
         0.66510E-02
         0.16644E-01
         0.15884E-01
         0.83946E-02
         0.10150E-01
         0.88960E-02
         0.34255E-01
         0.20426E-01
         0.26446E-01
         0.42673E-01
         0.32945E-01
         0.30539E-01
         0.43211E-01
         0.39139E-01
         0.39327E-01
         0.30434E-01
         0.27150E-01
         0.37160E-01
         0.24369E-01
         0.20710E-01
         0.16962E-01
         0.20032E-01
         0.32889E-01
         0.22470E-01
         0.14448E+00
         0.14803E+00
         0.15491E+00
         0.15380E+00
         0.16380E+00
         0.17570E+00
         0.16854E+00
         0.15000E+00
         0.14619E+00
         0.15640E+00
         0.15339E+00
         0.15147E+00
         0.12515E+00
         0.11900E+00
         0.13083E+00
         0.14023E+00
         0.14553E+00
         0.15886E+00
         0.15260E+00
         0.15673E+00
         0.14110E+00
         0.13401E+00
         0.14271E+00
         0.13929E+00
         0.14340E+00
         0.14222E+00
         0.25573E-01
         0.15315E-01
         0.14479E-01
         0.99809E-02
         0.26370E-01
         0.18219E-01
         0.82150E-02
         0.25178E-01
         0.15849E-01
         0.23993E-01
         0.11509E-01
         0.49566E-01
         0.37736E-01
         0.18564E-01
         0.52242E-01
         0.18601E-01
         0.95393E-02
         0.58880E-02
         0.12505E-01
         0.66535E-02
         0.39016E-01
         0.36567E-01
         0.35624E-01
         0.92637E-02
         0.15603E-01
         0.48259E-02
         0.17793E-01
         0.27355E-02
         0.66784E-02
         0.16667E-01
         0.15899E-01
         0.83905E-02
         0.10132E-01
         0.89037E-02
         0.34271E-01
         0.20422E-01
         0.26441E-01
         0.42741E-01
         0.33022E-01
         0.30587E-01
         0.43245E-01
         0.39163E-01
         0.39337E-01
         0.30442E-01
         0.27152E-01
         0.37165E-01
         0.24374E-01
         0.20712E-01
         0.16942E-01
         0.20006E-01
         0.32873E-01
         0.22436E-01
         0.14443E+00
         0.14800E+00
         0.15491E+00
         0.15380E+00
         0.16377E+00
         0.17565E+00
         0.16847E+00
         0.14996E+00
         0.14615E+00
         0.15636E+00
         0.15337E+00
         0.15148E+00
         0.12515E+00
         0.11900E+00
         0.13085E+00
         0.14028E+00
         0.14558E+00
         0.15890E+00
         0.15259E+00
         0.15672E+00
         0.14109E+00
         0.13400E+00
         0.14266E+00
         0.13920E+00
         0.14332E+00
         0.14214E+00
         0.25589E-01
         0.15315E-01
         0.14486E-01
         0.99953E-02
         0.26359E-01
         0.18209E-01
         0.82374E-02
         0.25195E-01
         0.15877E-01
         0.24053E-01
         0.11513E-01
         0.49566E-01
         0.37753E-01
         0.18521E-01
         0.52296E-01
         0.18620E-01
         0.95675E-02
         0.58724E-02
         0.12513E-01
         0.66392E-02
         0.39022E-01
         0.36567E-01
         0.35628E-01
         0.92625E-02
         0.15661E-01
         0.48212E-02
         0.17798E-01
         0.27159E-02
         0.67066E-02
         0.16689E-01
         0.15914E-01
         0.83855E-02
         0.10115E-01
         0.89114E-02
         0.34288E-01
         0.20419E-01
         0.26438E-01
         0.42809E-01
         0.33100E-01
         0.30636E-01
         0.43280E-01
         0.39187E-01
         0.39347E-01
         0.30451E-01
         0.27154E-01
         0.37171E-01
         0.24380E-01
         0.20715E-01
         0.16924E-01
         0.19981E-01
         0.32857E-01
         0.22403E-01
         0.14438E+00
         0.14796E+00
         0.15491E+00
         0.15380E+00
         0.16375E+00
         0.17559E+00
         0.16840E+00
         0.14992E+00
         0.14611E+00
         0.15631E+00
         0.15334E+00
         0.15149E+00
         0.12515E+00
         0.11899E+00
         0.13087E+00
         0.14033E+00
         0.14563E+00
         0.15894E+00
         0.15258E+00
         0.15671E+00
         0.14107E+00
         0.13399E+00
         0.14261E+00
         0.13911E+00
         0.14324E+00
         0.14206E+00
         0.25605E-01
         0.15315E-01
         0.14493E-01
         0.10010E-01
         0.26347E-01
         0.18198E-01
         0.82598E-02
         0.25212E-01
         0.15905E-01
         0.24113E-01
         0.11516E-01
         0.49566E-01
         0.37770E-01
         0.18478E-01
         0.52351E-01
         0.18638E-01
         0.95957E-02
         0.58569E-02
         0.12521E-01
         0.66244E-02
         0.39029E-01
         0.36567E-01
         0.35632E-01
         0.92617E-02
         0.15719E-01
         0.48167E-02
         0.17803E-01
         0.26969E-02
         0.67351E-02
         0.16711E-01
         0.15928E-01
         0.83806E-02
         0.10097E-01
         0.89191E-02
         0.34305E-01
         0.20416E-01
         0.26434E-01
         0.42877E-01
         0.33178E-01
         0.30683E-01
         0.43314E-01
         0.39210E-01
         0.39357E-01
         0.30460E-01
         0.27157E-01
         0.37177E-01
         0.24386E-01
         0.20719E-01
         0.16906E-01
         0.19956E-01
         0.32842E-01
         0.22369E-01
         0.14433E+00
         0.14793E+00
         0.15490E+00
         0.15380E+00
         0.16372E+00
         0.17553E+00
         0.16833E+00
         0.14988E+00
         0.14608E+00
         0.15626E+00
         0.15332E+00
         0.15150E+00
         0.12514E+00
         0.11899E+00
         0.13089E+00
         0.14037E+00
         0.14568E+00
         0.15898E+00
         0.15257E+00
         0.15670E+00
         0.14106E+00
         0.13399E+00
         0.14256E+00
         0.13902E+00
         0.14316E+00
         0.14199E+00
         0.25620E-01
         0.15315E-01
         0.14501E-01
         0.10024E-01
         0.26336E-01
         0.18188E-01
         0.82823E-02
         0.25229E-01
         0.15933E-01
         0.24173E-01
         0.11521E-01
         0.49566E-01
         0.37788E-01
         0.18435E-01
         0.52406E-01
         0.18657E-01
         0.96240E-02
         0.58415E-02
         0.12529E-01
         0.66099E-02
         0.39036E-01
         0.36567E-01
         0.35635E-01
         0.92607E-02
         0.15777E-01
         0.48122E-02
         0.17808E-01
         0.26787E-02
         0.67638E-02
         0.16733E-01
         0.15943E-01
         0.83755E-02
         0.10080E-01
         0.89269E-02
         0.34321E-01
         0.20413E-01
         0.26431E-01
         0.42945E-01
         0.33256E-01
         0.30732E-01
         0.43348E-01
         0.39234E-01
         0.39367E-01
         0.30468E-01
         0.27160E-01
         0.37182E-01
         0.24392E-01
         0.20722E-01
         0.16888E-01
         0.19930E-01
         0.32826E-01
         0.22335E-01
         0.14427E+00
         0.14789E+00
         0.15490E+00
         0.15380E+00
         0.16369E+00
         0.17547E+00
         0.16826E+00
         0.14984E+00
         0.14604E+00
         0.15621E+00
         0.15329E+00
         0.15151E+00
         0.12514E+00
         0.11899E+00
         0.13091E+00
         0.14042E+00
         0.14573E+00
         0.15901E+00
         0.15256E+00
         0.15669E+00
         0.14105E+00
         0.13398E+00
         0.14251E+00
         0.13893E+00
         0.14308E+00
         0.14191E+00
         0.25636E-01
         0.15315E-01
         0.14508E-01
         0.10039E-01
         0.26325E-01
         0.18178E-01
         0.83051E-02
         0.25247E-01
         0.15961E-01
         0.24233E-01
         0.11525E-01
         0.49566E-01
         0.37805E-01
         0.18392E-01
         0.52460E-01
         0.18675E-01
         0.96523E-02
         0.58262E-02
         0.12538E-01
         0.65950E-02
         0.39042E-01
         0.36567E-01
         0.35639E-01
         0.92599E-02
         0.15835E-01
         0.48077E-02
         0.17813E-01
         0.26608E-02
         0.67928E-02
         0.16755E-01
         0.15957E-01
         0.83705E-02
         0.10063E-01
         0.89345E-02
         0.34338E-01
         0.20410E-01
         0.26427E-01
         0.43013E-01
         0.33334E-01
         0.30780E-01
         0.43383E-01
         0.39258E-01
         0.39377E-01
         0.30476E-01
         0.27163E-01
         0.37189E-01
         0.24398E-01
         0.20725E-01
         0.16870E-01
         0.19905E-01
         0.32811E-01
         0.22302E-01
         0.14422E+00
         0.14786E+00
         0.15490E+00
         0.15380E+00
         0.16366E+00
         0.17541E+00
         0.16819E+00
         0.14980E+00
         0.14600E+00
         0.15616E+00
         0.15327E+00
         0.15152E+00
         0.12513E+00
         0.11899E+00
         0.13093E+00
         0.14047E+00
         0.14578E+00
         0.15905E+00
         0.15255E+00
         0.15668E+00
         0.14104E+00
         0.13397E+00
         0.14246E+00
         0.13884E+00
         0.14300E+00
         0.14184E+00
         0.25652E-01
         0.15315E-01
         0.14515E-01
         0.10053E-01
         0.26314E-01
         0.18168E-01
         0.83276E-02
         0.25264E-01
         0.15989E-01
         0.24293E-01
         0.11530E-01
         0.49567E-01
         0.37822E-01
         0.18349E-01
         0.52515E-01
         0.18694E-01
         0.96806E-02
         0.58106E-02
         0.12546E-01
         0.65806E-02
         0.39049E-01
         0.36567E-01
         0.35643E-01
         0.92592E-02
         0.15892E-01
         0.48034E-02
         0.17818E-01
         0.26437E-02
         0.68216E-02
         0.16777E-01
         0.15972E-01
         0.83656E-02
         0.10045E-01
         0.89424E-02
         0.34356E-01
         0.20406E-01
         0.26423E-01
         0.43081E-01
         0.33412E-01
         0.30828E-01
         0.43417E-01
         0.39281E-01
         0.39388E-01
         0.30485E-01
         0.27165E-01
         0.37195E-01
         0.24403E-01
         0.20729E-01
         0.16853E-01
         0.19880E-01
         0.32796E-01
         0.22268E-01
         0.14417E+00
         0.14782E+00
         0.15490E+00
         0.15380E+00
         0.16364E+00
         0.17535E+00
         0.16811E+00
         0.14976E+00
         0.14597E+00
         0.15611E+00
         0.15324E+00
         0.15153E+00
         0.12513E+00
         0.11898E+00
         0.13095E+00
         0.14051E+00
         0.14583E+00
         0.15909E+00
         0.15254E+00
         0.15667E+00
         0.14102E+00
         0.13397E+00
         0.14241E+00
         0.13875E+00
         0.14292E+00
         0.14176E+00
         0.25668E-01
         0.15315E-01
         0.14523E-01
         0.10068E-01
         0.26303E-01
         0.18157E-01
         0.83502E-02
         0.25281E-01
         0.16017E-01
         0.24353E-01
         0.11535E-01
         0.49567E-01
         0.37839E-01
         0.18306E-01
         0.52570E-01
         0.18712E-01
         0.97090E-02
         0.57951E-02
         0.12554E-01
         0.65660E-02
         0.39056E-01
         0.36567E-01
         0.35647E-01
         0.92585E-02
         0.15950E-01
         0.47990E-02
         0.17823E-01
         0.26271E-02
         0.68511E-02
         0.16799E-01
         0.15986E-01
         0.83606E-02
         0.10028E-01
         0.89501E-02
         0.34372E-01
         0.20404E-01
         0.26420E-01
         0.43149E-01
         0.33491E-01
         0.30876E-01
         0.43452E-01
         0.39305E-01
         0.39398E-01
         0.30494E-01
         0.27169E-01
         0.37200E-01
         0.24410E-01
         0.20732E-01
         0.16835E-01
         0.19855E-01
         0.32779E-01
         0.22235E-01
         0.14412E+00
         0.14779E+00
         0.15490E+00
         0.15380E+00
         0.16361E+00
         0.17529E+00
         0.16804E+00
         0.14971E+00
         0.14593E+00
         0.15607E+00
         0.15322E+00
         0.15154E+00
         0.12512E+00
         0.11898E+00
         0.13097E+00
         0.14056E+00
         0.14588E+00
         0.15912E+00
         0.15253E+00
         0.15666E+00
         0.14101E+00
         0.13396E+00
         0.14236E+00
         0.13866E+00
         0.14284E+00
         0.14169E+00
         0.25683E-01
         0.15315E-01
         0.14530E-01
         0.10082E-01
         0.26292E-01
         0.18147E-01
         0.83731E-02
         0.25298E-01
         0.16045E-01
         0.24413E-01
         0.11540E-01
         0.49567E-01
         0.37856E-01
         0.18263E-01
         0.52624E-01
         0.18730E-01
         0.97374E-02
         0.57797E-02
         0.12562E-01
         0.65516E-02
         0.39062E-01
         0.36567E-01
         0.35651E-01
         0.92577E-02
         0.16007E-01
         0.47946E-02
         0.17828E-01
         0.26112E-02
         0.68809E-02
         0.16821E-01
         0.16001E-01
         0.83557E-02
         0.10011E-01
         0.89578E-02
         0.34389E-01
         0.20400E-01
         0.26416E-01
         0.43218E-01
         0.33569E-01
         0.30924E-01
         0.43486E-01
         0.39329E-01
         0.39408E-01
         0.30502E-01
         0.27171E-01
         0.37206E-01
         0.24416E-01
         0.20736E-01
         0.16817E-01
         0.19829E-01
         0.32764E-01
         0.22202E-01
         0.14406E+00
         0.14775E+00
         0.15489E+00
         0.15380E+00
         0.16358E+00
         0.17523E+00
         0.16797E+00
         0.14967E+00
         0.14589E+00
         0.15602E+00
         0.15319E+00
         0.15155E+00
         0.12512E+00
         0.11898E+00
         0.13099E+00
         0.14061E+00
         0.14593E+00
         0.15916E+00
         0.15252E+00
         0.15665E+00
         0.14100E+00
         0.13396E+00
         0.14231E+00
         0.13856E+00
         0.14276E+00
         0.14161E+00
         0.25699E-01
         0.15315E-01
         0.14537E-01
         0.10097E-01
         0.26281E-01
         0.18136E-01
         0.83958E-02
         0.25315E-01
         0.16074E-01
         0.24473E-01
         0.11545E-01
         0.49568E-01
         0.37873E-01
         0.18220E-01
         0.52679E-01
         0.18749E-01
         0.97659E-02
         0.57643E-02
         0.12571E-01
         0.65369E-02
         0.39069E-01
         0.36567E-01
         0.35654E-01
         0.92570E-02
         0.16065E-01
         0.47903E-02
         0.17833E-01
         0.25957E-02
         0.69109E-02
         0.16843E-01
         0.16015E-01
         0.83506E-02
         0.99938E-02
         0.89656E-02
         0.34406E-01
         0.20398E-01
         0.26413E-01
         0.43286E-01
         0.33648E-01
         0.30971E-01
         0.43520E-01
         0.39352E-01
         0.39418E-01
         0.30511E-01
         0.27174E-01
         0.37212E-01
         0.24421E-01
         0.20739E-01
         0.16799E-01
         0.19804E-01
         0.32749E-01
         0.22168E-01
         0.14401E+00
         0.14772E+00
         0.15489E+00
         0.15380E+00
         0.16356E+00
         0.17517E+00
         0.16790E+00
         0.14963E+00
         0.14586E+00
         0.15597E+00
         0.15317E+00
         0.15156E+00
         0.12511E+00
         0.11898E+00
         0.13101E+00
         0.14065E+00
         0.14598E+00
         0.15920E+00
         0.15251E+00
         0.15664E+00
         0.14099E+00
         0.13395E+00
         0.14226E+00
         0.13847E+00
         0.14268E+00
         0.14154E+00
         0.25714E-01
         0.15314E-01
         0.14545E-01
         0.10112E-01
         0.26270E-01
         0.18127E-01
         0.84185E-02
         0.25332E-01
         0.16102E-01
         0.24532E-01
         0.11550E-01
         0.49568E-01
         0.37891E-01
         0.18178E-01
         0.52734E-01
         0.18767E-01
         0.97945E-02
         0.57490E-02
         0.12579E-01
         0.65225E-02
         0.39076E-01
         0.36567E-01
         0.35658E-01
         0.92564E-02
         0.16122E-01
         0.47860E-02
         0.17838E-01
         0.25807E-02
         0.69412E-02
         0.16865E-01
         0.16030E-01
         0.83458E-02
         0.99769E-02
         0.89735E-02
         0.34423E-01
         0.20394E-01
         0.26409E-01
         0.43355E-01
         0.33726E-01
         0.31019E-01
         0.43554E-01
         0.39376E-01
         0.39428E-01
         0.30519E-01
         0.27177E-01
         0.37218E-01
         0.24428E-01
         0.20743E-01
         0.16781E-01
         0.19779E-01
         0.32733E-01
         0.22134E-01
         0.14396E+00
         0.14768E+00
         0.15489E+00
         0.15380E+00
         0.16353E+00
         0.17511E+00
         0.16782E+00
         0.14959E+00
         0.14582E+00
         0.15592E+00
         0.15314E+00
         0.15157E+00
         0.12511E+00
         0.11898E+00
         0.13103E+00
         0.14070E+00
         0.14603E+00
         0.15923E+00
         0.15250E+00
         0.15663E+00
         0.14097E+00
         0.13394E+00
         0.14221E+00
         0.13838E+00
         0.14260E+00
         0.14146E+00
         0.25730E-01
         0.15314E-01
         0.14552E-01
         0.10126E-01
         0.26259E-01
         0.18116E-01
         0.84416E-02
         0.25349E-01
         0.16130E-01
         0.24592E-01
         0.11555E-01
         0.49569E-01
         0.37908E-01
         0.18135E-01
         0.52789E-01
         0.18786E-01
         0.98232E-02
         0.57336E-02
         0.12587E-01
         0.65079E-02
         0.39082E-01
         0.36567E-01
         0.35662E-01
         0.92559E-02
         0.16179E-01
         0.47816E-02
         0.17843E-01
         0.25661E-02
         0.69713E-02
         0.16886E-01
         0.16044E-01
         0.83410E-02
         0.99602E-02
         0.89814E-02
         0.34440E-01
         0.20391E-01
         0.26405E-01
         0.43423E-01
         0.33805E-01
         0.31066E-01
         0.43588E-01
         0.39399E-01
         0.39438E-01
         0.30528E-01
         0.27180E-01
         0.37224E-01
         0.24434E-01
         0.20746E-01
         0.16764E-01
         0.19753E-01
         0.32717E-01
         0.22101E-01
         0.14391E+00
         0.14765E+00
         0.15489E+00
         0.15380E+00
         0.16350E+00
         0.17505E+00
         0.16775E+00
         0.14955E+00
         0.14578E+00
         0.15587E+00
         0.15312E+00
         0.15158E+00
         0.12510E+00
         0.11897E+00
         0.13105E+00
         0.14075E+00
         0.14608E+00
         0.15927E+00
         0.15249E+00
         0.15662E+00
         0.14096E+00
         0.13394E+00
         0.14216E+00
         0.13829E+00
         0.14252E+00
         0.14139E+00
         0.25745E-01
         0.15314E-01
         0.14559E-01
         0.10141E-01
         0.26248E-01
         0.18106E-01
         0.84644E-02
         0.25366E-01
         0.16159E-01
         0.24651E-01
         0.11561E-01
         0.49569E-01
         0.37925E-01
         0.18092E-01
         0.52843E-01
         0.18804E-01
         0.98519E-02
         0.57182E-02
         0.12596E-01
         0.64940E-02
         0.39089E-01
         0.36566E-01
         0.35666E-01
         0.92550E-02
         0.16236E-01
         0.47776E-02
         0.17846E-01
         0.25514E-02
         0.70020E-02
         0.16907E-01
         0.16059E-01
         0.83359E-02
         0.99433E-02
         0.89893E-02
         0.34457E-01
         0.20389E-01
         0.26402E-01
         0.43492E-01
         0.33883E-01
         0.31111E-01
         0.43620E-01
         0.39420E-01
         0.39447E-01
         0.30536E-01
         0.27183E-01
         0.37230E-01
         0.24440E-01
         0.20750E-01
         0.16746E-01
         0.19728E-01
         0.32702E-01
         0.22068E-01
         0.14385E+00
         0.14761E+00
         0.15488E+00
         0.15381E+00
         0.16348E+00
         0.17499E+00
         0.16768E+00
         0.14951E+00
         0.14575E+00
         0.15581E+00
         0.15309E+00
         0.15159E+00
         0.12510E+00
         0.11897E+00
         0.13107E+00
         0.14079E+00
         0.14613E+00
         0.15931E+00
         0.15248E+00
         0.15661E+00
         0.14095E+00
         0.13393E+00
         0.14211E+00
         0.13820E+00
         0.14245E+00
         0.14131E+00
         0.25761E-01
         0.15314E-01
         0.14566E-01
         0.10156E-01
         0.26237E-01
         0.18095E-01
         0.84872E-02
         0.25383E-01
         0.16187E-01
         0.24709E-01
         0.11566E-01
         0.49569E-01
         0.37942E-01
         0.18049E-01
         0.52898E-01
         0.18822E-01
         0.98806E-02
         0.57027E-02
         0.12604E-01
         0.64800E-02
         0.39096E-01
         0.36565E-01
         0.35670E-01
         0.92545E-02
         0.16293E-01
         0.47733E-02
         0.17848E-01
         0.25366E-02
         0.70329E-02
         0.16926E-01
         0.16073E-01
         0.83310E-02
         0.99266E-02
         0.89972E-02
         0.34475E-01
         0.20385E-01
         0.26399E-01
         0.43561E-01
         0.33961E-01
         0.31156E-01
         0.43650E-01
         0.39439E-01
         0.39455E-01
         0.30545E-01
         0.27186E-01
         0.37237E-01
         0.24446E-01
         0.20753E-01
         0.16728E-01
         0.19703E-01
         0.32686E-01
         0.22034E-01
         0.14380E+00
         0.14758E+00
         0.15488E+00
         0.15381E+00
         0.16345E+00
         0.17493E+00
         0.16760E+00
         0.14947E+00
         0.14571E+00
         0.15576E+00
         0.15307E+00
         0.15161E+00
         0.12510E+00
         0.11897E+00
         0.13109E+00
         0.14084E+00
         0.14618E+00
         0.15934E+00
         0.15247E+00
         0.15660E+00
         0.14094E+00
         0.13392E+00
         0.14206E+00
         0.13811E+00
         0.14237E+00
         0.14124E+00
         0.25777E-01
         0.15314E-01
         0.14574E-01
         0.10171E-01
         0.26226E-01
         0.18086E-01
         0.85104E-02
         0.25400E-01
         0.16216E-01
         0.24768E-01
         0.11572E-01
         0.49570E-01
         0.37959E-01
         0.18005E-01
         0.52952E-01
         0.18841E-01
         0.99094E-02
         0.56875E-02
         0.12612E-01
         0.64664E-02
         0.39103E-01
         0.36565E-01
         0.35674E-01
         0.92540E-02
         0.16350E-01
         0.47694E-02
         0.17850E-01
         0.25218E-02
         0.70639E-02
         0.16945E-01
         0.16088E-01
         0.83262E-02
         0.99102E-02
         0.90053E-02
         0.34492E-01
         0.20383E-01
         0.26395E-01
         0.43630E-01
         0.34039E-01
         0.31198E-01
         0.43679E-01
         0.39457E-01
         0.39463E-01
         0.30553E-01
         0.27189E-01
         0.37243E-01
         0.24452E-01
         0.20757E-01
         0.16710E-01
         0.19677E-01
         0.32671E-01
         0.22001E-01
         0.14375E+00
         0.14754E+00
         0.15488E+00
         0.15381E+00
         0.16342E+00
         0.17486E+00
         0.16753E+00
         0.14943E+00
         0.14567E+00
         0.15570E+00
         0.15304E+00
         0.15163E+00
         0.12510E+00
         0.11897E+00
         0.13111E+00
         0.14088E+00
         0.14623E+00
         0.15938E+00
         0.15246E+00
         0.15659E+00
         0.14092E+00
         0.13392E+00
         0.14201E+00
         0.13802E+00
         0.14229E+00
         0.14116E+00
         0.26338E-01
         0.16121E-01
         0.15409E-01
         0.11115E-01
         0.26931E-01
         0.18884E-01
         0.99975E-02
         0.26087E-01
         0.16942E-01
         0.25504E-01
         0.12967E-01
         0.50319E-01
         0.38662E-01
         0.19003E-01
         0.53779E-01
         0.19461E-01
         0.11049E-01
         0.70408E-02
         0.13606E-01
         0.82713E-02
         0.39709E-01
         0.37187E-01
         0.36254E-01
         0.10417E-01
         0.17303E-01
         0.65648E-02
         0.18871E-01
         0.61554E-02
         0.91009E-02
         0.17898E-01
         0.16785E-01
         0.95701E-02
         0.10857E-01
         0.10139E-01
         0.35243E-01
         0.21206E-01
         0.27096E-01
         0.44442E-01
         0.34882E-01
         0.32024E-01
         0.44430E-01
         0.40161E-01
         0.40105E-01
         0.31144E-01
         0.27851E-01
         0.37960E-01
         0.25209E-01
         0.21502E-01
         0.17523E-01
         0.20447E-01
         0.33359E-01
         0.22719E-01
         0.14521E+00
         0.14900E+00
         0.15644E+00
         0.15531E+00
         0.16500E+00
         0.17656E+00
         0.16920E+00
         0.15101E+00
         0.14725E+00
         0.15736E+00
         0.15467E+00
         0.15318E+00
         0.12634E+00
         0.12010E+00
         0.13232E+00
         0.14219E+00
         0.14758E+00
         0.16090E+00
         0.15402E+00
         0.15818E+00
         0.14229E+00
         0.13521E+00
         0.14335E+00
         0.13930E+00
         0.14358E+00
         0.14245E+00
         0.63291E-01
         0.57055E-01
         0.55883E-01
         0.49431E-01
         0.69159E-01
         0.60316E-01
         0.57711E-01
         0.68483E-01
         0.54535E-01
         0.67919E-01
         0.64029E-01
         0.99453E-01
         0.83718E-01
         0.68827E-01
         0.10508E+00
         0.55644E-01
         0.53379E-01
         0.45667E-01
         0.56132E-01
         0.56380E-01
         0.80980E-01
         0.79786E-01
         0.75930E-01
         0.52756E-01
         0.62506E-01
         0.49667E-01
         0.68644E-01
         0.62227E-01
         0.63329E-01
         0.64655E-01
         0.54067E-01
         0.52202E-01
         0.49638E-01
         0.51285E-01
         0.80151E-01
         0.65148E-01
         0.69866E-01
         0.94839E-01
         0.84719E-01
         0.81598E-01
         0.93992E-01
         0.87459E-01
         0.84875E-01
         0.70192E-01
         0.68820E-01
         0.82388E-01
         0.68335E-01
         0.62832E-01
         0.59185E-01
         0.62819E-01
         0.76684E-01
         0.64521E-01
         0.21119E+00
         0.21397E+00
         0.22364E+00
         0.22136E+00
         0.23390E+00
         0.25037E+00
         0.24471E+00
         0.22475E+00
         0.22042E+00
         0.23238E+00
         0.22788E+00
         0.22270E+00
         0.18797E+00
         0.17870E+00
         0.19123E+00
         0.20147E+00
         0.20765E+00
         0.22558E+00
         0.22065E+00
         0.22585E+00
         0.20562E+00
         0.19671E+00
         0.20702E+00
         0.20254E+00
         0.20650E+00
         0.20446E+00
  
SCALARS                     nodal_mass  double 1
LOOKUP_TABLE default
         0.24608E-05
         0.19551E-05
         0.20945E-05
         0.35953E-05
         0.12304E-05
         0.97770E-06
         0.10472E-05
         0.17973E-05
         0.19315E-05
         0.24627E-05
         0.96570E-06
         0.12312E-05
         0.13823E-05
         0.16614E-05
         0.69133E-06
         0.83095E-06
         0.27274E-05
         0.20125E-05
         0.13635E-05
         0.10066E-05
         0.81737E-06
         0.15393E-05
         0.16929E-05
         0.40889E-06
         0.76975E-06
         0.84649E-06
         0.13859E-05
         0.17532E-05
         0.69345E-06
         0.87672E-06
         0.32470E-05
         0.25355E-05
         0.32225E-05
         0.16233E-05
         0.12675E-05
         0.16109E-05
         0.18980E-05
         0.21673E-05
         0.94902E-06
         0.10836E-05
         0.20482E-05
         0.22683E-05
         0.10242E-05
         0.11342E-05
         0.17426E-05
         0.10823E-05
         0.87140E-06
         0.54121E-06
         0.20598E-05
         0.10301E-05
         0.17103E-05
         0.85523E-06
         0.17977E-05
         0.89958E-06
         0.18362E-05
         0.91859E-06
         0.15911E-05
         0.19369E-05
         0.79575E-06
         0.96860E-06
         0.24553E-05
         0.17361E-05
         0.12277E-05
         0.86816E-06
         0.27409E-05
         0.13702E-05
         0.23792E-05
         0.11891E-05
         0.10821E-05
         0.16705E-05
         0.54106E-06
         0.83538E-06
         0.18955E-05
         0.94787E-06
         0.20026E-05
         0.10014E-05
         0.19316E-05
         0.96578E-06
         0.15181E-05
         0.75906E-06
         0.95443E-06
         0.15782E-05
         0.47723E-06
         0.78918E-06
         0.20886E-05
         0.10443E-05
         0.16867E-05
         0.84342E-06
         0.14838E-05
         0.74203E-06
         0.97224E-06
         0.16569E-05
         0.48620E-06
         0.82849E-06
         0.22482E-05
         0.11241E-05
         0.23568E-05
         0.11783E-05
         0.19018E-05
         0.95085E-06
         0.11709E-05
         0.20091E-05
         0.58544E-06
         0.10044E-05
         0.74681E-06
         0.94889E-06
         0.37348E-06
         0.47447E-06
         0.88885E-06
         0.44455E-06
         0.10466E-05
         0.52333E-06
         0.10205E-05
         0.51021E-06
         0.99108E-06
         0.49550E-06
         0.10560E-05
         0.52791E-06
         0.11142E-05
         0.55694E-06
         0.10497E-05
         0.52469E-06
         0.82085E-06
         0.41039E-06
         0.66950E-06
         0.33475E-06
         0.86397E-06
         0.43199E-06
         0.11504E-05
         0.57519E-06
         0.12637E-05
         0.63182E-06
         0.12132E-05
         0.60658E-06
         0.10948E-05
         0.54745E-06
         0.99429E-06
         0.49718E-06
         0.80759E-06
         0.40382E-06
         0.67982E-06
         0.33995E-06
         0.88797E-06
         0.44401E-06
         0.11753E-05
         0.58766E-06
         0.12140E-05
         0.60702E-06
         0.98236E-06
         0.49125E-06
         0.79766E-06
         0.39889E-06
         0.97540E-06
         0.48769E-06
         0.11548E-05
         0.57743E-06
         0.24609E-05
         0.19547E-05
         0.20946E-05
         0.35969E-05
         0.19318E-05
         0.24634E-05
         0.13815E-05
         0.16603E-05
         0.27283E-05
         0.20111E-05
         0.81658E-06
         0.15390E-05
         0.16927E-05
         0.13839E-05
         0.17528E-05
         0.32479E-05
         0.25367E-05
         0.32241E-05
         0.18980E-05
         0.21675E-05
         0.20481E-05
         0.22684E-05
         0.17424E-05
         0.10822E-05
         0.20589E-05
         0.17102E-05
         0.17950E-05
         0.18344E-05
         0.15904E-05
         0.19365E-05
         0.24555E-05
         0.17359E-05
         0.27423E-05
         0.23814E-05
         0.10820E-05
         0.16702E-05
         0.18953E-05
         0.20025E-05
         0.19317E-05
         0.15181E-05
         0.95442E-06
         0.15780E-05
         0.20884E-05
         0.16864E-05
         0.14835E-05
         0.97197E-06
         0.16567E-05
         0.22482E-05
         0.23571E-05
         0.19022E-05
         0.11709E-05
         0.20101E-05
         0.74658E-06
         0.94886E-06
         0.88841E-06
         0.10467E-05
         0.10207E-05
         0.99128E-06
         0.10565E-05
         0.11150E-05
         0.10503E-05
         0.82102E-06
         0.66954E-06
         0.86398E-06
         0.11506E-05
         0.12640E-05
         0.12133E-05
         0.10948E-05
         0.99421E-06
         0.80751E-06
         0.67970E-06
         0.88789E-06
         0.11752E-05
         0.12140E-05
         0.98215E-06
         0.79747E-06
         0.97551E-06
         0.11548E-05
         0.24611E-05
         0.19543E-05
         0.20949E-05
         0.35987E-05
         0.19321E-05
         0.24642E-05
         0.13808E-05
         0.16594E-05
         0.27293E-05
         0.20098E-05
         0.81582E-06
         0.15388E-05
         0.16927E-05
         0.13821E-05
         0.17525E-05
         0.32489E-05
         0.25379E-05
         0.32257E-05
         0.18982E-05
         0.21678E-05
         0.20480E-05
         0.22685E-05
         0.17423E-05
         0.10821E-05
         0.20580E-05
         0.17101E-05
         0.17924E-05
         0.18326E-05
         0.15898E-05
         0.19361E-05
         0.24558E-05
         0.17357E-05
         0.27438E-05
         0.23836E-05
         0.10821E-05
         0.16699E-05
         0.18951E-05
         0.20024E-05
         0.19318E-05
         0.15183E-05
         0.95445E-06
         0.15778E-05
         0.20884E-05
         0.16862E-05
         0.14831E-05
         0.97174E-06
         0.16566E-05
         0.22483E-05
         0.23575E-05
         0.19026E-05
         0.11709E-05
         0.20112E-05
         0.74636E-06
         0.94886E-06
         0.88800E-06
         0.10467E-05
         0.10210E-05
         0.99152E-06
         0.10570E-05
         0.11159E-05
         0.10509E-05
         0.82122E-06
         0.66961E-06
         0.86402E-06
         0.11507E-05
         0.12643E-05
         0.12135E-05
         0.10948E-05
         0.99417E-06
         0.80747E-06
         0.67961E-06
         0.88784E-06
         0.11752E-05
         0.12140E-05
         0.98197E-06
         0.79731E-06
         0.97565E-06
         0.11548E-05
         0.24612E-05
         0.19539E-05
         0.20950E-05
         0.36004E-05
         0.19324E-05
         0.24650E-05
         0.13801E-05
         0.16584E-05
         0.27303E-05
         0.20085E-05
         0.81504E-06
         0.15385E-05
         0.16925E-05
         0.13801E-05
         0.17521E-05
         0.32498E-05
         0.25390E-05
         0.32274E-05
         0.18982E-05
         0.21681E-05
         0.20479E-05
         0.22686E-05
         0.17421E-05
         0.10820E-05
         0.20571E-05
         0.17099E-05
         0.17897E-05
         0.18308E-05
         0.15891E-05
         0.19356E-05
         0.24561E-05
         0.17355E-05
         0.27453E-05
         0.23857E-05
         0.10820E-05
         0.16696E-05
         0.18948E-05
         0.20022E-05
         0.19320E-05
         0.15183E-05
         0.95445E-06
         0.15776E-05
         0.20883E-05
         0.16859E-05
         0.14828E-05
         0.97149E-06
         0.16564E-05
         0.22483E-05
         0.23578E-05
         0.19030E-05
         0.11710E-05
         0.20122E-05
         0.74613E-06
         0.94884E-06
         0.88756E-06
         0.10467E-05
         0.10212E-05
         0.99173E-06
         0.10574E-05
         0.11167E-05
         0.10515E-05
         0.82140E-06
         0.66966E-06
         0.86404E-06
         0.11509E-05
         0.12646E-05
         0.12136E-05
         0.10947E-05
         0.99410E-06
         0.80740E-06
         0.67950E-06
         0.88777E-06
         0.11752E-05
         0.12140E-05
         0.98177E-06
         0.79713E-06
         0.97576E-06
         0.11547E-05
         0.24613E-05
         0.19535E-05
         0.20952E-05
         0.36022E-05
         0.19327E-05
         0.24657E-05
         0.13794E-05
         0.16574E-05
         0.27313E-05
         0.20072E-05
         0.81426E-06
         0.15382E-05
         0.16924E-05
         0.13782E-05
         0.17517E-05
         0.32508E-05
         0.25402E-05
         0.32290E-05
         0.18983E-05
         0.21684E-05
         0.20479E-05
         0.22687E-05
         0.17420E-05
         0.10819E-05
         0.20563E-05
         0.17098E-05
         0.17870E-05
         0.18290E-05
         0.15884E-05
         0.19352E-05
         0.24563E-05
         0.17353E-05
         0.27467E-05
         0.23879E-05
         0.10820E-05
         0.16693E-05
         0.18946E-05
         0.20021E-05
         0.19321E-05
         0.15184E-05
         0.95445E-06
         0.15773E-05
         0.20882E-05
         0.16857E-05
         0.14824E-05
         0.97124E-06
         0.16563E-05
         0.22484E-05
         0.23582E-05
         0.19034E-05
         0.11710E-05
         0.20132E-05
         0.74590E-06
         0.94883E-06
         0.88713E-06
         0.10468E-05
         0.10215E-05
         0.99194E-06
         0.10579E-05
         0.11175E-05
         0.10521E-05
         0.82159E-06
         0.66972E-06
         0.86406E-06
         0.11510E-05
         0.12649E-05
         0.12138E-05
         0.10947E-05
         0.99404E-06
         0.80734E-06
         0.67940E-06
         0.88771E-06
         0.11752E-05
         0.12140E-05
         0.98157E-06
         0.79696E-06
         0.97588E-06
         0.11547E-05
         0.24615E-05
         0.19531E-05
         0.20954E-05
         0.36039E-05
         0.19331E-05
         0.24665E-05
         0.13787E-05
         0.16564E-05
         0.27322E-05
         0.20059E-05
         0.81349E-06
         0.15380E-05
         0.16923E-05
         0.13763E-05
         0.17514E-05
         0.32518E-05
         0.25414E-05
         0.32306E-05
         0.18984E-05
         0.21687E-05
         0.20478E-05
         0.22688E-05
         0.17418E-05
         0.10818E-05
         0.20554E-05
         0.17096E-05
         0.17843E-05
         0.18272E-05
         0.15878E-05
         0.19347E-05
         0.24566E-05
         0.17351E-05
         0.27482E-05
         0.23901E-05
         0.10820E-05
         0.16690E-05
         0.18943E-05
         0.20019E-05
         0.19322E-05
         0.15185E-05
         0.95446E-06
         0.15771E-05
         0.20881E-05
         0.16855E-05
         0.14821E-05
         0.97100E-06
         0.16562E-05
         0.22484E-05
         0.23586E-05
         0.19038E-05
         0.11710E-05
         0.20142E-05
         0.74568E-06
         0.94882E-06
         0.88671E-06
         0.10468E-05
         0.10217E-05
         0.99216E-06
         0.10583E-05
         0.11183E-05
         0.10528E-05
         0.82178E-06
         0.66977E-06
         0.86408E-06
         0.11512E-05
         0.12652E-05
         0.12139E-05
         0.10947E-05
         0.99398E-06
         0.80728E-06
         0.67930E-06
         0.88766E-06
         0.11752E-05
         0.12140E-05
         0.98138E-06
         0.79679E-06
         0.97601E-06
         0.11547E-05
         0.24616E-05
         0.19527E-05
         0.20956E-05
         0.36056E-05
         0.19334E-05
         0.24672E-05
         0.13779E-05
         0.16554E-05
         0.27332E-05
         0.20046E-05
         0.81271E-06
         0.15377E-05
         0.16922E-05
         0.13744E-05
         0.17510E-05
         0.32527E-05
         0.25425E-05
         0.32322E-05
         0.18984E-05
         0.21689E-05
         0.20477E-05
         0.22689E-05
         0.17416E-05
         0.10816E-05
         0.20545E-05
         0.17095E-05
         0.17817E-05
         0.18254E-05
         0.15871E-05
         0.19343E-05
         0.24568E-05
         0.17349E-05
         0.27496E-05
         0.23922E-05
         0.10820E-05
         0.16686E-05
         0.18941E-05
         0.20018E-05
         0.19324E-05
         0.15186E-05
         0.95446E-06
         0.15769E-05
         0.20880E-05
         0.16852E-05
         0.14817E-05
         0.97074E-06
         0.16560E-05
         0.22484E-05
         0.23589E-05
         0.19042E-05
         0.11710E-05
         0.20152E-05
         0.74544E-06
         0.94880E-06
         0.88627E-06
         0.10469E-05
         0.10219E-05
         0.99237E-06
         0.10588E-05
         0.11191E-05
         0.10534E-05
         0.82196E-06
         0.66982E-06
         0.86410E-06
         0.11513E-05
         0.12654E-05
         0.12140E-05
         0.10947E-05
         0.99391E-06
         0.80721E-06
         0.67919E-06
         0.88759E-06
         0.11751E-05
         0.12140E-05
         0.98118E-06
         0.79661E-06
         0.97612E-06
         0.11546E-05
         0.24618E-05
         0.19523E-05
         0.20957E-05
         0.36073E-05
         0.19337E-05
         0.24680E-05
         0.13772E-05
         0.16545E-05
         0.27341E-05
         0.20033E-05
         0.81194E-06
         0.15374E-05
         0.16921E-05
         0.13725E-05
         0.17506E-05
         0.32537E-05
         0.25437E-05
         0.32339E-05
         0.18985E-05
         0.21692E-05
         0.20476E-05
         0.22690E-05
         0.17414E-05
         0.10815E-05
         0.20536E-05
         0.17093E-05
         0.17790E-05
         0.18236E-05
         0.15864E-05
         0.19339E-05
         0.24571E-05
         0.17347E-05
         0.27511E-05
         0.23944E-05
         0.10820E-05
         0.16683E-05
         0.18938E-05
         0.20016E-05
         0.19325E-05
         0.15186E-05
         0.95446E-06
         0.15767E-05
         0.20878E-05
         0.16850E-05
         0.14814E-05
         0.97050E-06
         0.16559E-05
         0.22484E-05
         0.23593E-05
         0.19046E-05
         0.11711E-05
         0.20162E-05
         0.74522E-06
         0.94878E-06
         0.88584E-06
         0.10469E-05
         0.10222E-05
         0.99258E-06
         0.10593E-05
         0.11199E-05
         0.10540E-05
         0.82215E-06
         0.66988E-06
         0.86413E-06
         0.11515E-05
         0.12657E-05
         0.12142E-05
         0.10946E-05
         0.99385E-06
         0.80715E-06
         0.67909E-06
         0.88752E-06
         0.11751E-05
         0.12140E-05
         0.98098E-06
         0.79643E-06
         0.97624E-06
         0.11546E-05
         0.24619E-05
         0.19519E-05
         0.20959E-05
         0.36091E-05
         0.19340E-05
         0.24688E-05
         0.13765E-05
         0.16535E-05
         0.27351E-05
         0.20020E-05
         0.81117E-06
         0.15372E-05
         0.16920E-05
         0.13706E-05
         0.17503E-05
         0.32546E-05
         0.25448E-05
         0.32355E-05
         0.18986E-05
         0.21695E-05
         0.20475E-05
         0.22691E-05
         0.17413E-05
         0.10814E-05
         0.20527E-05
         0.17092E-05
         0.17763E-05
         0.18219E-05
         0.15858E-05
         0.19334E-05
         0.24573E-05
         0.17345E-05
         0.27525E-05
         0.23966E-05
         0.10820E-05
         0.16680E-05
         0.18936E-05
         0.20015E-05
         0.19326E-05
         0.15187E-05
         0.95447E-06
         0.15765E-05
         0.20878E-05
         0.16848E-05
         0.14810E-05
         0.97025E-06
         0.16557E-05
         0.22485E-05
         0.23597E-05
         0.19050E-05
         0.11711E-05
         0.20172E-05
         0.74499E-06
         0.94877E-06
         0.88541E-06
         0.10469E-05
         0.10224E-05
         0.99280E-06
         0.10597E-05
         0.11207E-05
         0.10546E-05
         0.82234E-06
         0.66994E-06
         0.86415E-06
         0.11517E-05
         0.12660E-05
         0.12143E-05
         0.10946E-05
         0.99379E-06
         0.80709E-06
         0.67898E-06
         0.88746E-06
         0.11751E-05
         0.12140E-05
         0.98079E-06
         0.79626E-06
         0.97636E-06
         0.11546E-05
         0.24621E-05
         0.19515E-05
         0.20961E-05
         0.36108E-05
         0.19343E-05
         0.24695E-05
         0.13758E-05
         0.16525E-05
         0.27361E-05
         0.20006E-05
         0.81039E-06
         0.15369E-05
         0.16919E-05
         0.13686E-05
         0.17499E-05
         0.32556E-05
         0.25460E-05
         0.32371E-05
         0.18986E-05
         0.21697E-05
         0.20474E-05
         0.22692E-05
         0.17411E-05
         0.10813E-05
         0.20519E-05
         0.17091E-05
         0.17736E-05
         0.18201E-05
         0.15851E-05
         0.19330E-05
         0.24575E-05
         0.17342E-05
         0.27540E-05
         0.23987E-05
         0.10820E-05
         0.16677E-05
         0.18933E-05
         0.20014E-05
         0.19328E-05
         0.15188E-05
         0.95448E-06
         0.15763E-05
         0.20876E-05
         0.16845E-05
         0.14807E-05
         0.97000E-06
         0.16556E-05
         0.22485E-05
         0.23600E-05
         0.19053E-05
         0.11711E-05
         0.20182E-05
         0.74476E-06
         0.94875E-06
         0.88498E-06
         0.10470E-05
         0.10227E-05
         0.99301E-06
         0.10602E-05
         0.11215E-05
         0.10553E-05
         0.82252E-06
         0.66999E-06
         0.86417E-06
         0.11518E-05
         0.12663E-05
         0.12145E-05
         0.10946E-05
         0.99373E-06
         0.80702E-06
         0.67888E-06
         0.88740E-06
         0.11751E-05
         0.12140E-05
         0.98058E-06
         0.79608E-06
         0.97648E-06
         0.11546E-05
         0.24622E-05
         0.19511E-05
         0.20963E-05
         0.36125E-05
         0.19346E-05
         0.24703E-05
         0.13751E-05
         0.16515E-05
         0.27370E-05
         0.19993E-05
         0.80962E-06
         0.15366E-05
         0.16917E-05
         0.13667E-05
         0.17495E-05
         0.32565E-05
         0.25471E-05
         0.32388E-05
         0.18987E-05
         0.21700E-05
         0.20473E-05
         0.22693E-05
         0.17409E-05
         0.10812E-05
         0.20510E-05
         0.17089E-05
         0.17710E-05
         0.18183E-05
         0.15844E-05
         0.19325E-05
         0.24578E-05
         0.17340E-05
         0.27554E-05
         0.24009E-05
         0.10820E-05
         0.16674E-05
         0.18931E-05
         0.20012E-05
         0.19329E-05
         0.15189E-05
         0.95448E-06
         0.15760E-05
         0.20875E-05
         0.16843E-05
         0.14803E-05
         0.96975E-06
         0.16555E-05
         0.22485E-05
         0.23604E-05
         0.19057E-05
         0.11712E-05
         0.20192E-05
         0.74453E-06
         0.94874E-06
         0.88455E-06
         0.10470E-05
         0.10229E-05
         0.99322E-06
         0.10606E-05
         0.11223E-05
         0.10559E-05
         0.82270E-06
         0.67004E-06
         0.86419E-06
         0.11520E-05
         0.12666E-05
         0.12146E-05
         0.10945E-05
         0.99366E-06
         0.80696E-06
         0.67877E-06
         0.88733E-06
         0.11751E-05
         0.12140E-05
         0.98038E-06
         0.79590E-06
         0.97660E-06
         0.11545E-05
         0.24623E-05
         0.19507E-05
         0.20964E-05
         0.36142E-05
         0.19349E-05
         0.24710E-05
         0.13743E-05
         0.16505E-05
         0.27380E-05
         0.19980E-05
         0.80885E-06
         0.15364E-05
         0.16916E-05
         0.13648E-05
         0.17492E-05
         0.32575E-05
         0.25483E-05
         0.32404E-05
         0.18988E-05
         0.21703E-05
         0.20473E-05
         0.22694E-05
         0.17407E-05
         0.10811E-05
         0.20501E-05
         0.17088E-05
         0.17683E-05
         0.18165E-05
         0.15837E-05
         0.19321E-05
         0.24580E-05
         0.17338E-05
         0.27569E-05
         0.24031E-05
         0.10820E-05
         0.16670E-05
         0.18928E-05
         0.20011E-05
         0.19330E-05
         0.15189E-05
         0.95448E-06
         0.15758E-05
         0.20874E-05
         0.16840E-05
         0.14800E-05
         0.96950E-06
         0.16553E-05
         0.22485E-05
         0.23608E-05
         0.19061E-05
         0.11712E-05
         0.20202E-05
         0.74430E-06
         0.94872E-06
         0.88412E-06
         0.10470E-05
         0.10231E-05
         0.99344E-06
         0.10611E-05
         0.11231E-05
         0.10565E-05
         0.82289E-06
         0.67009E-06
         0.86422E-06
         0.11521E-05
         0.12669E-05
         0.12147E-05
         0.10945E-05
         0.99360E-06
         0.80690E-06
         0.67867E-06
         0.88727E-06
         0.11750E-05
         0.12140E-05
         0.98019E-06
         0.79573E-06
         0.97672E-06
         0.11545E-05
         0.24625E-05
         0.19503E-05
         0.20966E-05
         0.36160E-05
         0.19352E-05
         0.24718E-05
         0.13736E-05
         0.16496E-05
         0.27389E-05
         0.19967E-05
         0.80807E-06
         0.15361E-05
         0.16915E-05
         0.13629E-05
         0.17488E-05
         0.32584E-05
         0.25495E-05
         0.32420E-05
         0.18988E-05
         0.21705E-05
         0.20472E-05
         0.22695E-05
         0.17406E-05
         0.10810E-05
         0.20492E-05
         0.17086E-05
         0.17656E-05
         0.18147E-05
         0.15831E-05
         0.19317E-05
         0.24583E-05
         0.17336E-05
         0.27583E-05
         0.24053E-05
         0.10820E-05
         0.16667E-05
         0.18926E-05
         0.20009E-05
         0.19331E-05
         0.15190E-05
         0.95449E-06
         0.15756E-05
         0.20873E-05
         0.16838E-05
         0.14796E-05
         0.96925E-06
         0.16552E-05
         0.22486E-05
         0.23611E-05
         0.19065E-05
         0.11712E-05
         0.20212E-05
         0.74407E-06
         0.94870E-06
         0.88368E-06
         0.10471E-05
         0.10234E-05
         0.99365E-06
         0.10616E-05
         0.11239E-05
         0.10571E-05
         0.82307E-06
         0.67014E-06
         0.86424E-06
         0.11523E-05
         0.12672E-05
         0.12149E-05
         0.10945E-05
         0.99354E-06
         0.80683E-06
         0.67856E-06
         0.88721E-06
         0.11750E-05
         0.12140E-05
         0.97999E-06
         0.79555E-06
         0.97684E-06
         0.11545E-05
         0.24626E-05
         0.19499E-05
         0.20968E-05
         0.36177E-05
         0.19355E-05
         0.24725E-05
         0.13729E-05
         0.16486E-05
         0.27399E-05
         0.19954E-05
         0.80730E-06
         0.15358E-05
         0.16914E-05
         0.13610E-05
         0.17484E-05
         0.32594E-05
         0.25506E-05
         0.32437E-05
         0.18989E-05
         0.21708E-05
         0.20471E-05
         0.22696E-05
         0.17404E-05
         0.10808E-05
         0.20483E-05
         0.17085E-05
         0.17629E-05
         0.18129E-05
         0.15824E-05
         0.19312E-05
         0.24585E-05
         0.17334E-05
         0.27598E-05
         0.24074E-05
         0.10820E-05
         0.16664E-05
         0.18923E-05
         0.20008E-05
         0.19333E-05
         0.15191E-05
         0.95449E-06
         0.15754E-05
         0.20872E-05
         0.16835E-05
         0.14793E-05
         0.96901E-06
         0.16550E-05
         0.22486E-05
         0.23615E-05
         0.19069E-05
         0.11713E-05
         0.20222E-05
         0.74384E-06
         0.94869E-06
         0.88325E-06
         0.10471E-05
         0.10236E-05
         0.99386E-06
         0.10620E-05
         0.11247E-05
         0.10577E-05
         0.82326E-06
         0.67020E-06
         0.86426E-06
         0.11524E-05
         0.12674E-05
         0.12150E-05
         0.10944E-05
         0.99348E-06
         0.80677E-06
         0.67846E-06
         0.88714E-06
         0.11750E-05
         0.12140E-05
         0.97979E-06
         0.79538E-06
         0.97696E-06
         0.11544E-05
         0.24628E-05
         0.19495E-05
         0.20970E-05
         0.36194E-05
         0.19358E-05
         0.24733E-05
         0.13722E-05
         0.16476E-05
         0.27409E-05
         0.19941E-05
         0.80652E-06
         0.15355E-05
         0.16913E-05
         0.13591E-05
         0.17481E-05
         0.32604E-05
         0.25518E-05
         0.32453E-05
         0.18990E-05
         0.21711E-05
         0.20470E-05
         0.22697E-05
         0.17402E-05
         0.10807E-05
         0.20474E-05
         0.17084E-05
         0.17603E-05
         0.18111E-05
         0.15817E-05
         0.19308E-05
         0.24588E-05
         0.17332E-05
         0.27613E-05
         0.24096E-05
         0.10819E-05
         0.16661E-05
         0.18921E-05
         0.20006E-05
         0.19334E-05
         0.15192E-05
         0.95450E-06
         0.15752E-05
         0.20871E-05
         0.16833E-05
         0.14789E-05
         0.96876E-06
         0.16549E-05
         0.22486E-05
         0.23619E-05
         0.19073E-05
         0.11713E-05
         0.20232E-05
         0.74362E-06
         0.94868E-06
         0.88282E-06
         0.10472E-05
         0.10238E-05
         0.99408E-06
         0.10625E-05
         0.11255E-05
         0.10584E-05
         0.82345E-06
         0.67025E-06
         0.86428E-06
         0.11526E-05
         0.12677E-05
         0.12152E-05
         0.10944E-05
         0.99342E-06
         0.80671E-06
         0.67836E-06
         0.88709E-06
         0.11750E-05
         0.12140E-05
         0.97959E-06
         0.79521E-06
         0.97708E-06
         0.11544E-05
         0.24629E-05
         0.19491E-05
         0.20972E-05
         0.36212E-05
         0.19361E-05
         0.24741E-05
         0.13715E-05
         0.16466E-05
         0.27418E-05
         0.19928E-05
         0.80575E-06
         0.15353E-05
         0.16912E-05
         0.13572E-05
         0.17477E-05
         0.32613E-05
         0.25529E-05
         0.32469E-05
         0.18990E-05
         0.21714E-05
         0.20469E-05
         0.22698E-05
         0.17400E-05
         0.10806E-05
         0.20466E-05
         0.17082E-05
         0.17576E-05
         0.18093E-05
         0.15810E-05
         0.19303E-05
         0.24590E-05
         0.17330E-05
         0.27627E-05
         0.24118E-05
         0.10819E-05
         0.16658E-05
         0.18919E-05
         0.20005E-05
         0.19335E-05
         0.15192E-05
         0.95450E-06
         0.15750E-05
         0.20870E-05
         0.16831E-05
         0.14786E-05
         0.96851E-06
         0.16548E-05
         0.22487E-05
         0.23622E-05
         0.19077E-05
         0.11713E-05
         0.20242E-05
         0.74339E-06
         0.94866E-06
         0.88239E-06
         0.10472E-05
         0.10241E-05
         0.99429E-06
         0.10630E-05
         0.11263E-05
         0.10590E-05
         0.82363E-06
         0.67030E-06
         0.86430E-06
         0.11527E-05
         0.12680E-05
         0.12153E-05
         0.10944E-05
         0.99335E-06
         0.80665E-06
         0.67825E-06
         0.88702E-06
         0.11749E-05
         0.12140E-05
         0.97939E-06
         0.79503E-06
         0.97720E-06
         0.11544E-05
         0.24631E-05
         0.19487E-05
         0.20973E-05
         0.36229E-05
         0.19364E-05
         0.24748E-05
         0.13707E-05
         0.16456E-05
         0.27428E-05
         0.19915E-05
         0.80498E-06
         0.15350E-05
         0.16911E-05
         0.13553E-05
         0.17473E-05
         0.32623E-05
         0.25541E-05
         0.32486E-05
         0.18991E-05
         0.21716E-05
         0.20468E-05
         0.22699E-05
         0.17399E-05
         0.10805E-05
         0.20457E-05
         0.17081E-05
         0.17549E-05
         0.18075E-05
         0.15804E-05
         0.19299E-05
         0.24592E-05
         0.17328E-05
         0.27642E-05
         0.24140E-05
         0.10819E-05
         0.16654E-05
         0.18916E-05
         0.20003E-05
         0.19337E-05
         0.15193E-05
         0.95450E-06
         0.15748E-05
         0.20869E-05
         0.16828E-05
         0.14782E-05
         0.96826E-06
         0.16546E-05
         0.22487E-05
         0.23626E-05
         0.19081E-05
         0.11714E-05
         0.20253E-05
         0.74316E-06
         0.94864E-06
         0.88196E-06
         0.10472E-05
         0.10243E-05
         0.99450E-06
         0.10634E-05
         0.11271E-05
         0.10596E-05
         0.82381E-06
         0.67036E-06
         0.86432E-06
         0.11529E-05
         0.12683E-05
         0.12154E-05
         0.10943E-05
         0.99329E-06
         0.80658E-06
         0.67815E-06
         0.88696E-06
         0.11749E-05
         0.12140E-05
         0.97919E-06
         0.79485E-06
         0.97732E-06
         0.11544E-05
         0.24632E-05
         0.19483E-05
         0.20975E-05
         0.36246E-05
         0.19368E-05
         0.24756E-05
         0.13700E-05
         0.16447E-05
         0.27437E-05
         0.19902E-05
         0.80421E-06
         0.15347E-05
         0.16910E-05
         0.13534E-05
         0.17470E-05
         0.32632E-05
         0.25552E-05
         0.32502E-05
         0.18992E-05
         0.21719E-05
         0.20467E-05
         0.22700E-05
         0.17397E-05
         0.10804E-05
         0.20448E-05
         0.17079E-05
         0.17523E-05
         0.18057E-05
         0.15797E-05
         0.19295E-05
         0.24595E-05
         0.17326E-05
         0.27656E-05
         0.24161E-05
         0.10819E-05
         0.16651E-05
         0.18914E-05
         0.20002E-05
         0.19338E-05
         0.15194E-05
         0.95451E-06
         0.15745E-05
         0.20868E-05
         0.16826E-05
         0.14779E-05
         0.96801E-06
         0.16545E-05
         0.22487E-05
         0.23630E-05
         0.19085E-05
         0.11714E-05
         0.20263E-05
         0.74293E-06
         0.94863E-06
         0.88153E-06
         0.10473E-05
         0.10245E-05
         0.99472E-06
         0.10639E-05
         0.11279E-05
         0.10602E-05
         0.82400E-06
         0.67041E-06
         0.86435E-06
         0.11530E-05
         0.12686E-05
         0.12156E-05
         0.10943E-05
         0.99323E-06
         0.80652E-06
         0.67804E-06
         0.88690E-06
         0.11749E-05
         0.12140E-05
         0.97900E-06
         0.79468E-06
         0.97744E-06
         0.11543E-05
         0.24633E-05
         0.19479E-05
         0.20977E-05
         0.36264E-05
         0.19371E-05
         0.24763E-05
         0.13693E-05
         0.16437E-05
         0.27447E-05
         0.19888E-05
         0.80343E-06
         0.15345E-05
         0.16908E-05
         0.13515E-05
         0.17466E-05
         0.32642E-05
         0.25564E-05
         0.32518E-05
         0.18992E-05
         0.21722E-05
         0.20466E-05
         0.22701E-05
         0.17395E-05
         0.10803E-05
         0.20439E-05
         0.17078E-05
         0.17496E-05
         0.18039E-05
         0.15790E-05
         0.19290E-05
         0.24597E-05
         0.17323E-05
         0.27671E-05
         0.24183E-05
         0.10819E-05
         0.16648E-05
         0.18911E-05
         0.20001E-05
         0.19339E-05
         0.15195E-05
         0.95452E-06
         0.15743E-05
         0.20867E-05
         0.16823E-05
         0.14775E-05
         0.96776E-06
         0.16543E-05
         0.22487E-05
         0.23633E-05
         0.19089E-05
         0.11714E-05
         0.20273E-05
         0.74270E-06
         0.94861E-06
         0.88109E-06
         0.10473E-05
         0.10248E-05
         0.99493E-06
         0.10643E-05
         0.11287E-05
         0.10609E-05
         0.82418E-06
         0.67046E-06
         0.86437E-06
         0.11532E-05
         0.12689E-05
         0.12157E-05
         0.10943E-05
         0.99316E-06
         0.80646E-06
         0.67794E-06
         0.88683E-06
         0.11749E-05
         0.12140E-05
         0.97879E-06
         0.79450E-06
         0.97755E-06
         0.11543E-05
         0.24635E-05
         0.19475E-05
         0.20979E-05
         0.36281E-05
         0.19374E-05
         0.24771E-05
         0.13686E-05
         0.16427E-05
         0.27456E-05
         0.19875E-05
         0.80266E-06
         0.15342E-05
         0.16907E-05
         0.13496E-05
         0.17463E-05
         0.32651E-05
         0.25575E-05
         0.32534E-05
         0.18993E-05
         0.21724E-05
         0.20466E-05
         0.22702E-05
         0.17393E-05
         0.10802E-05
         0.20430E-05
         0.17076E-05
         0.17469E-05
         0.18021E-05
         0.15784E-05
         0.19286E-05
         0.24600E-05
         0.17321E-05
         0.27685E-05
         0.24205E-05
         0.10819E-05
         0.16645E-05
         0.18909E-05
         0.19999E-05
         0.19341E-05
         0.15195E-05
         0.95452E-06
         0.15741E-05
         0.20866E-05
         0.16821E-05
         0.14772E-05
         0.96751E-06
         0.16542E-05
         0.22488E-05
         0.23637E-05
         0.19092E-05
         0.11715E-05
         0.20283E-05
         0.74247E-06
         0.94860E-06
         0.88066E-06
         0.10473E-05
         0.10250E-05
         0.99514E-06
         0.10648E-05
         0.11295E-05
         0.10615E-05
         0.82437E-06
         0.67052E-06
         0.86439E-06
         0.11533E-05
         0.12691E-05
         0.12159E-05
         0.10942E-05
         0.99310E-06
         0.80639E-06
         0.67783E-06
         0.88676E-06
         0.11748E-05
         0.12140E-05
         0.97859E-06
         0.79433E-06
         0.97767E-06
         0.11543E-05
         0.24636E-05
         0.19471E-05
         0.20980E-05
         0.36298E-05
         0.19377E-05
         0.24779E-05
         0.13679E-05
         0.16417E-05
         0.27466E-05
         0.19862E-05
         0.80189E-06
         0.15339E-05
         0.16906E-05
         0.13477E-05
         0.17459E-05
         0.32661E-05
         0.25587E-05
         0.32551E-05
         0.18994E-05
         0.21727E-05
         0.20465E-05
         0.22703E-05
         0.17392E-05
         0.10800E-05
         0.20421E-05
         0.17075E-05
         0.17443E-05
         0.18003E-05
         0.15777E-05
         0.19281E-05
         0.24602E-05
         0.17319E-05
         0.27700E-05
         0.24227E-05
         0.10819E-05
         0.16642E-05
         0.18906E-05
         0.19998E-05
         0.19342E-05
         0.15196E-05
         0.95453E-06
         0.15739E-05
         0.20865E-05
         0.16819E-05
         0.14768E-05
         0.96727E-06
         0.16541E-05
         0.22488E-05
         0.23640E-05
         0.19096E-05
         0.11715E-05
         0.20293E-05
         0.74225E-06
         0.94859E-06
         0.88023E-06
         0.10474E-05
         0.10253E-05
         0.99535E-06
         0.10653E-05
         0.11303E-05
         0.10621E-05
         0.82456E-06
         0.67057E-06
         0.86441E-06
         0.11535E-05
         0.12694E-05
         0.12160E-05
         0.10942E-05
         0.99304E-06
         0.80633E-06
         0.67773E-06
         0.88671E-06
         0.11748E-05
         0.12140E-05
         0.97840E-06
         0.79415E-06
         0.97780E-06
         0.11542E-05
         0.24637E-05
         0.19466E-05
         0.20982E-05
         0.36315E-05
         0.19380E-05
         0.24786E-05
         0.13671E-05
         0.16407E-05
         0.27475E-05
         0.19849E-05
         0.80110E-06
         0.15336E-05
         0.16905E-05
         0.13457E-05
         0.17455E-05
         0.32669E-05
         0.25598E-05
         0.32567E-05
         0.18994E-05
         0.21729E-05
         0.20464E-05
         0.22703E-05
         0.17390E-05
         0.10799E-05
         0.20412E-05
         0.17073E-05
         0.17416E-05
         0.17985E-05
         0.15770E-05
         0.19277E-05
         0.24604E-05
         0.17317E-05
         0.27714E-05
         0.24248E-05
         0.10819E-05
         0.16638E-05
         0.18903E-05
         0.19996E-05
         0.19343E-05
         0.15196E-05
         0.95451E-06
         0.15737E-05
         0.20864E-05
         0.16816E-05
         0.14765E-05
         0.96700E-06
         0.16539E-05
         0.22488E-05
         0.23644E-05
         0.19100E-05
         0.11715E-05
         0.20303E-05
         0.74200E-06
         0.94855E-06
         0.87978E-06
         0.10474E-05
         0.10255E-05
         0.99555E-06
         0.10657E-05
         0.11311E-05
         0.10627E-05
         0.82472E-06
         0.67061E-06
         0.86442E-06
         0.11536E-05
         0.12697E-05
         0.12161E-05
         0.10941E-05
         0.99295E-06
         0.80625E-06
         0.67761E-06
         0.88662E-06
         0.11748E-05
         0.12140E-05
         0.97818E-06
         0.79396E-06
         0.97790E-06
         0.11542E-05
         0.24639E-05
         0.19463E-05
         0.20984E-05
         0.36333E-05
         0.19383E-05
         0.24794E-05
         0.13664E-05
         0.16398E-05
         0.27485E-05
         0.19836E-05
         0.80034E-06
         0.15334E-05
         0.16904E-05
         0.13439E-05
         0.17452E-05
         0.32679E-05
         0.25610E-05
         0.32583E-05
         0.18995E-05
         0.21732E-05
         0.20463E-05
         0.22704E-05
         0.17388E-05
         0.10798E-05
         0.20404E-05
         0.17072E-05
         0.17389E-05
         0.17967E-05
         0.15763E-05
         0.19272E-05
         0.24607E-05
         0.17315E-05
         0.27729E-05
         0.24270E-05
         0.10819E-05
         0.16635E-05
         0.18901E-05
         0.19995E-05
         0.19345E-05
         0.15197E-05
         0.95453E-06
         0.15735E-05
         0.20863E-05
         0.16814E-05
         0.14761E-05
         0.96677E-06
         0.16538E-05
         0.22488E-05
         0.23647E-05
         0.19104E-05
         0.11716E-05
         0.20313E-05
         0.74179E-06
         0.94855E-06
         0.87936E-06
         0.10475E-05
         0.10257E-05
         0.99577E-06
         0.10662E-05
         0.11319E-05
         0.10633E-05
         0.82492E-06
         0.67068E-06
         0.86446E-06
         0.11538E-05
         0.12700E-05
         0.12163E-05
         0.10941E-05
         0.99291E-06
         0.80620E-06
         0.67752E-06
         0.88657E-06
         0.11748E-05
         0.12140E-05
         0.97800E-06
         0.79380E-06
         0.97803E-06
         0.11542E-05
         0.12320E-05
         0.97306E-06
         0.10493E-05
         0.18171E-05
         0.96926E-06
         0.12399E-05
         0.68306E-06
         0.81967E-06
         0.13745E-05
         0.99152E-06
         0.39999E-06
         0.76665E-06
         0.84519E-06
         0.67148E-06
         0.87252E-06
         0.16343E-05
         0.12808E-05
         0.16296E-05
         0.94981E-06
         0.10867E-05
         0.10232E-05
         0.11353E-05
         0.86940E-06
         0.53990E-06
         0.10200E-05
         0.85360E-06
         0.86884E-06
         0.89793E-06
         0.78802E-06
         0.96354E-06
         0.12305E-05
         0.86572E-06
         0.13869E-05
         0.12141E-05
         0.54095E-06
         0.83170E-06
         0.94503E-06
         0.99975E-06
         0.96729E-06
         0.75992E-06
         0.47728E-06
         0.78670E-06
         0.10432E-05
         0.84065E-06
         0.73800E-06
         0.48334E-06
         0.82688E-06
         0.11245E-05
         0.11825E-05
         0.95534E-06
         0.58581E-06
         0.10159E-05
         0.37085E-06
         0.47429E-06
         0.43959E-06
         0.52375E-06
         0.51294E-06
         0.49796E-06
         0.53322E-06
         0.56619E-06
         0.53185E-06
         0.41252E-06
         0.33536E-06
         0.43225E-06
         0.57696E-06
         0.63509E-06
         0.60820E-06
         0.54708E-06
         0.49646E-06
         0.40310E-06
         0.33875E-06
         0.44329E-06
         0.58740E-06
         0.60700E-06
         0.48897E-06
         0.39687E-06
         0.48906E-06
         0.57710E-06
  
SCALARS                 Poissons_ratio  double 1
LOOKUP_TABLE default
         0.30000E+00
         0.30000E+00
         0.30000E+00
         0.30000E+00
         0.30000E+00
         0.30000E+00
         0.30000E+00
         0.30000E+00
         0.30000E+00
         0.30000E+00
         0.30000E+00
         0.30000E+00
         0.30000E+00
         0.30000E+00
         0.30000E+00
         0.30000E+00
         0.30000E+00
         0.30000E+00
         0.30000E+00
         0.30000E+00
         0.30000E+00
         0.30000E+00
         0.30000E+00
         0.30000E+00
         0.30000E+00
         0.30000E+00
         0.30000E+00
         0.30000E+00
         0.30000E+00
         0.30000E+00
         0.30000E+00
         0.30000E+00
         0.30000E+00
         0.30000E+00
         0.30000E+00
         0.30000E+00
         0.30000E+00
         0.30000E+00
         0.30000E+00
         0.30000E+00
         0.30000E+00
         0.30000E+00
         0.30000E+00
         0.30000E+00
         0.30000E+00
         0.30000E+00
         0.30000E+00
         0.30000E+00
         0.30000E+00
         0.30000E+00
         0.30000E+00
         0.30000E+00
         0.30000E+00
         0.30000E+00
         0.30000E+00
         0.30000E+00
         0.30000E+00
         0.30000E+00
         0.30000E+00
         0.30000E+00
         0.30000E+00
         0.30000E+00
         0.30000E+00
         0.30000E+00
         0.30000E+00
         0.30000E+00
         0.30000E+00
         0.30000E+00
         0.30000E+00
         0.30000E+00
         0.30000E+00
         0.30000E+00
         0.30000E+00
         0.30000E+00
         0.30000E+00
         0.30000E+00
         0.30000E+00
         0.30000E+00
         0.30000E+00
         0.30000E+00
         0.30000E+00
         0.30000E+00
         0.30000E+00
         0.30000E+00
         0.30000E+00
         0.30000E+00
         0.30000E+00
         0.30000E+00
         0.30000E+00
         0.30000E+00
         0.30000E+00
         0.30000E+00
         0.30000E+00
         0.30000E+00
         0.30000E+00
         0.30000E+00
         0.30000E+00
         0.30000E+00
         0.30000E+00
         0.30000E+00
         0.30000E+00
         0.30000E+00
         0.30000E+00
         0.30000E+00
         0.30000E+00
         0.30000E+00
         0.30000E+00
         0.30000E+00
         0.30000E+00
         0.30000E+00
         0.30000E+00
         0.30000E+00
         0.30000E+00
         0.30000E+00
         0.30000E+00
         0.30000E+00
         0.30000E+00
         0.30000E+00
         0.30000E+00
         0.30000E+00
         0.30000E+00
         0.30000E+00
         0.30000E+00
         0.30000E+00
         0.30000E+00
         0.30000E+00
         0.30000E+00
         0.30000E+00
         0.30000E+00
         0.30000E+00
         0.30000E+00
         0.30000E+00
         0.30000E+00
         0.30000E+00
         0.30000E+00
         0.30000E+00
         0.30000E+00
         0.30000E+00
         0.30000E+00
         0.30000E+00
         0.30000E+00
         0.30000E+00
         0.30000E+00
         0.30000E+00
         0.30000E+00
         0.30000E+00
         0.30000E+00
         0.30000E+00
         0.30000E+00
         0.30000E+00
         0.30000E+00
         0.30000E+00
         0.30000E+00
         0.30000E+00
         0.30000E+00
         0.30000E+00
         0.30000E+00
         0.30000E+00
         0.30000E+00
         0.30000E+00
         0.30000E+00
         0.30000E+00
         0.30000E+00
         0.30000E+00
         0.30000E+00
         0.30000E+00
         0.30000E+00
         0.30000E+00
         0.30000E+00
         0.30000E+00
         0.30000E+00
         0.30000E+00
         0.30000E+00
         0.30000E+00
         0.30000E+00
         0.30000E+00
         0.30000E+00
         0.30000E+00
         0.30000E+00
         0.30000E+00
         0.30000E+00
         0.30000E+00
         0.30000E+00
         0.30000E+00
         0.30000E+00
         0.30000E+00
         0.30000E+00
         0.30000E+00
         0.30000E+00
         0.30000E+00
         0.30000E+00
         0.30000E+00
         0.30000E+00
         0.30000E+00
         0.30000E+00
         0.30000E+00
         0.30000E+00
         0.30000E+00
         0.30000E+00
         0.30000E+00
         0.30000E+00
         0.30000E+00
         0.30000E+00
         0.30000E+00
         0.30000E+00
         0.30000E+00
         0.30000E+00
         0.30000E+00
         0.30000E+00
         0.30000E+00
         0.30000E+00
         0.30000E+00
         0.30000E+00
         0.30000E+00
         0.30000E+00
         0.30000E+00
         0.30000E+00
         0.30000E+00
         0.30000E+00
         0.30000E+00
         0.30000E+00
         0.30000E+00
         0.30000E+00
         0.30000E+00
         0.30000E+00
         0.30000E+00
         0.30000E+00
         0.30000E+00
         0.30000E+00
         0.30000E+00
         0.30000E+00
         0.30000E+00
         0.30000E+00
         0.30000E+00
         0.30000E+00
         0.30000E+00
         0.30000E+00
         0.30000E+00
         0.30000E+00
         0.30000E+00
         0.30000E+00
         0.30000E+00
         0.30000E+00
         0.30000E+00
         0.30000E+00
         0.30000E+00
         0.30000E+00
         0.30000E+00
         0.30000E+00
         0.30000E+00
         0.30000E+00
         0.30000E+00
         0.30000E+00
         0.30000E+00
         0.30000E+00
         0.30000E+00
         0.30000E+00
         0.30000E+00
         0.30000E+00
         0.30000E+00
         0.30000E+00
         0.30000E+00
         0.30000E+00
         0.30000E+00
         0.30000E+00
         0.30000E+00
         0.30000E+00
         0.30000E+00
         0.30000E+00
         0.30000E+00
         0.30000E+00
         0.30000E+00
         0.30000E+00
         0.30000E+00
         0.30000E+00
         0.30000E+00
         0.30000E+00
         0.30000E+00
         0.30000E+00
         0.30000E+00
         0.30000E+00
         0.30000E+00
         0.30000E+00
         0.30000E+00
         0.30000E+00
         0.30000E+00
         0.30000E+00
         0.30000E+00
         0.30000E+00
         0.30000E+00
         0.30000E+00
         0.30000E+00
         0.30000E+00
         0.30000E+00
         0.30000E+00
         0.30000E+00
         0.30000E+00
         0.30000E+00
         0.30000E+00
         0.30000E+00
         0.30000E+00
         0.30000E+00
         0.30000E+00
         0.30000E+00
         0.30000E+00
         0.30000E+00
         0.30000E+00
         0.30000E+00
         0.30000E+00
         0.30000E+00
         0.30000E+00
         0.30000E+00
         0.30000E+00
         0.30000E+00
         0.30000E+00
         0.30000E+00
         0.30000E+00
         0.30000E+00
         0.30000E+00
         0.30000E+00
         0.30000E+00
         0.30000E+00
         0.30000E+00
         0.30000E+00
         0.30000E+00
         0.30000E+00
         0.30000E+00
         0.30000E+00
         0.30000E+00
         0.30000E+00
         0.30000E+00
         0.30000E+00
         0.30000E+00
         0.30000E+00
         0.30000E+00
         0.30000E+00
         0.30000E+00
         0.30000E+00
         0.30000E+00
         0.30000E+00
         0.30000E+00
         0.30000E+00
         0.30000E+00
         0.30000E+00
         0.30000E+00
         0.30000E+00
         0.30000E+00
         0.30000E+00
         0.30000E+00
         0.30000E+00
         0.30000E+00
         0.30000E+00
         0.30000E+00
         0.30000E+00
         0.30000E+00
         0.30000E+00
         0.30000E+00
         0.30000E+00
         0.30000E+00
         0.30000E+00
         0.30000E+00
         0.30000E+00
         0.30000E+00
         0.30000E+00
         0.30000E+00
         0.30000E+00
         0.30000E+00
         0.30000E+00
         0.30000E+00
         0.30000E+00
         0.30000E+00
         0.30000E+00
         0.30000E+00
         0.30000E+00
         0.30000E+00
         0.30000E+00
         0.30000E+00
         0.30000E+00
         0.30000E+00
         0.30000E+00
         0.30000E+00
         0.30000E+00
         0.30000E+00
         0.30000E+00
         0.30000E+00
         0.30000E+00
         0.30000E+00
         0.30000E+00
         0.30000E+00
         0.30000E+00
         0.30000E+00
         0.30000E+00
         0.30000E+00
         0.30000E+00
         0.30000E+00
         0.30000E+00
         0.30000E+00
         0.30000E+00
         0.30000E+00
         0.30000E+00
         0.30000E+00
         0.30000E+00
         0.30000E+00
         0.30000E+00
         0.30000E+00
         0.30000E+00
         0.30000E+00
         0.30000E+00
         0.30000E+00
         0.30000E+00
         0.30000E+00
         0.30000E+00
         0.30000E+00
         0.30000E+00
         0.30000E+00
         0.30000E+00
         0.30000E+00
         0.30000E+00
         0.30000E+00
         0.30000E+00
         0.30000E+00
         0.30000E+00
         0.30000E+00
         0.30000E+00
         0.30000E+00
         0.30000E+00
         0.30000E+00
         0.30000E+00
         0.30000E+00
         0.30000E+00
         0.30000E+00
         0.30000E+00
         0.30000E+00
         0.30000E+00
         0.30000E+00
         0.30000E+00
         0.30000E+00
         0.30000E+00
         0.30000E+00
         0.30000E+00
         0.30000E+00
         0.30000E+00
         0.30000E+00
         0.30000E+00
         0.30000E+00
         0.30000E+00
         0.30000E+00
         0.30000E+00
         0.30000E+00
         0.30000E+00
         0.30000E+00
         0.30000E+00
         0.30000E+00
         0.30000E+00
         0.30000E+00
         0.30000E+00
         0.30000E+00
         0.30000E+00
         0.30000E+00
         0.30000E+00
         0.30000E+00
         0.30000E+00
         0.30000E+00
         0.30000E+00
         0.30000E+00
         0.30000E+00
         0.30000E+00
         0.30000E+00
         0.30000E+00
         0.30000E+00
         0.30000E+00
         0.30000E+00
         0.30000E+00
         0.30000E+00
         0.30000E+00
         0.30000E+00
         0.30000E+00
         0.30000E+00
         0.30000E+00
         0.30000E+00
         0.30000E+00
         0.30000E+00
         0.30000E+00
         0.30000E+00
         0.30000E+00
         0.30000E+00
         0.30000E+00
         0.30000E+00
         0.30000E+00
         0.30000E+00
         0.30000E+00
         0.30000E+00
         0.30000E+00
         0.30000E+00
         0.30000E+00
         0.30000E+00
         0.30000E+00
         0.30000E+00
         0.30000E+00
         0.30000E+00
         0.30000E+00
         0.30000E+00
         0.30000E+00
         0.30000E+00
         0.30000E+00
         0.30000E+00
         0.30000E+00
         0.30000E+00
         0.30000E+00
         0.30000E+00
         0.30000E+00
         0.30000E+00
         0.30000E+00
         0.30000E+00
         0.30000E+00
         0.30000E+00
         0.30000E+00
         0.30000E+00
         0.30000E+00
         0.30000E+00
         0.30000E+00
         0.30000E+00
         0.30000E+00
         0.30000E+00
         0.30000E+00
         0.30000E+00
         0.30000E+00
         0.30000E+00
         0.30000E+00
         0.30000E+00
         0.30000E+00
         0.30000E+00
         0.30000E+00
         0.30000E+00
         0.30000E+00
         0.30000E+00
         0.30000E+00
         0.30000E+00
         0.30000E+00
         0.30000E+00
         0.30000E+00
         0.30000E+00
         0.30000E+00
         0.30000E+00
         0.30000E+00
         0.30000E+00
         0.30000E+00
         0.30000E+00
         0.30000E+00
         0.30000E+00
         0.30000E+00
         0.30000E+00
         0.30000E+00
         0.30000E+00
         0.30000E+00
         0.30000E+00
         0.30000E+00
         0.30000E+00
         0.30000E+00
         0.30000E+00
         0.30000E+00
         0.30000E+00
         0.30000E+00
         0.30000E+00
         0.30000E+00
         0.30000E+00
         0.30000E+00
         0.30000E+00
         0.30000E+00
         0.30000E+00
         0.30000E+00
         0.30000E+00
         0.30000E+00
         0.30000E+00
         0.30000E+00
         0.30000E+00
         0.30000E+00
         0.30000E+00
         0.30000E+00
         0.30000E+00
         0.30000E+00
         0.30000E+00
         0.30000E+00
         0.30000E+00
         0.30000E+00
         0.30000E+00
         0.30000E+00
         0.30000E+00
         0.30000E+00
         0.30000E+00
         0.30000E+00
         0.30000E+00
         0.30000E+00
         0.30000E+00
         0.30000E+00
         0.30000E+00
         0.30000E+00
         0.30000E+00
         0.30000E+00
         0.30000E+00
         0.30000E+00
         0.30000E+00
         0.30000E+00
         0.30000E+00
         0.30000E+00
         0.30000E+00
         0.30000E+00
         0.30000E+00
         0.30000E+00
         0.30000E+00
         0.30000E+00
         0.30000E+00
         0.30000E+00
         0.30000E+00
         0.30000E+00
         0.30000E+00
         0.30000E+00
         0.30000E+00
         0.30000E+00
         0.30000E+00
         0.30000E+00
         0.30000E+00
         0.30000E+00
         0.30000E+00
         0.30000E+00
         0.30000E+00
         0.30000E+00
         0.30000E+00
         0.30000E+00
         0.30000E+00
         0.30000E+00
         0.30000E+00
         0.30000E+00
         0.30000E+00
         0.30000E+00
         0.30000E+00
         0.30000E+00
         0.30000E+00
         0.30000E+00
         0.30000E+00
         0.30000E+00
         0.30000E+00
         0.30000E+00
         0.30000E+00
         0.30000E+00
         0.30000E+00
         0.30000E+00
         0.30000E+00
         0.30000E+00
         0.30000E+00
         0.30000E+00
         0.30000E+00
         0.30000E+00
         0.30000E+00
         0.30000E+00
         0.30000E+00
         0.30000E+00
         0.30000E+00
         0.30000E+00
         0.30000E+00
         0.30000E+00
         0.30000E+00
         0.30000E+00
         0.30000E+00
         0.30000E+00
         0.30000E+00
         0.30000E+00
         0.30000E+00
         0.30000E+00
         0.30000E+00
         0.30000E+00
         0.30000E+00
         0.30000E+00
         0.30000E+00
         0.30000E+00
         0.30000E+00
         0.30000E+00
         0.30000E+00
         0.30000E+00
         0.30000E+00
         0.30000E+00
         0.30000E+00
         0.30000E+00
         0.30000E+00
         0.30000E+00
         0.30000E+00
         0.30000E+00
         0.30000E+00
         0.30000E+00
         0.30000E+00
         0.30000E+00
         0.30000E+00
         0.30000E+00
         0.30000E+00
         0.30000E+00
         0.30000E+00
         0.30000E+00
         0.30000E+00
         0.30000E+00
         0.30000E+00
         0.30000E+00
         0.30000E+00
         0.30000E+00
         0.30000E+00
         0.30000E+00
         0.30000E+00
         0.30000E+00
         0.30000E+00
         0.30000E+00
         0.30000E+00
         0.30000E+00
         0.30000E+00
         0.30000E+00
         0.30000E+00
         0.30000E+00
         0.30000E+00
         0.30000E+00
         0.30000E+00
         0.30000E+00
         0.30000E+00
         0.30000E+00
         0.30000E+00
         0.30000E+00
         0.30000E+00
         0.30000E+00
         0.30000E+00
         0.30000E+00
         0.30000E+00
         0.30000E+00
         0.30000E+00
         0.30000E+00
         0.30000E+00
         0.30000E+00
         0.30000E+00
         0.30000E+00
         0.30000E+00
         0.30000E+00
         0.30000E+00
         0.30000E+00
         0.30000E+00
         0.30000E+00
         0.30000E+00
         0.30000E+00
         0.30000E+00
         0.30000E+00
         0.30000E+00
         0.30000E+00
         0.30000E+00
         0.30000E+00
         0.30000E+00
         0.30000E+00
         0.30000E+00
         0.30000E+00
         0.30000E+00
         0.30000E+00
         0.30000E+00
         0.30000E+00
         0.30000E+00
         0.30000E+00
         0.30000E+00
         0.30000E+00
         0.30000E+00
         0.30000E+00
         0.30000E+00
         0.30000E+00
         0.30000E+00
         0.30000E+00
         0.30000E+00
         0.30000E+00
         0.30000E+00
         0.30000E+00
         0.30000E+00
         0.30000E+00
         0.30000E+00
         0.30000E+00
         0.30000E+00
         0.30000E+00
         0.30000E+00
         0.30000E+00
         0.30000E+00
         0.30000E+00
         0.30000E+00
         0.30000E+00
         0.30000E+00
         0.30000E+00
         0.30000E+00
         0.30000E+00
         0.30000E+00
         0.30000E+00
         0.30000E+00
         0.30000E+00
         0.30000E+00
         0.30000E+00
         0.30000E+00
         0.30000E+00
         0.30000E+00
         0.30000E+00
         0.30000E+00
         0.30000E+00
         0.30000E+00
         0.30000E+00
         0.30000E+00
         0.30000E+00
         0.30000E+00
         0.30000E+00
         0.30000E+00
         0.30000E+00
         0.30000E+00
         0.30000E+00
         0.30000E+00
         0.30000E+00
         0.30000E+00
         0.30000E+00
         0.30000E+00
         0.30000E+00
         0.30000E+00
         0.30000E+00
         0.30000E+00
         0.30000E+00
         0.30000E+00
         0.30000E+00
         0.30000E+00
         0.30000E+00
         0.30000E+00
         0.30000E+00
         0.30000E+00
         0.30000E+00
         0.30000E+00
         0.30000E+00
         0.30000E+00
         0.30000E+00
         0.30000E+00
         0.30000E+00
         0.30000E+00
         0.30000E+00
         0.30000E+00
         0.30000E+00
         0.30000E+00
         0.30000E+00
         0.30000E+00
         0.30000E+00
         0.30000E+00
         0.30000E+00
         0.30000E+00
         0.30000E+00
         0.30000E+00
         0.30000E+00
         0.30000E+00
         0.30000E+00
         0.30000E+00
         0.30000E+00
         0.30000E+00
         0.30000E+00
         0.30000E+00
         0.30000E+00
         0.30000E+00
         0.30000E+00
         0.30000E+00
         0.30000E+00
         0.30000E+00
         0.30000E+00
         0.30000E+00
         0.30000E+00
         0.30000E+00
         0.30000E+00
         0.30000E+00
         0.30000E+00
         0.30000E+00
         0.30000E+00
         0.30000E+00
         0.30000E+00
         0.30000E+00
         0.30000E+00
         0.30000E+00
         0.30000E+00
         0.30000E+00
         0.30000E+00
         0.30000E+00
         0.30000E+00
         0.30000E+00
         0.30000E+00
         0.30000E+00
         0.30000E+00
         0.30000E+00
         0.30000E+00
         0.30000E+00
         0.30000E+00
         0.30000E+00
         0.30000E+00
         0.30000E+00
         0.30000E+00
         0.30000E+00
         0.30000E+00
         0.30000E+00
         0.30000E+00
         0.30000E+00
         0.30000E+00
         0.30000E+00
         0.30000E+00
         0.30000E+00
         0.30000E+00
         0.30000E+00
         0.30000E+00
         0.30000E+00
         0.30000E+00
         0.30000E+00
         0.30000E+00
         0.30000E+00
         0.30000E+00
         0.30000E+00
         0.30000E+00
         0.30000E+00
         0.30000E+00
         0.30000E+00
         0.30000E+00
         0.30000E+00
         0.30000E+00
         0.30000E+00
         0.30000E+00
         0.30000E+00
         0.30000E+00
         0.30000E+00
         0.30000E+00
         0.30000E+00
         0.30000E+00
         0.30000E+00
         0.30000E+00
         0.30000E+00
         0.30000E+00
         0.30000E+00
         0.30000E+00
         0.30000E+00
         0.30000E+00
         0.30000E+00
         0.30000E+00
         0.30000E+00
         0.30000E+00
         0.30000E+00
         0.30000E+00
         0.30000E+00
         0.30000E+00
         0.30000E+00
         0.30000E+00
         0.30000E+00
         0.30000E+00
         0.30000E+00
         0.30000E+00
         0.30000E+00
         0.30000E+00
         0.30000E+00
         0.30000E+00
         0.30000E+00
         0.30000E+00
         0.30000E+00
         0.30000E+00
         0.30000E+00
         0.30000E+00
         0.30000E+00
         0.30000E+00
         0.30000E+00
         0.30000E+00
         0.30000E+00
         0.30000E+00
         0.30000E+00
         0.30000E+00
         0.30000E+00
         0.30000E+00
         0.30000E+00
         0.30000E+00
         0.30000E+00
         0.30000E+00
         0.30000E+00
         0.30000E+00
         0.30000E+00
         0.30000E+00
         0.30000E+00
         0.30000E+00
         0.30000E+00
         0.30000E+00
         0.30000E+00
         0.30000E+00
         0.30000E+00
         0.30000E+00
         0.30000E+00
         0.30000E+00
         0.30000E+00
         0.30000E+00
         0.30000E+00
         0.30000E+00
         0.30000E+00
         0.30000E+00
         0.30000E+00
         0.30000E+00
         0.30000E+00
         0.30000E+00
         0.30000E+00
         0.30000E+00
         0.30000E+00
         0.30000E+00
         0.30000E+00
         0.30000E+00
         0.30000E+00
         0.30000E+00
         0.30000E+00
         0.30000E+00
         0.30000E+00
         0.30000E+00
         0.30000E+00
         0.30000E+00
         0.30000E+00
         0.30000E+00
         0.30000E+00
         0.30000E+00
         0.30000E+00
         0.30000E+00
         0.30000E+00
         0.30000E+00
         0.30000E+00
         0.30000E+00
         0.30000E+00
         0.30000E+00
         0.30000E+00
         0.30000E+00
         0.30000E+00
         0.30000E+00
         0.30000E+00
         0.30000E+00
         0.30000E+00
         0.30000E+00
         0.30000E+00
         0.30000E+00
         0.30000E+00
         0.30000E+00
         0.30000E+00
         0.30000E+00
         0.30000E+00
         0.30000E+00
         0.30000E+00
         0.30000E+00
         0.30000E+00
         0.30000E+00
         0.30000E+00
         0.30000E+00
         0.30000E+00
         0.30000E+00
         0.30000E+00
         0.30000E+00
         0.30000E+00
         0.30000E+00
         0.30000E+00
         0.30000E+00
         0.30000E+00
         0.30000E+00
         0.30000E+00
         0.30000E+00
         0.30000E+00
         0.30000E+00
         0.30000E+00
         0.30000E+00
         0.30000E+00
         0.30000E+00
         0.30000E+00
         0.30000E+00
         0.30000E+00
         0.30000E+00
         0.30000E+00
         0.30000E+00
         0.30000E+00
         0.30000E+00
         0.30000E+00
         0.30000E+00
         0.30000E+00
         0.30000E+00
         0.30000E+00
         0.30000E+00
         0.30000E+00
         0.30000E+00
         0.30000E+00
         0.30000E+00
         0.30000E+00
         0.30000E+00
         0.30000E+00
         0.30000E+00
         0.30000E+00
         0.30000E+00
         0.30000E+00
         0.30000E+00
         0.30000E+00
         0.30000E+00
         0.30000E+00
         0.30000E+00
         0.30000E+00
         0.30000E+00
         0.30000E+00
         0.30000E+00
         0.30000E+00
         0.30000E+00
         0.30000E+00
         0.30000E+00
         0.30000E+00
         0.30000E+00
         0.30000E+00
         0.30000E+00
         0.30000E+00
         0.30000E+00
         0.30000E+00
         0.30000E+00
         0.30000E+00
         0.30000E+00
         0.30000E+00
         0.30000E+00
         0.30000E+00
         0.30000E+00
         0.30000E+00
         0.30000E+00
         0.30000E+00
         0.30000E+00
         0.30000E+00
         0.30000E+00
         0.30000E+00
         0.30000E+00
         0.30000E+00
         0.30000E+00
         0.30000E+00
         0.30000E+00
         0.30000E+00
         0.30000E+00
         0.30000E+00
         0.30000E+00
         0.30000E+00
         0.30000E+00
         0.30000E+00
         0.30000E+00
         0.30000E+00
         0.30000E+00
         0.30000E+00
         0.30000E+00
         0.30000E+00
         0.30000E+00
         0.30000E+00
         0.30000E+00
         0.30000E+00
         0.30000E+00
         0.30000E+00
         0.30000E+00
         0.30000E+00
         0.30000E+00
         0.30000E+00
         0.30000E+00
         0.30000E+00
         0.30000E+00
         0.30000E+00
         0.30000E+00
         0.30000E+00
         0.30000E+00
         0.30000E+00
         0.30000E+00
         0.30000E+00
         0.30000E+00
         0.30000E+00
         0.30000E+00
         0.30000E+00
         0.30000E+00
         0.30000E+00
         0.30000E+00
         0.30000E+00
         0.30000E+00
         0.30000E+00
         0.30000E+00
         0.30000E+00
         0.30000E+00
         0.30000E+00
         0.30000E+00
         0.30000E+00
         0.30000E+00
         0.30000E+00
         0.30000E+00
         0.30000E+00
         0.30000E+00
         0.30000E+00
         0.30000E+00
         0.30000E+00
         0.30000E+00
         0.30000E+00
         0.30000E+00
         0.30000E+00
         0.30000E+00
         0.30000E+00
         0.30000E+00
         0.30000E+00
         0.30000E+00
         0.30000E+00
         0.30000E+00
         0.30000E+00
         0.30000E+00
         0.30000E+00
         0.30000E+00
         0.30000E+00
         0.30000E+00
         0.30000E+00
         0.30000E+00
         0.30000E+00
         0.30000E+00
         0.30000E+00
         0.30000E+00
         0.30000E+00
         0.30000E+00
         0.30000E+00
         0.30000E+00
         0.30000E+00
         0.30000E+00
         0.30000E+00
         0.30000E+00
         0.30000E+00
         0.30000E+00
         0.30000E+00
         0.30000E+00
         0.30000E+00
         0.30000E+00
         0.30000E+00
         0.30000E+00
         0.30000E+00
         0.30000E+00
         0.30000E+00
         0.30000E+00
         0.30000E+00
         0.30000E+00
         0.30000E+00
         0.30000E+00
         0.30000E+00
         0.30000E+00
         0.30000E+00
         0.30000E+00
         0.30000E+00
         0.30000E+00
         0.30000E+00
         0.30000E+00
         0.30000E+00
         0.30000E+00
         0.30000E+00
         0.30000E+00
         0.30000E+00
         0.30000E+00
         0.30000E+00
         0.30000E+00
         0.30000E+00
         0.30000E+00
         0.30000E+00
         0.30000E+00
         0.30000E+00
         0.30000E+00
         0.30000E+00
         0.30000E+00
         0.30000E+00
         0.30000E+00
         0.30000E+00
         0.30000E+00
         0.30000E+00
         0.30000E+00
         0.30000E+00
         0.30000E+00
         0.30000E+00
         0.30000E+00
         0.30000E+00
         0.30000E+00
         0.30000E+00
         0.30000E+00
         0.30000E+00
         0.30000E+00
         0.30000E+00
         0.30000E+00
         0.30000E+00
         0.30000E+00
         0.30000E+00
         0.30000E+00
         0.30000E+00
         0.30000E+00
         0.30000E+00
         0.30000E+00
         0.30000E+00
         0.30000E+00
         0.30000E+00
         0.30000E+00
         0.30000E+00
         0.30000E+00
         0.30000E+00
         0.30000E+00
         0.30000E+00
         0.30000E+00
         0.30000E+00
         0.30000E+00
         0.30000E+00
         0.30000E+00
         0.30000E+00
         0.30000E+00
         0.30000E+00
         0.30000E+00
         0.30000E+00
         0.30000E+00
         0.30000E+00
         0.30000E+00
         0.30000E+00
         0.30000E+00
         0.30000E+00
         0.30000E+00
         0.30000E+00
         0.30000E+00
         0.30000E+00
         0.30000E+00
         0.30000E+00
         0.30000E+00
         0.30000E+00
         0.30000E+00
         0.30000E+00
         0.30000E+00
         0.30000E+00
         0.30000E+00
         0.30000E+00
         0.30000E+00
         0.30000E+00
         0.30000E+00
         0.30000E+00
         0.30000E+00
         0.30000E+00
         0.30000E+00
         0.30000E+00
         0.30000E+00
         0.30000E+00
         0.30000E+00
         0.30000E+00
         0.30000E+00
         0.30000E+00
         0.30000E+00
         0.30000E+00
         0.30000E+00
         0.30000E+00
         0.30000E+00
         0.30000E+00
         0.30000E+00
         0.30000E+00
         0.30000E+00
         0.30000E+00
         0.30000E+00
         0.30000E+00
         0.30000E+00
         0.30000E+00
         0.30000E+00
         0.30000E+00
         0.30000E+00
         0.30000E+00
         0.30000E+00
         0.30000E+00
         0.30000E+00
         0.30000E+00
         0.30000E+00
         0.30000E+00
         0.30000E+00
         0.30000E+00
         0.30000E+00
         0.30000E+00
         0.30000E+00
         0.30000E+00
         0.30000E+00
         0.30000E+00
         0.30000E+00
         0.30000E+00
         0.30000E+00
         0.30000E+00
         0.30000E+00
         0.30000E+00
         0.30000E+00
         0.30000E+00
         0.30000E+00
         0.30000E+00
         0.30000E+00
         0.30000E+00
         0.30000E+00
         0.30000E+00
         0.30000E+00
         0.30000E+00
         0.30000E+00
         0.30000E+00
         0.30000E+00
         0.30000E+00
         0.30000E+00
         0.30000E+00
         0.30000E+00
         0.30000E+00
         0.30000E+00
         0.30000E+00
         0.30000E+00
         0.30000E+00
         0.30000E+00
         0.30000E+00
         0.30000E+00
         0.30000E+00
         0.30000E+00
         0.30000E+00
         0.30000E+00
         0.30000E+00
         0.30000E+00
         0.30000E+00
         0.30000E+00
         0.30000E+00
         0.30000E+00
         0.30000E+00
         0.30000E+00
         0.30000E+00
         0.30000E+00
         0.30000E+00
         0.30000E+00
         0.30000E+00
         0.30000E+00
         0.30000E+00
         0.30000E+00
         0.30000E+00
         0.30000E+00
         0.30000E+00
         0.30000E+00
         0.30000E+00
         0.30000E+00
         0.30000E+00
         0.30000E+00
         0.30000E+00
         0.30000E+00
         0.30000E+00
         0.30000E+00
         0.30000E+00
         0.30000E+00
         0.30000E+00
         0.30000E+00
         0.30000E+00
         0.30000E+00
         0.30000E+00
         0.30000E+00
         0.30000E+00
         0.30000E+00
         0.30000E+00
         0.30000E+00
         0.30000E+00
         0.30000E+00
         0.30000E+00
         0.30000E+00
         0.30000E+00
         0.30000E+00
         0.30000E+00
         0.30000E+00
         0.30000E+00
         0.30000E+00
         0.30000E+00
         0.30000E+00
         0.30000E+00
         0.30000E+00
         0.30000E+00
         0.30000E+00
         0.30000E+00
         0.30000E+00
         0.30000E+00
         0.30000E+00
         0.30000E+00
         0.30000E+00
         0.30000E+00
         0.30000E+00
         0.30000E+00
         0.30000E+00
         0.30000E+00
         0.30000E+00
         0.30000E+00
         0.30000E+00
         0.30000E+00
         0.30000E+00
         0.30000E+00
         0.30000E+00
         0.30000E+00
         0.30000E+00
         0.30000E+00
         0.30000E+00
         0.30000E+00
         0.30000E+00
         0.30000E+00
         0.30000E+00
         0.30000E+00
         0.30000E+00
         0.30000E+00
         0.30000E+00
         0.30000E+00
         0.30000E+00
         0.30000E+00
         0.30000E+00
         0.30000E+00
         0.30000E+00
         0.30000E+00
         0.30000E+00
         0.30000E+00
         0.30000E+00
         0.30000E+00
         0.30000E+00
         0.30000E+00
         0.30000E+00
         0.30000E+00
         0.30000E+00
         0.30000E+00
         0.30000E+00
         0.30000E+00
         0.30000E+00
         0.30000E+00
         0.30000E+00
         0.30000E+00
         0.30000E+00
         0.30000E+00
         0.30000E+00
         0.30000E+00
         0.30000E+00
         0.30000E+00
         0.30000E+00
         0.30000E+00
         0.30000E+00
         0.30000E+00
         0.30000E+00
         0.30000E+00
         0.30000E+00
         0.30000E+00
         0.30000E+00
         0.30000E+00
         0.30000E+00
         0.30000E+00
         0.30000E+00
         0.30000E+00
         0.30000E+00
         0.30000E+00
         0.30000E+00
         0.30000E+00
         0.30000E+00
         0.30000E+00
         0.30000E+00
         0.30000E+00
         0.30000E+00
         0.30000E+00
         0.30000E+00
         0.30000E+00
         0.30000E+00
         0.30000E+00
         0.30000E+00
         0.30000E+00
         0.30000E+00
         0.30000E+00
         0.30000E+00
         0.30000E+00
         0.30000E+00
         0.30000E+00
         0.30000E+00
         0.30000E+00
         0.30000E+00
         0.30000E+00
         0.30000E+00
         0.30000E+00
         0.30000E+00
         0.30000E+00
         0.30000E+00
         0.30000E+00
         0.30000E+00
         0.30000E+00
         0.30000E+00
         0.30000E+00
         0.30000E+00
         0.30000E+00
         0.30000E+00
         0.30000E+00
         0.30000E+00
         0.30000E+00
         0.30000E+00
         0.30000E+00
         0.30000E+00
         0.30000E+00
         0.30000E+00
         0.30000E+00
         0.30000E+00
         0.30000E+00
         0.30000E+00
         0.30000E+00
         0.30000E+00
         0.30000E+00
         0.30000E+00
         0.30000E+00
         0.30000E+00
         0.30000E+00
         0.30000E+00
         0.30000E+00
         0.30000E+00
         0.30000E+00
         0.30000E+00
         0.30000E+00
         0.30000E+00
         0.30000E+00
         0.30000E+00
         0.30000E+00
         0.30000E+00
         0.30000E+00
         0.30000E+00
         0.30000E+00
         0.30000E+00
         0.30000E+00
         0.30000E+00
         0.30000E+00
         0.30000E+00
         0.30000E+00
         0.30000E+00
         0.30000E+00
         0.30000E+00
         0.30000E+00
         0.30000E+00
         0.30000E+00
         0.30000E+00
         0.30000E+00
         0.30000E+00
         0.30000E+00
         0.30000E+00
         0.30000E+00
         0.30000E+00
         0.30000E+00
         0.30000E+00
         0.30000E+00
         0.30000E+00
         0.30000E+00
         0.30000E+00
         0.30000E+00
         0.30000E+00
         0.30000E+00
         0.30000E+00
         0.30000E+00
         0.30000E+00
         0.30000E+00
         0.30000E+00
         0.30000E+00
         0.30000E+00
         0.30000E+00
         0.30000E+00
         0.30000E+00
         0.30000E+00
         0.30000E+00
         0.30000E+00
         0.30000E+00
         0.30000E+00
         0.30000E+00
         0.30000E+00
         0.30000E+00
         0.30000E+00
         0.30000E+00
         0.30000E+00
         0.30000E+00
         0.30000E+00
         0.30000E+00
         0.30000E+00
         0.30000E+00
         0.30000E+00
         0.30000E+00
         0.30000E+00
         0.30000E+00
         0.30000E+00
         0.30000E+00
         0.30000E+00
         0.30000E+00
         0.30000E+00
         0.30000E+00
         0.30000E+00
         0.30000E+00
         0.30000E+00
         0.30000E+00
         0.30000E+00
         0.30000E+00
         0.30000E+00
         0.30000E+00
         0.30000E+00
         0.30000E+00
         0.30000E+00
         0.30000E+00
         0.30000E+00
         0.30000E+00
         0.30000E+00
         0.30000E+00
         0.30000E+00
         0.30000E+00
         0.30000E+00
         0.30000E+00
         0.30000E+00
         0.30000E+00
         0.30000E+00
         0.30000E+00
         0.30000E+00
         0.30000E+00
         0.30000E+00
         0.30000E+00
         0.30000E+00
         0.30000E+00
         0.30000E+00
         0.30000E+00
         0.30000E+00
         0.30000E+00
         0.30000E+00
         0.30000E+00
         0.30000E+00
         0.30000E+00
         0.30000E+00
         0.30000E+00
         0.30000E+00
         0.30000E+00
         0.30000E+00
         0.30000E+00
         0.30000E+00
         0.30000E+00
         0.30000E+00
         0.30000E+00
         0.30000E+00
         0.30000E+00
         0.30000E+00
         0.30000E+00
         0.30000E+00
         0.30000E+00
         0.30000E+00
         0.30000E+00
         0.30000E+00
         0.30000E+00
         0.30000E+00
         0.30000E+00
         0.30000E+00
         0.30000E+00
         0.30000E+00
         0.30000E+00
         0.30000E+00
         0.30000E+00
         0.30000E+00
         0.30000E+00
         0.30000E+00
         0.30000E+00
         0.30000E+00
         0.30000E+00
         0.30000E+00
         0.30000E+00
         0.30000E+00
         0.30000E+00
         0.30000E+00
         0.30000E+00
         0.30000E+00
         0.30000E+00
         0.30000E+00
         0.30000E+00
         0.30000E+00
         0.30000E+00
         0.30000E+00
         0.30000E+00
         0.30000E+00
         0.30000E+00
         0.30000E+00
         0.30000E+00
         0.30000E+00
         0.30000E+00
         0.30000E+00
         0.30000E+00
         0.30000E+00
         0.30000E+00
         0.30000E+00
         0.30000E+00
         0.30000E+00
         0.30000E+00
         0.30000E+00
         0.30000E+00
         0.30000E+00
         0.30000E+00
         0.30000E+00
         0.30000E+00
         0.30000E+00
         0.30000E+00
         0.30000E+00
         0.30000E+00
         0.30000E+00
         0.30000E+00
         0.30000E+00
         0.30000E+00
         0.30000E+00
         0.30000E+00
         0.30000E+00
         0.30000E+00
         0.30000E+00
         0.30000E+00
         0.30000E+00
         0.30000E+00
         0.30000E+00
         0.30000E+00
         0.30000E+00
         0.30000E+00
         0.30000E+00
         0.30000E+00
         0.30000E+00
         0.30000E+00
         0.30000E+00
         0.30000E+00
         0.30000E+00
         0.30000E+00
         0.30000E+00
         0.30000E+00
         0.30000E+00
         0.30000E+00
         0.30000E+00
         0.30000E+00
         0.30000E+00
         0.30000E+00
         0.30000E+00
         0.30000E+00
         0.30000E+00
         0.30000E+00
         0.30000E+00
         0.30000E+00
         0.30000E+00
         0.30000E+00
         0.30000E+00
         0.30000E+00
         0.30000E+00
         0.30000E+00
         0.30000E+00
         0.30000E+00
         0.30000E+00
         0.30000E+00
         0.30000E+00
         0.30000E+00
         0.30000E+00
         0.30000E+00
         0.30000E+00
         0.30000E+00
         0.30000E+00
         0.30000E+00
         0.30000E+00
         0.30000E+00
         0.30000E+00
         0.30000E+00
         0.30000E+00
         0.30000E+00
         0.30000E+00
         0.30000E+00
         0.30000E+00
         0.30000E+00
         0.30000E+00
         0.30000E+00
         0.30000E+00
         0.30000E+00
         0.30000E+00
         0.30000E+00
         0.30000E+00
         0.30000E+00
         0.30000E+00
         0.30000E+00
         0.30000E+00
         0.30000E+00
         0.30000E+00
         0.30000E+00
         0.30000E+00
         0.30000E+00
         0.30000E+00
         0.30000E+00
         0.30000E+00
         0.30000E+00
         0.30000E+00
         0.30000E+00
         0.30000E+00
         0.30000E+00
         0.30000E+00
         0.30000E+00
         0.30000E+00
         0.30000E+00
         0.30000E+00
         0.30000E+00
         0.30000E+00
         0.30000E+00
         0.30000E+00
         0.30000E+00
         0.30000E+00
         0.30000E+00
         0.30000E+00
         0.30000E+00
         0.30000E+00
         0.30000E+00
         0.30000E+00
         0.30000E+00
         0.30000E+00
         0.30000E+00
         0.30000E+00
         0.30000E+00
         0.30000E+00
         0.30000E+00
         0.30000E+00
         0.30000E+00
         0.30000E+00
         0.30000E+00
         0.30000E+00
         0.30000E+00
         0.30000E+00
         0.30000E+00
         0.30000E+00
         0.30000E+00
         0.30000E+00
         0.30000E+00
         0.30000E+00
         0.30000E+00
         0.30000E+00
         0.30000E+00
         0.30000E+00
         0.30000E+00
         0.30000E+00
         0.30000E+00
         0.30000E+00
         0.30000E+00
         0.30000E+00
         0.30000E+00
         0.30000E+00
         0.30000E+00
         0.30000E+00
         0.30000E+00
         0.30000E+00
         0.30000E+00
         0.30000E+00
         0.30000E+00
         0.30000E+00
         0.30000E+00
         0.30000E+00
         0.30000E+00
         0.30000E+00
         0.30000E+00
         0.30000E+00
         0.30000E+00
         0.30000E+00
         0.30000E+00
         0.30000E+00
         0.30000E+00
         0.30000E+00
         0.30000E+00
         0.30000E+00
         0.30000E+00
         0.30000E+00
         0.30000E+00
         0.30000E+00
         0.30000E+00
         0.30000E+00
         0.30000E+00
         0.30000E+00
         0.30000E+00
         0.30000E+00
         0.30000E+00
         0.30000E+00
         0.30000E+00
         0.30000E+00
         0.30000E+00
  
SCALARS                 Youngs_modulus  double 1
LOOKUP_TABLE default
         0.78200E+11
         0.78200E+11
         0.78200E+11
         0.78200E+11
         0.78200E+11
         0.78200E+11
         0.78200E+11
         0.78200E+11
         0.78200E+11
         0.78200E+11
         0.78200E+11
         0.78200E+11
         0.78200E+11
         0.78200E+11
         0.78200E+11
         0.78200E+11
         0.78200E+11
         0.78200E+11
         0.78200E+11
         0.78200E+11
         0.78200E+11
         0.78200E+11
         0.78200E+11
         0.78200E+11
         0.78200E+11
         0.78200E+11
         0.78200E+11
         0.78200E+11
         0.78200E+11
         0.78200E+11
         0.78200E+11
         0.78200E+11
         0.78200E+11
         0.78200E+11
         0.78200E+11
         0.78200E+11
         0.78200E+11
         0.78200E+11
         0.78200E+11
         0.78200E+11
         0.78200E+11
         0.78200E+11
         0.78200E+11
         0.78200E+11
         0.78200E+11
         0.78200E+11
         0.78200E+11
         0.78200E+11
         0.78200E+11
         0.78200E+11
         0.78200E+11
         0.78200E+11
         0.78200E+11
         0.78200E+11
         0.78200E+11
         0.78200E+11
         0.78200E+11
         0.78200E+11
         0.78200E+11
         0.78200E+11
         0.78200E+11
         0.78200E+11
         0.78200E+11
         0.78200E+11
         0.78200E+11
         0.78200E+11
         0.78200E+11
         0.78200E+11
         0.78200E+11
         0.78200E+11
         0.78200E+11
         0.78200E+11
         0.78200E+11
         0.78200E+11
         0.78200E+11
         0.78200E+11
         0.78200E+11
         0.78200E+11
         0.78200E+11
         0.78200E+11
         0.78200E+11
         0.78200E+11
         0.78200E+11
         0.78200E+11
         0.78200E+11
         0.78200E+11
         0.78200E+11
         0.78200E+11
         0.78200E+11
         0.78200E+11
         0.78200E+11
         0.78200E+11
         0.78200E+11
         0.78200E+11
         0.78200E+11
         0.78200E+11
         0.78200E+11
         0.78200E+11
         0.78200E+11
         0.78200E+11
         0.78200E+11
         0.78200E+11
         0.78200E+11
         0.78200E+11
         0.78200E+11
         0.78200E+11
         0.78200E+11
         0.78200E+11
         0.78200E+11
         0.78200E+11
         0.78200E+11
         0.78200E+11
         0.78200E+11
         0.78200E+11
         0.78200E+11
         0.78200E+11
         0.78200E+11
         0.78200E+11
         0.78200E+11
         0.78200E+11
         0.78200E+11
         0.78200E+11
         0.78200E+11
         0.78200E+11
         0.78200E+11
         0.78200E+11
         0.78200E+11
         0.78200E+11
         0.78200E+11
         0.78200E+11
         0.78200E+11
         0.78200E+11
         0.78200E+11
         0.78200E+11
         0.78200E+11
         0.78200E+11
         0.78200E+11
         0.78200E+11
         0.78200E+11
         0.78200E+11
         0.78200E+11
         0.78200E+11
         0.78200E+11
         0.78200E+11
         0.78200E+11
         0.78200E+11
         0.78200E+11
         0.78200E+11
         0.78200E+11
         0.78200E+11
         0.78200E+11
         0.78200E+11
         0.78200E+11
         0.78200E+11
         0.78200E+11
         0.78200E+11
         0.78200E+11
         0.78200E+11
         0.78200E+11
         0.78200E+11
         0.78200E+11
         0.78200E+11
         0.78200E+11
         0.78200E+11
         0.78200E+11
         0.78200E+11
         0.78200E+11
         0.78200E+11
         0.78200E+11
         0.78200E+11
         0.78200E+11
         0.78200E+11
         0.78200E+11
         0.78200E+11
         0.78200E+11
         0.78200E+11
         0.78200E+11
         0.78200E+11
         0.78200E+11
         0.78200E+11
         0.78200E+11
         0.78200E+11
         0.78200E+11
         0.78200E+11
         0.78200E+11
         0.78200E+11
         0.78200E+11
         0.78200E+11
         0.78200E+11
         0.78200E+11
         0.78200E+11
         0.78200E+11
         0.78200E+11
         0.78200E+11
         0.78200E+11
         0.78200E+11
         0.78200E+11
         0.78200E+11
         0.78200E+11
         0.78200E+11
         0.78200E+11
         0.78200E+11
         0.78200E+11
         0.78200E+11
         0.78200E+11
         0.78200E+11
         0.78200E+11
         0.78200E+11
         0.78200E+11
         0.78200E+11
         0.78200E+11
         0.78200E+11
         0.78200E+11
         0.78200E+11
         0.78200E+11
         0.78200E+11
         0.78200E+11
         0.78200E+11
         0.78200E+11
         0.78200E+11
         0.78200E+11
         0.78200E+11
         0.78200E+11
         0.78200E+11
         0.78200E+11
         0.78200E+11
         0.78200E+11
         0.78200E+11
         0.78200E+11
         0.78200E+11
         0.78200E+11
         0.78200E+11
         0.78200E+11
         0.78200E+11
         0.78200E+11
         0.78200E+11
         0.78200E+11
         0.78200E+11
         0.78200E+11
         0.78200E+11
         0.78200E+11
         0.78200E+11
         0.78200E+11
         0.78200E+11
         0.78200E+11
         0.78200E+11
         0.78200E+11
         0.78200E+11
         0.78200E+11
         0.78200E+11
         0.78200E+11
         0.78200E+11
         0.78200E+11
         0.78200E+11
         0.78200E+11
         0.78200E+11
         0.78200E+11
         0.78200E+11
         0.78200E+11
         0.78200E+11
         0.78200E+11
         0.78200E+11
         0.78200E+11
         0.78200E+11
         0.78200E+11
         0.78200E+11
         0.78200E+11
         0.78200E+11
         0.78200E+11
         0.78200E+11
         0.78200E+11
         0.78200E+11
         0.78200E+11
         0.78200E+11
         0.78200E+11
         0.78200E+11
         0.78200E+11
         0.78200E+11
         0.78200E+11
         0.78200E+11
         0.78200E+11
         0.78200E+11
         0.78200E+11
         0.78200E+11
         0.78200E+11
         0.78200E+11
         0.78200E+11
         0.78200E+11
         0.78200E+11
         0.78200E+11
         0.78200E+11
         0.78200E+11
         0.78200E+11
         0.78200E+11
         0.78200E+11
         0.78200E+11
         0.78200E+11
         0.78200E+11
         0.78200E+11
         0.78200E+11
         0.78200E+11
         0.78200E+11
         0.78200E+11
         0.78200E+11
         0.78200E+11
         0.78200E+11
         0.78200E+11
         0.78200E+11
         0.78200E+11
         0.78200E+11
         0.78200E+11
         0.78200E+11
         0.78200E+11
         0.78200E+11
         0.78200E+11
         0.78200E+11
         0.78200E+11
         0.78200E+11
         0.78200E+11
         0.78200E+11
         0.78200E+11
         0.78200E+11
         0.78200E+11
         0.78200E+11
         0.78200E+11
         0.78200E+11
         0.78200E+11
         0.78200E+11
         0.78200E+11
         0.78200E+11
         0.78200E+11
         0.78200E+11
         0.78200E+11
         0.78200E+11
         0.78200E+11
         0.78200E+11
         0.78200E+11
         0.78200E+11
         0.78200E+11
         0.78200E+11
         0.78200E+11
         0.78200E+11
         0.78200E+11
         0.78200E+11
         0.78200E+11
         0.78200E+11
         0.78200E+11
         0.78200E+11
         0.78200E+11
         0.78200E+11
         0.78200E+11
         0.78200E+11
         0.78200E+11
         0.78200E+11
         0.78200E+11
         0.78200E+11
         0.78200E+11
         0.78200E+11
         0.78200E+11
         0.78200E+11
         0.78200E+11
         0.78200E+11
         0.78200E+11
         0.78200E+11
         0.78200E+11
         0.78200E+11
         0.78200E+11
         0.78200E+11
         0.78200E+11
         0.78200E+11
         0.78200E+11
         0.78200E+11
         0.78200E+11
         0.78200E+11
         0.78200E+11
         0.78200E+11
         0.78200E+11
         0.78200E+11
         0.78200E+11
         0.78200E+11
         0.78200E+11
         0.78200E+11
         0.78200E+11
         0.78200E+11
         0.78200E+11
         0.78200E+11
         0.78200E+11
         0.78200E+11
         0.78200E+11
         0.78200E+11
         0.78200E+11
         0.78200E+11
         0.78200E+11
         0.78200E+11
         0.78200E+11
         0.78200E+11
         0.78200E+11
         0.78200E+11
         0.78200E+11
         0.78200E+11
         0.78200E+11
         0.78200E+11
         0.78200E+11
         0.78200E+11
         0.78200E+11
         0.78200E+11
         0.78200E+11
         0.78200E+11
         0.78200E+11
         0.78200E+11
         0.78200E+11
         0.78200E+11
         0.78200E+11
         0.78200E+11
         0.78200E+11
         0.78200E+11
         0.78200E+11
         0.78200E+11
         0.78200E+11
         0.78200E+11
         0.78200E+11
         0.78200E+11
         0.78200E+11
         0.78200E+11
         0.78200E+11
         0.78200E+11
         0.78200E+11
         0.78200E+11
         0.78200E+11
         0.78200E+11
         0.78200E+11
         0.78200E+11
         0.78200E+11
         0.78200E+11
         0.78200E+11
         0.78200E+11
         0.78200E+11
         0.78200E+11
         0.78200E+11
         0.78200E+11
         0.78200E+11
         0.78200E+11
         0.78200E+11
         0.78200E+11
         0.78200E+11
         0.78200E+11
         0.78200E+11
         0.78200E+11
         0.78200E+11
         0.78200E+11
         0.78200E+11
         0.78200E+11
         0.78200E+11
         0.78200E+11
         0.78200E+11
         0.78200E+11
         0.78200E+11
         0.78200E+11
         0.78200E+11
         0.78200E+11
         0.78200E+11
         0.78200E+11
         0.78200E+11
         0.78200E+11
         0.78200E+11
         0.78200E+11
         0.78200E+11
         0.78200E+11
         0.78200E+11
         0.78200E+11
         0.78200E+11
         0.78200E+11
         0.78200E+11
         0.78200E+11
         0.78200E+11
         0.78200E+11
         0.78200E+11
         0.78200E+11
         0.78200E+11
         0.78200E+11
         0.78200E+11
         0.78200E+11
         0.78200E+11
         0.78200E+11
         0.78200E+11
         0.78200E+11
         0.78200E+11
         0.78200E+11
         0.78200E+11
         0.78200E+11
         0.78200E+11
         0.78200E+11
         0.78200E+11
         0.78200E+11
         0.78200E+11
         0.78200E+11
         0.78200E+11
         0.78200E+11
         0.78200E+11
         0.78200E+11
         0.78200E+11
         0.78200E+11
         0.78200E+11
         0.78200E+11
         0.78200E+11
         0.78200E+11
         0.78200E+11
         0.78200E+11
         0.78200E+11
         0.78200E+11
         0.78200E+11
         0.78200E+11
         0.78200E+11
         0.78200E+11
         0.78200E+11
         0.78200E+11
         0.78200E+11
         0.78200E+11
         0.78200E+11
         0.78200E+11
         0.78200E+11
         0.78200E+11
         0.78200E+11
         0.78200E+11
         0.78200E+11
         0.78200E+11
         0.78200E+11
         0.78200E+11
         0.78200E+11
         0.78200E+11
         0.78200E+11
         0.78200E+11
         0.78200E+11
         0.78200E+11
         0.78200E+11
         0.78200E+11
         0.78200E+11
         0.78200E+11
         0.78200E+11
         0.78200E+11
         0.78200E+11
         0.78200E+11
         0.78200E+11
         0.78200E+11
         0.78200E+11
         0.78200E+11
         0.78200E+11
         0.78200E+11
         0.78200E+11
         0.78200E+11
         0.78200E+11
         0.78200E+11
         0.78200E+11
         0.78200E+11
         0.78200E+11
         0.78200E+11
         0.78200E+11
         0.78200E+11
         0.78200E+11
         0.78200E+11
         0.78200E+11
         0.78200E+11
         0.78200E+11
         0.78200E+11
         0.78200E+11
         0.78200E+11
         0.78200E+11
         0.78200E+11
         0.78200E+11
         0.78200E+11
         0.78200E+11
         0.78200E+11
         0.78200E+11
         0.78200E+11
         0.78200E+11
         0.78200E+11
         0.78200E+11
         0.78200E+11
         0.78200E+11
         0.78200E+11
         0.78200E+11
         0.78200E+11
         0.78200E+11
         0.78200E+11
         0.78200E+11
         0.78200E+11
         0.78200E+11
         0.78200E+11
         0.78200E+11
         0.78200E+11
         0.78200E+11
         0.78200E+11
         0.78200E+11
         0.78200E+11
         0.78200E+11
         0.78200E+11
         0.78200E+11
         0.78200E+11
         0.78200E+11
         0.78200E+11
         0.78200E+11
         0.78200E+11
         0.78200E+11
         0.78200E+11
         0.78200E+11
         0.78200E+11
         0.78200E+11
         0.78200E+11
         0.78200E+11
         0.78200E+11
         0.78200E+11
         0.78200E+11
         0.78200E+11
         0.78200E+11
         0.78200E+11
         0.78200E+11
         0.78200E+11
         0.78200E+11
         0.78200E+11
         0.78200E+11
         0.78200E+11
         0.78200E+11
         0.78200E+11
         0.78200E+11
         0.78200E+11
         0.78200E+11
         0.78200E+11
         0.78200E+11
         0.78200E+11
         0.78200E+11
         0.78200E+11
         0.78200E+11
         0.78200E+11
         0.78200E+11
         0.78200E+11
         0.78200E+11
         0.78200E+11
         0.78200E+11
         0.78200E+11
         0.78200E+11
         0.78200E+11
         0.78200E+11
         0.78200E+11
         0.78200E+11
         0.78200E+11
         0.78200E+11
         0.78200E+11
         0.78200E+11
         0.78200E+11
         0.78200E+11
         0.78200E+11
         0.78200E+11
         0.78200E+11
         0.78200E+11
         0.78200E+11
         0.78200E+11
         0.78200E+11
         0.78200E+11
         0.78200E+11
         0.78200E+11
         0.78200E+11
         0.78200E+11
         0.78200E+11
         0.78200E+11
         0.78200E+11
         0.78200E+11
         0.78200E+11
         0.78200E+11
         0.78200E+11
         0.78200E+11
         0.78200E+11
         0.78200E+11
         0.78200E+11
         0.78200E+11
         0.78200E+11
         0.78200E+11
         0.78200E+11
         0.78200E+11
         0.78200E+11
         0.78200E+11
         0.78200E+11
         0.78200E+11
         0.78200E+11
         0.78200E+11
         0.78200E+11
         0.78200E+11
         0.78200E+11
         0.78200E+11
         0.78200E+11
         0.78200E+11
         0.78200E+11
         0.78200E+11
         0.78200E+11
         0.78200E+11
         0.78200E+11
         0.78200E+11
         0.78200E+11
         0.78200E+11
         0.78200E+11
         0.78200E+11
         0.78200E+11
         0.78200E+11
         0.78200E+11
         0.78200E+11
         0.78200E+11
         0.78200E+11
         0.78200E+11
         0.78200E+11
         0.78200E+11
         0.78200E+11
         0.78200E+11
         0.78200E+11
         0.78200E+11
         0.78200E+11
         0.78200E+11
         0.78200E+11
         0.78200E+11
         0.78200E+11
         0.78200E+11
         0.78200E+11
         0.78200E+11
         0.78200E+11
         0.78200E+11
         0.78200E+11
         0.78200E+11
         0.78200E+11
         0.78200E+11
         0.78200E+11
         0.78200E+11
         0.78200E+11
         0.78200E+11
         0.78200E+11
         0.78200E+11
         0.78200E+11
         0.78200E+11
         0.78200E+11
         0.78200E+11
         0.78200E+11
         0.78200E+11
         0.78200E+11
         0.78200E+11
         0.78200E+11
         0.78200E+11
         0.78200E+11
         0.78200E+11
         0.78200E+11
         0.78200E+11
         0.78200E+11
         0.78200E+11
         0.78200E+11
         0.78200E+11
         0.78200E+11
         0.78200E+11
         0.78200E+11
         0.78200E+11
         0.78200E+11
         0.78200E+11
         0.78200E+11
         0.78200E+11
         0.78200E+11
         0.78200E+11
         0.78200E+11
         0.78200E+11
         0.78200E+11
         0.78200E+11
         0.78200E+11
         0.78200E+11
         0.78200E+11
         0.78200E+11
         0.78200E+11
         0.78200E+11
         0.78200E+11
         0.78200E+11
         0.78200E+11
         0.78200E+11
         0.78200E+11
         0.78200E+11
         0.78200E+11
         0.78200E+11
         0.78200E+11
         0.78200E+11
         0.78200E+11
         0.78200E+11
         0.78200E+11
         0.78200E+11
         0.78200E+11
         0.78200E+11
         0.78200E+11
         0.78200E+11
         0.78200E+11
         0.78200E+11
         0.78200E+11
         0.78200E+11
         0.78200E+11
         0.78200E+11
         0.78200E+11
         0.78200E+11
         0.78200E+11
         0.78200E+11
         0.78200E+11
         0.78200E+11
         0.78200E+11
         0.78200E+11
         0.78200E+11
         0.78200E+11
         0.78200E+11
         0.78200E+11
         0.78200E+11
         0.78200E+11
         0.78200E+11
         0.78200E+11
         0.78200E+11
         0.78200E+11
         0.78200E+11
         0.78200E+11
         0.78200E+11
         0.78200E+11
         0.78200E+11
         0.78200E+11
         0.78200E+11
         0.78200E+11
         0.78200E+11
         0.78200E+11
         0.78200E+11
         0.78200E+11
         0.78200E+11
         0.78200E+11
         0.78200E+11
         0.78200E+11
         0.78200E+11
         0.78200E+11
         0.78200E+11
         0.78200E+11
         0.78200E+11
         0.78200E+11
         0.78200E+11
         0.78200E+11
         0.78200E+11
         0.78200E+11
         0.78200E+11
         0.78200E+11
         0.78200E+11
         0.78200E+11
         0.78200E+11
         0.78200E+11
         0.78200E+11
         0.78200E+11
         0.78200E+11
         0.78200E+11
         0.78200E+11
         0.78200E+11
         0.78200E+11
         0.78200E+11
         0.78200E+11
         0.78200E+11
         0.78200E+11
         0.78200E+11
         0.78200E+11
         0.78200E+11
         0.78200E+11
         0.78200E+11
         0.78200E+11
         0.78200E+11
         0.78200E+11
         0.78200E+11
         0.78200E+11
         0.78200E+11
         0.78200E+11
         0.78200E+11
         0.78200E+11
         0.78200E+11
         0.78200E+11
         0.78200E+11
         0.78200E+11
         0.78200E+11
         0.78200E+11
         0.78200E+11
         0.78200E+11
         0.78200E+11
         0.78200E+11
         0.78200E+11
         0.78200E+11
         0.78200E+11
         0.78200E+11
         0.78200E+11
         0.78200E+11
         0.78200E+11
         0.78200E+11
         0.78200E+11
         0.78200E+11
         0.78200E+11
         0.78200E+11
         0.78200E+11
         0.78200E+11
         0.78200E+11
         0.78200E+11
         0.78200E+11
         0.78200E+11
         0.78200E+11
         0.78200E+11
         0.78200E+11
         0.78200E+11
         0.78200E+11
         0.78200E+11
         0.78200E+11
         0.78200E+11
         0.78200E+11
         0.78200E+11
         0.78200E+11
         0.78200E+11
         0.78200E+11
         0.78200E+11
         0.78200E+11
         0.78200E+11
         0.78200E+11
         0.78200E+11
         0.78200E+11
         0.78200E+11
         0.78200E+11
         0.78200E+11
         0.78200E+11
         0.78200E+11
         0.78200E+11
         0.78200E+11
         0.78200E+11
         0.78200E+11
         0.78200E+11
         0.78200E+11
         0.78200E+11
         0.78200E+11
         0.78200E+11
         0.78200E+11
         0.78200E+11
         0.78200E+11
         0.78200E+11
         0.78200E+11
         0.78200E+11
         0.78200E+11
         0.78200E+11
         0.78200E+11
         0.78200E+11
         0.78200E+11
         0.78200E+11
         0.78200E+11
         0.78200E+11
         0.78200E+11
         0.78200E+11
         0.78200E+11
         0.78200E+11
         0.78200E+11
         0.78200E+11
         0.78200E+11
         0.78200E+11
         0.78200E+11
         0.78200E+11
         0.78200E+11
         0.78200E+11
         0.78200E+11
         0.78200E+11
         0.78200E+11
         0.78200E+11
         0.78200E+11
         0.78200E+11
         0.78200E+11
         0.78200E+11
         0.78200E+11
         0.78200E+11
         0.78200E+11
         0.78200E+11
         0.78200E+11
         0.78200E+11
         0.78200E+11
         0.78200E+11
         0.78200E+11
         0.78200E+11
         0.78200E+11
         0.78200E+11
         0.78200E+11
         0.78200E+11
         0.78200E+11
         0.78200E+11
         0.78200E+11
         0.78200E+11
         0.78200E+11
         0.78200E+11
         0.78200E+11
         0.78200E+11
         0.78200E+11
         0.78200E+11
         0.78200E+11
         0.78200E+11
         0.78200E+11
         0.78200E+11
         0.78200E+11
         0.78200E+11
         0.78200E+11
         0.78200E+11
         0.78200E+11
         0.78200E+11
         0.78200E+11
         0.78200E+11
         0.78200E+11
         0.78200E+11
         0.78200E+11
         0.78200E+11
         0.78200E+11
         0.78200E+11
         0.78200E+11
         0.78200E+11
         0.78200E+11
         0.78200E+11
         0.78200E+11
         0.78200E+11
         0.78200E+11
         0.78200E+11
         0.78200E+11
         0.78200E+11
         0.78200E+11
         0.78200E+11
         0.78200E+11
         0.78200E+11
         0.78200E+11
         0.78200E+11
         0.78200E+11
         0.78200E+11
         0.78200E+11
         0.78200E+11
         0.78200E+11
         0.78200E+11
         0.78200E+11
         0.78200E+11
         0.78200E+11
         0.78200E+11
         0.78200E+11
         0.78200E+11
         0.78200E+11
         0.78200E+11
         0.78200E+11
         0.78200E+11
         0.78200E+11
         0.78200E+11
         0.78200E+11
         0.78200E+11
         0.78200E+11
         0.78200E+11
         0.78200E+11
         0.78200E+11
         0.78200E+11
         0.78200E+11
         0.78200E+11
         0.78200E+11
         0.78200E+11
         0.78200E+11
         0.78200E+11
         0.78200E+11
         0.78200E+11
         0.78200E+11
         0.78200E+11
         0.78200E+11
         0.78200E+11
         0.78200E+11
         0.78200E+11
         0.78200E+11
         0.78200E+11
         0.78200E+11
         0.78200E+11
         0.78200E+11
         0.78200E+11
         0.78200E+11
         0.78200E+11
         0.78200E+11
         0.78200E+11
         0.78200E+11
         0.78200E+11
         0.78200E+11
         0.78200E+11
         0.78200E+11
         0.78200E+11
         0.78200E+11
         0.78200E+11
         0.78200E+11
         0.78200E+11
         0.78200E+11
         0.78200E+11
         0.78200E+11
         0.78200E+11
         0.78200E+11
         0.78200E+11
         0.78200E+11
         0.78200E+11
         0.78200E+11
         0.78200E+11
         0.78200E+11
         0.78200E+11
         0.78200E+11
         0.78200E+11
         0.78200E+11
         0.78200E+11
         0.78200E+11
         0.78200E+11
         0.78200E+11
         0.78200E+11
         0.78200E+11
         0.78200E+11
         0.78200E+11
         0.78200E+11
         0.78200E+11
         0.78200E+11
         0.78200E+11
         0.78200E+11
         0.78200E+11
         0.78200E+11
         0.78200E+11
         0.78200E+11
         0.78200E+11
         0.78200E+11
         0.78200E+11
         0.78200E+11
         0.78200E+11
         0.78200E+11
         0.78200E+11
         0.78200E+11
         0.78200E+11
         0.78200E+11
         0.78200E+11
         0.78200E+11
         0.78200E+11
         0.78200E+11
         0.78200E+11
         0.78200E+11
         0.78200E+11
         0.78200E+11
         0.78200E+11
         0.78200E+11
         0.78200E+11
         0.78200E+11
         0.78200E+11
         0.78200E+11
         0.78200E+11
         0.78200E+11
         0.78200E+11
         0.78200E+11
         0.78200E+11
         0.78200E+11
         0.78200E+11
         0.78200E+11
         0.78200E+11
         0.78200E+11
         0.78200E+11
         0.78200E+11
         0.78200E+11
         0.78200E+11
         0.78200E+11
         0.78200E+11
         0.78200E+11
         0.78200E+11
         0.78200E+11
         0.78200E+11
         0.78200E+11
         0.78200E+11
         0.78200E+11
         0.78200E+11
         0.78200E+11
         0.78200E+11
         0.78200E+11
         0.78200E+11
         0.78200E+11
         0.78200E+11
         0.78200E+11
         0.78200E+11
         0.78200E+11
         0.78200E+11
         0.78200E+11
         0.78200E+11
         0.78200E+11
         0.78200E+11
         0.78200E+11
         0.78200E+11
         0.78200E+11
         0.78200E+11
         0.78200E+11
         0.78200E+11
         0.78200E+11
         0.78200E+11
         0.78200E+11
         0.78200E+11
         0.78200E+11
         0.78200E+11
         0.78200E+11
         0.78200E+11
         0.78200E+11
         0.78200E+11
         0.78200E+11
         0.78200E+11
         0.78200E+11
         0.78200E+11
         0.78200E+11
         0.78200E+11
         0.78200E+11
         0.78200E+11
         0.78200E+11
         0.78200E+11
         0.78200E+11
         0.78200E+11
         0.78200E+11
         0.78200E+11
         0.78200E+11
         0.78200E+11
         0.78200E+11
         0.78200E+11
         0.78200E+11
         0.78200E+11
         0.78200E+11
         0.78200E+11
         0.78200E+11
         0.78200E+11
         0.78200E+11
         0.78200E+11
         0.78200E+11
         0.78200E+11
         0.78200E+11
         0.78200E+11
         0.78200E+11
         0.78200E+11
         0.78200E+11
         0.78200E+11
         0.78200E+11
         0.78200E+11
         0.78200E+11
         0.78200E+11
         0.78200E+11
         0.78200E+11
         0.78200E+11
         0.78200E+11
         0.78200E+11
         0.78200E+11
         0.78200E+11
         0.78200E+11
         0.78200E+11
         0.78200E+11
         0.78200E+11
         0.78200E+11
         0.78200E+11
         0.78200E+11
         0.78200E+11
         0.78200E+11
         0.78200E+11
         0.78200E+11
         0.78200E+11
         0.78200E+11
         0.78200E+11
         0.78200E+11
         0.78200E+11
         0.78200E+11
         0.78200E+11
         0.78200E+11
         0.78200E+11
         0.78200E+11
         0.78200E+11
         0.78200E+11
         0.78200E+11
         0.78200E+11
         0.78200E+11
         0.78200E+11
         0.78200E+11
         0.78200E+11
         0.78200E+11
         0.78200E+11
         0.78200E+11
         0.78200E+11
         0.78200E+11
         0.78200E+11
         0.78200E+11
         0.78200E+11
         0.78200E+11
         0.78200E+11
         0.78200E+11
         0.78200E+11
         0.78200E+11
         0.78200E+11
         0.78200E+11
         0.78200E+11
         0.78200E+11
         0.78200E+11
         0.78200E+11
         0.78200E+11
         0.78200E+11
         0.78200E+11
         0.78200E+11
         0.78200E+11
         0.78200E+11
         0.78200E+11
         0.78200E+11
         0.78200E+11
         0.78200E+11
         0.78200E+11
         0.78200E+11
         0.78200E+11
         0.78200E+11
         0.78200E+11
         0.78200E+11
         0.78200E+11
         0.78200E+11
         0.78200E+11
         0.78200E+11
         0.78200E+11
         0.78200E+11
         0.78200E+11
         0.78200E+11
         0.78200E+11
         0.78200E+11
         0.78200E+11
         0.78200E+11
         0.78200E+11
         0.78200E+11
         0.78200E+11
         0.78200E+11
         0.78200E+11
         0.78200E+11
         0.78200E+11
         0.78200E+11
         0.78200E+11
         0.78200E+11
         0.78200E+11
         0.78200E+11
         0.78200E+11
         0.78200E+11
         0.78200E+11
         0.78200E+11
         0.78200E+11
         0.78200E+11
         0.78200E+11
         0.78200E+11
         0.78200E+11
         0.78200E+11
         0.78200E+11
         0.78200E+11
         0.78200E+11
         0.78200E+11
         0.78200E+11
         0.78200E+11
         0.78200E+11
         0.78200E+11
         0.78200E+11
         0.78200E+11
         0.78200E+11
         0.78200E+11
         0.78200E+11
         0.78200E+11
         0.78200E+11
         0.78200E+11
         0.78200E+11
         0.78200E+11
         0.78200E+11
         0.78200E+11
         0.78200E+11
         0.78200E+11
         0.78200E+11
         0.78200E+11
         0.78200E+11
         0.78200E+11
         0.78200E+11
         0.78200E+11
         0.78200E+11
         0.78200E+11
         0.78200E+11
         0.78200E+11
         0.78200E+11
         0.78200E+11
         0.78200E+11
         0.78200E+11
         0.78200E+11
         0.78200E+11
         0.78200E+11
         0.78200E+11
         0.78200E+11
         0.78200E+11
         0.78200E+11
         0.78200E+11
         0.78200E+11
         0.78200E+11
         0.78200E+11
         0.78200E+11
         0.78200E+11
         0.78200E+11
         0.78200E+11
         0.78200E+11
         0.78200E+11
         0.78200E+11
         0.78200E+11
         0.78200E+11
         0.78200E+11
         0.78200E+11
         0.78200E+11
         0.78200E+11
         0.78200E+11
         0.78200E+11
         0.78200E+11
         0.78200E+11
         0.78200E+11
         0.78200E+11
         0.78200E+11
         0.78200E+11
         0.78200E+11
         0.78200E+11
         0.78200E+11
         0.78200E+11
         0.78200E+11
         0.78200E+11
         0.78200E+11
         0.78200E+11
         0.78200E+11
         0.78200E+11
         0.78200E+11
         0.78200E+11
         0.78200E+11
         0.78200E+11
         0.78200E+11
         0.78200E+11
         0.78200E+11
         0.78200E+11
         0.78200E+11
         0.78200E+11
         0.78200E+11
         0.78200E+11
         0.78200E+11
         0.78200E+11
         0.78200E+11
         0.78200E+11
         0.78200E+11
         0.78200E+11
         0.78200E+11
         0.78200E+11
         0.78200E+11
         0.78200E+11
         0.78200E+11
         0.78200E+11
         0.78200E+11
         0.78200E+11
         0.78200E+11
         0.78200E+11
         0.78200E+11
         0.78200E+11
         0.78200E+11
         0.78200E+11
         0.78200E+11
         0.78200E+11
         0.78200E+11
         0.78200E+11
         0.78200E+11
         0.78200E+11
         0.78200E+11
         0.78200E+11
         0.78200E+11
         0.78200E+11
         0.78200E+11
         0.78200E+11
         0.78200E+11
         0.78200E+11
         0.78200E+11
         0.78200E+11
         0.78200E+11
         0.78200E+11
         0.78200E+11
         0.78200E+11
         0.78200E+11
         0.78200E+11
         0.78200E+11
         0.78200E+11
         0.78200E+11
         0.78200E+11
         0.78200E+11
         0.78200E+11
         0.78200E+11
         0.78200E+11
         0.78200E+11
         0.78200E+11
         0.78200E+11
         0.78200E+11
         0.78200E+11
         0.78200E+11
         0.78200E+11
         0.78200E+11
         0.78200E+11
         0.78200E+11
         0.78200E+11
         0.78200E+11
         0.78200E+11
         0.78200E+11
         0.78200E+11
         0.78200E+11
         0.78200E+11
         0.78200E+11
         0.78200E+11
         0.78200E+11
         0.78200E+11
         0.78200E+11
         0.78200E+11
         0.78200E+11
         0.78200E+11
         0.78200E+11
         0.78200E+11
         0.78200E+11
         0.78200E+11
         0.78200E+11
         0.78200E+11
         0.78200E+11
         0.78200E+11
         0.78200E+11
         0.78200E+11
         0.78200E+11
         0.78200E+11
         0.78200E+11
         0.78200E+11
         0.78200E+11
         0.78200E+11
         0.78200E+11
         0.78200E+11
         0.78200E+11
         0.78200E+11
         0.78200E+11
         0.78200E+11
         0.78200E+11
         0.78200E+11
         0.78200E+11
         0.78200E+11
         0.78200E+11
         0.78200E+11
         0.78200E+11
         0.78200E+11
         0.78200E+11
         0.78200E+11
         0.78200E+11
         0.78200E+11
         0.78200E+11
         0.78200E+11
         0.78200E+11
         0.78200E+11
         0.78200E+11
         0.78200E+11
         0.78200E+11
         0.78200E+11
         0.78200E+11
         0.78200E+11
         0.78200E+11
         0.78200E+11
         0.78200E+11
         0.78200E+11
         0.78200E+11
         0.78200E+11
         0.78200E+11
         0.78200E+11
         0.78200E+11
         0.78200E+11
         0.78200E+11
         0.78200E+11
         0.78200E+11
         0.78200E+11
         0.78200E+11
         0.78200E+11
         0.78200E+11
         0.78200E+11
         0.78200E+11
         0.78200E+11
         0.78200E+11
         0.78200E+11
         0.78200E+11
         0.78200E+11
         0.78200E+11
         0.78200E+11
         0.78200E+11
         0.78200E+11
         0.78200E+11
         0.78200E+11
         0.78200E+11
         0.78200E+11
         0.78200E+11
         0.78200E+11
         0.78200E+11
         0.78200E+11
         0.78200E+11
         0.78200E+11
         0.78200E+11
         0.78200E+11
         0.78200E+11
         0.78200E+11
         0.78200E+11
         0.78200E+11
         0.78200E+11
         0.78200E+11
         0.78200E+11
         0.78200E+11
         0.78200E+11
         0.78200E+11
         0.78200E+11
         0.78200E+11
         0.78200E+11
         0.78200E+11
         0.78200E+11
         0.78200E+11
         0.78200E+11
         0.78200E+11
         0.78200E+11
         0.78200E+11
         0.78200E+11
         0.78200E+11
         0.78200E+11
         0.78200E+11
         0.78200E+11
         0.78200E+11
         0.78200E+11
         0.78200E+11
         0.78200E+11
         0.78200E+11
         0.78200E+11
         0.78200E+11
         0.78200E+11
         0.78200E+11
         0.78200E+11
         0.78200E+11
         0.78200E+11
         0.78200E+11
         0.78200E+11
         0.78200E+11
         0.78200E+11
         0.78200E+11
         0.78200E+11
         0.78200E+11
         0.78200E+11
         0.78200E+11
         0.78200E+11
         0.78200E+11
         0.78200E+11
         0.78200E+11
         0.78200E+11
         0.78200E+11
         0.78200E+11
         0.78200E+11
         0.78200E+11
         0.78200E+11
         0.78200E+11
         0.78200E+11
         0.78200E+11
         0.78200E+11
         0.78200E+11
         0.78200E+11
         0.78200E+11
         0.78200E+11
         0.78200E+11
         0.78200E+11
         0.78200E+11
         0.78200E+11
         0.78200E+11
         0.78200E+11
         0.78200E+11
         0.78200E+11
         0.78200E+11
         0.78200E+11
         0.78200E+11
         0.78200E+11
         0.78200E+11
         0.78200E+11
         0.78200E+11
         0.78200E+11
         0.78200E+11
         0.78200E+11
         0.78200E+11
         0.78200E+11
         0.78200E+11
         0.78200E+11
         0.78200E+11
         0.78200E+11
         0.78200E+11
         0.78200E+11
         0.78200E+11
         0.78200E+11
         0.78200E+11
         0.78200E+11
         0.78200E+11
         0.78200E+11
         0.78200E+11
         0.78200E+11
         0.78200E+11
         0.78200E+11
         0.78200E+11
         0.78200E+11
         0.78200E+11
         0.78200E+11
         0.78200E+11
         0.78200E+11
         0.78200E+11
         0.78200E+11
         0.78200E+11
         0.78200E+11
         0.78200E+11
         0.78200E+11
         0.78200E+11
         0.78200E+11
         0.78200E+11
         0.78200E+11
         0.78200E+11
         0.78200E+11
         0.78200E+11
         0.78200E+11
         0.78200E+11
         0.78200E+11
         0.78200E+11
         0.78200E+11
         0.78200E+11
         0.78200E+11
         0.78200E+11
         0.78200E+11
         0.78200E+11
         0.78200E+11
         0.78200E+11
         0.78200E+11
         0.78200E+11
         0.78200E+11
         0.78200E+11
         0.78200E+11
         0.78200E+11
         0.78200E+11
         0.78200E+11
         0.78200E+11
         0.78200E+11
         0.78200E+11
         0.78200E+11
         0.78200E+11
         0.78200E+11
         0.78200E+11
         0.78200E+11
         0.78200E+11
         0.78200E+11
         0.78200E+11
         0.78200E+11
         0.78200E+11
         0.78200E+11
         0.78200E+11
         0.78200E+11
         0.78200E+11
         0.78200E+11
         0.78200E+11
         0.78200E+11
         0.78200E+11
         0.78200E+11
         0.78200E+11
         0.78200E+11
         0.78200E+11
         0.78200E+11
         0.78200E+11
         0.78200E+11
         0.78200E+11
         0.78200E+11
         0.78200E+11
         0.78200E+11
         0.78200E+11
         0.78200E+11
         0.78200E+11
         0.78200E+11
         0.78200E+11
         0.78200E+11
         0.78200E+11
         0.78200E+11
         0.78200E+11
         0.78200E+11
         0.78200E+11
         0.78200E+11
         0.78200E+11
         0.78200E+11
         0.78200E+11
         0.78200E+11
         0.78200E+11
         0.78200E+11
         0.78200E+11
         0.78200E+11
         0.78200E+11
         0.78200E+11
         0.78200E+11
         0.78200E+11
         0.78200E+11
         0.78200E+11
         0.78200E+11
         0.78200E+11
         0.78200E+11
         0.78200E+11
         0.78200E+11
         0.78200E+11
         0.78200E+11
         0.78200E+11
         0.78200E+11
         0.78200E+11
         0.78200E+11
         0.78200E+11
         0.78200E+11
         0.78200E+11
         0.78200E+11
         0.78200E+11
         0.78200E+11
         0.78200E+11
         0.78200E+11
         0.78200E+11
         0.78200E+11
         0.78200E+11
         0.78200E+11
         0.78200E+11
         0.78200E+11
         0.78200E+11
         0.78200E+11
         0.78200E+11
         0.78200E+11
         0.78200E+11
         0.78200E+11
         0.78200E+11
         0.78200E+11
         0.78200E+11
         0.78200E+11
         0.78200E+11
         0.78200E+11
         0.78200E+11
         0.78200E+11
         0.78200E+11
         0.78200E+11
         0.78200E+11
         0.78200E+11
         0.78200E+11
         0.78200E+11
         0.78200E+11
         0.78200E+11
         0.78200E+11
         0.78200E+11
         0.78200E+11
         0.78200E+11
         0.78200E+11
         0.78200E+11
         0.78200E+11
         0.78200E+11
         0.78200E+11
         0.78200E+11
         0.78200E+11
         0.78200E+11
         0.78200E+11
         0.78200E+11
         0.78200E+11
         0.78200E+11
         0.78200E+11
         0.78200E+11
         0.78200E+11
         0.78200E+11
         0.78200E+11
         0.78200E+11
         0.78200E+11
         0.78200E+11
         0.78200E+11
         0.78200E+11
         0.78200E+11
         0.78200E+11
         0.78200E+11
         0.78200E+11
         0.78200E+11
         0.78200E+11
         0.78200E+11
         0.78200E+11
         0.78200E+11
         0.78200E+11
         0.78200E+11
         0.78200E+11
         0.78200E+11
         0.78200E+11
         0.78200E+11
         0.78200E+11
         0.78200E+11
         0.78200E+11
         0.78200E+11
         0.78200E+11
         0.78200E+11
         0.78200E+11
         0.78200E+11
         0.78200E+11
         0.78200E+11
         0.78200E+11
         0.78200E+11
         0.78200E+11
         0.78200E+11
         0.78200E+11
         0.78200E+11
         0.78200E+11
         0.78200E+11
         0.78200E+11
         0.78200E+11
         0.78200E+11
         0.78200E+11
         0.78200E+11
         0.78200E+11
         0.78200E+11
         0.78200E+11
         0.78200E+11
         0.78200E+11
         0.78200E+11
         0.78200E+11
         0.78200E+11
         0.78200E+11
         0.78200E+11
         0.78200E+11
         0.78200E+11
         0.78200E+11
         0.78200E+11
         0.78200E+11
         0.78200E+11
         0.78200E+11
         0.78200E+11
         0.78200E+11
         0.78200E+11
         0.78200E+11
         0.78200E+11
         0.78200E+11
         0.78200E+11
         0.78200E+11
         0.78200E+11
         0.78200E+11
         0.78200E+11
         0.78200E+11
         0.78200E+11
         0.78200E+11
         0.78200E+11
         0.78200E+11
         0.78200E+11
         0.78200E+11
         0.78200E+11
         0.78200E+11
         0.78200E+11
         0.78200E+11
         0.78200E+11
         0.78200E+11
         0.78200E+11
         0.78200E+11
         0.78200E+11
         0.78200E+11
         0.78200E+11
         0.78200E+11
         0.78200E+11
         0.78200E+11
         0.78200E+11
         0.78200E+11
         0.78200E+11
         0.78200E+11
         0.78200E+11
         0.78200E+11
         0.78200E+11
         0.78200E+11
         0.78200E+11
  
SCALARS                        density  double 1
LOOKUP_TABLE default
         0.27000E+04
         0.27000E+04
         0.27000E+04
         0.27000E+04
         0.27000E+04
         0.27000E+04
         0.27000E+04
         0.27000E+04
         0.27000E+04
         0.27000E+04
         0.27000E+04
         0.27000E+04
         0.27000E+04
         0.27000E+04
         0.27000E+04
         0.27000E+04
         0.27000E+04
         0.27000E+04
         0.27000E+04
         0.27000E+04
         0.27000E+04
         0.27000E+04
         0.27000E+04
         0.27000E+04
         0.27000E+04
         0.27000E+04
         0.27000E+04
         0.27000E+04
         0.27000E+04
         0.27000E+04
         0.27000E+04
         0.27000E+04
         0.27000E+04
         0.27000E+04
         0.27000E+04
         0.27000E+04
         0.27000E+04
         0.27000E+04
         0.27000E+04
         0.27000E+04
         0.27000E+04
         0.27000E+04
         0.27000E+04
         0.27000E+04
         0.27000E+04
         0.27000E+04
         0.27000E+04
         0.27000E+04
         0.27000E+04
         0.27000E+04
         0.27000E+04
         0.27000E+04
         0.27000E+04
         0.27000E+04
         0.27000E+04
         0.27000E+04
         0.27000E+04
         0.27000E+04
         0.27000E+04
         0.27000E+04
         0.27000E+04
         0.27000E+04
         0.27000E+04
         0.27000E+04
         0.27000E+04
         0.27000E+04
         0.27000E+04
         0.27000E+04
         0.27000E+04
         0.27000E+04
         0.27000E+04
         0.27000E+04
         0.27000E+04
         0.27000E+04
         0.27000E+04
         0.27000E+04
         0.27000E+04
         0.27000E+04
         0.27000E+04
         0.27000E+04
         0.27000E+04
         0.27000E+04
         0.27000E+04
         0.27000E+04
         0.27000E+04
         0.27000E+04
         0.27000E+04
         0.27000E+04
         0.27000E+04
         0.27000E+04
         0.27000E+04
         0.27000E+04
         0.27000E+04
         0.27000E+04
         0.27000E+04
         0.27000E+04
         0.27000E+04
         0.27000E+04
         0.27000E+04
         0.27000E+04
         0.27000E+04
         0.27000E+04
         0.27000E+04
         0.27000E+04
         0.27000E+04
         0.27000E+04
         0.27000E+04
         0.27000E+04
         0.27000E+04
         0.27000E+04
         0.27000E+04
         0.27000E+04
         0.27000E+04
         0.27000E+04
         0.27000E+04
         0.27000E+04
         0.27000E+04
         0.27000E+04
         0.27000E+04
         0.27000E+04
         0.27000E+04
         0.27000E+04
         0.27000E+04
         0.27000E+04
         0.27000E+04
         0.27000E+04
         0.27000E+04
         0.27000E+04
         0.27000E+04
         0.27000E+04
         0.27000E+04
         0.27000E+04
         0.27000E+04
         0.27000E+04
         0.27000E+04
         0.27000E+04
         0.27000E+04
         0.27000E+04
         0.27000E+04
         0.27000E+04
         0.27000E+04
         0.27000E+04
         0.27000E+04
         0.27000E+04
         0.27000E+04
         0.27000E+04
         0.27000E+04
         0.27000E+04
         0.27000E+04
         0.27000E+04
         0.27000E+04
         0.27000E+04
         0.27000E+04
         0.27000E+04
         0.27000E+04
         0.27000E+04
         0.27000E+04
         0.27000E+04
         0.27000E+04
         0.27000E+04
         0.27000E+04
         0.27000E+04
         0.27000E+04
         0.27000E+04
         0.27000E+04
         0.27000E+04
         0.27000E+04
         0.27000E+04
         0.27000E+04
         0.27000E+04
         0.27000E+04
         0.27000E+04
         0.27000E+04
         0.27000E+04
         0.27000E+04
         0.27000E+04
         0.27000E+04
         0.27000E+04
         0.27000E+04
         0.27000E+04
         0.27000E+04
         0.27000E+04
         0.27000E+04
         0.27000E+04
         0.27000E+04
         0.27000E+04
         0.27000E+04
         0.27000E+04
         0.27000E+04
         0.27000E+04
         0.27000E+04
         0.27000E+04
         0.27000E+04
         0.27000E+04
         0.27000E+04
         0.27000E+04
         0.27000E+04
         0.27000E+04
         0.27000E+04
         0.27000E+04
         0.27000E+04
         0.27000E+04
         0.27000E+04
         0.27000E+04
         0.27000E+04
         0.27000E+04
         0.27000E+04
         0.27000E+04
         0.27000E+04
         0.27000E+04
         0.27000E+04
         0.27000E+04
         0.27000E+04
         0.27000E+04
         0.27000E+04
         0.27000E+04
         0.27000E+04
         0.27000E+04
         0.27000E+04
         0.27000E+04
         0.27000E+04
         0.27000E+04
         0.27000E+04
         0.27000E+04
         0.27000E+04
         0.27000E+04
         0.27000E+04
         0.27000E+04
         0.27000E+04
         0.27000E+04
         0.27000E+04
         0.27000E+04
         0.27000E+04
         0.27000E+04
         0.27000E+04
         0.27000E+04
         0.27000E+04
         0.27000E+04
         0.27000E+04
         0.27000E+04
         0.27000E+04
         0.27000E+04
         0.27000E+04
         0.27000E+04
         0.27000E+04
         0.27000E+04
         0.27000E+04
         0.27000E+04
         0.27000E+04
         0.27000E+04
         0.27000E+04
         0.27000E+04
         0.27000E+04
         0.27000E+04
         0.27000E+04
         0.27000E+04
         0.27000E+04
         0.27000E+04
         0.27000E+04
         0.27000E+04
         0.27000E+04
         0.27000E+04
         0.27000E+04
         0.27000E+04
         0.27000E+04
         0.27000E+04
         0.27000E+04
         0.27000E+04
         0.27000E+04
         0.27000E+04
         0.27000E+04
         0.27000E+04
         0.27000E+04
         0.27000E+04
         0.27000E+04
         0.27000E+04
         0.27000E+04
         0.27000E+04
         0.27000E+04
         0.27000E+04
         0.27000E+04
         0.27000E+04
         0.27000E+04
         0.27000E+04
         0.27000E+04
         0.27000E+04
         0.27000E+04
         0.27000E+04
         0.27000E+04
         0.27000E+04
         0.27000E+04
         0.27000E+04
         0.27000E+04
         0.27000E+04
         0.27000E+04
         0.27000E+04
         0.27000E+04
         0.27000E+04
         0.27000E+04
         0.27000E+04
         0.27000E+04
         0.27000E+04
         0.27000E+04
         0.27000E+04
         0.27000E+04
         0.27000E+04
         0.27000E+04
         0.27000E+04
         0.27000E+04
         0.27000E+04
         0.27000E+04
         0.27000E+04
         0.27000E+04
         0.27000E+04
         0.27000E+04
         0.27000E+04
         0.27000E+04
         0.27000E+04
         0.27000E+04
         0.27000E+04
         0.27000E+04
         0.27000E+04
         0.27000E+04
         0.27000E+04
         0.27000E+04
         0.27000E+04
         0.27000E+04
         0.27000E+04
         0.27000E+04
         0.27000E+04
         0.27000E+04
         0.27000E+04
         0.27000E+04
         0.27000E+04
         0.27000E+04
         0.27000E+04
         0.27000E+04
         0.27000E+04
         0.27000E+04
         0.27000E+04
         0.27000E+04
         0.27000E+04
         0.27000E+04
         0.27000E+04
         0.27000E+04
         0.27000E+04
         0.27000E+04
         0.27000E+04
         0.27000E+04
         0.27000E+04
         0.27000E+04
         0.27000E+04
         0.27000E+04
         0.27000E+04
         0.27000E+04
         0.27000E+04
         0.27000E+04
         0.27000E+04
         0.27000E+04
         0.27000E+04
         0.27000E+04
         0.27000E+04
         0.27000E+04
         0.27000E+04
         0.27000E+04
         0.27000E+04
         0.27000E+04
         0.27000E+04
         0.27000E+04
         0.27000E+04
         0.27000E+04
         0.27000E+04
         0.27000E+04
         0.27000E+04
         0.27000E+04
         0.27000E+04
         0.27000E+04
         0.27000E+04
         0.27000E+04
         0.27000E+04
         0.27000E+04
         0.27000E+04
         0.27000E+04
         0.27000E+04
         0.27000E+04
         0.27000E+04
         0.27000E+04
         0.27000E+04
         0.27000E+04
         0.27000E+04
         0.27000E+04
         0.27000E+04
         0.27000E+04
         0.27000E+04
         0.27000E+04
         0.27000E+04
         0.27000E+04
         0.27000E+04
         0.27000E+04
         0.27000E+04
         0.27000E+04
         0.27000E+04
         0.27000E+04
         0.27000E+04
         0.27000E+04
         0.27000E+04
         0.27000E+04
         0.27000E+04
         0.27000E+04
         0.27000E+04
         0.27000E+04
         0.27000E+04
         0.27000E+04
         0.27000E+04
         0.27000E+04
         0.27000E+04
         0.27000E+04
         0.27000E+04
         0.27000E+04
         0.27000E+04
         0.27000E+04
         0.27000E+04
         0.27000E+04
         0.27000E+04
         0.27000E+04
         0.27000E+04
         0.27000E+04
         0.27000E+04
         0.27000E+04
         0.27000E+04
         0.27000E+04
         0.27000E+04
         0.27000E+04
         0.27000E+04
         0.27000E+04
         0.27000E+04
         0.27000E+04
         0.27000E+04
         0.27000E+04
         0.27000E+04
         0.27000E+04
         0.27000E+04
         0.27000E+04
         0.27000E+04
         0.27000E+04
         0.27000E+04
         0.27000E+04
         0.27000E+04
         0.27000E+04
         0.27000E+04
         0.27000E+04
         0.27000E+04
         0.27000E+04
         0.27000E+04
         0.27000E+04
         0.27000E+04
         0.27000E+04
         0.27000E+04
         0.27000E+04
         0.27000E+04
         0.27000E+04
         0.27000E+04
         0.27000E+04
         0.27000E+04
         0.27000E+04
         0.27000E+04
         0.27000E+04
         0.27000E+04
         0.27000E+04
         0.27000E+04
         0.27000E+04
         0.27000E+04
         0.27000E+04
         0.27000E+04
         0.27000E+04
         0.27000E+04
         0.27000E+04
         0.27000E+04
         0.27000E+04
         0.27000E+04
         0.27000E+04
         0.27000E+04
         0.27000E+04
         0.27000E+04
         0.27000E+04
         0.27000E+04
         0.27000E+04
         0.27000E+04
         0.27000E+04
         0.27000E+04
         0.27000E+04
         0.27000E+04
         0.27000E+04
         0.27000E+04
         0.27000E+04
         0.27000E+04
         0.27000E+04
         0.27000E+04
         0.27000E+04
         0.27000E+04
         0.27000E+04
         0.27000E+04
         0.27000E+04
         0.27000E+04
         0.27000E+04
         0.27000E+04
         0.27000E+04
         0.27000E+04
         0.27000E+04
         0.27000E+04
         0.27000E+04
         0.27000E+04
         0.27000E+04
         0.27000E+04
         0.27000E+04
         0.27000E+04
         0.27000E+04
         0.27000E+04
         0.27000E+04
         0.27000E+04
         0.27000E+04
         0.27000E+04
         0.27000E+04
         0.27000E+04
         0.27000E+04
         0.27000E+04
         0.27000E+04
         0.27000E+04
         0.27000E+04
         0.27000E+04
         0.27000E+04
         0.27000E+04
         0.27000E+04
         0.27000E+04
         0.27000E+04
         0.27000E+04
         0.27000E+04
         0.27000E+04
         0.27000E+04
         0.27000E+04
         0.27000E+04
         0.27000E+04
         0.27000E+04
         0.27000E+04
         0.27000E+04
         0.27000E+04
         0.27000E+04
         0.27000E+04
         0.27000E+04
         0.27000E+04
         0.27000E+04
         0.27000E+04
         0.27000E+04
         0.27000E+04
         0.27000E+04
         0.27000E+04
         0.27000E+04
         0.27000E+04
         0.27000E+04
         0.27000E+04
         0.27000E+04
         0.27000E+04
         0.27000E+04
         0.27000E+04
         0.27000E+04
         0.27000E+04
         0.27000E+04
         0.27000E+04
         0.27000E+04
         0.27000E+04
         0.27000E+04
         0.27000E+04
         0.27000E+04
         0.27000E+04
         0.27000E+04
         0.27000E+04
         0.27000E+04
         0.27000E+04
         0.27000E+04
         0.27000E+04
         0.27000E+04
         0.27000E+04
         0.27000E+04
         0.27000E+04
         0.27000E+04
         0.27000E+04
         0.27000E+04
         0.27000E+04
         0.27000E+04
         0.27000E+04
         0.27000E+04
         0.27000E+04
         0.27000E+04
         0.27000E+04
         0.27000E+04
         0.27000E+04
         0.27000E+04
         0.27000E+04
         0.27000E+04
         0.27000E+04
         0.27000E+04
         0.27000E+04
         0.27000E+04
         0.27000E+04
         0.27000E+04
         0.27000E+04
         0.27000E+04
         0.27000E+04
         0.27000E+04
         0.27000E+04
         0.27000E+04
         0.27000E+04
         0.27000E+04
         0.27000E+04
         0.27000E+04
         0.27000E+04
         0.27000E+04
         0.27000E+04
         0.27000E+04
         0.27000E+04
         0.27000E+04
         0.27000E+04
         0.27000E+04
         0.27000E+04
         0.27000E+04
         0.27000E+04
         0.27000E+04
         0.27000E+04
         0.27000E+04
         0.27000E+04
         0.27000E+04
         0.27000E+04
         0.27000E+04
         0.27000E+04
         0.27000E+04
         0.27000E+04
         0.27000E+04
         0.27000E+04
         0.27000E+04
         0.27000E+04
         0.27000E+04
         0.27000E+04
         0.27000E+04
         0.27000E+04
         0.27000E+04
         0.27000E+04
         0.27000E+04
         0.27000E+04
         0.27000E+04
         0.27000E+04
         0.27000E+04
         0.27000E+04
         0.27000E+04
         0.27000E+04
         0.27000E+04
         0.27000E+04
         0.27000E+04
         0.27000E+04
         0.27000E+04
         0.27000E+04
         0.27000E+04
         0.27000E+04
         0.27000E+04
         0.27000E+04
         0.27000E+04
         0.27000E+04
         0.27000E+04
         0.27000E+04
         0.27000E+04
         0.27000E+04
         0.27000E+04
         0.27000E+04
         0.27000E+04
         0.27000E+04
         0.27000E+04
         0.27000E+04
         0.27000E+04
         0.27000E+04
         0.27000E+04
         0.27000E+04
         0.27000E+04
         0.27000E+04
         0.27000E+04
         0.27000E+04
         0.27000E+04
         0.27000E+04
         0.27000E+04
         0.27000E+04
         0.27000E+04
         0.27000E+04
         0.27000E+04
         0.27000E+04
         0.27000E+04
         0.27000E+04
         0.27000E+04
         0.27000E+04
         0.27000E+04
         0.27000E+04
         0.27000E+04
         0.27000E+04
         0.27000E+04
         0.27000E+04
         0.27000E+04
         0.27000E+04
         0.27000E+04
         0.27000E+04
         0.27000E+04
         0.27000E+04
         0.27000E+04
         0.27000E+04
         0.27000E+04
         0.27000E+04
         0.27000E+04
         0.27000E+04
         0.27000E+04
         0.27000E+04
         0.27000E+04
         0.27000E+04
         0.27000E+04
         0.27000E+04
         0.27000E+04
         0.27000E+04
         0.27000E+04
         0.27000E+04
         0.27000E+04
         0.27000E+04
         0.27000E+04
         0.27000E+04
         0.27000E+04
         0.27000E+04
         0.27000E+04
         0.27000E+04
         0.27000E+04
         0.27000E+04
         0.27000E+04
         0.27000E+04
         0.27000E+04
         0.27000E+04
         0.27000E+04
         0.27000E+04
         0.27000E+04
         0.27000E+04
         0.27000E+04
         0.27000E+04
         0.27000E+04
         0.27000E+04
         0.27000E+04
         0.27000E+04
         0.27000E+04
         0.27000E+04
         0.27000E+04
         0.27000E+04
         0.27000E+04
         0.27000E+04
         0.27000E+04
         0.27000E+04
         0.27000E+04
         0.27000E+04
         0.27000E+04
         0.27000E+04
         0.27000E+04
         0.27000E+04
         0.27000E+04
         0.27000E+04
         0.27000E+04
         0.27000E+04
         0.27000E+04
         0.27000E+04
         0.27000E+04
         0.27000E+04
         0.27000E+04
         0.27000E+04
         0.27000E+04
         0.27000E+04
         0.27000E+04
         0.27000E+04
         0.27000E+04
         0.27000E+04
         0.27000E+04
         0.27000E+04
         0.27000E+04
         0.27000E+04
         0.27000E+04
         0.27000E+04
         0.27000E+04
         0.27000E+04
         0.27000E+04
         0.27000E+04
         0.27000E+04
         0.27000E+04
         0.27000E+04
         0.27000E+04
         0.27000E+04
         0.27000E+04
         0.27000E+04
         0.27000E+04
         0.27000E+04
         0.27000E+04
         0.27000E+04
         0.27000E+04
         0.27000E+04
         0.27000E+04
         0.27000E+04
         0.27000E+04
         0.27000E+04
         0.27000E+04
         0.27000E+04
         0.27000E+04
         0.27000E+04
         0.27000E+04
         0.27000E+04
         0.27000E+04
         0.27000E+04
         0.27000E+04
         0.27000E+04
         0.27000E+04
         0.27000E+04
         0.27000E+04
         0.27000E+04
         0.27000E+04
         0.27000E+04
         0.27000E+04
         0.27000E+04
         0.27000E+04
         0.27000E+04
         0.27000E+04
         0.27000E+04
         0.27000E+04
         0.27000E+04
         0.27000E+04
         0.27000E+04
         0.27000E+04
         0.27000E+04
         0.27000E+04
         0.27000E+04
         0.27000E+04
         0.27000E+04
         0.27000E+04
         0.27000E+04
         0.27000E+04
         0.27000E+04
         0.27000E+04
         0.27000E+04
         0.27000E+04
         0.27000E+04
         0.27000E+04
         0.27000E+04
         0.27000E+04
         0.27000E+04
         0.27000E+04
         0.27000E+04
         0.27000E+04
         0.27000E+04
         0.27000E+04
         0.27000E+04
         0.27000E+04
         0.27000E+04
         0.27000E+04
         0.27000E+04
         0.27000E+04
         0.27000E+04
         0.27000E+04
         0.27000E+04
         0.27000E+04
         0.27000E+04
         0.27000E+04
         0.27000E+04
         0.27000E+04
         0.27000E+04
         0.27000E+04
         0.27000E+04
         0.27000E+04
         0.27000E+04
         0.27000E+04
         0.27000E+04
         0.27000E+04
         0.27000E+04
         0.27000E+04
         0.27000E+04
         0.27000E+04
         0.27000E+04
         0.27000E+04
         0.27000E+04
         0.27000E+04
         0.27000E+04
         0.27000E+04
         0.27000E+04
         0.27000E+04
         0.27000E+04
         0.27000E+04
         0.27000E+04
         0.27000E+04
         0.27000E+04
         0.27000E+04
         0.27000E+04
         0.27000E+04
         0.27000E+04
         0.27000E+04
         0.27000E+04
         0.27000E+04
         0.27000E+04
         0.27000E+04
         0.27000E+04
         0.27000E+04
         0.27000E+04
         0.27000E+04
         0.27000E+04
         0.27000E+04
         0.27000E+04
         0.27000E+04
         0.27000E+04
         0.27000E+04
         0.27000E+04
         0.27000E+04
         0.27000E+04
         0.27000E+04
         0.27000E+04
         0.27000E+04
         0.27000E+04
         0.27000E+04
         0.27000E+04
         0.27000E+04
         0.27000E+04
         0.27000E+04
         0.27000E+04
         0.27000E+04
         0.27000E+04
         0.27000E+04
         0.27000E+04
         0.27000E+04
         0.27000E+04
         0.27000E+04
         0.27000E+04
         0.27000E+04
         0.27000E+04
         0.27000E+04
         0.27000E+04
         0.27000E+04
         0.27000E+04
         0.27000E+04
         0.27000E+04
         0.27000E+04
         0.27000E+04
         0.27000E+04
         0.27000E+04
         0.27000E+04
         0.27000E+04
         0.27000E+04
         0.27000E+04
         0.27000E+04
         0.27000E+04
         0.27000E+04
         0.27000E+04
         0.27000E+04
         0.27000E+04
         0.27000E+04
         0.27000E+04
         0.27000E+04
         0.27000E+04
         0.27000E+04
         0.27000E+04
         0.27000E+04
         0.27000E+04
         0.27000E+04
         0.27000E+04
         0.27000E+04
         0.27000E+04
         0.27000E+04
         0.27000E+04
         0.27000E+04
         0.27000E+04
         0.27000E+04
         0.27000E+04
         0.27000E+04
         0.27000E+04
         0.27000E+04
         0.27000E+04
         0.27000E+04
         0.27000E+04
         0.27000E+04
         0.27000E+04
         0.27000E+04
         0.27000E+04
         0.27000E+04
         0.27000E+04
         0.27000E+04
         0.27000E+04
         0.27000E+04
         0.27000E+04
         0.27000E+04
         0.27000E+04
         0.27000E+04
         0.27000E+04
         0.27000E+04
         0.27000E+04
         0.27000E+04
         0.27000E+04
         0.27000E+04
         0.27000E+04
         0.27000E+04
         0.27000E+04
         0.27000E+04
         0.27000E+04
         0.27000E+04
         0.27000E+04
         0.27000E+04
         0.27000E+04
         0.27000E+04
         0.27000E+04
         0.27000E+04
         0.27000E+04
         0.27000E+04
         0.27000E+04
         0.27000E+04
         0.27000E+04
         0.27000E+04
         0.27000E+04
         0.27000E+04
         0.27000E+04
         0.27000E+04
         0.27000E+04
         0.27000E+04
         0.27000E+04
         0.27000E+04
         0.27000E+04
         0.27000E+04
         0.27000E+04
         0.27000E+04
         0.27000E+04
         0.27000E+04
         0.27000E+04
         0.27000E+04
         0.27000E+04
         0.27000E+04
         0.27000E+04
         0.27000E+04
         0.27000E+04
         0.27000E+04
         0.27000E+04
         0.27000E+04
         0.27000E+04
         0.27000E+04
         0.27000E+04
         0.27000E+04
         0.27000E+04
         0.27000E+04
         0.27000E+04
         0.27000E+04
         0.27000E+04
         0.27000E+04
         0.27000E+04
         0.27000E+04
         0.27000E+04
         0.27000E+04
         0.27000E+04
         0.27000E+04
         0.27000E+04
         0.27000E+04
         0.27000E+04
         0.27000E+04
         0.27000E+04
         0.27000E+04
         0.27000E+04
         0.27000E+04
         0.27000E+04
         0.27000E+04
         0.27000E+04
         0.27000E+04
         0.27000E+04
         0.27000E+04
         0.27000E+04
         0.27000E+04
         0.27000E+04
         0.27000E+04
         0.27000E+04
         0.27000E+04
         0.27000E+04
         0.27000E+04
         0.27000E+04
         0.27000E+04
         0.27000E+04
         0.27000E+04
         0.27000E+04
         0.27000E+04
         0.27000E+04
         0.27000E+04
         0.27000E+04
         0.27000E+04
         0.27000E+04
         0.27000E+04
         0.27000E+04
         0.27000E+04
         0.27000E+04
         0.27000E+04
         0.27000E+04
         0.27000E+04
         0.27000E+04
         0.27000E+04
         0.27000E+04
         0.27000E+04
         0.27000E+04
         0.27000E+04
         0.27000E+04
         0.27000E+04
         0.27000E+04
         0.27000E+04
         0.27000E+04
         0.27000E+04
         0.27000E+04
         0.27000E+04
         0.27000E+04
         0.27000E+04
         0.27000E+04
         0.27000E+04
         0.27000E+04
         0.27000E+04
         0.27000E+04
         0.27000E+04
         0.27000E+04
         0.27000E+04
         0.27000E+04
         0.27000E+04
         0.27000E+04
         0.27000E+04
         0.27000E+04
         0.27000E+04
         0.27000E+04
         0.27000E+04
         0.27000E+04
         0.27000E+04
         0.27000E+04
         0.27000E+04
         0.27000E+04
         0.27000E+04
         0.27000E+04
         0.27000E+04
         0.27000E+04
         0.27000E+04
         0.27000E+04
         0.27000E+04
         0.27000E+04
         0.27000E+04
         0.27000E+04
         0.27000E+04
         0.27000E+04
         0.27000E+04
         0.27000E+04
         0.27000E+04
         0.27000E+04
         0.27000E+04
         0.27000E+04
         0.27000E+04
         0.27000E+04
         0.27000E+04
         0.27000E+04
         0.27000E+04
         0.27000E+04
         0.27000E+04
         0.27000E+04
         0.27000E+04
         0.27000E+04
         0.27000E+04
         0.27000E+04
         0.27000E+04
         0.27000E+04
         0.27000E+04
         0.27000E+04
         0.27000E+04
         0.27000E+04
         0.27000E+04
         0.27000E+04
         0.27000E+04
         0.27000E+04
         0.27000E+04
         0.27000E+04
         0.27000E+04
         0.27000E+04
         0.27000E+04
         0.27000E+04
         0.27000E+04
         0.27000E+04
         0.27000E+04
         0.27000E+04
         0.27000E+04
         0.27000E+04
         0.27000E+04
         0.27000E+04
         0.27000E+04
         0.27000E+04
         0.27000E+04
         0.27000E+04
         0.27000E+04
         0.27000E+04
         0.27000E+04
         0.27000E+04
         0.27000E+04
         0.27000E+04
         0.27000E+04
         0.27000E+04
         0.27000E+04
         0.27000E+04
         0.27000E+04
         0.27000E+04
         0.27000E+04
         0.27000E+04
         0.27000E+04
         0.27000E+04
         0.27000E+04
         0.27000E+04
         0.27000E+04
         0.27000E+04
         0.27000E+04
         0.27000E+04
         0.27000E+04
         0.27000E+04
         0.27000E+04
         0.27000E+04
         0.27000E+04
         0.27000E+04
         0.27000E+04
         0.27000E+04
         0.27000E+04
         0.27000E+04
         0.27000E+04
         0.27000E+04
         0.27000E+04
         0.27000E+04
         0.27000E+04
         0.27000E+04
         0.27000E+04
         0.27000E+04
         0.27000E+04
         0.27000E+04
         0.27000E+04
         0.27000E+04
         0.27000E+04
         0.27000E+04
         0.27000E+04
         0.27000E+04
         0.27000E+04
         0.27000E+04
         0.27000E+04
         0.27000E+04
         0.27000E+04
         0.27000E+04
         0.27000E+04
         0.27000E+04
         0.27000E+04
         0.27000E+04
         0.27000E+04
         0.27000E+04
         0.27000E+04
         0.27000E+04
         0.27000E+04
         0.27000E+04
         0.27000E+04
         0.27000E+04
         0.27000E+04
         0.27000E+04
         0.27000E+04
         0.27000E+04
         0.27000E+04
         0.27000E+04
         0.27000E+04
         0.27000E+04
         0.27000E+04
         0.27000E+04
         0.27000E+04
         0.27000E+04
         0.27000E+04
         0.27000E+04
         0.27000E+04
         0.27000E+04
         0.27000E+04
         0.27000E+04
         0.27000E+04
         0.27000E+04
         0.27000E+04
         0.27000E+04
         0.27000E+04
         0.27000E+04
         0.27000E+04
         0.27000E+04
         0.27000E+04
         0.27000E+04
         0.27000E+04
         0.27000E+04
         0.27000E+04
         0.27000E+04
         0.27000E+04
         0.27000E+04
         0.27000E+04
         0.27000E+04
         0.27000E+04
         0.27000E+04
         0.27000E+04
         0.27000E+04
         0.27000E+04
         0.27000E+04
         0.27000E+04
         0.27000E+04
         0.27000E+04
         0.27000E+04
         0.27000E+04
         0.27000E+04
         0.27000E+04
         0.27000E+04
         0.27000E+04
         0.27000E+04
         0.27000E+04
         0.27000E+04
         0.27000E+04
         0.27000E+04
         0.27000E+04
         0.27000E+04
         0.27000E+04
         0.27000E+04
         0.27000E+04
         0.27000E+04
         0.27000E+04
         0.27000E+04
         0.27000E+04
         0.27000E+04
         0.27000E+04
         0.27000E+04
         0.27000E+04
         0.27000E+04
         0.27000E+04
         0.27000E+04
         0.27000E+04
         0.27000E+04
         0.27000E+04
         0.27000E+04
         0.27000E+04
         0.27000E+04
         0.27000E+04
         0.27000E+04
         0.27000E+04
         0.27000E+04
         0.27000E+04
         0.27000E+04
         0.27000E+04
         0.27000E+04
         0.27000E+04
         0.27000E+04
         0.27000E+04
         0.27000E+04
         0.27000E+04
         0.27000E+04
         0.27000E+04
         0.27000E+04
         0.27000E+04
         0.27000E+04
         0.27000E+04
         0.27000E+04
         0.27000E+04
         0.27000E+04
         0.27000E+04
         0.27000E+04
         0.27000E+04
         0.27000E+04
         0.27000E+04
         0.27000E+04
         0.27000E+04
         0.27000E+04
         0.27000E+04
         0.27000E+04
         0.27000E+04
         0.27000E+04
         0.27000E+04
         0.27000E+04
         0.27000E+04
         0.27000E+04
         0.27000E+04
         0.27000E+04
         0.27000E+04
         0.27000E+04
         0.27000E+04
         0.27000E+04
         0.27000E+04
         0.27000E+04
         0.27000E+04
         0.27000E+04
         0.27000E+04
         0.27000E+04
         0.27000E+04
         0.27000E+04
         0.27000E+04
         0.27000E+04
         0.27000E+04
         0.27000E+04
         0.27000E+04
         0.27000E+04
         0.27000E+04
         0.27000E+04
         0.27000E+04
         0.27000E+04
         0.27000E+04
         0.27000E+04
         0.27000E+04
         0.27000E+04
         0.27000E+04
         0.27000E+04
         0.27000E+04
         0.27000E+04
         0.27000E+04
         0.27000E+04
         0.27000E+04
         0.27000E+04
         0.27000E+04
         0.27000E+04
         0.27000E+04
         0.27000E+04
         0.27000E+04
         0.27000E+04
         0.27000E+04
         0.27000E+04
         0.27000E+04
         0.27000E+04
         0.27000E+04
         0.27000E+04
         0.27000E+04
         0.27000E+04
         0.27000E+04
         0.27000E+04
         0.27000E+04
         0.27000E+04
         0.27000E+04
         0.27000E+04
         0.27000E+04
         0.27000E+04
         0.27000E+04
         0.27000E+04
         0.27000E+04
         0.27000E+04
         0.27000E+04
         0.27000E+04
         0.27000E+04
         0.27000E+04
         0.27000E+04
         0.27000E+04
         0.27000E+04
         0.27000E+04
         0.27000E+04
         0.27000E+04
         0.27000E+04
         0.27000E+04
         0.27000E+04
         0.27000E+04
         0.27000E+04
         0.27000E+04
         0.27000E+04
         0.27000E+04
         0.27000E+04
         0.27000E+04
         0.27000E+04
         0.27000E+04
         0.27000E+04
         0.27000E+04
         0.27000E+04
         0.27000E+04
         0.27000E+04
         0.27000E+04
         0.27000E+04
         0.27000E+04
         0.27000E+04
         0.27000E+04
         0.27000E+04
         0.27000E+04
         0.27000E+04
         0.27000E+04
         0.27000E+04
         0.27000E+04
         0.27000E+04
         0.27000E+04
         0.27000E+04
         0.27000E+04
         0.27000E+04
         0.27000E+04
         0.27000E+04
         0.27000E+04
         0.27000E+04
         0.27000E+04
         0.27000E+04
         0.27000E+04
         0.27000E+04
         0.27000E+04
         0.27000E+04
         0.27000E+04
         0.27000E+04
         0.27000E+04
         0.27000E+04
         0.27000E+04
         0.27000E+04
         0.27000E+04
         0.27000E+04
         0.27000E+04
         0.27000E+04
         0.27000E+04
         0.27000E+04
         0.27000E+04
         0.27000E+04
         0.27000E+04
         0.27000E+04
         0.27000E+04
         0.27000E+04
         0.27000E+04
         0.27000E+04
         0.27000E+04
         0.27000E+04
         0.27000E+04
         0.27000E+04
         0.27000E+04
         0.27000E+04
         0.27000E+04
         0.27000E+04
         0.27000E+04
         0.27000E+04
         0.27000E+04
         0.27000E+04
         0.27000E+04
         0.27000E+04
         0.27000E+04
         0.27000E+04
         0.27000E+04
         0.27000E+04
         0.27000E+04
         0.27000E+04
         0.27000E+04
         0.27000E+04
         0.27000E+04
         0.27000E+04
         0.27000E+04
         0.27000E+04
         0.27000E+04
         0.27000E+04
         0.27000E+04
         0.27000E+04
         0.27000E+04
         0.27000E+04
         0.27000E+04
         0.27000E+04
         0.27000E+04
         0.27000E+04
         0.27000E+04
         0.27000E+04
         0.27000E+04
         0.27000E+04
         0.27000E+04
         0.27000E+04
         0.27000E+04
         0.27000E+04
         0.27000E+04
         0.27000E+04
         0.27000E+04
         0.27000E+04
         0.27000E+04
         0.27000E+04
         0.27000E+04
         0.27000E+04
         0.27000E+04
         0.27000E+04
         0.27000E+04
         0.27000E+04
         0.27000E+04
         0.27000E+04
         0.27000E+04
         0.27000E+04
         0.27000E+04
         0.27000E+04
         0.27000E+04
         0.27000E+04
         0.27000E+04
         0.27000E+04
         0.27000E+04
         0.27000E+04
         0.27000E+04
         0.27000E+04
         0.27000E+04
         0.27000E+04
         0.27000E+04
         0.27000E+04
         0.27000E+04
         0.27000E+04
         0.27000E+04
         0.27000E+04
         0.27000E+04
         0.27000E+04
         0.27000E+04
         0.27000E+04
         0.27000E+04
         0.27000E+04
         0.27000E+04
         0.27000E+04
         0.27000E+04
         0.27000E+04
         0.27000E+04
         0.27000E+04
         0.27000E+04
         0.27000E+04
         0.27000E+04
         0.27000E+04
         0.27000E+04
         0.27000E+04
         0.27000E+04
         0.27000E+04
         0.27000E+04
         0.27000E+04
         0.27000E+04
         0.27000E+04
         0.27000E+04
         0.27000E+04
         0.27000E+04
         0.27000E+04
         0.27000E+04
         0.27000E+04
         0.27000E+04
         0.27000E+04
         0.27000E+04
         0.27000E+04
         0.27000E+04
         0.27000E+04
         0.27000E+04
         0.27000E+04
         0.27000E+04
         0.27000E+04
         0.27000E+04
         0.27000E+04
         0.27000E+04
         0.27000E+04
         0.27000E+04
         0.27000E+04
         0.27000E+04
         0.27000E+04
         0.27000E+04
         0.27000E+04
         0.27000E+04
         0.27000E+04
         0.27000E+04
         0.27000E+04
         0.27000E+04
         0.27000E+04
         0.27000E+04
         0.27000E+04
         0.27000E+04
         0.27000E+04
         0.27000E+04
         0.27000E+04
         0.27000E+04
         0.27000E+04
         0.27000E+04
         0.27000E+04
         0.27000E+04
         0.27000E+04
         0.27000E+04
         0.27000E+04
         0.27000E+04
         0.27000E+04
         0.27000E+04
         0.27000E+04
         0.27000E+04
         0.27000E+04
         0.27000E+04
         0.27000E+04
         0.27000E+04
         0.27000E+04
         0.27000E+04
         0.27000E+04
         0.27000E+04
         0.27000E+04
         0.27000E+04
         0.27000E+04
         0.27000E+04
         0.27000E+04
         0.27000E+04
         0.27000E+04
         0.27000E+04
         0.27000E+04
         0.27000E+04
         0.27000E+04
         0.27000E+04
         0.27000E+04
         0.27000E+04
         0.27000E+04
         0.27000E+04
         0.27000E+04
         0.27000E+04
         0.27000E+04
         0.27000E+04
         0.27000E+04
         0.27000E+04
         0.27000E+04
         0.27000E+04
         0.27000E+04
         0.27000E+04
         0.27000E+04
         0.27000E+04
         0.27000E+04
         0.27000E+04
         0.27000E+04
         0.27000E+04
         0.27000E+04
         0.27000E+04
         0.27000E+04
         0.27000E+04
         0.27000E+04
         0.27000E+04
         0.27000E+04
         0.27000E+04
         0.27000E+04
         0.27000E+04
         0.27000E+04
         0.27000E+04
         0.27000E+04
         0.27000E+04
         0.27000E+04
         0.27000E+04
         0.27000E+04
         0.27000E+04
         0.27000E+04
         0.27000E+04
         0.27000E+04
         0.27000E+04
         0.27000E+04
         0.27000E+04
         0.27000E+04
         0.27000E+04
         0.27000E+04
         0.27000E+04
         0.27000E+04
         0.27000E+04
         0.27000E+04
         0.27000E+04
         0.27000E+04
         0.27000E+04
         0.27000E+04
         0.27000E+04
         0.27000E+04
         0.27000E+04
         0.27000E+04
         0.27000E+04
         0.27000E+04
         0.27000E+04
         0.27000E+04
         0.27000E+04
         0.27000E+04
         0.27000E+04
         0.27000E+04
         0.27000E+04
         0.27000E+04
         0.27000E+04
         0.27000E+04
         0.27000E+04
         0.27000E+04
         0.27000E+04
         0.27000E+04
         0.27000E+04
         0.27000E+04
         0.27000E+04
         0.27000E+04
         0.27000E+04
         0.27000E+04
         0.27000E+04
         0.27000E+04
         0.27000E+04
         0.27000E+04
         0.27000E+04
         0.27000E+04
         0.27000E+04
         0.27000E+04
         0.27000E+04
         0.27000E+04
         0.27000E+04
         0.27000E+04
         0.27000E+04
         0.27000E+04
         0.27000E+04
         0.27000E+04
         0.27000E+04
         0.27000E+04
         0.27000E+04
         0.27000E+04
         0.27000E+04
         0.27000E+04
         0.27000E+04
         0.27000E+04
         0.27000E+04
         0.27000E+04
         0.27000E+04
         0.27000E+04
         0.27000E+04
         0.27000E+04
         0.27000E+04
         0.27000E+04
         0.27000E+04
         0.27000E+04
         0.27000E+04
         0.27000E+04
         0.27000E+04
         0.27000E+04
         0.27000E+04
         0.27000E+04
         0.27000E+04
         0.27000E+04
         0.27000E+04
         0.27000E+04
         0.27000E+04
         0.27000E+04
         0.27000E+04
         0.27000E+04
         0.27000E+04
         0.27000E+04
         0.27000E+04
         0.27000E+04
         0.27000E+04
         0.27000E+04
         0.27000E+04
         0.27000E+04
         0.27000E+04
         0.27000E+04
         0.27000E+04
         0.27000E+04
         0.27000E+04
         0.27000E+04
         0.27000E+04
         0.27000E+04
         0.27000E+04
         0.27000E+04
         0.27000E+04
         0.27000E+04
         0.27000E+04
         0.27000E+04
         0.27000E+04
         0.27000E+04
         0.27000E+04
         0.27000E+04
         0.27000E+04
         0.27000E+04
         0.27000E+04
         0.27000E+04
         0.27000E+04
         0.27000E+04
         0.27000E+04
         0.27000E+04
         0.27000E+04
         0.27000E+04
         0.27000E+04
         0.27000E+04
         0.27000E+04
         0.27000E+04
         0.27000E+04
         0.27000E+04
         0.27000E+04
         0.27000E+04
         0.27000E+04
         0.27000E+04
         0.27000E+04
         0.27000E+04
         0.27000E+04
         0.27000E+04
         0.27000E+04
         0.27000E+04
         0.27000E+04
         0.27000E+04
         0.27000E+04
         0.27000E+04
         0.27000E+04
         0.27000E+04
         0.27000E+04
         0.27000E+04
         0.27000E+04
         0.27000E+04
         0.27000E+04
         0.27000E+04
         0.27000E+04
         0.27000E+04
         0.27000E+04
         0.27000E+04
         0.27000E+04
         0.27000E+04
         0.27000E+04
         0.27000E+04
         0.27000E+04
         0.27000E+04
         0.27000E+04
         0.27000E+04
         0.27000E+04
         0.27000E+04
         0.27000E+04
         0.27000E+04
         0.27000E+04
         0.27000E+04
         0.27000E+04
         0.27000E+04
         0.27000E+04
         0.27000E+04
         0.27000E+04
         0.27000E+04
         0.27000E+04
         0.27000E+04
         0.27000E+04
         0.27000E+04
         0.27000E+04
         0.27000E+04
         0.27000E+04
         0.27000E+04
         0.27000E+04
         0.27000E+04
         0.27000E+04
         0.27000E+04
         0.27000E+04
         0.27000E+04
         0.27000E+04
         0.27000E+04
         0.27000E+04
         0.27000E+04
         0.27000E+04
         0.27000E+04
         0.27000E+04
         0.27000E+04
         0.27000E+04
         0.27000E+04
         0.27000E+04
         0.27000E+04
         0.27000E+04
         0.27000E+04
         0.27000E+04
         0.27000E+04
         0.27000E+04
         0.27000E+04
         0.27000E+04
         0.27000E+04
         0.27000E+04
         0.27000E+04
         0.27000E+04
         0.27000E+04
         0.27000E+04
         0.27000E+04
         0.27000E+04
         0.27000E+04
         0.27000E+04
         0.27000E+04
         0.27000E+04
         0.27000E+04
         0.27000E+04
         0.27000E+04
         0.27000E+04
         0.27000E+04
         0.27000E+04
         0.27000E+04
