# vtk DataFile Version 2.0
               (MEGA VTK FILE)
ASCII
DATASET UNSTRUCTURED_GRID
POINTS       1950    double
  0.92263E-03  0.67154E-03 -0.11114E-01
  0.15811E-02  0.12813E-02 -0.11081E-01
  0.21577E-02  0.69301E-03 -0.11096E-01
  0.15606E-02 -0.30808E-03 -0.11134E-01
  0.10326E-02  0.51473E-03 -0.11750E-01
  0.68029E-03  0.11882E-02 -0.11750E-01
  0.16600E-02  0.45422E-03 -0.11750E-01
  0.10870E-02 -0.49364E-03 -0.11750E-01
  0.28700E-02  0.48707E-03 -0.11117E-01
  0.26425E-02 -0.35623E-03 -0.11178E-01
  0.30721E-02  0.19818E-03 -0.11750E-01
  0.20379E-02 -0.58036E-03 -0.11750E-01
  0.11131E-02  0.19144E-02 -0.11060E-01
  0.52297E-03  0.14835E-02 -0.11097E-01
  0.12434E-02  0.18769E-02 -0.11750E-01
  0.81167E-04  0.15723E-02 -0.11750E-01
  0.77811E-04  0.28619E-03 -0.11131E-01
 -0.20144E-03  0.11655E-02 -0.11122E-01
  0.12851E-03  0.35128E-03 -0.11750E-01
 -0.62599E-03  0.11744E-02 -0.11750E-01
  0.76324E-03  0.23663E-02 -0.11030E-01
  0.93487E-03  0.29893E-02 -0.10958E-01
  0.15876E-02  0.25910E-02 -0.11000E-01
  0.84187E-03  0.24736E-02 -0.11750E-01
  0.20793E-03  0.30380E-02 -0.11750E-01
  0.10236E-02  0.25968E-02 -0.11750E-01
  0.25941E-03  0.22136E-02 -0.11046E-01
  0.20291E-03  0.30195E-02 -0.10927E-01
  0.35395E-03  0.21900E-02 -0.11750E-01
 -0.57027E-03  0.29845E-02 -0.11750E-01
 -0.77286E-03 -0.10184E-02 -0.11123E-01
 -0.88381E-03  0.70526E-04 -0.11144E-01
  0.41430E-03 -0.71793E-03 -0.11129E-01
 -0.75632E-03 -0.10159E-02 -0.11750E-01
 -0.94455E-03  0.69097E-08 -0.11750E-01
  0.24764E-03 -0.66680E-03 -0.11750E-01
 -0.18247E-02 -0.73486E-03 -0.11139E-01
 -0.18809E-02  0.76662E-04 -0.11157E-01
 -0.18275E-02 -0.72841E-03 -0.11750E-01
 -0.18576E-02  0.28557E-04 -0.11750E-01
 -0.27649E-02 -0.91561E-03 -0.11172E-01
 -0.28940E-02 -0.11749E-03 -0.11166E-01
 -0.27765E-02 -0.67151E-03 -0.11750E-01
 -0.28024E-02  0.27617E-03 -0.11750E-01
 -0.25584E-02 -0.16914E-02 -0.11175E-01
 -0.19302E-02 -0.13833E-02 -0.11138E-01
 -0.25527E-02 -0.15161E-02 -0.11750E-01
 -0.19628E-02 -0.13409E-02 -0.11750E-01
 -0.10656E-02  0.98138E-03 -0.11138E-01
 -0.97342E-03  0.93563E-03 -0.11750E-01
 -0.14517E-02 -0.17767E-02 -0.11139E-01
 -0.14653E-02 -0.16864E-02 -0.11750E-01
 -0.42516E-03  0.20189E-02 -0.11058E-01
 -0.40855E-03  0.19944E-02 -0.11750E-01
 -0.12394E-02  0.18133E-02 -0.11050E-01
 -0.12562E-02  0.18253E-02 -0.11750E-01
 -0.20796E-02  0.15660E-02 -0.11015E-01
 -0.19954E-02  0.86839E-03 -0.11132E-01
 -0.18937E-02  0.17945E-02 -0.11750E-01
 -0.27170E-02  0.98361E-03 -0.11750E-01
 -0.18529E-03 -0.19807E-02 -0.11152E-01
 -0.97621E-03 -0.23750E-02 -0.11182E-01
 -0.18418E-03 -0.19572E-02 -0.11750E-01
 -0.12850E-02 -0.21408E-02 -0.11750E-01
  0.76081E-03 -0.16854E-02 -0.11162E-01
  0.75337E-03 -0.19043E-02 -0.11750E-01
  0.16648E-02 -0.13728E-02 -0.11191E-01
  0.17140E-02 -0.14581E-02 -0.11750E-01
  0.30518E-02  0.11452E-02 -0.11067E-01
  0.26597E-02  0.14824E-02 -0.11045E-01
  0.31545E-02  0.10866E-02 -0.11750E-01
  0.20822E-02  0.13808E-02 -0.11750E-01
  0.21691E-02  0.20304E-02 -0.11024E-01
  0.22578E-02  0.19507E-02 -0.11750E-01
 -0.57181E-03  0.28849E-02 -0.10892E-01
 -0.47115E-03  0.28545E-02 -0.11750E-01
 -0.14104E-02  0.25756E-02 -0.10842E-01
 -0.13375E-02  0.26032E-02 -0.11750E-01
 -0.22206E-02  0.21098E-02 -0.10781E-01
 -0.22003E-02  0.24871E-02 -0.11750E-01
 -0.28461E-02  0.15826E-02 -0.10732E-01
 -0.29161E-02  0.11676E-02 -0.10930E-01
 -0.28732E-02  0.21255E-02 -0.11750E-01
 -0.34322E-02  0.16985E-02 -0.11750E-01
 -0.29448E-02  0.58791E-03 -0.11092E-01
 -0.28666E-02  0.11159E-02 -0.11750E-01
 -0.21230E-02 -0.23199E-02 -0.11198E-01
 -0.20813E-02 -0.22416E-02 -0.11750E-01
 -0.16183E-02 -0.28462E-02 -0.11253E-01
 -0.15126E-02 -0.26984E-02 -0.11750E-01
 -0.11976E-02 -0.32399E-02 -0.11314E-01
 -0.61214E-03 -0.30500E-02 -0.11274E-01
 -0.11234E-02 -0.29170E-02 -0.11750E-01
 -0.13139E-02 -0.28596E-02 -0.11750E-01
  0.20525E-03 -0.28258E-02 -0.11248E-01
  0.24658E-03 -0.29625E-02 -0.11750E-01
  0.10666E-02 -0.25146E-02 -0.11252E-01
  0.11049E-02 -0.27142E-02 -0.11750E-01
  0.18371E-02 -0.21095E-02 -0.11276E-01
  0.19379E-02 -0.22942E-02 -0.11750E-01
  0.24381E-02 -0.17061E-02 -0.11302E-01
  0.25241E-02 -0.11332E-02 -0.11245E-01
  0.26027E-02 -0.16991E-02 -0.11750E-01
  0.18729E-02 -0.12920E-02 -0.11750E-01
  0.36667E-02  0.16462E-02 -0.11031E-01
  0.36739E-02  0.84132E-03 -0.11127E-01
  0.39037E-02  0.23545E-02 -0.11750E-01
  0.24654E-02  0.13060E-02 -0.11750E-01
  0.33933E-02  0.22997E-02 -0.10966E-01
  0.34686E-02  0.24137E-02 -0.11750E-01
  0.28899E-02  0.29376E-02 -0.10937E-01
  0.29173E-02  0.29748E-02 -0.11750E-01
  0.21628E-02  0.35499E-02 -0.10901E-01
  0.22002E-02  0.37114E-02 -0.11750E-01
  0.12581E-02  0.39588E-02 -0.10816E-01
  0.12117E-02  0.40747E-02 -0.11750E-01
  0.27858E-03  0.40631E-02 -0.10707E-01
  0.12931E-03  0.41530E-02 -0.11750E-01
 -0.69825E-03  0.38571E-02 -0.10594E-01
 -0.69378E-03  0.38806E-02 -0.11750E-01
 -0.16937E-02  0.33264E-02 -0.10432E-01
 -0.16888E-02  0.35008E-02 -0.11750E-01
 -0.26561E-02  0.23377E-02 -0.10285E-01
 -0.26694E-02  0.20826E-02 -0.11750E-01
 -0.34350E-02  0.11419E-02 -0.10349E-01
 -0.35362E-02  0.20769E-03 -0.11750E-01
 -0.38743E-02  0.32171E-03 -0.10660E-01
 -0.38090E-02 -0.35874E-03 -0.11750E-01
 -0.40860E-02 -0.15048E-03 -0.10990E-01
 -0.38312E-02 -0.42371E-03 -0.11750E-01
 -0.41413E-02 -0.71118E-03 -0.11182E-01
 -0.39335E-02 -0.83799E-03 -0.11750E-01
 -0.39509E-02 -0.14703E-02 -0.11250E-01
 -0.36557E-02 -0.16086E-02 -0.11750E-01
 -0.35285E-02 -0.23112E-02 -0.11272E-01
 -0.31994E-02 -0.24764E-02 -0.11750E-01
 -0.29045E-02 -0.31195E-02 -0.11314E-01
 -0.25784E-02 -0.34102E-02 -0.11750E-01
 -0.21448E-02 -0.36905E-02 -0.11398E-01
 -0.16648E-02 -0.43368E-02 -0.11750E-01
 -0.13157E-02 -0.38990E-02 -0.11450E-01
 -0.73416E-03 -0.41059E-02 -0.11750E-01
 -0.40155E-03 -0.39170E-02 -0.11434E-01
  0.11161E-03 -0.39793E-02 -0.11750E-01
  0.56744E-03 -0.37404E-02 -0.11412E-01
  0.10671E-02 -0.38412E-02 -0.11750E-01
  0.14877E-02 -0.33028E-02 -0.11415E-01
  0.21035E-02 -0.30282E-02 -0.11750E-01
  0.22956E-02 -0.26514E-02 -0.11424E-01
  0.29064E-02 -0.23028E-02 -0.11750E-01
  0.29796E-02 -0.18097E-02 -0.11414E-01
  0.36227E-02 -0.97647E-03 -0.11750E-01
  0.34465E-02 -0.90797E-03 -0.11349E-01
  0.38237E-02 -0.13165E-03 -0.11750E-01
  0.36796E-02 -0.21158E-04 -0.11239E-01
  0.39786E-02  0.56303E-03 -0.11750E-01
  0.11203E-02  0.68147E-03 -0.10284E-01
  0.18440E-02  0.12752E-02 -0.10250E-01
  0.24386E-02  0.66656E-03 -0.10268E-01
  0.17724E-02 -0.30068E-03 -0.10308E-01
  0.32251E-02  0.32831E-03 -0.10297E-01
  0.29650E-02 -0.51851E-03 -0.10357E-01
  0.13904E-02  0.18944E-02 -0.10232E-01
  0.75403E-03  0.14786E-02 -0.10273E-01
  0.22169E-03  0.29327E-03 -0.10304E-01
 -0.20031E-04  0.11742E-02 -0.10304E-01
  0.10540E-02  0.23404E-02 -0.10199E-01
  0.12324E-02  0.29440E-02 -0.10109E-01
  0.18610E-02  0.25387E-02 -0.10163E-01
  0.51237E-03  0.22063E-02 -0.10218E-01
  0.48070E-03  0.30030E-02 -0.10061E-01
 -0.64953E-03 -0.10189E-02 -0.10297E-01
 -0.75400E-03  0.78122E-04 -0.10320E-01
  0.54814E-03 -0.70278E-03 -0.10304E-01
 -0.17032E-02 -0.73391E-03 -0.10315E-01
 -0.17352E-02  0.79073E-04 -0.10340E-01
 -0.26154E-02 -0.89156E-03 -0.10363E-01
 -0.27235E-02 -0.10050E-03 -0.10355E-01
 -0.24053E-02 -0.16415E-02 -0.10364E-01
 -0.17947E-02 -0.13761E-02 -0.10316E-01
 -0.88871E-03  0.99545E-03 -0.10325E-01
 -0.13025E-02 -0.17753E-02 -0.10320E-01
 -0.21869E-03  0.20331E-02 -0.10232E-01
 -0.10221E-02  0.18332E-02 -0.10224E-01
 -0.18143E-02  0.15846E-02 -0.10178E-01
 -0.17814E-02  0.87472E-03 -0.10317E-01
 -0.36692E-04 -0.19741E-02 -0.10335E-01
 -0.79377E-03 -0.23735E-02 -0.10363E-01
  0.91109E-03 -0.16738E-02 -0.10341E-01
  0.18837E-02 -0.14172E-02 -0.10364E-01
  0.34241E-02  0.95970E-03 -0.10248E-01
  0.29793E-02  0.13832E-02 -0.10218E-01
  0.24398E-02  0.19729E-02 -0.10193E-01
 -0.34935E-03  0.28926E-02 -0.10003E-01
 -0.11715E-02  0.25962E-02 -0.99360E-02
 -0.19170E-02  0.21533E-02 -0.98593E-02
 -0.24883E-02  0.16833E-02 -0.97901E-02
 -0.25977E-02  0.12391E-02 -0.10055E-01
 -0.27103E-02  0.62429E-03 -0.10260E-01
 -0.19583E-02 -0.22493E-02 -0.10382E-01
 -0.14251E-02 -0.27756E-02 -0.10427E-01
 -0.98519E-03 -0.31744E-02 -0.10467E-01
 -0.40724E-03 -0.30308E-02 -0.10423E-01
  0.36984E-03 -0.28249E-02 -0.10391E-01
  0.12373E-02 -0.25634E-02 -0.10388E-01
  0.20735E-02 -0.22635E-02 -0.10411E-01
  0.27368E-02 -0.19984E-02 -0.10442E-01
  0.28358E-02 -0.13588E-02 -0.10413E-01
  0.41270E-02  0.12604E-02 -0.10224E-01
  0.42106E-02  0.37564E-03 -0.10326E-01
  0.37394E-02  0.20577E-02 -0.10147E-01
  0.31060E-02  0.27918E-02 -0.10107E-01
  0.23249E-02  0.34384E-02 -0.10051E-01
  0.14438E-02  0.38778E-02 -0.99247E-02
  0.49001E-03  0.40132E-02 -0.97472E-02
 -0.48988E-03  0.38294E-02 -0.95459E-02
 -0.14389E-02  0.33108E-02 -0.93032E-02
 -0.22960E-02  0.24464E-02 -0.91225E-02
 -0.29968E-02  0.14211E-02 -0.92399E-02
 -0.35048E-02  0.62814E-03 -0.96749E-02
 -0.37988E-02  0.58259E-04 -0.10120E-01
 -0.38737E-02 -0.57624E-03 -0.10392E-01
 -0.37149E-02 -0.13350E-02 -0.10485E-01
 -0.33269E-02 -0.21277E-02 -0.10495E-01
 -0.27254E-02 -0.28532E-02 -0.10511E-01
 -0.19578E-02 -0.34045E-02 -0.10554E-01
 -0.11136E-02 -0.37263E-02 -0.10561E-01
 -0.24165E-03 -0.38386E-02 -0.10496E-01
  0.68051E-03 -0.37690E-02 -0.10432E-01
  0.16437E-02 -0.35195E-02 -0.10416E-01
  0.25686E-02 -0.30728E-02 -0.10447E-01
  0.33212E-02 -0.24005E-02 -0.10503E-01
  0.37982E-02 -0.15320E-02 -0.10507E-01
  0.40753E-02 -0.57511E-03 -0.10433E-01
  0.11566E-02  0.68794E-03 -0.93252E-02
  0.18840E-02  0.12579E-02 -0.93113E-02
  0.24678E-02  0.62079E-03 -0.93199E-02
  0.17884E-02 -0.31065E-03 -0.93385E-02
  0.32350E-02  0.17648E-03 -0.93374E-02
  0.29527E-02 -0.66304E-03 -0.93535E-02
  0.14393E-02  0.18740E-02 -0.93077E-02
  0.79310E-03  0.14787E-02 -0.93286E-02
  0.23963E-03  0.30924E-03 -0.93362E-02
  0.53663E-07  0.11890E-02 -0.93480E-02
  0.11060E-02  0.23176E-02 -0.92938E-02
  0.12866E-02  0.29004E-02 -0.92385E-02
  0.19014E-02  0.24877E-02 -0.92739E-02
  0.55688E-03  0.22018E-02 -0.93061E-02
  0.54168E-03  0.29889E-02 -0.92013E-02
 -0.64370E-03 -0.10029E-02 -0.93382E-02
 -0.75078E-03  0.94547E-04 -0.93492E-02
  0.56521E-03 -0.68748E-03 -0.93398E-02
 -0.16991E-02 -0.71295E-03 -0.93496E-02
 -0.17229E-02  0.96891E-04 -0.93675E-02
 -0.25680E-02 -0.83734E-03 -0.93884E-02
 -0.26608E-02 -0.47443E-04 -0.93843E-02
 -0.23653E-02 -0.15666E-02 -0.93791E-02
 -0.17816E-02 -0.13408E-02 -0.93509E-02
 -0.86618E-03  0.10154E-02 -0.93647E-02
 -0.12922E-02 -0.17451E-02 -0.93504E-02
 -0.17701E-03  0.20487E-02 -0.93155E-02
 -0.95992E-03  0.18628E-02 -0.93105E-02
 -0.17232E-02  0.16401E-02 -0.92772E-02
 -0.17384E-02  0.90465E-03 -0.93616E-02
 -0.34807E-04 -0.19632E-02 -0.93560E-02
 -0.78975E-03 -0.23473E-02 -0.93595E-02
  0.91012E-03 -0.16776E-02 -0.93525E-02
  0.18710E-02 -0.14673E-02 -0.93503E-02
  0.34413E-02  0.79487E-03 -0.93216E-02
  0.30029E-02  0.12848E-02 -0.93059E-02
  0.24671E-02  0.19128E-02 -0.92914E-02
 -0.27178E-03  0.29117E-02 -0.91523E-02
 -0.10585E-02  0.26449E-02 -0.90997E-02
 -0.17635E-02  0.22448E-02 -0.90467E-02
 -0.23059E-02  0.18409E-02 -0.89970E-02
 -0.24636E-02  0.13686E-02 -0.91856E-02
 -0.26196E-02  0.70871E-03 -0.93221E-02
 -0.19329E-02 -0.21667E-02 -0.93689E-02
 -0.14163E-02 -0.27025E-02 -0.93625E-02
 -0.99012E-03 -0.31152E-02 -0.93444E-02
 -0.41708E-03 -0.30085E-02 -0.93352E-02
  0.35317E-03 -0.28331E-02 -0.93184E-02
  0.12140E-02 -0.26128E-02 -0.93045E-02
  0.20365E-02 -0.23776E-02 -0.93042E-02
  0.26816E-02 -0.21923E-02 -0.93130E-02
  0.27974E-02 -0.15270E-02 -0.93488E-02
  0.41220E-02  0.96635E-03 -0.93256E-02
  0.41892E-02  0.11735E-04 -0.93571E-02
  0.37411E-02  0.18607E-02 -0.92958E-02
  0.31167E-02  0.26674E-02 -0.92677E-02
  0.23582E-02  0.33392E-02 -0.92176E-02
  0.15087E-02  0.37961E-02 -0.91163E-02
  0.59256E-03  0.39736E-02 -0.89649E-02
 -0.34852E-03  0.38531E-02 -0.87844E-02
 -0.12436E-02  0.33928E-02 -0.85819E-02
 -0.20301E-02  0.26191E-02 -0.84645E-02
 -0.27061E-02  0.17296E-02 -0.85822E-02
 -0.32641E-02  0.97032E-03 -0.89054E-02
 -0.36023E-02  0.29779E-03 -0.92220E-02
 -0.36908E-02 -0.41187E-03 -0.94233E-02
 -0.35594E-02 -0.11765E-02 -0.94835E-02
 -0.32251E-02 -0.19417E-02 -0.94561E-02
 -0.26865E-02 -0.26425E-02 -0.94045E-02
 -0.19632E-02 -0.32228E-02 -0.93575E-02
 -0.11306E-02 -0.36242E-02 -0.93088E-02
 -0.26321E-03 -0.38080E-02 -0.92374E-02
  0.64347E-03 -0.38073E-02 -0.91625E-02
  0.15839E-02 -0.36524E-02 -0.91221E-02
  0.24838E-02 -0.33177E-02 -0.91493E-02
  0.32208E-02 -0.27437E-02 -0.92484E-02
  0.37226E-02 -0.19307E-02 -0.93434E-02
  0.40349E-02 -0.97564E-03 -0.93749E-02
  0.10812E-02  0.68918E-03 -0.83443E-02
  0.17889E-02  0.12464E-02 -0.83419E-02
  0.23541E-02  0.59862E-03 -0.83425E-02
  0.16996E-02 -0.32080E-03 -0.83458E-02
  0.30606E-02  0.12495E-03 -0.83462E-02
  0.27790E-02 -0.70322E-03 -0.83408E-02
  0.13377E-02  0.18615E-02 -0.83459E-02
  0.70129E-03  0.14799E-02 -0.83536E-02
  0.16836E-03  0.31861E-03 -0.83494E-02
 -0.81874E-04  0.11978E-02 -0.83635E-02
  0.10029E-02  0.23030E-02 -0.83442E-02
  0.11939E-02  0.28681E-02 -0.83194E-02
  0.17988E-02  0.24536E-02 -0.83356E-02
  0.46221E-03  0.21984E-02 -0.83508E-02
  0.46346E-03  0.29766E-02 -0.82972E-02
 -0.72144E-03 -0.99191E-03 -0.83503E-02
 -0.82477E-03  0.10373E-03 -0.83580E-02
  0.49663E-03 -0.68450E-03 -0.83487E-02
 -0.17811E-02 -0.69718E-03 -0.83594E-02
 -0.17940E-02  0.10689E-03 -0.83719E-02
 -0.26498E-02 -0.79296E-03 -0.83835E-02
 -0.27261E-02  0.34972E-05 -0.83857E-02
 -0.24663E-02 -0.15189E-02 -0.83713E-02
 -0.18737E-02 -0.13148E-02 -0.83580E-02
 -0.94115E-03  0.10244E-02 -0.83743E-02
 -0.13897E-02 -0.17234E-02 -0.83531E-02
 -0.25808E-03  0.20553E-02 -0.83560E-02
 -0.10341E-02  0.18801E-02 -0.83535E-02
 -0.17924E-02  0.16869E-02 -0.83359E-02
 -0.18059E-02  0.92408E-03 -0.83756E-02
 -0.12907E-03 -0.19627E-02 -0.83505E-02
 -0.90811E-03 -0.23343E-02 -0.83459E-02
  0.80815E-03 -0.16874E-02 -0.83462E-02
  0.17263E-02 -0.14848E-02 -0.83374E-02
  0.32388E-02  0.73726E-03 -0.83492E-02
  0.28415E-02  0.12448E-02 -0.83459E-02
  0.23461E-02  0.18809E-02 -0.83417E-02
 -0.33359E-03  0.29232E-02 -0.82646E-02
 -0.11153E-02  0.26875E-02 -0.82301E-02
 -0.18224E-02  0.23386E-02 -0.82012E-02
 -0.23631E-02  0.20051E-02 -0.81771E-02
 -0.25228E-02  0.14951E-02 -0.82863E-02
 -0.26777E-02  0.79003E-03 -0.83573E-02
 -0.20572E-02 -0.21238E-02 -0.83526E-02
 -0.15747E-02 -0.26716E-02 -0.83323E-02
 -0.11814E-02 -0.30995E-02 -0.83072E-02
 -0.57924E-03 -0.30101E-02 -0.83110E-02
  0.20717E-03 -0.28483E-02 -0.83050E-02
  0.10428E-02 -0.26314E-02 -0.82925E-02
  0.18066E-02 -0.23933E-02 -0.82843E-02
  0.23970E-02 -0.22097E-02 -0.82808E-02
  0.25708E-02 -0.15557E-02 -0.83195E-02
  0.38243E-02  0.87150E-03 -0.83595E-02
  0.39143E-02 -0.93444E-04 -0.83507E-02
  0.34906E-02  0.17906E-02 -0.83598E-02
  0.29592E-02  0.26083E-02 -0.83473E-02
  0.22670E-02  0.32700E-02 -0.83181E-02
  0.14520E-02  0.37280E-02 -0.82595E-02
  0.55574E-03  0.39429E-02 -0.81600E-02
 -0.37094E-03  0.38791E-02 -0.80320E-02
 -0.12554E-02  0.34922E-02 -0.78913E-02
 -0.20508E-02  0.28314E-02 -0.78292E-02
 -0.27447E-02  0.20674E-02 -0.79298E-02
 -0.33116E-02  0.13212E-02 -0.81300E-02
 -0.36607E-02  0.55656E-03 -0.83047E-02
 -0.37663E-02 -0.23346E-03 -0.84129E-02
 -0.36613E-02 -0.10444E-02 -0.84387E-02
 -0.33614E-02 -0.18369E-02 -0.84061E-02
 -0.28695E-02 -0.25584E-02 -0.83496E-02
 -0.22034E-02 -0.31668E-02 -0.82951E-02
 -0.13978E-02 -0.36072E-02 -0.82564E-02
 -0.50415E-03 -0.38291E-02 -0.82200E-02
  0.41449E-03 -0.38423E-02 -0.81728E-02
  0.12959E-02 -0.36717E-02 -0.81351E-02
  0.20996E-02 -0.33134E-02 -0.81436E-02
  0.27989E-02 -0.27453E-02 -0.82058E-02
  0.33598E-02 -0.19734E-02 -0.82813E-02
  0.37463E-02 -0.10615E-02 -0.83303E-02
  0.10371E-02  0.68451E-03 -0.73578E-02
  0.17431E-02  0.12414E-02 -0.73574E-02
  0.23091E-02  0.59760E-03 -0.73550E-02
  0.16621E-02 -0.32766E-03 -0.73542E-02
  0.30138E-02  0.14461E-03 -0.73544E-02
  0.27453E-02 -0.67864E-03 -0.73510E-02
  0.12896E-02  0.18550E-02 -0.73621E-02
  0.65463E-03  0.14770E-02 -0.73659E-02
  0.12910E-03  0.31613E-03 -0.73608E-02
 -0.12214E-03  0.11953E-02 -0.73720E-02
  0.95485E-03  0.22950E-02 -0.73636E-02
  0.11495E-02  0.28527E-02 -0.73531E-02
  0.17552E-02  0.24410E-02 -0.73586E-02
  0.41741E-03  0.21926E-02 -0.73676E-02
  0.42157E-03  0.29674E-02 -0.73413E-02
 -0.75674E-03 -0.99477E-03 -0.73574E-02
 -0.85878E-03  0.99368E-04 -0.73663E-02
  0.46124E-03 -0.69185E-03 -0.73557E-02
 -0.18179E-02 -0.69843E-03 -0.73651E-02
 -0.18258E-02  0.10177E-03 -0.73751E-02
 -0.26943E-02 -0.77799E-03 -0.73773E-02
 -0.27639E-02  0.28366E-04 -0.73830E-02
 -0.25141E-02 -0.15115E-02 -0.73688E-02
 -0.19150E-02 -0.13126E-02 -0.73621E-02
 -0.97608E-03  0.10193E-02 -0.73790E-02
 -0.14293E-02 -0.17233E-02 -0.73575E-02
 -0.29781E-03  0.20513E-02 -0.73708E-02
 -0.10731E-02  0.18816E-02 -0.73698E-02
 -0.18323E-02  0.17072E-02 -0.73605E-02
 -0.18384E-02  0.92460E-03 -0.73809E-02
 -0.16090E-03 -0.19719E-02 -0.73542E-02
 -0.94588E-03 -0.23397E-02 -0.73534E-02
  0.77753E-03 -0.16984E-02 -0.73528E-02
  0.16956E-02 -0.14836E-02 -0.73502E-02
  0.31828E-02  0.75784E-03 -0.73575E-02
  0.27905E-02  0.12506E-02 -0.73582E-02
  0.23018E-02  0.18753E-02 -0.73587E-02
 -0.37231E-03  0.29244E-02 -0.73198E-02
 -0.11568E-02  0.27106E-02 -0.72967E-02
 -0.18697E-02  0.23966E-02 -0.72798E-02
 -0.24141E-02  0.21034E-02 -0.72678E-02
 -0.25657E-02  0.15642E-02 -0.73336E-02
 -0.27140E-02  0.83312E-03 -0.73721E-02
 -0.21037E-02 -0.21242E-02 -0.73589E-02
 -0.16196E-02 -0.26782E-02 -0.73506E-02
 -0.12238E-02 -0.31129E-02 -0.73436E-02
 -0.61328E-03 -0.30254E-02 -0.73449E-02
  0.18149E-03 -0.28630E-02 -0.73433E-02
  0.10202E-02 -0.26330E-02 -0.73393E-02
  0.17835E-02 -0.23665E-02 -0.73360E-02
  0.23751E-02 -0.21509E-02 -0.73339E-02
  0.25442E-02 -0.15144E-02 -0.73443E-02
  0.37542E-02  0.91619E-03 -0.73620E-02
  0.38587E-02 -0.27184E-04 -0.73545E-02
  0.34305E-02  0.18120E-02 -0.73659E-02
  0.29157E-02  0.26043E-02 -0.73632E-02
  0.22314E-02  0.32452E-02 -0.73529E-02
  0.14164E-02  0.36970E-02 -0.73268E-02
  0.51688E-03  0.39270E-02 -0.72705E-02
 -0.41165E-03  0.38958E-02 -0.71823E-02
 -0.13010E-02  0.35670E-02 -0.70840E-02
 -0.21092E-02  0.29866E-02 -0.70459E-02
 -0.28094E-02  0.22776E-02 -0.71175E-02
 -0.33682E-02  0.15267E-02 -0.72452E-02
 -0.37137E-02  0.73072E-03 -0.73459E-02
 -0.38286E-02 -0.11167E-03 -0.73970E-02
 -0.37311E-02 -0.97860E-03 -0.74032E-02
 -0.34274E-02 -0.18164E-02 -0.73853E-02
 -0.29282E-02 -0.25679E-02 -0.73609E-02
 -0.22579E-02 -0.31873E-02 -0.73410E-02
 -0.14445E-02 -0.36311E-02 -0.73312E-02
 -0.53328E-03 -0.38605E-02 -0.73261E-02
  0.40284E-03 -0.38626E-02 -0.73153E-02
  0.12928E-02 -0.36438E-02 -0.73020E-02
  0.20954E-02 -0.32202E-02 -0.73000E-02
  0.27891E-02 -0.26127E-02 -0.73127E-02
  0.33430E-02 -0.18471E-02 -0.73315E-02
  0.37147E-02 -0.96643E-03 -0.73458E-02
  0.10331E-02  0.67921E-03 -0.63731E-02
  0.17409E-02  0.12377E-02 -0.63730E-02
  0.23122E-02  0.59734E-03 -0.63710E-02
  0.16647E-02 -0.33237E-03 -0.63699E-02
  0.30295E-02  0.15764E-03 -0.63710E-02
  0.27709E-02 -0.66572E-03 -0.63716E-02
  0.12840E-02  0.18489E-02 -0.63760E-02
  0.64870E-03  0.14708E-02 -0.63779E-02
  0.12386E-03  0.31051E-03 -0.63747E-02
 -0.12860E-03  0.11873E-02 -0.63812E-02
  0.94601E-03  0.22865E-02 -0.63776E-02
  0.11372E-02  0.28413E-02 -0.63740E-02
  0.17486E-02  0.24336E-02 -0.63748E-02
  0.40894E-03  0.21826E-02 -0.63798E-02
  0.40752E-03  0.29556E-02 -0.63690E-02
 -0.76249E-03 -0.10011E-02 -0.63713E-02
 -0.86482E-03  0.91118E-04 -0.63776E-02
  0.45771E-03 -0.69825E-03 -0.63701E-02
 -0.18261E-02 -0.70519E-03 -0.63760E-02
 -0.18348E-02  0.92287E-04 -0.63821E-02
 -0.27101E-02 -0.77500E-03 -0.63814E-02
 -0.27815E-02  0.38873E-04 -0.63864E-02
 -0.25271E-02 -0.15137E-02 -0.63765E-02
 -0.19242E-02 -0.13176E-02 -0.63737E-02
 -0.98503E-03  0.10086E-02 -0.63852E-02
 -0.14350E-02 -0.17289E-02 -0.63711E-02
 -0.30724E-03  0.20400E-02 -0.63818E-02
 -0.10871E-02  0.18736E-02 -0.63818E-02
 -0.18524E-02  0.17138E-02 -0.63777E-02
 -0.18520E-02  0.91813E-03 -0.63866E-02
 -0.15927E-03 -0.19797E-02 -0.63694E-02
 -0.94360E-03 -0.23469E-02 -0.63705E-02
  0.78379E-03 -0.17064E-02 -0.63695E-02
  0.17151E-02 -0.14861E-02 -0.63709E-02
  0.31985E-02  0.77283E-03 -0.63716E-02
  0.27986E-02  0.12556E-02 -0.63722E-02
  0.23024E-02  0.18728E-02 -0.63735E-02
 -0.38827E-03  0.29168E-02 -0.63576E-02
 -0.11783E-02  0.27191E-02 -0.63448E-02
 -0.18973E-02  0.24317E-02 -0.63361E-02
 -0.24447E-02  0.21688E-02 -0.63309E-02
 -0.25908E-02  0.16080E-02 -0.63653E-02
 -0.27342E-02  0.85768E-03 -0.63835E-02
 -0.21087E-02 -0.21308E-02 -0.63729E-02
 -0.16125E-02 -0.26871E-02 -0.63721E-02
 -0.12049E-02 -0.31235E-02 -0.63738E-02
 -0.59565E-03 -0.30355E-02 -0.63739E-02
  0.20132E-03 -0.28725E-02 -0.63744E-02
  0.10498E-02 -0.26378E-02 -0.63754E-02
  0.18299E-02 -0.23599E-02 -0.63766E-02
  0.24381E-02 -0.21294E-02 -0.63780E-02
  0.25890E-02 -0.14973E-02 -0.63742E-02
  0.37836E-02  0.94752E-03 -0.63727E-02
  0.38937E-02  0.15332E-04 -0.63728E-02
  0.34508E-02  0.18279E-02 -0.63740E-02
  0.29205E-02  0.26046E-02 -0.63748E-02
  0.22234E-02  0.32336E-02 -0.63732E-02
  0.13977E-02  0.36797E-02 -0.63647E-02
  0.49076E-03  0.39132E-02 -0.63388E-02
 -0.44090E-03  0.39013E-02 -0.62892E-02
 -0.13365E-02  0.36196E-02 -0.62318E-02
 -0.21496E-02  0.31010E-02 -0.62101E-02
 -0.28471E-02  0.24279E-02 -0.62518E-02
 -0.33978E-02  0.16721E-02 -0.63239E-02
 -0.37464E-02  0.84797E-03 -0.63753E-02
 -0.38675E-02 -0.37996E-04 -0.63942E-02
 -0.37660E-02 -0.94409E-03 -0.63920E-02
 -0.34481E-02 -0.18100E-02 -0.63828E-02
 -0.29293E-02 -0.25790E-02 -0.63758E-02
 -0.22377E-02 -0.32036E-02 -0.63743E-02
 -0.14089E-02 -0.36460E-02 -0.63774E-02
 -0.49133E-03 -0.38757E-02 -0.63832E-02
  0.45383E-03 -0.38735E-02 -0.63885E-02
  0.13661E-02 -0.36382E-02 -0.63911E-02
  0.21952E-02 -0.31891E-02 -0.63905E-02
  0.28975E-02 -0.25599E-02 -0.63864E-02
  0.34334E-02 -0.17885E-02 -0.63808E-02
  0.37730E-02 -0.91441E-03 -0.63758E-02
  0.10361E-02  0.67622E-03 -0.53917E-02
  0.17436E-02  0.12351E-02 -0.53918E-02
  0.23167E-02  0.59532E-03 -0.53910E-02
  0.16686E-02 -0.33437E-03 -0.53904E-02
  0.30377E-02  0.15636E-03 -0.53918E-02
  0.27820E-02 -0.66795E-03 -0.53930E-02
  0.12845E-02  0.18441E-02 -0.53931E-02
  0.64973E-03  0.14658E-02 -0.53937E-02
  0.12517E-03  0.30716E-03 -0.53923E-02
 -0.12882E-03  0.11813E-02 -0.53950E-02
  0.94389E-03  0.22794E-02 -0.53941E-02
  0.11317E-02  0.28321E-02 -0.53935E-02
  0.17464E-02  0.24280E-02 -0.53930E-02
  0.40708E-03  0.21738E-02 -0.53950E-02
  0.40087E-03  0.29445E-02 -0.53925E-02
 -0.76394E-03 -0.10049E-02 -0.53907E-02
 -0.86591E-03  0.85624E-04 -0.53933E-02
  0.45865E-03 -0.70032E-03 -0.53902E-02
 -0.18296E-02 -0.71004E-03 -0.53926E-02
 -0.18394E-02  0.85633E-04 -0.53951E-02
 -0.27188E-02 -0.77484E-03 -0.53945E-02
 -0.27921E-02  0.43344E-04 -0.53977E-02
 -0.25345E-02 -0.15157E-02 -0.53921E-02
 -0.19287E-02 -0.13214E-02 -0.53915E-02
 -0.98887E-03  0.10007E-02 -0.53966E-02
 -0.14378E-02 -0.17325E-02 -0.53906E-02
 -0.31068E-03  0.20300E-02 -0.53961E-02
 -0.10954E-02  0.18655E-02 -0.53968E-02
 -0.18670E-02  0.17165E-02 -0.53966E-02
 -0.18610E-02  0.91298E-03 -0.53978E-02
 -0.15863E-03 -0.19825E-02 -0.53901E-02
 -0.94324E-03 -0.23502E-02 -0.53906E-02
  0.78636E-03 -0.17094E-02 -0.53905E-02
  0.17230E-02 -0.14903E-02 -0.53921E-02
  0.32072E-02  0.77240E-03 -0.53914E-02
  0.28040E-02  0.12537E-02 -0.53914E-02
  0.23041E-02  0.18693E-02 -0.53921E-02
 -0.39736E-03  0.29069E-02 -0.53890E-02
 -0.11930E-02  0.27205E-02 -0.53852E-02
 -0.19182E-02  0.24533E-02 -0.53839E-02
 -0.24686E-02  0.22143E-02 -0.53843E-02
 -0.26101E-02  0.16377E-02 -0.53950E-02
 -0.27485E-02  0.87245E-03 -0.53990E-02
 -0.21122E-02 -0.21344E-02 -0.53908E-02
 -0.16103E-02 -0.26912E-02 -0.53912E-02
 -0.11977E-02 -0.31276E-02 -0.53930E-02
 -0.58946E-03 -0.30391E-02 -0.53934E-02
  0.20754E-03 -0.28763E-02 -0.53944E-02
  0.10590E-02 -0.26431E-02 -0.53961E-02
  0.18451E-02 -0.23664E-02 -0.53982E-02
  0.24592E-02 -0.21369E-02 -0.54004E-02
  0.26053E-02 -0.15019E-02 -0.53962E-02
  0.37969E-02  0.94776E-03 -0.53919E-02
  0.39086E-02  0.16207E-04 -0.53944E-02
  0.34594E-02  0.18261E-02 -0.53917E-02
  0.29214E-02  0.26001E-02 -0.53924E-02
  0.22179E-02  0.32253E-02 -0.53928E-02
  0.13866E-02  0.36673E-02 -0.53917E-02
  0.47533E-03  0.38996E-02 -0.53842E-02
 -0.45944E-03  0.38975E-02 -0.53661E-02
 -0.13612E-02  0.36499E-02 -0.53454E-02
 -0.21797E-02  0.31800E-02 -0.53408E-02
 -0.28763E-02  0.25384E-02 -0.53610E-02
 -0.34208E-02  0.17754E-02 -0.53880E-02
 -0.37687E-02  0.91820E-03 -0.54025E-02
 -0.38920E-02 -0.30485E-06 -0.54032E-02
 -0.37872E-02 -0.92773E-03 -0.53980E-02
 -0.34613E-02 -0.18063E-02 -0.53929E-02
 -0.29322E-02 -0.25820E-02 -0.53906E-02
 -0.22301E-02 -0.32092E-02 -0.53920E-02
 -0.13952E-02 -0.36512E-02 -0.53957E-02
 -0.47682E-03 -0.38803E-02 -0.54005E-02
  0.46927E-03 -0.38794E-02 -0.54057E-02
  0.13874E-02 -0.36474E-02 -0.54103E-02
  0.22250E-02 -0.32006E-02 -0.54126E-02
  0.29318E-02 -0.25698E-02 -0.54104E-02
  0.34646E-02 -0.17939E-02 -0.54047E-02
  0.37951E-02 -0.91555E-03 -0.53989E-02
  0.10372E-02  0.67553E-03 -0.44123E-02
  0.17442E-02  0.12344E-02 -0.44123E-02
  0.23173E-02  0.59470E-03 -0.44120E-02
  0.16690E-02 -0.33413E-03 -0.44119E-02
  0.30377E-02  0.15449E-03 -0.44129E-02
  0.27821E-02 -0.67007E-03 -0.44141E-02
  0.12846E-02  0.18419E-02 -0.44126E-02
  0.65016E-03  0.14641E-02 -0.44127E-02
  0.12578E-03  0.30654E-03 -0.44124E-02
 -0.12882E-03  0.11793E-02 -0.44128E-02
  0.94304E-03  0.22758E-02 -0.44129E-02
  0.11296E-02  0.28270E-02 -0.44131E-02
  0.17452E-02  0.24255E-02 -0.44125E-02
  0.40645E-03  0.21691E-02 -0.44132E-02
  0.39817E-03  0.29377E-02 -0.44139E-02
 -0.76476E-03 -0.10060E-02 -0.44120E-02
 -0.86623E-03  0.83651E-04 -0.44124E-02
  0.45853E-03 -0.69996E-03 -0.44118E-02
 -0.18312E-02 -0.71205E-03 -0.44121E-02
 -0.18415E-02  0.82496E-04 -0.44125E-02
 -0.27228E-02 -0.77530E-03 -0.44121E-02
 -0.27974E-02  0.44896E-04 -0.44137E-02
 -0.25381E-02 -0.15168E-02 -0.44113E-02
 -0.19311E-02 -0.13228E-02 -0.44118E-02
 -0.99059E-03  0.99745E-03 -0.44130E-02
 -0.14397E-02 -0.17335E-02 -0.44118E-02
 -0.31220E-03  0.20248E-02 -0.44136E-02
 -0.10997E-02  0.18610E-02 -0.44143E-02
 -0.18756E-02  0.17176E-02 -0.44159E-02
 -0.18658E-02  0.91034E-03 -0.44137E-02
 -0.15972E-03 -0.19826E-02 -0.44120E-02
 -0.94485E-03 -0.23508E-02 -0.44119E-02
  0.78507E-03 -0.17095E-02 -0.44122E-02
  0.17223E-02 -0.14918E-02 -0.44133E-02
  0.32073E-02  0.77103E-03 -0.44122E-02
  0.28040E-02  0.12523E-02 -0.44119E-02
  0.23040E-02  0.18675E-02 -0.44121E-02
 -0.40204E-03  0.29001E-02 -0.44145E-02
 -0.12016E-02  0.27206E-02 -0.44158E-02
 -0.19312E-02  0.24646E-02 -0.44184E-02
 -0.24847E-02  0.22381E-02 -0.44217E-02
 -0.26228E-02  0.16524E-02 -0.44196E-02
 -0.27568E-02  0.87920E-03 -0.44166E-02
 -0.21147E-02 -0.21356E-02 -0.44112E-02
 -0.16113E-02 -0.26924E-02 -0.44115E-02
 -0.11980E-02 -0.31287E-02 -0.44123E-02
 -0.59032E-03 -0.30395E-02 -0.44130E-02
  0.20608E-03 -0.28767E-02 -0.44139E-02
  0.10571E-02 -0.26448E-02 -0.44152E-02
  0.18432E-02 -0.23702E-02 -0.44169E-02
  0.24572E-02 -0.21433E-02 -0.44187E-02
  0.26042E-02 -0.15059E-02 -0.44162E-02
  0.37960E-02  0.94412E-03 -0.44125E-02
  0.39082E-02  0.11562E-04 -0.44153E-02
  0.34588E-02  0.18232E-02 -0.44114E-02
  0.29206E-02  0.25975E-02 -0.44115E-02
  0.22158E-02  0.32216E-02 -0.44120E-02
  0.13825E-02  0.36606E-02 -0.44133E-02
  0.46895E-03  0.38899E-02 -0.44148E-02
 -0.46925E-03  0.38928E-02 -0.44152E-02
 -0.13762E-02  0.36655E-02 -0.44165E-02
 -0.22003E-02  0.32237E-02 -0.44222E-02
 -0.28991E-02  0.25982E-02 -0.44288E-02
 -0.34398E-02  0.18277E-02 -0.44297E-02
 -0.37836E-02  0.95089E-03 -0.44251E-02
 -0.39048E-02  0.14808E-04 -0.44174E-02
 -0.37974E-02 -0.92315E-03 -0.44120E-02
 -0.34676E-02 -0.18062E-02 -0.44098E-02
 -0.29348E-02 -0.25836E-02 -0.44094E-02
 -0.22301E-02 -0.32113E-02 -0.44105E-02
 -0.13944E-02 -0.36530E-02 -0.44127E-02
 -0.47695E-03 -0.38812E-02 -0.44157E-02
  0.46769E-03 -0.38811E-02 -0.44190E-02
  0.13847E-02 -0.36525E-02 -0.44224E-02
  0.22214E-02 -0.32098E-02 -0.44251E-02
  0.29283E-02 -0.25810E-02 -0.44252E-02
  0.34628E-02 -0.18036E-02 -0.44225E-02
  0.37948E-02 -0.92231E-03 -0.44189E-02
  0.10373E-02  0.67576E-03 -0.34332E-02
  0.17442E-02  0.12348E-02 -0.34332E-02
  0.23171E-02  0.59504E-03 -0.34331E-02
  0.16687E-02 -0.33327E-03 -0.34332E-02
  0.30370E-02  0.15449E-03 -0.34339E-02
  0.27815E-02 -0.66971E-03 -0.34352E-02
  0.12846E-02  0.18413E-02 -0.34332E-02
  0.65011E-03  0.14641E-02 -0.34330E-02
  0.12573E-03  0.30712E-03 -0.34331E-02
 -0.12900E-03  0.11796E-02 -0.34326E-02
  0.94262E-03  0.22744E-02 -0.34332E-02
  0.11288E-02  0.28246E-02 -0.34335E-02
  0.17447E-02  0.24247E-02 -0.34330E-02
  0.40619E-03  0.21673E-02 -0.34331E-02
  0.39703E-03  0.29343E-02 -0.34347E-02
 -0.76527E-03 -0.10063E-02 -0.34332E-02
 -0.86644E-03  0.83406E-04 -0.34326E-02
  0.45806E-03 -0.69915E-03 -0.34331E-02
 -0.18320E-02 -0.71271E-03 -0.34325E-02
 -0.18424E-02  0.81222E-04 -0.34319E-02
 -0.27244E-02 -0.77561E-03 -0.34317E-02
 -0.27999E-02  0.45366E-04 -0.34325E-02
 -0.25392E-02 -0.15172E-02 -0.34318E-02
 -0.19321E-02 -0.13231E-02 -0.34327E-02
 -0.99133E-03  0.99685E-03 -0.34320E-02
 -0.14405E-02 -0.17335E-02 -0.34330E-02
 -0.31286E-03  0.20227E-02 -0.34331E-02
 -0.11017E-02  0.18589E-02 -0.34336E-02
 -0.18800E-02  0.17177E-02 -0.34358E-02
 -0.18681E-02  0.90917E-03 -0.34324E-02
 -0.16037E-03 -0.19822E-02 -0.34334E-02
 -0.94575E-03 -0.23506E-02 -0.34333E-02
  0.78384E-03 -0.17091E-02 -0.34337E-02
  0.17212E-02 -0.14918E-02 -0.34346E-02
  0.32069E-02  0.77150E-03 -0.34331E-02
  0.28037E-02  0.12523E-02 -0.34328E-02
  0.23039E-02  0.18671E-02 -0.34329E-02
 -0.40447E-03  0.28961E-02 -0.34370E-02
 -0.12064E-02  0.27196E-02 -0.34402E-02
 -0.19384E-02  0.24684E-02 -0.34443E-02
 -0.24938E-02  0.22474E-02 -0.34486E-02
 -0.26297E-02  0.16580E-02 -0.34415E-02
 -0.27612E-02  0.88173E-03 -0.34357E-02
 -0.21152E-02 -0.21359E-02 -0.34322E-02
 -0.16114E-02 -0.26925E-02 -0.34326E-02
 -0.11980E-02 -0.31287E-02 -0.34332E-02
 -0.59090E-03 -0.30392E-02 -0.34340E-02
  0.20499E-03 -0.28762E-02 -0.34350E-02
  0.10555E-02 -0.26447E-02 -0.34361E-02
  0.18410E-02 -0.23703E-02 -0.34377E-02
  0.24545E-02 -0.21440E-02 -0.34394E-02
  0.26023E-02 -0.15059E-02 -0.34372E-02
  0.37944E-02  0.94319E-03 -0.34332E-02
  0.39069E-02  0.10633E-04 -0.34362E-02
  0.34580E-02  0.18225E-02 -0.34320E-02
  0.29207E-02  0.25969E-02 -0.34320E-02
  0.22154E-02  0.32204E-02 -0.34324E-02
  0.13813E-02  0.36577E-02 -0.34341E-02
  0.46617E-03  0.38850E-02 -0.34385E-02
 -0.47477E-03  0.38894E-02 -0.34464E-02
 -0.13850E-02  0.36703E-02 -0.34573E-02
 -0.22124E-02  0.32404E-02 -0.34670E-02
 -0.29130E-02  0.26224E-02 -0.34683E-02
 -0.34513E-02  0.18486E-02 -0.34584E-02
 -0.37924E-02  0.96368E-03 -0.34456E-02
 -0.39113E-02  0.19957E-04 -0.34352E-02
 -0.38013E-02 -0.92220E-03 -0.34304E-02
 -0.34689E-02 -0.18065E-02 -0.34297E-02
 -0.29344E-02 -0.25843E-02 -0.34302E-02
 -0.22292E-02 -0.32120E-02 -0.34312E-02
 -0.13939E-02 -0.36534E-02 -0.34330E-02
 -0.47716E-03 -0.38810E-02 -0.34358E-02
  0.46652E-03 -0.38808E-02 -0.34388E-02
  0.13822E-02 -0.36525E-02 -0.34418E-02
  0.22174E-02 -0.32104E-02 -0.34446E-02
  0.29238E-02 -0.25819E-02 -0.34451E-02
  0.34594E-02 -0.18044E-02 -0.34429E-02
  0.37929E-02 -0.92309E-03 -0.34397E-02
  0.10372E-02  0.67615E-03 -0.24541E-02
  0.17440E-02  0.12353E-02 -0.24541E-02
  0.23169E-02  0.59553E-03 -0.24539E-02
  0.16685E-02 -0.33259E-03 -0.24541E-02
  0.30369E-02  0.15503E-03 -0.24548E-02
  0.27818E-02 -0.66872E-03 -0.24563E-02
  0.12845E-02  0.18412E-02 -0.24540E-02
  0.64994E-03  0.14647E-02 -0.24538E-02
  0.12552E-03  0.30801E-03 -0.24539E-02
 -0.12917E-03  0.11808E-02 -0.24531E-02
  0.94226E-03  0.22741E-02 -0.24540E-02
  0.11282E-02  0.28235E-02 -0.24543E-02
  0.17441E-02  0.24247E-02 -0.24539E-02
  0.40611E-03  0.21666E-02 -0.24538E-02
  0.39653E-03  0.29329E-02 -0.24557E-02
 -0.76564E-03 -0.10067E-02 -0.24541E-02
 -0.86657E-03  0.83719E-04 -0.24532E-02
  0.45761E-03 -0.69856E-03 -0.24540E-02
 -0.18324E-02 -0.71292E-03 -0.24532E-02
 -0.18426E-02  0.80784E-04 -0.24522E-02
 -0.27251E-02 -0.77479E-03 -0.24523E-02
 -0.28009E-02  0.46434E-04 -0.24529E-02
 -0.25399E-02 -0.15166E-02 -0.24526E-02
 -0.19327E-02 -0.13231E-02 -0.24535E-02
 -0.99152E-03  0.99743E-03 -0.24522E-02
 -0.14409E-02 -0.17336E-02 -0.24540E-02
 -0.31297E-03  0.20220E-02 -0.24535E-02
 -0.11024E-02  0.18579E-02 -0.24538E-02
 -0.18819E-02  0.17175E-02 -0.24560E-02
 -0.18690E-02  0.90884E-03 -0.24525E-02
 -0.16063E-03 -0.19824E-02 -0.24544E-02
 -0.94635E-03 -0.23506E-02 -0.24543E-02
  0.78318E-03 -0.17091E-02 -0.24546E-02
  0.17211E-02 -0.14918E-02 -0.24557E-02
  0.32071E-02  0.77256E-03 -0.24538E-02
  0.28035E-02  0.12528E-02 -0.24536E-02
  0.23036E-02  0.18672E-02 -0.24537E-02
 -0.40545E-03  0.28939E-02 -0.24584E-02
 -0.12084E-02  0.27188E-02 -0.24621E-02
 -0.19415E-02  0.24693E-02 -0.24662E-02
 -0.24980E-02  0.22501E-02 -0.24708E-02
 -0.26330E-02  0.16598E-02 -0.24624E-02
 -0.27632E-02  0.88314E-03 -0.24561E-02
 -0.21156E-02 -0.21356E-02 -0.24531E-02
 -0.16115E-02 -0.26923E-02 -0.24537E-02
 -0.11981E-02 -0.31286E-02 -0.24543E-02
 -0.59115E-03 -0.30392E-02 -0.24552E-02
  0.20471E-03 -0.28761E-02 -0.24562E-02
  0.10552E-02 -0.26446E-02 -0.24576E-02
  0.18410E-02 -0.23697E-02 -0.24595E-02
  0.24544E-02 -0.21432E-02 -0.24615E-02
  0.26023E-02 -0.15048E-02 -0.24588E-02
  0.37941E-02  0.94330E-03 -0.24538E-02
  0.39067E-02  0.11298E-04 -0.24570E-02
  0.34576E-02  0.18227E-02 -0.24527E-02
  0.29203E-02  0.25972E-02 -0.24528E-02
  0.22149E-02  0.32204E-02 -0.24532E-02
  0.13804E-02  0.36569E-02 -0.24550E-02
  0.46475E-03  0.38832E-02 -0.24603E-02
 -0.47739E-03  0.38881E-02 -0.24712E-02
 -0.13891E-02  0.36720E-02 -0.24851E-02
 -0.22179E-02  0.32457E-02 -0.24949E-02
 -0.29194E-02  0.26296E-02 -0.24940E-02
 -0.34574E-02  0.18558E-02 -0.24818E-02
 -0.37972E-02  0.97001E-03 -0.24672E-02
 -0.39146E-02  0.25132E-04 -0.24563E-02
 -0.38034E-02 -0.91817E-03 -0.24514E-02
 -0.34702E-02 -0.18039E-02 -0.24505E-02
 -0.29349E-02 -0.25829E-02 -0.24510E-02
 -0.22294E-02 -0.32113E-02 -0.24521E-02
 -0.13940E-02 -0.36531E-02 -0.24541E-02
 -0.47703E-03 -0.38809E-02 -0.24571E-02
  0.46680E-03 -0.38803E-02 -0.24607E-02
  0.13822E-02 -0.36513E-02 -0.24646E-02
  0.22172E-02 -0.32083E-02 -0.24680E-02
  0.29236E-02 -0.25791E-02 -0.24685E-02
  0.34592E-02 -0.18018E-02 -0.24656E-02
  0.37927E-02 -0.92132E-03 -0.24614E-02
  0.10371E-02  0.67656E-03 -0.14749E-02
  0.17437E-02  0.12360E-02 -0.14749E-02
  0.23167E-02  0.59611E-03 -0.14747E-02
  0.16683E-02 -0.33205E-03 -0.14748E-02
  0.30368E-02  0.15594E-03 -0.14755E-02
  0.27823E-02 -0.66769E-03 -0.14773E-02
  0.12843E-02  0.18413E-02 -0.14748E-02
  0.64973E-03  0.14655E-02 -0.14746E-02
  0.12528E-03  0.30897E-03 -0.14747E-02
 -0.12931E-03  0.11822E-02 -0.14738E-02
  0.94181E-03  0.22739E-02 -0.14747E-02
  0.11274E-02  0.28229E-02 -0.14749E-02
  0.17432E-02  0.24250E-02 -0.14745E-02
  0.40606E-03  0.21662E-02 -0.14745E-02
  0.39625E-03  0.29321E-02 -0.14766E-02
 -0.76596E-03 -0.10072E-02 -0.14748E-02
 -0.86666E-03  0.84203E-04 -0.14739E-02
  0.45721E-03 -0.69812E-03 -0.14747E-02
 -0.18327E-02 -0.71297E-03 -0.14739E-02
 -0.18426E-02  0.80569E-04 -0.14728E-02
 -0.27255E-02 -0.77364E-03 -0.14732E-02
 -0.28009E-02  0.47407E-04 -0.14737E-02
 -0.25408E-02 -0.15155E-02 -0.14734E-02
 -0.19334E-02 -0.13230E-02 -0.14742E-02
 -0.99143E-03  0.99836E-03 -0.14727E-02
 -0.14414E-02 -0.17337E-02 -0.14747E-02
 -0.31280E-03  0.20218E-02 -0.14741E-02
 -0.11022E-02  0.18573E-02 -0.14743E-02
 -0.18823E-02  0.17172E-02 -0.14763E-02
 -0.18691E-02  0.90864E-03 -0.14728E-02
 -0.16083E-03 -0.19828E-02 -0.14751E-02
 -0.94714E-03 -0.23509E-02 -0.14750E-02
  0.78270E-03 -0.17095E-02 -0.14753E-02
  0.17214E-02 -0.14922E-02 -0.14766E-02
  0.32073E-02  0.77420E-03 -0.14745E-02
  0.28032E-02  0.12536E-02 -0.14742E-02
  0.23030E-02  0.18676E-02 -0.14744E-02
 -0.40565E-03  0.28924E-02 -0.14798E-02
 -0.12091E-02  0.27184E-02 -0.14837E-02
 -0.19424E-02  0.24695E-02 -0.14875E-02
 -0.24991E-02  0.22507E-02 -0.14917E-02
 -0.26337E-02  0.16599E-02 -0.14828E-02
 -0.27633E-02  0.88369E-03 -0.14767E-02
 -0.21167E-02 -0.21348E-02 -0.14738E-02
 -0.16125E-02 -0.26919E-02 -0.14743E-02
 -0.11993E-02 -0.31282E-02 -0.14751E-02
 -0.59195E-03 -0.30392E-02 -0.14761E-02
  0.20428E-03 -0.28763E-02 -0.14773E-02
  0.10551E-02 -0.26448E-02 -0.14789E-02
  0.18415E-02 -0.23695E-02 -0.14812E-02
  0.24553E-02 -0.21426E-02 -0.14838E-02
  0.26029E-02 -0.15040E-02 -0.14804E-02
  0.37939E-02  0.94456E-03 -0.14743E-02
  0.39065E-02  0.13115E-04 -0.14779E-02
  0.34569E-02  0.18240E-02 -0.14732E-02
  0.29190E-02  0.25985E-02 -0.14731E-02
  0.22134E-02  0.32213E-02 -0.14734E-02
  0.13791E-02  0.36571E-02 -0.14752E-02
  0.46377E-03  0.38828E-02 -0.14818E-02
 -0.47845E-03  0.38883E-02 -0.14954E-02
 -0.13906E-02  0.36741E-02 -0.15112E-02
 -0.22197E-02  0.32490E-02 -0.15200E-02
 -0.29211E-02  0.26318E-02 -0.15163E-02
 -0.34585E-02  0.18574E-02 -0.15030E-02
 -0.37980E-02  0.97311E-03 -0.14890E-02
 -0.39156E-02  0.29489E-04 -0.14782E-02
 -0.38049E-02 -0.91357E-03 -0.14728E-02
 -0.34724E-02 -0.17999E-02 -0.14713E-02
 -0.29375E-02 -0.25798E-02 -0.14714E-02
 -0.22319E-02 -0.32092E-02 -0.14726E-02
 -0.13961E-02 -0.36520E-02 -0.14749E-02
 -0.47831E-03 -0.38803E-02 -0.14783E-02
  0.46635E-03 -0.38797E-02 -0.14828E-02
  0.13823E-02 -0.36500E-02 -0.14878E-02
  0.22177E-02 -0.32061E-02 -0.14919E-02
  0.29246E-02 -0.25764E-02 -0.14924E-02
  0.34600E-02 -0.17989E-02 -0.14888E-02
  0.37929E-02 -0.91882E-03 -0.14833E-02
  0.10370E-02  0.67701E-03 -0.49570E-03
  0.17435E-02  0.12365E-02 -0.49566E-03
  0.23165E-02  0.59666E-03 -0.49547E-03
  0.16681E-02 -0.33141E-03 -0.49555E-03
  0.30367E-02  0.15660E-03 -0.49640E-03
  0.27827E-02 -0.66706E-03 -0.49827E-03
  0.12842E-02  0.18413E-02 -0.49559E-03
  0.64952E-03  0.14663E-02 -0.49535E-03
  0.12500E-03  0.31004E-03 -0.49545E-03
 -0.12946E-03  0.11838E-02 -0.49448E-03
  0.94152E-03  0.22738E-02 -0.49547E-03
  0.11270E-02  0.28221E-02 -0.49580E-03
  0.17427E-02  0.24250E-02 -0.49526E-03
  0.40611E-03  0.21659E-02 -0.49526E-03
  0.39637E-03  0.29316E-02 -0.49772E-03
 -0.76631E-03 -0.10075E-02 -0.49556E-03
 -0.86679E-03  0.84912E-04 -0.49462E-03
  0.45676E-03 -0.69752E-03 -0.49548E-03
 -0.18330E-02 -0.71292E-03 -0.49463E-03
 -0.18425E-02  0.80561E-04 -0.49347E-03
 -0.27254E-02 -0.77341E-03 -0.49391E-03
 -0.28003E-02  0.47662E-04 -0.49432E-03
 -0.25411E-02 -0.15152E-02 -0.49414E-03
 -0.19338E-02 -0.13229E-02 -0.49496E-03
 -0.99126E-03  0.99957E-03 -0.49331E-03
 -0.14419E-02 -0.17338E-02 -0.49542E-03
 -0.31247E-03  0.20219E-02 -0.49490E-03
 -0.11018E-02  0.18571E-02 -0.49515E-03
 -0.18820E-02  0.17175E-02 -0.49743E-03
 -0.18688E-02  0.90885E-03 -0.49341E-03
 -0.16115E-03 -0.19830E-02 -0.49586E-03
 -0.94795E-03 -0.23509E-02 -0.49575E-03
  0.78204E-03 -0.17097E-02 -0.49610E-03
  0.17214E-02 -0.14925E-02 -0.49745E-03
  0.32075E-02  0.77568E-03 -0.49532E-03
  0.28030E-02  0.12543E-02 -0.49499E-03
  0.23027E-02  0.18677E-02 -0.49515E-03
 -0.40527E-03  0.28912E-02 -0.50135E-03
 -0.12087E-02  0.27182E-02 -0.50574E-03
 -0.19419E-02  0.24704E-02 -0.51012E-03
 -0.24982E-02  0.22526E-02 -0.51469E-03
 -0.26328E-02  0.16610E-02 -0.50442E-03
 -0.27624E-02  0.88427E-03 -0.49748E-03
 -0.21172E-02 -0.21347E-02 -0.49452E-03
 -0.16131E-02 -0.26917E-02 -0.49503E-03
 -0.12002E-02 -0.31278E-02 -0.49578E-03
 -0.59293E-03 -0.30390E-02 -0.49686E-03
  0.20344E-03 -0.28762E-02 -0.49823E-03
  0.10546E-02 -0.26450E-02 -0.50004E-03
  0.18416E-02 -0.23696E-02 -0.50240E-03
  0.24556E-02 -0.21430E-02 -0.50500E-03
  0.26032E-02 -0.15037E-02 -0.50144E-03
  0.37937E-02  0.94552E-03 -0.49517E-03
  0.39063E-02  0.14020E-04 -0.49902E-03
  0.34566E-02  0.18249E-02 -0.49386E-03
  0.29183E-02  0.25991E-02 -0.49381E-03
  0.22127E-02  0.32215E-02 -0.49413E-03
  0.13788E-02  0.36568E-02 -0.49631E-03
  0.46385E-03  0.38825E-02 -0.50376E-03
 -0.47810E-03  0.38882E-02 -0.51847E-03
 -0.13900E-02  0.36752E-02 -0.53605E-03
 -0.22188E-02  0.32520E-02 -0.54640E-03
 -0.29195E-02  0.26361E-02 -0.54218E-03
 -0.34564E-02  0.18606E-02 -0.52622E-03
 -0.37962E-02  0.97440E-03 -0.51021E-03
 -0.39147E-02  0.30013E-04 -0.49872E-03
 -0.38047E-02 -0.91295E-03 -0.49343E-03
 -0.34728E-02 -0.17991E-02 -0.49211E-03
 -0.29386E-02 -0.25789E-02 -0.49214E-03
 -0.22334E-02 -0.32083E-02 -0.49324E-03
 -0.13977E-02 -0.36510E-02 -0.49558E-03
 -0.48000E-03 -0.38794E-02 -0.49934E-03
  0.46484E-03 -0.38788E-02 -0.50440E-03
  0.13813E-02 -0.36489E-02 -0.50977E-03
  0.22176E-02 -0.32051E-02 -0.51376E-03
  0.29250E-02 -0.25757E-02 -0.51406E-03
  0.34605E-02 -0.17983E-02 -0.51024E-03
  0.37930E-02 -0.91810E-03 -0.50448E-03
  0.10369E-02  0.67740E-03  0.48358E-03
  0.17434E-02  0.12369E-02  0.48359E-03
  0.23165E-02  0.59699E-03  0.48375E-03
  0.16679E-02 -0.33078E-03  0.48369E-03
  0.30368E-02  0.15703E-03  0.48263E-03
  0.27831E-02 -0.66648E-03  0.48069E-03
  0.12842E-02  0.18411E-02  0.48368E-03
  0.64933E-03  0.14671E-02  0.48395E-03
  0.12471E-03  0.31114E-03  0.48380E-03
 -0.12965E-03  0.11855E-02  0.48480E-03
  0.94138E-03  0.22736E-02  0.48377E-03
  0.11271E-02  0.28212E-02  0.48326E-03
  0.17426E-02  0.24246E-02  0.48388E-03
  0.40617E-03  0.21658E-02  0.48398E-03
  0.39661E-03  0.29311E-02  0.48115E-03
 -0.76668E-03 -0.10076E-02  0.48369E-03
 -0.86694E-03  0.85754E-04  0.48461E-03
  0.45630E-03 -0.69684E-03  0.48378E-03
 -0.18333E-02 -0.71278E-03  0.48459E-03
 -0.18424E-02  0.80675E-04  0.48583E-03
 -0.27252E-02 -0.77366E-03  0.48546E-03
 -0.28000E-02  0.47607E-04  0.48522E-03
 -0.25410E-02 -0.15156E-02  0.48513E-03
 -0.19342E-02 -0.13229E-02  0.48427E-03
 -0.99115E-03  0.10009E-02  0.48599E-03
 -0.14422E-02 -0.17337E-02  0.48384E-03
 -0.31219E-03  0.20221E-02  0.48429E-03
 -0.11014E-02  0.18570E-02  0.48394E-03
 -0.18820E-02  0.17179E-02  0.48149E-03
 -0.18687E-02  0.90915E-03  0.48591E-03
 -0.16150E-03 -0.19830E-02  0.48344E-03
 -0.94860E-03 -0.23509E-02  0.48354E-03
  0.78130E-03 -0.17096E-02  0.48312E-03
  0.17213E-02 -0.14928E-02  0.48163E-03
  0.32079E-02  0.77671E-03  0.48375E-03
  0.28032E-02  0.12545E-02  0.48416E-03
  0.23028E-02  0.18672E-02  0.48400E-03
 -0.40485E-03  0.28901E-02  0.47729E-03
 -0.12085E-02  0.27180E-02  0.47258E-03
 -0.19418E-02  0.24709E-02  0.46771E-03
 -0.24985E-02  0.22542E-02  0.46280E-03
 -0.26330E-02  0.16620E-02  0.47429E-03
 -0.27622E-02  0.88468E-03  0.48198E-03
 -0.21172E-02 -0.21349E-02  0.48472E-03
 -0.16131E-02 -0.26917E-02  0.48417E-03
 -0.12005E-02 -0.31277E-02  0.48333E-03
 -0.59352E-03 -0.30388E-02  0.48234E-03
  0.20270E-03 -0.28760E-02  0.48102E-03
  0.10540E-02 -0.26450E-02  0.47912E-03
  0.18415E-02 -0.23696E-02  0.47655E-03
  0.24558E-02 -0.21433E-02  0.47376E-03
  0.26033E-02 -0.15035E-02  0.47739E-03
  0.37939E-02  0.94584E-03  0.48376E-03
  0.39064E-02  0.14573E-04  0.47956E-03
  0.34569E-02  0.18246E-02  0.48521E-03
  0.29188E-02  0.25982E-02  0.48517E-03
  0.22135E-02  0.32204E-02  0.48474E-03
  0.13796E-02  0.36560E-02  0.48230E-03
  0.46433E-03  0.38821E-02  0.47413E-03
 -0.47747E-03  0.38886E-02  0.45871E-03
 -0.13893E-02  0.36759E-02  0.44061E-03
 -0.22187E-02  0.32536E-02  0.42904E-03
 -0.29204E-02  0.26397E-02  0.43305E-03
 -0.34574E-02  0.18630E-02  0.45210E-03
 -0.37964E-02  0.97443E-03  0.46985E-03
 -0.39143E-02  0.28748E-04  0.48143E-03
 -0.38041E-02 -0.91441E-03  0.48629E-03
 -0.34722E-02 -0.18003E-02  0.48722E-03
 -0.29382E-02 -0.25798E-02  0.48701E-03
 -0.22332E-02 -0.32086E-02  0.48575E-03
 -0.13979E-02 -0.36508E-02  0.48324E-03
 -0.48063E-03 -0.38789E-02  0.47959E-03
  0.46389E-03 -0.38781E-02  0.47480E-03
  0.13805E-02 -0.36484E-02  0.46947E-03
  0.22173E-02 -0.32049E-02  0.46514E-03
  0.29251E-02 -0.25755E-02  0.46448E-03
  0.34607E-02 -0.17979E-02  0.46811E-03
  0.37932E-02 -0.91754E-03  0.47386E-03
  0.10368E-02  0.67790E-03  0.14628E-02
  0.17434E-02  0.12374E-02  0.14628E-02
  0.23165E-02  0.59738E-03  0.14629E-02
  0.16678E-02 -0.33007E-03  0.14629E-02
  0.30370E-02  0.15751E-03  0.14615E-02
  0.27836E-02 -0.66568E-03  0.14595E-02
  0.12843E-02  0.18412E-02  0.14629E-02
  0.64908E-03  0.14681E-02  0.14632E-02
  0.12445E-03  0.31228E-03  0.14630E-02
 -0.12989E-03  0.11872E-02  0.14640E-02
  0.94113E-03  0.22737E-02  0.14630E-02
  0.11270E-02  0.28206E-02  0.14623E-02
  0.17427E-02  0.24244E-02  0.14631E-02
  0.40607E-03  0.21658E-02  0.14633E-02
  0.39656E-03  0.29308E-02  0.14601E-02
 -0.76703E-03 -0.10077E-02  0.14629E-02
 -0.86708E-03  0.86640E-04  0.14638E-02
  0.45588E-03 -0.69616E-03  0.14631E-02
 -0.18336E-02 -0.71258E-03  0.14638E-02
 -0.18424E-02  0.80902E-04  0.14650E-02
 -0.27251E-02 -0.77387E-03  0.14647E-02
 -0.28001E-02  0.47580E-04  0.14645E-02
 -0.25410E-02 -0.15160E-02  0.14644E-02
 -0.19346E-02 -0.13228E-02  0.14635E-02
 -0.99113E-03  0.10023E-02  0.14652E-02
 -0.14425E-02 -0.17337E-02  0.14631E-02
 -0.31212E-03  0.20224E-02  0.14636E-02
 -0.11013E-02  0.18569E-02  0.14633E-02
 -0.18827E-02  0.17178E-02  0.14609E-02
 -0.18690E-02  0.90946E-03  0.14651E-02
 -0.16176E-03 -0.19830E-02  0.14628E-02
 -0.94911E-03 -0.23509E-02  0.14628E-02
  0.78066E-03 -0.17096E-02  0.14624E-02
  0.17214E-02 -0.14930E-02  0.14607E-02
  0.32086E-02  0.77758E-03  0.14627E-02
  0.28035E-02  0.12546E-02  0.14632E-02
  0.23032E-02  0.18668E-02  0.14632E-02
 -0.40495E-03  0.28892E-02  0.14566E-02
 -0.12090E-02  0.27174E-02  0.14524E-02
 -0.19430E-02  0.24703E-02  0.14479E-02
 -0.25006E-02  0.22537E-02  0.14429E-02
 -0.26347E-02  0.16618E-02  0.14537E-02
 -0.27630E-02  0.88477E-03  0.14613E-02
 -0.21171E-02 -0.21352E-02  0.14639E-02
 -0.16128E-02 -0.26919E-02  0.14633E-02
 -0.12002E-02 -0.31277E-02  0.14622E-02
 -0.59369E-03 -0.30387E-02  0.14614E-02
  0.20233E-03 -0.28759E-02  0.14603E-02
  0.10537E-02 -0.26453E-02  0.14585E-02
  0.18415E-02 -0.23698E-02  0.14557E-02
  0.24558E-02 -0.21437E-02  0.14526E-02
  0.26034E-02 -0.15031E-02  0.14561E-02
  0.37945E-02  0.94574E-03  0.14626E-02
  0.39068E-02  0.15265E-04  0.14580E-02
  0.34577E-02  0.18236E-02  0.14642E-02
  0.29198E-02  0.25969E-02  0.14642E-02
  0.22147E-02  0.32194E-02  0.14638E-02
  0.13804E-02  0.36556E-02  0.14610E-02
  0.46439E-03  0.38824E-02  0.14521E-02
 -0.47795E-03  0.38896E-02  0.14370E-02
 -0.13904E-02  0.36759E-02  0.14213E-02
 -0.22212E-02  0.32519E-02  0.14115E-02
 -0.29246E-02  0.26384E-02  0.14144E-02
 -0.34616E-02  0.18626E-02  0.14320E-02
 -0.37990E-02  0.97352E-03  0.14498E-02
 -0.39152E-02  0.26939E-04  0.14615E-02
 -0.38039E-02 -0.91627E-03  0.14660E-02
 -0.34717E-02 -0.18019E-02  0.14665E-02
 -0.29375E-02 -0.25809E-02  0.14661E-02
 -0.22324E-02 -0.32092E-02  0.14646E-02
 -0.13972E-02 -0.36509E-02  0.14618E-02
 -0.48017E-03 -0.38787E-02  0.14582E-02
  0.46403E-03 -0.38780E-02  0.14541E-02
  0.13805E-02 -0.36486E-02  0.14494E-02
  0.22173E-02 -0.32051E-02  0.14446E-02
  0.29249E-02 -0.25752E-02  0.14430E-02
  0.34606E-02 -0.17969E-02  0.14461E-02
  0.37933E-02 -0.91632E-03  0.14519E-02
  0.10367E-02  0.67860E-03  0.24420E-02
  0.17432E-02  0.12383E-02  0.24419E-02
  0.23165E-02  0.59801E-03  0.24419E-02
  0.16676E-02 -0.32921E-03  0.24420E-02
  0.30372E-02  0.15776E-03  0.24405E-02
  0.27840E-02 -0.66526E-03  0.24386E-02
  0.12841E-02  0.18416E-02  0.24421E-02
  0.64876E-03  0.14692E-02  0.24424E-02
  0.12419E-03  0.31347E-03  0.24422E-02
 -0.13016E-03  0.11890E-02  0.24432E-02
  0.94069E-03  0.22739E-02  0.24422E-02
  0.11266E-02  0.28203E-02  0.24415E-02
  0.17423E-02  0.24247E-02  0.24423E-02
  0.40582E-03  0.21659E-02  0.24425E-02
  0.39626E-03  0.29307E-02  0.24394E-02
 -0.76734E-03 -0.10078E-02  0.24421E-02
 -0.86718E-03  0.87512E-04  0.24429E-02
  0.45546E-03 -0.69542E-03  0.24422E-02
 -0.18338E-02 -0.71233E-03  0.24429E-02
 -0.18423E-02  0.81204E-04  0.24440E-02
 -0.27249E-02 -0.77384E-03  0.24439E-02
 -0.27998E-02  0.47935E-04  0.24436E-02
 -0.25409E-02 -0.15163E-02  0.24434E-02
 -0.19349E-02 -0.13228E-02  0.24426E-02
 -0.99108E-03  0.10038E-02  0.24443E-02
 -0.14427E-02 -0.17338E-02  0.24422E-02
 -0.31220E-03  0.20227E-02  0.24429E-02
 -0.11014E-02  0.18568E-02  0.24427E-02
 -0.18832E-02  0.17177E-02  0.24402E-02
 -0.18690E-02  0.90983E-03  0.24441E-02
 -0.16191E-03 -0.19830E-02  0.24420E-02
 -0.94946E-03 -0.23510E-02  0.24419E-02
  0.78011E-03 -0.17097E-02  0.24417E-02
  0.17214E-02 -0.14933E-02  0.24401E-02
  0.32094E-02  0.77832E-03  0.24417E-02
  0.28038E-02  0.12549E-02  0.24423E-02
  0.23032E-02  0.18669E-02  0.24423E-02
 -0.40545E-03  0.28882E-02  0.24362E-02
 -0.12101E-02  0.27168E-02  0.24326E-02
 -0.19443E-02  0.24694E-02  0.24284E-02
 -0.25020E-02  0.22525E-02  0.24233E-02
 -0.26354E-02  0.16613E-02  0.24330E-02
 -0.27630E-02  0.88506E-03  0.24402E-02
 -0.21167E-02 -0.21357E-02  0.24429E-02
 -0.16123E-02 -0.26922E-02  0.24422E-02
 -0.11997E-02 -0.31278E-02  0.24411E-02
 -0.59367E-03 -0.30387E-02  0.24404E-02
  0.20213E-03 -0.28759E-02  0.24395E-02
  0.10535E-02 -0.26457E-02  0.24379E-02
  0.18416E-02 -0.23703E-02  0.24353E-02
  0.24559E-02 -0.21447E-02  0.24322E-02
  0.26035E-02 -0.15032E-02  0.24355E-02
  0.37953E-02  0.94503E-03  0.24416E-02
  0.39073E-02  0.14732E-04  0.24370E-02
  0.34585E-02  0.18230E-02  0.24432E-02
  0.29205E-02  0.25966E-02  0.24433E-02
  0.22151E-02  0.32195E-02  0.24430E-02
  0.13806E-02  0.36557E-02  0.24400E-02
  0.46413E-03  0.38825E-02  0.24310E-02
 -0.47916E-03  0.38896E-02  0.24171E-02
 -0.13927E-02  0.36752E-02  0.24033E-02
 -0.22241E-02  0.32499E-02  0.23950E-02
 -0.29269E-02  0.26352E-02  0.23965E-02
 -0.34629E-02  0.18611E-02  0.24110E-02
 -0.37995E-02  0.97316E-03  0.24287E-02
 -0.39150E-02  0.26080E-04  0.24411E-02
 -0.38035E-02 -0.91764E-03  0.24454E-02
 -0.34710E-02 -0.18033E-02  0.24455E-02
 -0.29364E-02 -0.25822E-02  0.24449E-02
 -0.22312E-02 -0.32100E-02  0.24432E-02
 -0.13962E-02 -0.36511E-02  0.24403E-02
 -0.47959E-03 -0.38785E-02  0.24368E-02
  0.46427E-03 -0.38778E-02  0.24331E-02
  0.13805E-02 -0.36489E-02  0.24291E-02
  0.22170E-02 -0.32059E-02  0.24247E-02
  0.29246E-02 -0.25760E-02  0.24231E-02
  0.34603E-02 -0.17974E-02  0.24256E-02
  0.37934E-02 -0.91668E-03  0.24309E-02
  0.10366E-02  0.67926E-03  0.34211E-02
  0.17429E-02  0.12392E-02  0.34211E-02
  0.23163E-02  0.59880E-03  0.34210E-02
  0.16674E-02 -0.32827E-03  0.34210E-02
  0.30372E-02  0.15812E-03  0.34196E-02
  0.27844E-02 -0.66498E-03  0.34178E-02
  0.12839E-02  0.18419E-02  0.34213E-02
  0.64848E-03  0.14702E-02  0.34216E-02
  0.12397E-03  0.31460E-03  0.34213E-02
 -0.13033E-03  0.11907E-02  0.34223E-02
  0.94022E-03  0.22741E-02  0.34215E-02
  0.11261E-02  0.28200E-02  0.34209E-02
  0.17417E-02  0.24252E-02  0.34215E-02
  0.40567E-03  0.21659E-02  0.34217E-02
  0.39605E-03  0.29304E-02  0.34189E-02
 -0.76763E-03 -0.10080E-02  0.34212E-02
 -0.86722E-03  0.88232E-04  0.34220E-02
  0.45507E-03 -0.69465E-03  0.34213E-02
 -0.18340E-02 -0.71230E-03  0.34220E-02
 -0.18421E-02  0.81236E-04  0.34231E-02
 -0.27244E-02 -0.77376E-03  0.34230E-02
 -0.27990E-02  0.48279E-04  0.34227E-02
 -0.25406E-02 -0.15164E-02  0.34225E-02
 -0.19351E-02 -0.13228E-02  0.34217E-02
 -0.99086E-03  0.10050E-02  0.34234E-02
 -0.14429E-02 -0.17339E-02  0.34213E-02
 -0.31208E-03  0.20229E-02  0.34221E-02
 -0.11010E-02  0.18566E-02  0.34218E-02
 -0.18827E-02  0.17175E-02  0.34192E-02
 -0.18686E-02  0.90996E-03  0.34231E-02
 -0.16206E-03 -0.19831E-02  0.34210E-02
 -0.94985E-03 -0.23512E-02  0.34209E-02
  0.77956E-03 -0.17096E-02  0.34207E-02
  0.17215E-02 -0.14935E-02  0.34192E-02
  0.32097E-02  0.77949E-03  0.34208E-02
  0.28037E-02  0.12557E-02  0.34215E-02
  0.23029E-02  0.18674E-02  0.34216E-02
 -0.40559E-03  0.28869E-02  0.34160E-02
 -0.12102E-02  0.27160E-02  0.34123E-02
 -0.19437E-02  0.24688E-02  0.34076E-02
 -0.25003E-02  0.22521E-02  0.34020E-02
 -0.26339E-02  0.16612E-02  0.34117E-02
 -0.27617E-02  0.88542E-03  0.34191E-02
 -0.21165E-02 -0.21358E-02  0.34220E-02
 -0.16120E-02 -0.26924E-02  0.34212E-02
 -0.11994E-02 -0.31279E-02  0.34201E-02
 -0.59375E-03 -0.30387E-02  0.34194E-02
  0.20193E-03 -0.28759E-02  0.34185E-02
  0.10534E-02 -0.26459E-02  0.34171E-02
  0.18419E-02 -0.23706E-02  0.34148E-02
  0.24563E-02 -0.21457E-02  0.34120E-02
  0.26037E-02 -0.15035E-02  0.34151E-02
  0.37954E-02  0.94501E-03  0.34206E-02
  0.39075E-02  0.14059E-04  0.34161E-02
  0.34585E-02  0.18234E-02  0.34225E-02
  0.29202E-02  0.25973E-02  0.34228E-02
  0.22147E-02  0.32201E-02  0.34223E-02
  0.13802E-02  0.36560E-02  0.34194E-02
  0.46384E-03  0.38824E-02  0.34113E-02
 -0.47977E-03  0.38889E-02  0.33986E-02
 -0.13933E-02  0.36743E-02  0.33845E-02
 -0.22231E-02  0.32493E-02  0.33743E-02
 -0.29234E-02  0.26347E-02  0.33745E-02
 -0.34592E-02  0.18614E-02  0.33887E-02
 -0.37972E-02  0.97396E-03  0.34070E-02
 -0.39135E-02  0.26576E-04  0.34200E-02
 -0.38022E-02 -0.91786E-03  0.34245E-02
 -0.34699E-02 -0.18037E-02  0.34245E-02
 -0.29355E-02 -0.25825E-02  0.34237E-02
 -0.22305E-02 -0.32103E-02  0.34220E-02
 -0.13955E-02 -0.36512E-02  0.34193E-02
 -0.47922E-03 -0.38784E-02  0.34160E-02
  0.46453E-03 -0.38776E-02  0.34123E-02
  0.13808E-02 -0.36488E-02  0.34084E-02
  0.22174E-02 -0.32062E-02  0.34046E-02
  0.29249E-02 -0.25771E-02  0.34036E-02
  0.34606E-02 -0.17990E-02  0.34061E-02
  0.37936E-02 -0.91809E-03  0.34107E-02
  0.10365E-02  0.67987E-03  0.44001E-02
  0.17428E-02  0.12399E-02  0.44001E-02
  0.23162E-02  0.59948E-03  0.43999E-02
  0.16672E-02 -0.32727E-03  0.43999E-02
  0.30371E-02  0.15857E-03  0.43985E-02
  0.27848E-02 -0.66440E-03  0.43968E-02
  0.12839E-02  0.18421E-02  0.44003E-02
  0.64833E-03  0.14712E-02  0.44006E-02
  0.12377E-03  0.31575E-03  0.44004E-02
 -0.13043E-03  0.11925E-02  0.44014E-02
  0.94001E-03  0.22742E-02  0.44005E-02
  0.11259E-02  0.28195E-02  0.43999E-02
  0.17414E-02  0.24253E-02  0.44005E-02
  0.40576E-03  0.21659E-02  0.44007E-02
  0.39625E-03  0.29300E-02  0.43980E-02
 -0.76795E-03 -0.10082E-02  0.44003E-02
 -0.86728E-03  0.88943E-04  0.44012E-02
  0.45465E-03 -0.69376E-03  0.44002E-02
 -0.18343E-02 -0.71227E-03  0.44012E-02
 -0.18419E-02  0.81210E-04  0.44023E-02
 -0.27244E-02 -0.77339E-03  0.44023E-02
 -0.27987E-02  0.48755E-04  0.44019E-02
 -0.25408E-02 -0.15162E-02  0.44019E-02
 -0.19355E-02 -0.13227E-02  0.44009E-02
 -0.99066E-03  0.10062E-02  0.44025E-02
 -0.14432E-02 -0.17338E-02  0.44004E-02
 -0.31174E-03  0.20231E-02  0.44011E-02
 -0.11005E-02  0.18563E-02  0.44007E-02
 -0.18823E-02  0.17176E-02  0.43980E-02
 -0.18684E-02  0.91011E-03  0.44022E-02
 -0.16232E-03 -0.19829E-02  0.43999E-02
 -0.95045E-03 -0.23511E-02  0.44000E-02
  0.77893E-03 -0.17093E-02  0.43996E-02
  0.17215E-02 -0.14934E-02  0.43982E-02
  0.32099E-02  0.78060E-03  0.43997E-02
  0.28037E-02  0.12562E-02  0.44005E-02
  0.23028E-02  0.18674E-02  0.44006E-02
 -0.40517E-03  0.28855E-02  0.43948E-02
 -0.12098E-02  0.27155E-02  0.43904E-02
 -0.19428E-02  0.24693E-02  0.43852E-02
 -0.24989E-02  0.22538E-02  0.43796E-02
 -0.26329E-02  0.16622E-02  0.43904E-02
 -0.27610E-02  0.88610E-03  0.43982E-02
 -0.21168E-02 -0.21357E-02  0.44012E-02
 -0.16121E-02 -0.26924E-02  0.44004E-02
 -0.11995E-02 -0.31280E-02  0.43995E-02
 -0.59397E-03 -0.30387E-02  0.43988E-02
  0.20167E-03 -0.28757E-02  0.43978E-02
  0.10532E-02 -0.26459E-02  0.43962E-02
  0.18421E-02 -0.23706E-02  0.43940E-02
  0.24565E-02 -0.21462E-02  0.43915E-02
  0.26039E-02 -0.15033E-02  0.43942E-02
  0.37952E-02  0.94502E-03  0.43996E-02
  0.39073E-02  0.13766E-04  0.43952E-02
  0.34584E-02  0.18235E-02  0.44015E-02
  0.29201E-02  0.25973E-02  0.44018E-02
  0.22146E-02  0.32200E-02  0.44012E-02
  0.13804E-02  0.36559E-02  0.43985E-02
  0.46419E-03  0.38820E-02  0.43910E-02
 -0.47926E-03  0.38879E-02  0.43775E-02
 -0.13922E-02  0.36744E-02  0.43606E-02
 -0.22209E-02  0.32521E-02  0.43480E-02
 -0.29204E-02  0.26394E-02  0.43497E-02
 -0.34567E-02  0.18652E-02  0.43667E-02
 -0.37960E-02  0.97588E-03  0.43858E-02
 -0.39134E-02  0.28114E-04  0.43989E-02
 -0.38023E-02 -0.91659E-03  0.44038E-02
 -0.34700E-02 -0.18029E-02  0.44041E-02
 -0.29358E-02 -0.25821E-02  0.44033E-02
 -0.22306E-02 -0.32104E-02  0.44016E-02
 -0.13954E-02 -0.36514E-02  0.43992E-02
 -0.47879E-03 -0.38787E-02  0.43963E-02
  0.46508E-03 -0.38779E-02  0.43925E-02
  0.13814E-02 -0.36490E-02  0.43883E-02
  0.22178E-02 -0.32064E-02  0.43846E-02
  0.29252E-02 -0.25776E-02  0.43837E-02
  0.34608E-02 -0.17997E-02  0.43859E-02
  0.37936E-02 -0.91869E-03  0.43901E-02
  0.10365E-02  0.68052E-03  0.53791E-02
  0.17429E-02  0.12405E-02  0.53791E-02
  0.23163E-02  0.59983E-03  0.53789E-02
  0.16671E-02 -0.32641E-03  0.53789E-02
  0.30373E-02  0.15851E-03  0.53776E-02
  0.27852E-02 -0.66420E-03  0.53760E-02
  0.12840E-02  0.18423E-02  0.53792E-02
  0.64816E-03  0.14723E-02  0.53796E-02
  0.12349E-03  0.31705E-03  0.53795E-02
 -0.13065E-03  0.11943E-02  0.53805E-02
  0.93994E-03  0.22744E-02  0.53793E-02
  0.11260E-02  0.28190E-02  0.53786E-02
  0.17415E-02  0.24252E-02  0.53793E-02
  0.40585E-03  0.21661E-02  0.53796E-02
  0.39663E-03  0.29296E-02  0.53768E-02
 -0.76844E-03 -0.10080E-02  0.53793E-02
 -0.86750E-03  0.89899E-04  0.53803E-02
  0.45417E-03 -0.69274E-03  0.53792E-02
 -0.18349E-02 -0.71178E-03  0.53803E-02
 -0.18421E-02  0.81574E-04  0.53814E-02
 -0.27252E-02 -0.77247E-03  0.53814E-02
 -0.27992E-02  0.49723E-04  0.53810E-02
 -0.25418E-02 -0.15155E-02  0.53811E-02
 -0.19364E-02 -0.13222E-02  0.53801E-02
 -0.99068E-03  0.10076E-02  0.53816E-02
 -0.14439E-02 -0.17333E-02  0.53795E-02
 -0.31153E-03  0.20234E-02  0.53800E-02
 -0.11003E-02  0.18561E-02  0.53798E-02
 -0.18828E-02  0.17178E-02  0.53773E-02
 -0.18686E-02  0.91047E-03  0.53815E-02
 -0.16273E-03 -0.19825E-02  0.53789E-02
 -0.95126E-03 -0.23507E-02  0.53791E-02
  0.77818E-03 -0.17089E-02  0.53786E-02
  0.17214E-02 -0.14936E-02  0.53772E-02
  0.32106E-02  0.78102E-03  0.53787E-02
  0.28040E-02  0.12561E-02  0.53794E-02
  0.23032E-02  0.18670E-02  0.53795E-02
 -0.40473E-03  0.28842E-02  0.53734E-02
 -0.12098E-02  0.27149E-02  0.53688E-02
 -0.19435E-02  0.24696E-02  0.53636E-02
 -0.25004E-02  0.22552E-02  0.53583E-02
 -0.26341E-02  0.16630E-02  0.53699E-02
 -0.27617E-02  0.88695E-03  0.53776E-02
 -0.21175E-02 -0.21353E-02  0.53805E-02
 -0.16125E-02 -0.26922E-02  0.53799E-02
 -0.11997E-02 -0.31278E-02  0.53793E-02
 -0.59438E-03 -0.30385E-02  0.53784E-02
  0.20122E-03 -0.28756E-02  0.53773E-02
  0.10528E-02 -0.26462E-02  0.53758E-02
  0.18420E-02 -0.23711E-02  0.53737E-02
  0.24566E-02 -0.21472E-02  0.53712E-02
  0.26039E-02 -0.15035E-02  0.53736E-02
  0.37957E-02  0.94404E-03  0.53787E-02
  0.39075E-02  0.12727E-04  0.53745E-02
  0.34591E-02  0.18223E-02  0.53804E-02
  0.29211E-02  0.25962E-02  0.53805E-02
  0.22157E-02  0.32193E-02  0.53800E-02
  0.13813E-02  0.36554E-02  0.53775E-02
  0.46516E-03  0.38813E-02  0.53700E-02
 -0.47817E-03  0.38869E-02  0.53556E-02
 -0.13917E-02  0.36744E-02  0.53368E-02
 -0.22219E-02  0.32546E-02  0.53233E-02
 -0.29230E-02  0.26434E-02  0.53267E-02
 -0.34593E-02  0.18679E-02  0.53464E-02
 -0.37981E-02  0.97745E-03  0.53654E-02
 -0.39153E-02  0.29906E-04  0.53780E-02
 -0.38042E-02 -0.91484E-03  0.53831E-02
 -0.34717E-02 -0.18020E-02  0.53837E-02
 -0.29369E-02 -0.25819E-02  0.53829E-02
 -0.22310E-02 -0.32104E-02  0.53815E-02
 -0.13953E-02 -0.36516E-02  0.53795E-02
 -0.47858E-03 -0.38790E-02  0.53770E-02
  0.46532E-03 -0.38784E-02  0.53735E-02
  0.13815E-02 -0.36498E-02  0.53694E-02
  0.22177E-02 -0.32076E-02  0.53658E-02
  0.29251E-02 -0.25788E-02  0.53643E-02
  0.34607E-02 -0.18008E-02  0.53659E-02
  0.37936E-02 -0.91976E-03  0.53697E-02
  0.10364E-02  0.68135E-03  0.63582E-02
  0.17428E-02  0.12413E-02  0.63581E-02
  0.23163E-02  0.60034E-03  0.63579E-02
  0.16669E-02 -0.32542E-03  0.63579E-02
  0.30375E-02  0.15818E-03  0.63568E-02
  0.27856E-02 -0.66449E-03  0.63555E-02
  0.12840E-02  0.18427E-02  0.63583E-02
  0.64792E-03  0.14736E-02  0.63586E-02
  0.12317E-03  0.31847E-03  0.63585E-02
 -0.13092E-03  0.11963E-02  0.63596E-02
  0.93976E-03  0.22748E-02  0.63583E-02
  0.11261E-02  0.28187E-02  0.63576E-02
  0.17416E-02  0.24253E-02  0.63582E-02
  0.40583E-03  0.21664E-02  0.63586E-02
  0.39692E-03  0.29295E-02  0.63558E-02
 -0.76895E-03 -0.10076E-02  0.63582E-02
 -0.86773E-03  0.91064E-04  0.63593E-02
  0.45368E-03 -0.69162E-03  0.63581E-02
 -0.18354E-02 -0.71118E-03  0.63593E-02
 -0.18423E-02  0.82162E-04  0.63603E-02
 -0.27258E-02 -0.77217E-03  0.63605E-02
 -0.27997E-02  0.50013E-04  0.63600E-02
 -0.25425E-02 -0.15152E-02  0.63601E-02
 -0.19372E-02 -0.13216E-02  0.63590E-02
 -0.99072E-03  0.10093E-02  0.63607E-02
 -0.14445E-02 -0.17327E-02  0.63585E-02
 -0.31141E-03  0.20239E-02  0.63591E-02
 -0.11003E-02  0.18560E-02  0.63591E-02
 -0.18836E-02  0.17178E-02  0.63568E-02
 -0.18690E-02  0.91109E-03  0.63605E-02
 -0.16307E-03 -0.19820E-02  0.63579E-02
 -0.95197E-03 -0.23502E-02  0.63582E-02
  0.77751E-03 -0.17086E-02  0.63576E-02
  0.17214E-02 -0.14939E-02  0.63566E-02
  0.32112E-02  0.78126E-03  0.63578E-02
  0.28044E-02  0.12561E-02  0.63583E-02
  0.23036E-02  0.18669E-02  0.63583E-02
 -0.40444E-03  0.28830E-02  0.63529E-02
 -0.12103E-02  0.27140E-02  0.63489E-02
 -0.19449E-02  0.24688E-02  0.63441E-02
 -0.25029E-02  0.22545E-02  0.63387E-02
 -0.26360E-02  0.16627E-02  0.63495E-02
 -0.27627E-02  0.88713E-03  0.63567E-02
 -0.21179E-02 -0.21350E-02  0.63595E-02
 -0.16126E-02 -0.26918E-02  0.63590E-02
 -0.11998E-02 -0.31275E-02  0.63587E-02
 -0.59469E-03 -0.30381E-02  0.63578E-02
  0.20090E-03 -0.28754E-02  0.63569E-02
  0.10526E-02 -0.26467E-02  0.63558E-02
  0.18421E-02 -0.23721E-02  0.63540E-02
  0.24567E-02 -0.21493E-02  0.63520E-02
  0.26040E-02 -0.15045E-02  0.63537E-02
  0.37961E-02  0.94252E-03  0.63578E-02
  0.39078E-02  0.10663E-04  0.63543E-02
  0.34598E-02  0.18210E-02  0.63591E-02
  0.29224E-02  0.25952E-02  0.63591E-02
  0.22171E-02  0.32188E-02  0.63587E-02
  0.13824E-02  0.36553E-02  0.63564E-02
  0.46615E-03  0.38810E-02  0.63494E-02
 -0.47719E-03  0.38860E-02  0.63364E-02
 -0.13921E-02  0.36726E-02  0.63194E-02
 -0.22248E-02  0.32524E-02  0.63065E-02
 -0.29278E-02  0.26417E-02  0.63085E-02
 -0.34640E-02  0.18659E-02  0.63268E-02
 -0.38013E-02  0.97498E-03  0.63453E-02
 -0.39172E-02  0.27889E-04  0.63576E-02
 -0.38054E-02 -0.91589E-03  0.63624E-02
 -0.34724E-02 -0.18024E-02  0.63627E-02
 -0.29370E-02 -0.25820E-02  0.63620E-02
 -0.22308E-02 -0.32102E-02  0.63608E-02
 -0.13951E-02 -0.36514E-02  0.63593E-02
 -0.47836E-03 -0.38790E-02  0.63572E-02
  0.46566E-03 -0.38790E-02  0.63545E-02
  0.13818E-02 -0.36514E-02  0.63515E-02
  0.22179E-02 -0.32102E-02  0.63485E-02
  0.29250E-02 -0.25820E-02  0.63467E-02
  0.34604E-02 -0.18041E-02  0.63475E-02
  0.37935E-02 -0.92259E-03  0.63503E-02
  0.10364E-02  0.68221E-03  0.73371E-02
  0.17429E-02  0.12422E-02  0.73371E-02
  0.23166E-02  0.60090E-03  0.73368E-02
  0.16670E-02 -0.32441E-03  0.73367E-02
  0.30382E-02  0.15754E-03  0.73359E-02
  0.27866E-02 -0.66514E-03  0.73349E-02
  0.12841E-02  0.18431E-02  0.73373E-02
  0.64781E-03  0.14748E-02  0.73378E-02
  0.12299E-03  0.31990E-03  0.73375E-02
 -0.13106E-03  0.11982E-02  0.73386E-02
  0.93950E-03  0.22751E-02  0.73374E-02
  0.11256E-02  0.28185E-02  0.73367E-02
  0.17414E-02  0.24256E-02  0.73372E-02
  0.40580E-03  0.21666E-02  0.73378E-02
  0.39666E-03  0.29296E-02  0.73351E-02
 -0.76919E-03 -0.10074E-02  0.73371E-02
 -0.86782E-03  0.92246E-04  0.73382E-02
  0.45339E-03 -0.69052E-03  0.73369E-02
 -0.18356E-02 -0.71074E-03  0.73382E-02
 -0.18422E-02  0.82729E-04  0.73392E-02
 -0.27255E-02 -0.77243E-03  0.73395E-02
 -0.27995E-02  0.49950E-04  0.73390E-02
 -0.25421E-02 -0.15154E-02  0.73390E-02
 -0.19374E-02 -0.13214E-02  0.73379E-02
 -0.99066E-03  0.10110E-02  0.73396E-02
 -0.14445E-02 -0.17325E-02  0.73373E-02
 -0.31131E-03  0.20244E-02  0.73383E-02
 -0.11003E-02  0.18563E-02  0.73382E-02
 -0.18843E-02  0.17186E-02  0.73354E-02
 -0.18691E-02  0.91197E-03  0.73392E-02
 -0.16286E-03 -0.19818E-02  0.73367E-02
 -0.95194E-03 -0.23501E-02  0.73370E-02
  0.77739E-03 -0.17084E-02  0.73365E-02
  0.17221E-02 -0.14945E-02  0.73357E-02
  0.32124E-02  0.78119E-03  0.73368E-02
  0.28049E-02  0.12562E-02  0.73372E-02
  0.23038E-02  0.18670E-02  0.73372E-02
 -0.40478E-03  0.28824E-02  0.73324E-02
 -0.12112E-02  0.27140E-02  0.73284E-02
 -0.19464E-02  0.24693E-02  0.73230E-02
 -0.25048E-02  0.22558E-02  0.73168E-02
 -0.26371E-02  0.16640E-02  0.73273E-02
 -0.27629E-02  0.88781E-03  0.73352E-02
 -0.21174E-02 -0.21350E-02  0.73383E-02
 -0.16116E-02 -0.26918E-02  0.73379E-02
 -0.11984E-02 -0.31277E-02  0.73378E-02
 -0.59368E-03 -0.30382E-02  0.73371E-02
  0.20178E-03 -0.28757E-02  0.73364E-02
  0.10536E-02 -0.26476E-02  0.73355E-02
  0.18435E-02 -0.23739E-02  0.73343E-02
  0.24582E-02 -0.21524E-02  0.73327E-02
  0.26050E-02 -0.15062E-02  0.73337E-02
  0.37974E-02  0.94013E-03  0.73370E-02
  0.39089E-02  0.74443E-05  0.73340E-02
  0.34605E-02  0.18199E-02  0.73380E-02
  0.29227E-02  0.25949E-02  0.73378E-02
  0.22172E-02  0.32189E-02  0.73374E-02
  0.13820E-02  0.36556E-02  0.73353E-02
  0.46539E-03  0.38817E-02  0.73286E-02
 -0.47847E-03  0.38867E-02  0.73163E-02
 -0.13945E-02  0.36730E-02  0.73001E-02
 -0.22282E-02  0.32528E-02  0.72866E-02
 -0.29314E-02  0.26432E-02  0.72862E-02
 -0.34662E-02  0.18677E-02  0.73033E-02
 -0.38022E-02  0.97329E-03  0.73241E-02
 -0.39172E-02  0.24359E-04  0.73373E-02
 -0.38046E-02 -0.91861E-03  0.73417E-02
 -0.34711E-02 -0.18037E-02  0.73416E-02
 -0.29355E-02 -0.25825E-02  0.73406E-02
 -0.22290E-02 -0.32107E-02  0.73398E-02
 -0.13928E-02 -0.36519E-02  0.73389E-02
 -0.47572E-03 -0.38798E-02  0.73376E-02
  0.46832E-03 -0.38804E-02  0.73358E-02
  0.13844E-02 -0.36540E-02  0.73338E-02
  0.22203E-02 -0.32143E-02  0.73313E-02
  0.29270E-02 -0.25870E-02  0.73294E-02
  0.34618E-02 -0.18089E-02  0.73293E-02
  0.37945E-02 -0.92654E-03  0.73309E-02
  0.10369E-02  0.68237E-03  0.83162E-02
  0.17435E-02  0.12423E-02  0.83161E-02
  0.23178E-02  0.60031E-03  0.83157E-02
  0.16679E-02 -0.32423E-03  0.83154E-02
  0.30406E-02  0.15475E-03  0.83151E-02
  0.27895E-02 -0.66785E-03  0.83142E-02
  0.12845E-02  0.18427E-02  0.83166E-02
  0.64804E-03  0.14752E-02  0.83170E-02
  0.12308E-03  0.32070E-03  0.83165E-02
 -0.13095E-03  0.11995E-02  0.83178E-02
  0.93934E-03  0.22747E-02  0.83168E-02
  0.11248E-02  0.28179E-02  0.83160E-02
  0.17411E-02  0.24252E-02  0.83164E-02
  0.40583E-03  0.21662E-02  0.83171E-02
  0.39559E-03  0.29295E-02  0.83145E-02
 -0.76897E-03 -0.10080E-02  0.83159E-02
 -0.86760E-03  0.92669E-04  0.83174E-02
  0.45352E-03 -0.69001E-03  0.83155E-02
 -0.18351E-02 -0.71126E-03  0.83176E-02
 -0.18416E-02  0.82230E-04  0.83186E-02
 -0.27237E-02 -0.77329E-03  0.83193E-02
 -0.27980E-02  0.49214E-04  0.83187E-02
 -0.25401E-02 -0.15165E-02  0.83186E-02
 -0.19365E-02 -0.13221E-02  0.83172E-02
 -0.99039E-03  0.10120E-02  0.83188E-02
 -0.14436E-02 -0.17332E-02  0.83162E-02
 -0.31129E-03  0.20244E-02  0.83175E-02
 -0.11006E-02  0.18560E-02  0.83171E-02
 -0.18854E-02  0.17183E-02  0.83140E-02
 -0.18690E-02  0.91169E-03  0.83183E-02
 -0.16176E-03 -0.19824E-02  0.83153E-02
 -0.95067E-03 -0.23508E-02  0.83160E-02
  0.77831E-03 -0.17092E-02  0.83151E-02
  0.17244E-02 -0.14965E-02  0.83148E-02
  0.32156E-02  0.77872E-03  0.83159E-02
  0.28068E-02  0.12547E-02  0.83162E-02
  0.23046E-02  0.18660E-02  0.83163E-02
 -0.40639E-03  0.28817E-02  0.83119E-02
 -0.12138E-02  0.27138E-02  0.83080E-02
 -0.19496E-02  0.24689E-02  0.83022E-02
 -0.25086E-02  0.22553E-02  0.82950E-02
 -0.26388E-02  0.16636E-02  0.83052E-02
 -0.27624E-02  0.88733E-03  0.83140E-02
 -0.21152E-02 -0.21361E-02  0.83177E-02
 -0.16089E-02 -0.26928E-02  0.83174E-02
 -0.11949E-02 -0.31286E-02  0.83182E-02
 -0.59078E-03 -0.30392E-02  0.83173E-02
  0.20446E-03 -0.28771E-02  0.83166E-02
  0.10567E-02 -0.26503E-02  0.83160E-02
  0.18477E-02 -0.23781E-02  0.83151E-02
  0.24631E-02 -0.21587E-02  0.83141E-02
  0.26088E-02 -0.15105E-02  0.83138E-02
  0.38020E-02  0.93389E-03  0.83163E-02
  0.39131E-02  0.97114E-07  0.83140E-02
  0.34639E-02  0.18160E-02  0.83168E-02
  0.29238E-02  0.25932E-02  0.83166E-02
  0.22166E-02  0.32182E-02  0.83164E-02
  0.13802E-02  0.36561E-02  0.83144E-02
  0.46196E-03  0.38833E-02  0.83082E-02
 -0.48367E-03  0.38886E-02  0.82972E-02
 -0.14014E-02  0.36737E-02  0.82826E-02
 -0.22365E-02  0.32514E-02  0.82691E-02
 -0.29391E-02  0.26419E-02  0.82649E-02
 -0.34700E-02  0.18684E-02  0.82788E-02
 -0.38012E-02  0.97305E-03  0.83019E-02
 -0.39142E-02  0.23150E-04  0.83175E-02
 -0.38007E-02 -0.92016E-03  0.83223E-02
 -0.34667E-02 -0.18055E-02  0.83219E-02
 -0.29313E-02 -0.25840E-02  0.83206E-02
 -0.22244E-02 -0.32118E-02  0.83203E-02
 -0.13875E-02 -0.36530E-02  0.83210E-02
 -0.46999E-03 -0.38815E-02  0.83216E-02
  0.47415E-03 -0.38838E-02  0.83209E-02
  0.13907E-02 -0.36599E-02  0.83192E-02
  0.22272E-02 -0.32230E-02  0.83167E-02
  0.29338E-02 -0.25971E-02  0.83137E-02
  0.34676E-02 -0.18184E-02  0.83118E-02
  0.37990E-02 -0.93474E-03  0.83119E-02
  0.10382E-02  0.68159E-03  0.92953E-02
  0.17451E-02  0.12414E-02  0.92952E-02
  0.23201E-02  0.59864E-03  0.92946E-02
  0.16693E-02 -0.32487E-03  0.92940E-02
  0.30446E-02  0.15005E-03  0.92944E-02
  0.27934E-02 -0.67250E-03  0.92941E-02
  0.12861E-02  0.18413E-02  0.92959E-02
  0.64931E-03  0.14746E-02  0.92964E-02
  0.12405E-03  0.32052E-03  0.92959E-02
 -0.12980E-03  0.11998E-02  0.92972E-02
  0.94037E-03  0.22734E-02  0.92960E-02
  0.11254E-02  0.28164E-02  0.92953E-02
  0.17422E-02  0.24239E-02  0.92956E-02
  0.40697E-03  0.21648E-02  0.92963E-02
  0.39586E-03  0.29286E-02  0.92937E-02
 -0.76774E-03 -0.10096E-02  0.92948E-02
 -0.86628E-03  0.91838E-04  0.92970E-02
  0.45430E-03 -0.69031E-03  0.92941E-02
 -0.18330E-02 -0.71304E-03  0.92974E-02
 -0.18393E-02  0.80334E-04  0.92985E-02
 -0.27195E-02 -0.77334E-03  0.92999E-02
 -0.27934E-02  0.49408E-04  0.92985E-02
 -0.25360E-02 -0.15168E-02  0.92993E-02
 -0.19340E-02 -0.13236E-02  0.92969E-02
 -0.98868E-03  0.10118E-02  0.92981E-02
 -0.14414E-02 -0.17345E-02  0.92953E-02
 -0.31010E-03  0.20235E-02  0.92965E-02
 -0.10990E-02  0.18546E-02  0.92957E-02
 -0.18834E-02  0.17166E-02  0.92918E-02
 -0.18665E-02  0.91002E-03  0.92974E-02
 -0.16032E-03 -0.19835E-02  0.92938E-02
 -0.94899E-03 -0.23515E-02  0.92953E-02
  0.77935E-03 -0.17105E-02  0.92937E-02
  0.17267E-02 -0.14993E-02  0.92941E-02
  0.32208E-02  0.77451E-03  0.92948E-02
  0.28105E-02  0.12519E-02  0.92948E-02
  0.23069E-02  0.18641E-02  0.92951E-02
 -0.40643E-03  0.28801E-02  0.92910E-02
 -0.12139E-02  0.27123E-02  0.92866E-02
 -0.19490E-02  0.24665E-02  0.92797E-02
 -0.25070E-02  0.22526E-02  0.92707E-02
 -0.26358E-02  0.16621E-02  0.92811E-02
 -0.27581E-02  0.88715E-03  0.92917E-02
 -0.21117E-02 -0.21362E-02  0.92981E-02
 -0.16060E-02 -0.26922E-02  0.92986E-02
 -0.11925E-02 -0.31273E-02  0.93014E-02
 -0.58888E-03 -0.30393E-02  0.92999E-02
  0.20605E-03 -0.28786E-02  0.92987E-02
  0.10586E-02 -0.26535E-02  0.92980E-02
  0.18506E-02 -0.23832E-02  0.92976E-02
  0.24671E-02 -0.21667E-02  0.92974E-02
  0.26126E-02 -0.15165E-02  0.92950E-02
  0.38096E-02  0.92528E-03  0.92951E-02
  0.39201E-02 -0.11235E-04  0.92945E-02
  0.34706E-02  0.18106E-02  0.92949E-02
  0.29275E-02  0.25903E-02  0.92950E-02
  0.22178E-02  0.32169E-02  0.92954E-02
  0.13800E-02  0.36559E-02  0.92939E-02
  0.46060E-03  0.38841E-02  0.92883E-02
 -0.48615E-03  0.38895E-02  0.92783E-02
 -0.14044E-02  0.36726E-02  0.92643E-02
 -0.22387E-02  0.32469E-02  0.92488E-02
 -0.29390E-02  0.26369E-02  0.92389E-02
 -0.34665E-02  0.18700E-02  0.92486E-02
 -0.37940E-02  0.98097E-03  0.92750E-02
 -0.39055E-02  0.32050E-04  0.92965E-02
 -0.37926E-02 -0.91364E-03  0.93046E-02
 -0.34601E-02 -0.18015E-02  0.93050E-02
 -0.29267E-02 -0.25807E-02  0.93039E-02
 -0.22214E-02 -0.32078E-02  0.93052E-02
 -0.13848E-02 -0.36495E-02  0.93092E-02
 -0.46749E-03 -0.38807E-02  0.93128E-02
  0.47631E-03 -0.38867E-02  0.93128E-02
  0.13928E-02 -0.36663E-02  0.93103E-02
  0.22302E-02 -0.32329E-02  0.93067E-02
  0.29385E-02 -0.26099E-02  0.93015E-02
  0.34736E-02 -0.18321E-02  0.92968E-02
  0.38057E-02 -0.94783E-03  0.92944E-02
  0.10362E-02  0.68427E-03  0.10274E-01
  0.17429E-02  0.12448E-02  0.10273E-01
  0.23167E-02  0.60267E-03  0.10272E-01
  0.16655E-02 -0.32081E-03  0.10272E-01
  0.30396E-02  0.15295E-03  0.10272E-01
  0.27873E-02 -0.67030E-03  0.10273E-01
  0.12839E-02  0.18435E-02  0.10274E-01
  0.64682E-03  0.14771E-02  0.10275E-01
  0.12191E-03  0.32269E-03  0.10275E-01
 -0.13217E-03  0.12018E-02  0.10277E-01
  0.93830E-03  0.22751E-02  0.10274E-01
  0.11251E-02  0.28175E-02  0.10272E-01
  0.17416E-02  0.24260E-02  0.10273E-01
  0.40522E-03  0.21658E-02  0.10275E-01
  0.39679E-03  0.29293E-02  0.10270E-01
 -0.77211E-03 -0.10091E-02  0.10273E-01
 -0.86919E-03  0.91770E-04  0.10277E-01
  0.45106E-03 -0.68753E-03  0.10272E-01
 -0.18397E-02 -0.71256E-03  0.10278E-01
 -0.18443E-02  0.79215E-04  0.10280E-01
 -0.27332E-02 -0.76350E-03  0.10282E-01
 -0.28051E-02  0.59744E-04  0.10278E-01
 -0.25516E-02 -0.15058E-02  0.10282E-01
 -0.19435E-02 -0.13200E-02  0.10277E-01
 -0.99121E-03  0.10117E-02  0.10278E-01
 -0.14502E-02 -0.17309E-02  0.10274E-01
 -0.31118E-03  0.20236E-02  0.10275E-01
 -0.10998E-02  0.18535E-02  0.10273E-01
 -0.18851E-02  0.17178E-02  0.10264E-01
 -0.18705E-02  0.90953E-03  0.10276E-01
 -0.16800E-03 -0.19805E-02  0.10272E-01
 -0.96048E-03 -0.23459E-02  0.10276E-01
  0.77135E-03 -0.17072E-02  0.10272E-01
  0.17174E-02 -0.14957E-02  0.10274E-01
  0.32157E-02  0.77940E-03  0.10271E-01
  0.28072E-02  0.12564E-02  0.10271E-01
  0.23059E-02  0.18671E-02  0.10272E-01
 -0.40397E-03  0.28791E-02  0.10266E-01
 -0.12105E-02  0.27120E-02  0.10258E-01
 -0.19456E-02  0.24699E-02  0.10244E-01
 -0.25049E-02  0.22640E-02  0.10226E-01
 -0.26391E-02  0.16741E-02  0.10244E-01
 -0.27664E-02  0.89897E-03  0.10264E-01
 -0.21276E-02 -0.21249E-02  0.10281E-01
 -0.16235E-02 -0.26796E-02  0.10283E-01
 -0.12133E-02 -0.31137E-02  0.10291E-01
 -0.60643E-03 -0.30309E-02  0.10287E-01
  0.19022E-03 -0.28740E-02  0.10284E-01
  0.10419E-02 -0.26502E-02  0.10283E-01
  0.18326E-02 -0.23798E-02  0.10282E-01
  0.24484E-02 -0.21649E-02  0.10283E-01
  0.26006E-02 -0.15145E-02  0.10277E-01
  0.38024E-02  0.92915E-03  0.10270E-01
  0.39153E-02 -0.12821E-04  0.10274E-01
  0.34682E-02  0.18158E-02  0.10269E-01
  0.29304E-02  0.25936E-02  0.10270E-01
  0.22216E-02  0.32186E-02  0.10271E-01
  0.13845E-02  0.36573E-02  0.10269E-01
  0.46711E-03  0.38855E-02  0.10263E-01
 -0.47665E-03  0.38906E-02  0.10250E-01
 -0.13911E-02  0.36746E-02  0.10228E-01
 -0.22245E-02  0.32557E-02  0.10197E-01
 -0.29310E-02  0.26619E-02  0.10174E-01
 -0.34717E-02  0.19144E-02  0.10186E-01
 -0.38139E-02  0.10337E-02  0.10231E-01
 -0.39347E-02  0.79968E-04  0.10272E-01
 -0.38248E-02 -0.87451E-03  0.10291E-01
 -0.34916E-02 -0.17693E-02  0.10294E-01
 -0.29568E-02 -0.25522E-02  0.10294E-01
 -0.22517E-02 -0.31811E-02  0.10300E-01
 -0.14153E-02 -0.36276E-02  0.10310E-01
 -0.49675E-03 -0.38679E-02  0.10317E-01
  0.44691E-03 -0.38816E-02  0.10317E-01
  0.13604E-02 -0.36638E-02  0.10310E-01
  0.21968E-02 -0.32311E-02  0.10303E-01
  0.29110E-02 -0.26103E-02  0.10293E-01
  0.34572E-02 -0.18363E-02  0.10283E-01
  0.37989E-02 -0.95320E-03  0.10277E-01
  0.10238E-02  0.69595E-03  0.11251E-01
  0.17289E-02  0.12584E-02  0.11248E-01
  0.22988E-02  0.61951E-03  0.11246E-01
  0.16487E-02 -0.30599E-03  0.11248E-01
  0.30140E-02  0.17203E-03  0.11246E-01
  0.27600E-02 -0.65359E-03  0.11251E-01
  0.12693E-02  0.18546E-02  0.11250E-01
  0.63198E-03  0.14876E-02  0.11253E-01
  0.10958E-03  0.33168E-03  0.11254E-01
 -0.14660E-03  0.12098E-02  0.11257E-01
  0.92405E-03  0.22848E-02  0.11250E-01
  0.11158E-02  0.28259E-02  0.11246E-01
  0.17313E-02  0.24367E-02  0.11247E-01
  0.39171E-03  0.21739E-02  0.11252E-01
  0.39049E-03  0.29358E-02  0.11244E-01
 -0.79334E-03 -0.10020E-02  0.11250E-01
 -0.88590E-03  0.95612E-04  0.11258E-01
  0.43646E-03 -0.67691E-03  0.11249E-01
 -0.18714E-02 -0.70507E-03  0.11259E-01
 -0.18720E-02  0.81875E-04  0.11262E-01
 -0.27906E-02 -0.73784E-03  0.11267E-01
 -0.28599E-02  0.85574E-04  0.11259E-01
 -0.26130E-02 -0.14768E-02  0.11267E-01
 -0.19849E-02 -0.13053E-02  0.11257E-01
 -0.10094E-02  0.10145E-02  0.11260E-01
 -0.14883E-02 -0.17161E-02  0.11253E-01
 -0.32339E-03  0.20286E-02  0.11253E-01
 -0.11157E-02  0.18562E-02  0.11247E-01
 -0.19104E-02  0.17276E-02  0.11228E-01
 -0.18989E-02  0.91336E-03  0.11254E-01
 -0.19728E-03 -0.19685E-02  0.11251E-01
 -0.10030E-02 -0.23274E-02  0.11258E-01
  0.74374E-03 -0.16946E-02  0.11250E-01
  0.16848E-02 -0.14800E-02  0.11253E-01
  0.31875E-02  0.80213E-03  0.11243E-01
  0.27864E-02  0.12758E-02  0.11243E-01
  0.22936E-02  0.18813E-02  0.11245E-01
 -0.40678E-03  0.28822E-02  0.11237E-01
 -0.12155E-02  0.27173E-02  0.11218E-01
 -0.19602E-02  0.24869E-02  0.11187E-01
 -0.25312E-02  0.23008E-02  0.11152E-01
 -0.26784E-02  0.17098E-02  0.11187E-01
 -0.28166E-02  0.92991E-03  0.11229E-01
 -0.21874E-02 -0.20947E-02  0.11266E-01
 -0.16842E-02 -0.26479E-02  0.11273E-01
 -0.12792E-02 -0.30811E-02  0.11288E-01
 -0.66218E-03 -0.30082E-02  0.11281E-01
  0.14179E-03 -0.28591E-02  0.11275E-01
  0.99237E-03 -0.26363E-02  0.11271E-01
  0.17784E-02 -0.23629E-02  0.11270E-01
  0.23917E-02 -0.21474E-02  0.11270E-01
  0.25592E-02 -0.14975E-02  0.11259E-01
  0.37647E-02  0.95508E-03  0.11241E-01
  0.38838E-02  0.61200E-05  0.11249E-01
  0.34435E-02  0.18395E-02  0.11239E-01
  0.29237E-02  0.26091E-02  0.11242E-01
  0.22215E-02  0.32280E-02  0.11242E-01
  0.13874E-02  0.36646E-02  0.11239E-01
  0.47486E-03  0.38915E-02  0.11229E-01
 -0.46251E-03  0.38956E-02  0.11208E-01
 -0.13743E-02  0.36852E-02  0.11166E-01
 -0.22191E-02  0.32879E-02  0.11104E-01
 -0.29526E-02  0.27308E-02  0.11058E-01
 -0.35283E-02  0.20158E-02  0.11083E-01
 -0.39071E-02  0.11415E-02  0.11168E-01
 -0.40487E-02  0.17342E-03  0.11247E-01
 -0.39395E-02 -0.79760E-03  0.11282E-01
 -0.35969E-02 -0.17032E-02  0.11289E-01
 -0.30514E-02 -0.24917E-02  0.11292E-01
 -0.23410E-02 -0.31252E-02  0.11304E-01
 -0.15026E-02 -0.35818E-02  0.11323E-01
 -0.57819E-03 -0.38388E-02  0.11335E-01
  0.36852E-03 -0.38660E-02  0.11333E-01
  0.12773E-02 -0.36507E-02  0.11320E-01
  0.21109E-02 -0.32142E-02  0.11305E-01
  0.28351E-02 -0.25924E-02  0.11287E-01
  0.34028E-02 -0.18225E-02  0.11269E-01
  0.37645E-02 -0.94066E-03  0.11258E-01
  
CELLS       3486               17724
       1       0
       1       1
       1       2
       1       3
       1       4
       1       5
       1       6
       1       7
       1       8
       1       9
       1      10
       1      11
       1      12
       1      13
       1      14
       1      15
       1      16
       1      17
       1      18
       1      19
       1      20
       1      21
       1      22
       1      23
       1      24
       1      25
       1      26
       1      27
       1      28
       1      29
       1      30
       1      31
       1      32
       1      33
       1      34
       1      35
       1      36
       1      37
       1      38
       1      39
       1      40
       1      41
       1      42
       1      43
       1      44
       1      45
       1      46
       1      47
       1      48
       1      49
       1      50
       1      51
       1      52
       1      53
       1      54
       1      55
       1      56
       1      57
       1      58
       1      59
       1      60
       1      61
       1      62
       1      63
       1      64
       1      65
       1      66
       1      67
       1      68
       1      69
       1      70
       1      71
       1      72
       1      73
       1      74
       1      75
       1      76
       1      77
       1      78
       1      79
       1      80
       1      81
       1      82
       1      83
       1      84
       1      85
       1      86
       1      87
       1      88
       1      89
       1      90
       1      91
       1      92
       1      93
       1      94
       1      95
       1      96
       1      97
       1      98
       1      99
       1     100
       1     101
       1     102
       1     103
       1     104
       1     105
       1     106
       1     107
       1     108
       1     109
       1     110
       1     111
       1     112
       1     113
       1     114
       1     115
       1     116
       1     117
       1     118
       1     119
       1     120
       1     121
       1     122
       1     123
       1     124
       1     125
       1     126
       1     127
       1     128
       1     129
       1     130
       1     131
       1     132
       1     133
       1     134
       1     135
       1     136
       1     137
       1     138
       1     139
       1     140
       1     141
       1     142
       1     143
       1     144
       1     145
       1     146
       1     147
       1     148
       1     149
       1     150
       1     151
       1     152
       1     153
       1     154
       1     155
       1     156
       1     157
       1     158
       1     159
       1     160
       1     161
       1     162
       1     163
       1     164
       1     165
       1     166
       1     167
       1     168
       1     169
       1     170
       1     171
       1     172
       1     173
       1     174
       1     175
       1     176
       1     177
       1     178
       1     179
       1     180
       1     181
       1     182
       1     183
       1     184
       1     185
       1     186
       1     187
       1     188
       1     189
       1     190
       1     191
       1     192
       1     193
       1     194
       1     195
       1     196
       1     197
       1     198
       1     199
       1     200
       1     201
       1     202
       1     203
       1     204
       1     205
       1     206
       1     207
       1     208
       1     209
       1     210
       1     211
       1     212
       1     213
       1     214
       1     215
       1     216
       1     217
       1     218
       1     219
       1     220
       1     221
       1     222
       1     223
       1     224
       1     225
       1     226
       1     227
       1     228
       1     229
       1     230
       1     231
       1     232
       1     233
       1     234
       1     235
       1     236
       1     237
       1     238
       1     239
       1     240
       1     241
       1     242
       1     243
       1     244
       1     245
       1     246
       1     247
       1     248
       1     249
       1     250
       1     251
       1     252
       1     253
       1     254
       1     255
       1     256
       1     257
       1     258
       1     259
       1     260
       1     261
       1     262
       1     263
       1     264
       1     265
       1     266
       1     267
       1     268
       1     269
       1     270
       1     271
       1     272
       1     273
       1     274
       1     275
       1     276
       1     277
       1     278
       1     279
       1     280
       1     281
       1     282
       1     283
       1     284
       1     285
       1     286
       1     287
       1     288
       1     289
       1     290
       1     291
       1     292
       1     293
       1     294
       1     295
       1     296
       1     297
       1     298
       1     299
       1     300
       1     301
       1     302
       1     303
       1     304
       1     305
       1     306
       1     307
       1     308
       1     309
       1     310
       1     311
       1     312
       1     313
       1     314
       1     315
       1     316
       1     317
       1     318
       1     319
       1     320
       1     321
       1     322
       1     323
       1     324
       1     325
       1     326
       1     327
       1     328
       1     329
       1     330
       1     331
       1     332
       1     333
       1     334
       1     335
       1     336
       1     337
       1     338
       1     339
       1     340
       1     341
       1     342
       1     343
       1     344
       1     345
       1     346
       1     347
       1     348
       1     349
       1     350
       1     351
       1     352
       1     353
       1     354
       1     355
       1     356
       1     357
       1     358
       1     359
       1     360
       1     361
       1     362
       1     363
       1     364
       1     365
       1     366
       1     367
       1     368
       1     369
       1     370
       1     371
       1     372
       1     373
       1     374
       1     375
       1     376
       1     377
       1     378
       1     379
       1     380
       1     381
       1     382
       1     383
       1     384
       1     385
       1     386
       1     387
       1     388
       1     389
       1     390
       1     391
       1     392
       1     393
       1     394
       1     395
       1     396
       1     397
       1     398
       1     399
       1     400
       1     401
       1     402
       1     403
       1     404
       1     405
       1     406
       1     407
       1     408
       1     409
       1     410
       1     411
       1     412
       1     413
       1     414
       1     415
       1     416
       1     417
       1     418
       1     419
       1     420
       1     421
       1     422
       1     423
       1     424
       1     425
       1     426
       1     427
       1     428
       1     429
       1     430
       1     431
       1     432
       1     433
       1     434
       1     435
       1     436
       1     437
       1     438
       1     439
       1     440
       1     441
       1     442
       1     443
       1     444
       1     445
       1     446
       1     447
       1     448
       1     449
       1     450
       1     451
       1     452
       1     453
       1     454
       1     455
       1     456
       1     457
       1     458
       1     459
       1     460
       1     461
       1     462
       1     463
       1     464
       1     465
       1     466
       1     467
       1     468
       1     469
       1     470
       1     471
       1     472
       1     473
       1     474
       1     475
       1     476
       1     477
       1     478
       1     479
       1     480
       1     481
       1     482
       1     483
       1     484
       1     485
       1     486
       1     487
       1     488
       1     489
       1     490
       1     491
       1     492
       1     493
       1     494
       1     495
       1     496
       1     497
       1     498
       1     499
       1     500
       1     501
       1     502
       1     503
       1     504
       1     505
       1     506
       1     507
       1     508
       1     509
       1     510
       1     511
       1     512
       1     513
       1     514
       1     515
       1     516
       1     517
       1     518
       1     519
       1     520
       1     521
       1     522
       1     523
       1     524
       1     525
       1     526
       1     527
       1     528
       1     529
       1     530
       1     531
       1     532
       1     533
       1     534
       1     535
       1     536
       1     537
       1     538
       1     539
       1     540
       1     541
       1     542
       1     543
       1     544
       1     545
       1     546
       1     547
       1     548
       1     549
       1     550
       1     551
       1     552
       1     553
       1     554
       1     555
       1     556
       1     557
       1     558
       1     559
       1     560
       1     561
       1     562
       1     563
       1     564
       1     565
       1     566
       1     567
       1     568
       1     569
       1     570
       1     571
       1     572
       1     573
       1     574
       1     575
       1     576
       1     577
       1     578
       1     579
       1     580
       1     581
       1     582
       1     583
       1     584
       1     585
       1     586
       1     587
       1     588
       1     589
       1     590
       1     591
       1     592
       1     593
       1     594
       1     595
       1     596
       1     597
       1     598
       1     599
       1     600
       1     601
       1     602
       1     603
       1     604
       1     605
       1     606
       1     607
       1     608
       1     609
       1     610
       1     611
       1     612
       1     613
       1     614
       1     615
       1     616
       1     617
       1     618
       1     619
       1     620
       1     621
       1     622
       1     623
       1     624
       1     625
       1     626
       1     627
       1     628
       1     629
       1     630
       1     631
       1     632
       1     633
       1     634
       1     635
       1     636
       1     637
       1     638
       1     639
       1     640
       1     641
       1     642
       1     643
       1     644
       1     645
       1     646
       1     647
       1     648
       1     649
       1     650
       1     651
       1     652
       1     653
       1     654
       1     655
       1     656
       1     657
       1     658
       1     659
       1     660
       1     661
       1     662
       1     663
       1     664
       1     665
       1     666
       1     667
       1     668
       1     669
       1     670
       1     671
       1     672
       1     673
       1     674
       1     675
       1     676
       1     677
       1     678
       1     679
       1     680
       1     681
       1     682
       1     683
       1     684
       1     685
       1     686
       1     687
       1     688
       1     689
       1     690
       1     691
       1     692
       1     693
       1     694
       1     695
       1     696
       1     697
       1     698
       1     699
       1     700
       1     701
       1     702
       1     703
       1     704
       1     705
       1     706
       1     707
       1     708
       1     709
       1     710
       1     711
       1     712
       1     713
       1     714
       1     715
       1     716
       1     717
       1     718
       1     719
       1     720
       1     721
       1     722
       1     723
       1     724
       1     725
       1     726
       1     727
       1     728
       1     729
       1     730
       1     731
       1     732
       1     733
       1     734
       1     735
       1     736
       1     737
       1     738
       1     739
       1     740
       1     741
       1     742
       1     743
       1     744
       1     745
       1     746
       1     747
       1     748
       1     749
       1     750
       1     751
       1     752
       1     753
       1     754
       1     755
       1     756
       1     757
       1     758
       1     759
       1     760
       1     761
       1     762
       1     763
       1     764
       1     765
       1     766
       1     767
       1     768
       1     769
       1     770
       1     771
       1     772
       1     773
       1     774
       1     775
       1     776
       1     777
       1     778
       1     779
       1     780
       1     781
       1     782
       1     783
       1     784
       1     785
       1     786
       1     787
       1     788
       1     789
       1     790
       1     791
       1     792
       1     793
       1     794
       1     795
       1     796
       1     797
       1     798
       1     799
       1     800
       1     801
       1     802
       1     803
       1     804
       1     805
       1     806
       1     807
       1     808
       1     809
       1     810
       1     811
       1     812
       1     813
       1     814
       1     815
       1     816
       1     817
       1     818
       1     819
       1     820
       1     821
       1     822
       1     823
       1     824
       1     825
       1     826
       1     827
       1     828
       1     829
       1     830
       1     831
       1     832
       1     833
       1     834
       1     835
       1     836
       1     837
       1     838
       1     839
       1     840
       1     841
       1     842
       1     843
       1     844
       1     845
       1     846
       1     847
       1     848
       1     849
       1     850
       1     851
       1     852
       1     853
       1     854
       1     855
       1     856
       1     857
       1     858
       1     859
       1     860
       1     861
       1     862
       1     863
       1     864
       1     865
       1     866
       1     867
       1     868
       1     869
       1     870
       1     871
       1     872
       1     873
       1     874
       1     875
       1     876
       1     877
       1     878
       1     879
       1     880
       1     881
       1     882
       1     883
       1     884
       1     885
       1     886
       1     887
       1     888
       1     889
       1     890
       1     891
       1     892
       1     893
       1     894
       1     895
       1     896
       1     897
       1     898
       1     899
       1     900
       1     901
       1     902
       1     903
       1     904
       1     905
       1     906
       1     907
       1     908
       1     909
       1     910
       1     911
       1     912
       1     913
       1     914
       1     915
       1     916
       1     917
       1     918
       1     919
       1     920
       1     921
       1     922
       1     923
       1     924
       1     925
       1     926
       1     927
       1     928
       1     929
       1     930
       1     931
       1     932
       1     933
       1     934
       1     935
       1     936
       1     937
       1     938
       1     939
       1     940
       1     941
       1     942
       1     943
       1     944
       1     945
       1     946
       1     947
       1     948
       1     949
       1     950
       1     951
       1     952
       1     953
       1     954
       1     955
       1     956
       1     957
       1     958
       1     959
       1     960
       1     961
       1     962
       1     963
       1     964
       1     965
       1     966
       1     967
       1     968
       1     969
       1     970
       1     971
       1     972
       1     973
       1     974
       1     975
       1     976
       1     977
       1     978
       1     979
       1     980
       1     981
       1     982
       1     983
       1     984
       1     985
       1     986
       1     987
       1     988
       1     989
       1     990
       1     991
       1     992
       1     993
       1     994
       1     995
       1     996
       1     997
       1     998
       1     999
       1    1000
       1    1001
       1    1002
       1    1003
       1    1004
       1    1005
       1    1006
       1    1007
       1    1008
       1    1009
       1    1010
       1    1011
       1    1012
       1    1013
       1    1014
       1    1015
       1    1016
       1    1017
       1    1018
       1    1019
       1    1020
       1    1021
       1    1022
       1    1023
       1    1024
       1    1025
       1    1026
       1    1027
       1    1028
       1    1029
       1    1030
       1    1031
       1    1032
       1    1033
       1    1034
       1    1035
       1    1036
       1    1037
       1    1038
       1    1039
       1    1040
       1    1041
       1    1042
       1    1043
       1    1044
       1    1045
       1    1046
       1    1047
       1    1048
       1    1049
       1    1050
       1    1051
       1    1052
       1    1053
       1    1054
       1    1055
       1    1056
       1    1057
       1    1058
       1    1059
       1    1060
       1    1061
       1    1062
       1    1063
       1    1064
       1    1065
       1    1066
       1    1067
       1    1068
       1    1069
       1    1070
       1    1071
       1    1072
       1    1073
       1    1074
       1    1075
       1    1076
       1    1077
       1    1078
       1    1079
       1    1080
       1    1081
       1    1082
       1    1083
       1    1084
       1    1085
       1    1086
       1    1087
       1    1088
       1    1089
       1    1090
       1    1091
       1    1092
       1    1093
       1    1094
       1    1095
       1    1096
       1    1097
       1    1098
       1    1099
       1    1100
       1    1101
       1    1102
       1    1103
       1    1104
       1    1105
       1    1106
       1    1107
       1    1108
       1    1109
       1    1110
       1    1111
       1    1112
       1    1113
       1    1114
       1    1115
       1    1116
       1    1117
       1    1118
       1    1119
       1    1120
       1    1121
       1    1122
       1    1123
       1    1124
       1    1125
       1    1126
       1    1127
       1    1128
       1    1129
       1    1130
       1    1131
       1    1132
       1    1133
       1    1134
       1    1135
       1    1136
       1    1137
       1    1138
       1    1139
       1    1140
       1    1141
       1    1142
       1    1143
       1    1144
       1    1145
       1    1146
       1    1147
       1    1148
       1    1149
       1    1150
       1    1151
       1    1152
       1    1153
       1    1154
       1    1155
       1    1156
       1    1157
       1    1158
       1    1159
       1    1160
       1    1161
       1    1162
       1    1163
       1    1164
       1    1165
       1    1166
       1    1167
       1    1168
       1    1169
       1    1170
       1    1171
       1    1172
       1    1173
       1    1174
       1    1175
       1    1176
       1    1177
       1    1178
       1    1179
       1    1180
       1    1181
       1    1182
       1    1183
       1    1184
       1    1185
       1    1186
       1    1187
       1    1188
       1    1189
       1    1190
       1    1191
       1    1192
       1    1193
       1    1194
       1    1195
       1    1196
       1    1197
       1    1198
       1    1199
       1    1200
       1    1201
       1    1202
       1    1203
       1    1204
       1    1205
       1    1206
       1    1207
       1    1208
       1    1209
       1    1210
       1    1211
       1    1212
       1    1213
       1    1214
       1    1215
       1    1216
       1    1217
       1    1218
       1    1219
       1    1220
       1    1221
       1    1222
       1    1223
       1    1224
       1    1225
       1    1226
       1    1227
       1    1228
       1    1229
       1    1230
       1    1231
       1    1232
       1    1233
       1    1234
       1    1235
       1    1236
       1    1237
       1    1238
       1    1239
       1    1240
       1    1241
       1    1242
       1    1243
       1    1244
       1    1245
       1    1246
       1    1247
       1    1248
       1    1249
       1    1250
       1    1251
       1    1252
       1    1253
       1    1254
       1    1255
       1    1256
       1    1257
       1    1258
       1    1259
       1    1260
       1    1261
       1    1262
       1    1263
       1    1264
       1    1265
       1    1266
       1    1267
       1    1268
       1    1269
       1    1270
       1    1271
       1    1272
       1    1273
       1    1274
       1    1275
       1    1276
       1    1277
       1    1278
       1    1279
       1    1280
       1    1281
       1    1282
       1    1283
       1    1284
       1    1285
       1    1286
       1    1287
       1    1288
       1    1289
       1    1290
       1    1291
       1    1292
       1    1293
       1    1294
       1    1295
       1    1296
       1    1297
       1    1298
       1    1299
       1    1300
       1    1301
       1    1302
       1    1303
       1    1304
       1    1305
       1    1306
       1    1307
       1    1308
       1    1309
       1    1310
       1    1311
       1    1312
       1    1313
       1    1314
       1    1315
       1    1316
       1    1317
       1    1318
       1    1319
       1    1320
       1    1321
       1    1322
       1    1323
       1    1324
       1    1325
       1    1326
       1    1327
       1    1328
       1    1329
       1    1330
       1    1331
       1    1332
       1    1333
       1    1334
       1    1335
       1    1336
       1    1337
       1    1338
       1    1339
       1    1340
       1    1341
       1    1342
       1    1343
       1    1344
       1    1345
       1    1346
       1    1347
       1    1348
       1    1349
       1    1350
       1    1351
       1    1352
       1    1353
       1    1354
       1    1355
       1    1356
       1    1357
       1    1358
       1    1359
       1    1360
       1    1361
       1    1362
       1    1363
       1    1364
       1    1365
       1    1366
       1    1367
       1    1368
       1    1369
       1    1370
       1    1371
       1    1372
       1    1373
       1    1374
       1    1375
       1    1376
       1    1377
       1    1378
       1    1379
       1    1380
       1    1381
       1    1382
       1    1383
       1    1384
       1    1385
       1    1386
       1    1387
       1    1388
       1    1389
       1    1390
       1    1391
       1    1392
       1    1393
       1    1394
       1    1395
       1    1396
       1    1397
       1    1398
       1    1399
       1    1400
       1    1401
       1    1402
       1    1403
       1    1404
       1    1405
       1    1406
       1    1407
       1    1408
       1    1409
       1    1410
       1    1411
       1    1412
       1    1413
       1    1414
       1    1415
       1    1416
       1    1417
       1    1418
       1    1419
       1    1420
       1    1421
       1    1422
       1    1423
       1    1424
       1    1425
       1    1426
       1    1427
       1    1428
       1    1429
       1    1430
       1    1431
       1    1432
       1    1433
       1    1434
       1    1435
       1    1436
       1    1437
       1    1438
       1    1439
       1    1440
       1    1441
       1    1442
       1    1443
       1    1444
       1    1445
       1    1446
       1    1447
       1    1448
       1    1449
       1    1450
       1    1451
       1    1452
       1    1453
       1    1454
       1    1455
       1    1456
       1    1457
       1    1458
       1    1459
       1    1460
       1    1461
       1    1462
       1    1463
       1    1464
       1    1465
       1    1466
       1    1467
       1    1468
       1    1469
       1    1470
       1    1471
       1    1472
       1    1473
       1    1474
       1    1475
       1    1476
       1    1477
       1    1478
       1    1479
       1    1480
       1    1481
       1    1482
       1    1483
       1    1484
       1    1485
       1    1486
       1    1487
       1    1488
       1    1489
       1    1490
       1    1491
       1    1492
       1    1493
       1    1494
       1    1495
       1    1496
       1    1497
       1    1498
       1    1499
       1    1500
       1    1501
       1    1502
       1    1503
       1    1504
       1    1505
       1    1506
       1    1507
       1    1508
       1    1509
       1    1510
       1    1511
       1    1512
       1    1513
       1    1514
       1    1515
       1    1516
       1    1517
       1    1518
       1    1519
       1    1520
       1    1521
       1    1522
       1    1523
       1    1524
       1    1525
       1    1526
       1    1527
       1    1528
       1    1529
       1    1530
       1    1531
       1    1532
       1    1533
       1    1534
       1    1535
       1    1536
       1    1537
       1    1538
       1    1539
       1    1540
       1    1541
       1    1542
       1    1543
       1    1544
       1    1545
       1    1546
       1    1547
       1    1548
       1    1549
       1    1550
       1    1551
       1    1552
       1    1553
       1    1554
       1    1555
       1    1556
       1    1557
       1    1558
       1    1559
       1    1560
       1    1561
       1    1562
       1    1563
       1    1564
       1    1565
       1    1566
       1    1567
       1    1568
       1    1569
       1    1570
       1    1571
       1    1572
       1    1573
       1    1574
       1    1575
       1    1576
       1    1577
       1    1578
       1    1579
       1    1580
       1    1581
       1    1582
       1    1583
       1    1584
       1    1585
       1    1586
       1    1587
       1    1588
       1    1589
       1    1590
       1    1591
       1    1592
       1    1593
       1    1594
       1    1595
       1    1596
       1    1597
       1    1598
       1    1599
       1    1600
       1    1601
       1    1602
       1    1603
       1    1604
       1    1605
       1    1606
       1    1607
       1    1608
       1    1609
       1    1610
       1    1611
       1    1612
       1    1613
       1    1614
       1    1615
       1    1616
       1    1617
       1    1618
       1    1619
       1    1620
       1    1621
       1    1622
       1    1623
       1    1624
       1    1625
       1    1626
       1    1627
       1    1628
       1    1629
       1    1630
       1    1631
       1    1632
       1    1633
       1    1634
       1    1635
       1    1636
       1    1637
       1    1638
       1    1639
       1    1640
       1    1641
       1    1642
       1    1643
       1    1644
       1    1645
       1    1646
       1    1647
       1    1648
       1    1649
       1    1650
       1    1651
       1    1652
       1    1653
       1    1654
       1    1655
       1    1656
       1    1657
       1    1658
       1    1659
       1    1660
       1    1661
       1    1662
       1    1663
       1    1664
       1    1665
       1    1666
       1    1667
       1    1668
       1    1669
       1    1670
       1    1671
       1    1672
       1    1673
       1    1674
       1    1675
       1    1676
       1    1677
       1    1678
       1    1679
       1    1680
       1    1681
       1    1682
       1    1683
       1    1684
       1    1685
       1    1686
       1    1687
       1    1688
       1    1689
       1    1690
       1    1691
       1    1692
       1    1693
       1    1694
       1    1695
       1    1696
       1    1697
       1    1698
       1    1699
       1    1700
       1    1701
       1    1702
       1    1703
       1    1704
       1    1705
       1    1706
       1    1707
       1    1708
       1    1709
       1    1710
       1    1711
       1    1712
       1    1713
       1    1714
       1    1715
       1    1716
       1    1717
       1    1718
       1    1719
       1    1720
       1    1721
       1    1722
       1    1723
       1    1724
       1    1725
       1    1726
       1    1727
       1    1728
       1    1729
       1    1730
       1    1731
       1    1732
       1    1733
       1    1734
       1    1735
       1    1736
       1    1737
       1    1738
       1    1739
       1    1740
       1    1741
       1    1742
       1    1743
       1    1744
       1    1745
       1    1746
       1    1747
       1    1748
       1    1749
       1    1750
       1    1751
       1    1752
       1    1753
       1    1754
       1    1755
       1    1756
       1    1757
       1    1758
       1    1759
       1    1760
       1    1761
       1    1762
       1    1763
       1    1764
       1    1765
       1    1766
       1    1767
       1    1768
       1    1769
       1    1770
       1    1771
       1    1772
       1    1773
       1    1774
       1    1775
       1    1776
       1    1777
       1    1778
       1    1779
       1    1780
       1    1781
       1    1782
       1    1783
       1    1784
       1    1785
       1    1786
       1    1787
       1    1788
       1    1789
       1    1790
       1    1791
       1    1792
       1    1793
       1    1794
       1    1795
       1    1796
       1    1797
       1    1798
       1    1799
       1    1800
       1    1801
       1    1802
       1    1803
       1    1804
       1    1805
       1    1806
       1    1807
       1    1808
       1    1809
       1    1810
       1    1811
       1    1812
       1    1813
       1    1814
       1    1815
       1    1816
       1    1817
       1    1818
       1    1819
       1    1820
       1    1821
       1    1822
       1    1823
       1    1824
       1    1825
       1    1826
       1    1827
       1    1828
       1    1829
       1    1830
       1    1831
       1    1832
       1    1833
       1    1834
       1    1835
       1    1836
       1    1837
       1    1838
       1    1839
       1    1840
       1    1841
       1    1842
       1    1843
       1    1844
       1    1845
       1    1846
       1    1847
       1    1848
       1    1849
       1    1850
       1    1851
       1    1852
       1    1853
       1    1854
       1    1855
       1    1856
       1    1857
       1    1858
       1    1859
       1    1860
       1    1861
       1    1862
       1    1863
       1    1864
       1    1865
       1    1866
       1    1867
       1    1868
       1    1869
       1    1870
       1    1871
       1    1872
       1    1873
       1    1874
       1    1875
       1    1876
       1    1877
       1    1878
       1    1879
       1    1880
       1    1881
       1    1882
       1    1883
       1    1884
       1    1885
       1    1886
       1    1887
       1    1888
       1    1889
       1    1890
       1    1891
       1    1892
       1    1893
       1    1894
       1    1895
       1    1896
       1    1897
       1    1898
       1    1899
       1    1900
       1    1901
       1    1902
       1    1903
       1    1904
       1    1905
       1    1906
       1    1907
       1    1908
       1    1909
       1    1910
       1    1911
       1    1912
       1    1913
       1    1914
       1    1915
       1    1916
       1    1917
       1    1918
       1    1919
       1    1920
       1    1921
       1    1922
       1    1923
       1    1924
       1    1925
       1    1926
       1    1927
       1    1928
       1    1929
       1    1930
       1    1931
       1    1932
       1    1933
       1    1934
       1    1935
       1    1936
       1    1937
       1    1938
       1    1939
       1    1940
       1    1941
       1    1942
       1    1943
       1    1944
       1    1945
       1    1946
       1    1947
       1    1948
       1    1949
       8       0       1       2       3       4       5       6       7
       8       2       8       9       3       6      10      11       7
       8      12       1       0      13      14       5       4      15
       8       0      16      17      13       4      18      19      15
       8      20      21      22      12      23      24      25      14
       8      26      27      21      20      28      29      24      23
       8      13      26      20      12      15      28      23      14
       8      30      31      16      32      33      34      18      35
       8      36      37      31      30      38      39      34      33
       8      40      41      37      36      42      43      39      38
       8      44      40      36      45      46      42      38      47
       8      48      17      16      31      49      19      18      34
       8      30      50      45      36      33      51      47      38
       8       0       3      32      16       4       7      35      18
       8      52      26      13      17      53      28      15      19
       8      54      52      17      48      55      53      19      49
       8      56      54      48      57      58      55      49      59
       8      37      57      48      31      39      59      49      34
       8      60      61      50      30      62      63      51      33
       8      64      60      30      32      65      62      33      35
       8      66      64      32       3      67      65      35       7
       8      68       8       2      69      70      10       6      71
       8      72      69       2       1      73      71       6       5
       8      22      72       1      12      25      73       5      14
       8      74      27      26      52      75      29      28      53
       8      76      74      52      54      77      75      53      55
       8      78      76      54      56      79      77      55      58
       8      80      78      56      81      82      79      58      83
       8      84      81      56      57      85      83      58      59
       8      41      84      57      37      43      85      59      39
       8      86      44      45      50      87      46      47      51
       8      88      86      50      61      89      87      51      63
       8      90      88      61      91      92      89      63      93
       8      94      91      61      60      95      93      63      62
       8      96      94      60      64      97      95      62      65
       8      98      96      64      66      99      97      65      67
       8     100      98      66     101     102      99      67     103
       8       9     101      66       3      11     103      67       7
       8     104     105       8      68     106     107      10      70
       8     108     104      68      69     109     106      70      71
       8     110     108      69      72     111     109      71      73
       8     112     110      72      22     113     111      73      25
       8     114     112      22      21     115     113      25      24
       8     116     114      21      27     117     115      24      29
       8     118     116      27      74     119     117      29      75
       8     120     118      74      76     121     119      75      77
       8     122     120      76      78     123     121      77      79
       8     124     122      78      80     125     123      79      82
       8     126     124      80      81     127     125      82      83
       8     128     126      81      84     129     127      83      85
       8     130     128      84      41     131     129      85      43
       8     132     130      41      40     133     131      43      42
       8     134     132      40      44     135     133      42      46
       8     136     134      44      86     137     135      46      87
       8     138     136      86      88     139     137      87      89
       8     140     138      88      90     141     139      89      92
       8     142     140      90      91     143     141      92      93
       8     144     142      91      94     145     143      93      95
       8     146     144      94      96     147     145      95      97
       8     148     146      96      98     149     147      97      99
       8     150     148      98     100     151     149      99     102
       8     152     150     100     101     153     151     102     103
       8     154     152     101       9     155     153     103      11
       8     105     154       9       8     107     155      11      10
       8     156     157     158     159       0       1       2       3
       8     158     160     161     159       2       8       9       3
       8     162     157     156     163      12       1       0      13
       8     156     164     165     163       0      16      17      13
       8     166     167     168     162      20      21      22      12
       8     169     170     167     166      26      27      21      20
       8     163     169     166     162      13      26      20      12
       8     171     172     164     173      30      31      16      32
       8     174     175     172     171      36      37      31      30
       8     176     177     175     174      40      41      37      36
       8     178     176     174     179      44      40      36      45
       8     180     165     164     172      48      17      16      31
       8     171     181     179     174      30      50      45      36
       8     156     159     173     164       0       3      32      16
       8     182     169     163     165      52      26      13      17
       8     183     182     165     180      54      52      17      48
       8     184     183     180     185      56      54      48      57
       8     175     185     180     172      37      57      48      31
       8     186     187     181     171      60      61      50      30
       8     188     186     171     173      64      60      30      32
       8     189     188     173     159      66      64      32       3
       8     190     160     158     191      68       8       2      69
       8     192     191     158     157      72      69       2       1
       8     168     192     157     162      22      72       1      12
       8     193     170     169     182      74      27      26      52
       8     194     193     182     183      76      74      52      54
       8     195     194     183     184      78      76      54      56
       8     196     195     184     197      80      78      56      81
       8     198     197     184     185      84      81      56      57
       8     177     198     185     175      41      84      57      37
       8     199     178     179     181      86      44      45      50
       8     200     199     181     187      88      86      50      61
       8     201     200     187     202      90      88      61      91
       8     203     202     187     186      94      91      61      60
       8     204     203     186     188      96      94      60      64
       8     205     204     188     189      98      96      64      66
       8     206     205     189     207     100      98      66     101
       8     161     207     189     159       9     101      66       3
       8     208     209     160     190     104     105       8      68
       8     210     208     190     191     108     104      68      69
       8     211     210     191     192     110     108      69      72
       8     212     211     192     168     112     110      72      22
       8     213     212     168     167     114     112      22      21
       8     214     213     167     170     116     114      21      27
       8     215     214     170     193     118     116      27      74
       8     216     215     193     194     120     118      74      76
       8     217     216     194     195     122     120      76      78
       8     218     217     195     196     124     122      78      80
       8     219     218     196     197     126     124      80      81
       8     220     219     197     198     128     126      81      84
       8     221     220     198     177     130     128      84      41
       8     222     221     177     176     132     130      41      40
       8     223     222     176     178     134     132      40      44
       8     224     223     178     199     136     134      44      86
       8     225     224     199     200     138     136      86      88
       8     226     225     200     201     140     138      88      90
       8     227     226     201     202     142     140      90      91
       8     228     227     202     203     144     142      91      94
       8     229     228     203     204     146     144      94      96
       8     230     229     204     205     148     146      96      98
       8     231     230     205     206     150     148      98     100
       8     232     231     206     207     152     150     100     101
       8     233     232     207     161     154     152     101       9
       8     209     233     161     160     105     154       9       8
       8     234     235     236     237     156     157     158     159
       8     236     238     239     237     158     160     161     159
       8     240     235     234     241     162     157     156     163
       8     234     242     243     241     156     164     165     163
       8     244     245     246     240     166     167     168     162
       8     247     248     245     244     169     170     167     166
       8     241     247     244     240     163     169     166     162
       8     249     250     242     251     171     172     164     173
       8     252     253     250     249     174     175     172     171
       8     254     255     253     252     176     177     175     174
       8     256     254     252     257     178     176     174     179
       8     258     243     242     250     180     165     164     172
       8     249     259     257     252     171     181     179     174
       8     234     237     251     242     156     159     173     164
       8     260     247     241     243     182     169     163     165
       8     261     260     243     258     183     182     165     180
       8     262     261     258     263     184     183     180     185
       8     253     263     258     250     175     185     180     172
       8     264     265     259     249     186     187     181     171
       8     266     264     249     251     188     186     171     173
       8     267     266     251     237     189     188     173     159
       8     268     238     236     269     190     160     158     191
       8     270     269     236     235     192     191     158     157
       8     246     270     235     240     168     192     157     162
       8     271     248     247     260     193     170     169     182
       8     272     271     260     261     194     193     182     183
       8     273     272     261     262     195     194     183     184
       8     274     273     262     275     196     195     184     197
       8     276     275     262     263     198     197     184     185
       8     255     276     263     253     177     198     185     175
       8     277     256     257     259     199     178     179     181
       8     278     277     259     265     200     199     181     187
       8     279     278     265     280     201     200     187     202
       8     281     280     265     264     203     202     187     186
       8     282     281     264     266     204     203     186     188
       8     283     282     266     267     205     204     188     189
       8     284     283     267     285     206     205     189     207
       8     239     285     267     237     161     207     189     159
       8     286     287     238     268     208     209     160     190
       8     288     286     268     269     210     208     190     191
       8     289     288     269     270     211     210     191     192
       8     290     289     270     246     212     211     192     168
       8     291     290     246     245     213     212     168     167
       8     292     291     245     248     214     213     167     170
       8     293     292     248     271     215     214     170     193
       8     294     293     271     272     216     215     193     194
       8     295     294     272     273     217     216     194     195
       8     296     295     273     274     218     217     195     196
       8     297     296     274     275     219     218     196     197
       8     298     297     275     276     220     219     197     198
       8     299     298     276     255     221     220     198     177
       8     300     299     255     254     222     221     177     176
       8     301     300     254     256     223     222     176     178
       8     302     301     256     277     224     223     178     199
       8     303     302     277     278     225     224     199     200
       8     304     303     278     279     226     225     200     201
       8     305     304     279     280     227     226     201     202
       8     306     305     280     281     228     227     202     203
       8     307     306     281     282     229     228     203     204
       8     308     307     282     283     230     229     204     205
       8     309     308     283     284     231     230     205     206
       8     310     309     284     285     232     231     206     207
       8     311     310     285     239     233     232     207     161
       8     287     311     239     238     209     233     161     160
       8     312     313     314     315     234     235     236     237
       8     314     316     317     315     236     238     239     237
       8     318     313     312     319     240     235     234     241
       8     312     320     321     319     234     242     243     241
       8     322     323     324     318     244     245     246     240
       8     325     326     323     322     247     248     245     244
       8     319     325     322     318     241     247     244     240
       8     327     328     320     329     249     250     242     251
       8     330     331     328     327     252     253     250     249
       8     332     333     331     330     254     255     253     252
       8     334     332     330     335     256     254     252     257
       8     336     321     320     328     258     243     242     250
       8     327     337     335     330     249     259     257     252
       8     312     315     329     320     234     237     251     242
       8     338     325     319     321     260     247     241     243
       8     339     338     321     336     261     260     243     258
       8     340     339     336     341     262     261     258     263
       8     331     341     336     328     253     263     258     250
       8     342     343     337     327     264     265     259     249
       8     344     342     327     329     266     264     249     251
       8     345     344     329     315     267     266     251     237
       8     346     316     314     347     268     238     236     269
       8     348     347     314     313     270     269     236     235
       8     324     348     313     318     246     270     235     240
       8     349     326     325     338     271     248     247     260
       8     350     349     338     339     272     271     260     261
       8     351     350     339     340     273     272     261     262
       8     352     351     340     353     274     273     262     275
       8     354     353     340     341     276     275     262     263
       8     333     354     341     331     255     276     263     253
       8     355     334     335     337     277     256     257     259
       8     356     355     337     343     278     277     259     265
       8     357     356     343     358     279     278     265     280
       8     359     358     343     342     281     280     265     264
       8     360     359     342     344     282     281     264     266
       8     361     360     344     345     283     282     266     267
       8     362     361     345     363     284     283     267     285
       8     317     363     345     315     239     285     267     237
       8     364     365     316     346     286     287     238     268
       8     366     364     346     347     288     286     268     269
       8     367     366     347     348     289     288     269     270
       8     368     367     348     324     290     289     270     246
       8     369     368     324     323     291     290     246     245
       8     370     369     323     326     292     291     245     248
       8     371     370     326     349     293     292     248     271
       8     372     371     349     350     294     293     271     272
       8     373     372     350     351     295     294     272     273
       8     374     373     351     352     296     295     273     274
       8     375     374     352     353     297     296     274     275
       8     376     375     353     354     298     297     275     276
       8     377     376     354     333     299     298     276     255
       8     378     377     333     332     300     299     255     254
       8     379     378     332     334     301     300     254     256
       8     380     379     334     355     302     301     256     277
       8     381     380     355     356     303     302     277     278
       8     382     381     356     357     304     303     278     279
       8     383     382     357     358     305     304     279     280
       8     384     383     358     359     306     305     280     281
       8     385     384     359     360     307     306     281     282
       8     386     385     360     361     308     307     282     283
       8     387     386     361     362     309     308     283     284
       8     388     387     362     363     310     309     284     285
       8     389     388     363     317     311     310     285     239
       8     365     389     317     316     287     311     239     238
       8     390     391     392     393     312     313     314     315
       8     392     394     395     393     314     316     317     315
       8     396     391     390     397     318     313     312     319
       8     390     398     399     397     312     320     321     319
       8     400     401     402     396     322     323     324     318
       8     403     404     401     400     325     326     323     322
       8     397     403     400     396     319     325     322     318
       8     405     406     398     407     327     328     320     329
       8     408     409     406     405     330     331     328     327
       8     410     411     409     408     332     333     331     330
       8     412     410     408     413     334     332     330     335
       8     414     399     398     406     336     321     320     328
       8     405     415     413     408     327     337     335     330
       8     390     393     407     398     312     315     329     320
       8     416     403     397     399     338     325     319     321
       8     417     416     399     414     339     338     321     336
       8     418     417     414     419     340     339     336     341
       8     409     419     414     406     331     341     336     328
       8     420     421     415     405     342     343     337     327
       8     422     420     405     407     344     342     327     329
       8     423     422     407     393     345     344     329     315
       8     424     394     392     425     346     316     314     347
       8     426     425     392     391     348     347     314     313
       8     402     426     391     396     324     348     313     318
       8     427     404     403     416     349     326     325     338
       8     428     427     416     417     350     349     338     339
       8     429     428     417     418     351     350     339     340
       8     430     429     418     431     352     351     340     353
       8     432     431     418     419     354     353     340     341
       8     411     432     419     409     333     354     341     331
       8     433     412     413     415     355     334     335     337
       8     434     433     415     421     356     355     337     343
       8     435     434     421     436     357     356     343     358
       8     437     436     421     420     359     358     343     342
       8     438     437     420     422     360     359     342     344
       8     439     438     422     423     361     360     344     345
       8     440     439     423     441     362     361     345     363
       8     395     441     423     393     317     363     345     315
       8     442     443     394     424     364     365     316     346
       8     444     442     424     425     366     364     346     347
       8     445     444     425     426     367     366     347     348
       8     446     445     426     402     368     367     348     324
       8     447     446     402     401     369     368     324     323
       8     448     447     401     404     370     369     323     326
       8     449     448     404     427     371     370     326     349
       8     450     449     427     428     372     371     349     350
       8     451     450     428     429     373     372     350     351
       8     452     451     429     430     374     373     351     352
       8     453     452     430     431     375     374     352     353
       8     454     453     431     432     376     375     353     354
       8     455     454     432     411     377     376     354     333
       8     456     455     411     410     378     377     333     332
       8     457     456     410     412     379     378     332     334
       8     458     457     412     433     380     379     334     355
       8     459     458     433     434     381     380     355     356
       8     460     459     434     435     382     381     356     357
       8     461     460     435     436     383     382     357     358
       8     462     461     436     437     384     383     358     359
       8     463     462     437     438     385     384     359     360
       8     464     463     438     439     386     385     360     361
       8     465     464     439     440     387     386     361     362
       8     466     465     440     441     388     387     362     363
       8     467     466     441     395     389     388     363     317
       8     443     467     395     394     365     389     317     316
       8     468     469     470     471     390     391     392     393
       8     470     472     473     471     392     394     395     393
       8     474     469     468     475     396     391     390     397
       8     468     476     477     475     390     398     399     397
       8     478     479     480     474     400     401     402     396
       8     481     482     479     478     403     404     401     400
       8     475     481     478     474     397     403     400     396
       8     483     484     476     485     405     406     398     407
       8     486     487     484     483     408     409     406     405
       8     488     489     487     486     410     411     409     408
       8     490     488     486     491     412     410     408     413
       8     492     477     476     484     414     399     398     406
       8     483     493     491     486     405     415     413     408
       8     468     471     485     476     390     393     407     398
       8     494     481     475     477     416     403     397     399
       8     495     494     477     492     417     416     399     414
       8     496     495     492     497     418     417     414     419
       8     487     497     492     484     409     419     414     406
       8     498     499     493     483     420     421     415     405
       8     500     498     483     485     422     420     405     407
       8     501     500     485     471     423     422     407     393
       8     502     472     470     503     424     394     392     425
       8     504     503     470     469     426     425     392     391
       8     480     504     469     474     402     426     391     396
       8     505     482     481     494     427     404     403     416
       8     506     505     494     495     428     427     416     417
       8     507     506     495     496     429     428     417     418
       8     508     507     496     509     430     429     418     431
       8     510     509     496     497     432     431     418     419
       8     489     510     497     487     411     432     419     409
       8     511     490     491     493     433     412     413     415
       8     512     511     493     499     434     433     415     421
       8     513     512     499     514     435     434     421     436
       8     515     514     499     498     437     436     421     420
       8     516     515     498     500     438     437     420     422
       8     517     516     500     501     439     438     422     423
       8     518     517     501     519     440     439     423     441
       8     473     519     501     471     395     441     423     393
       8     520     521     472     502     442     443     394     424
       8     522     520     502     503     444     442     424     425
       8     523     522     503     504     445     444     425     426
       8     524     523     504     480     446     445     426     402
       8     525     524     480     479     447     446     402     401
       8     526     525     479     482     448     447     401     404
       8     527     526     482     505     449     448     404     427
       8     528     527     505     506     450     449     427     428
       8     529     528     506     507     451     450     428     429
       8     530     529     507     508     452     451     429     430
       8     531     530     508     509     453     452     430     431
       8     532     531     509     510     454     453     431     432
       8     533     532     510     489     455     454     432     411
       8     534     533     489     488     456     455     411     410
       8     535     534     488     490     457     456     410     412
       8     536     535     490     511     458     457     412     433
       8     537     536     511     512     459     458     433     434
       8     538     537     512     513     460     459     434     435
       8     539     538     513     514     461     460     435     436
       8     540     539     514     515     462     461     436     437
       8     541     540     515     516     463     462     437     438
       8     542     541     516     517     464     463     438     439
       8     543     542     517     518     465     464     439     440
       8     544     543     518     519     466     465     440     441
       8     545     544     519     473     467     466     441     395
       8     521     545     473     472     443     467     395     394
       8     546     547     548     549     468     469     470     471
       8     548     550     551     549     470     472     473     471
       8     552     547     546     553     474     469     468     475
       8     546     554     555     553     468     476     477     475
       8     556     557     558     552     478     479     480     474
       8     559     560     557     556     481     482     479     478
       8     553     559     556     552     475     481     478     474
       8     561     562     554     563     483     484     476     485
       8     564     565     562     561     486     487     484     483
       8     566     567     565     564     488     489     487     486
       8     568     566     564     569     490     488     486     491
       8     570     555     554     562     492     477     476     484
       8     561     571     569     564     483     493     491     486
       8     546     549     563     554     468     471     485     476
       8     572     559     553     555     494     481     475     477
       8     573     572     555     570     495     494     477     492
       8     574     573     570     575     496     495     492     497
       8     565     575     570     562     487     497     492     484
       8     576     577     571     561     498     499     493     483
       8     578     576     561     563     500     498     483     485
       8     579     578     563     549     501     500     485     471
       8     580     550     548     581     502     472     470     503
       8     582     581     548     547     504     503     470     469
       8     558     582     547     552     480     504     469     474
       8     583     560     559     572     505     482     481     494
       8     584     583     572     573     506     505     494     495
       8     585     584     573     574     507     506     495     496
       8     586     585     574     587     508     507     496     509
       8     588     587     574     575     510     509     496     497
       8     567     588     575     565     489     510     497     487
       8     589     568     569     571     511     490     491     493
       8     590     589     571     577     512     511     493     499
       8     591     590     577     592     513     512     499     514
       8     593     592     577     576     515     514     499     498
       8     594     593     576     578     516     515     498     500
       8     595     594     578     579     517     516     500     501
       8     596     595     579     597     518     517     501     519
       8     551     597     579     549     473     519     501     471
       8     598     599     550     580     520     521     472     502
       8     600     598     580     581     522     520     502     503
       8     601     600     581     582     523     522     503     504
       8     602     601     582     558     524     523     504     480
       8     603     602     558     557     525     524     480     479
       8     604     603     557     560     526     525     479     482
       8     605     604     560     583     527     526     482     505
       8     606     605     583     584     528     527     505     506
       8     607     606     584     585     529     528     506     507
       8     608     607     585     586     530     529     507     508
       8     609     608     586     587     531     530     508     509
       8     610     609     587     588     532     531     509     510
       8     611     610     588     567     533     532     510     489
       8     612     611     567     566     534     533     489     488
       8     613     612     566     568     535     534     488     490
       8     614     613     568     589     536     535     490     511
       8     615     614     589     590     537     536     511     512
       8     616     615     590     591     538     537     512     513
       8     617     616     591     592     539     538     513     514
       8     618     617     592     593     540     539     514     515
       8     619     618     593     594     541     540     515     516
       8     620     619     594     595     542     541     516     517
       8     621     620     595     596     543     542     517     518
       8     622     621     596     597     544     543     518     519
       8     623     622     597     551     545     544     519     473
       8     599     623     551     550     521     545     473     472
       8     624     625     626     627     546     547     548     549
       8     626     628     629     627     548     550     551     549
       8     630     625     624     631     552     547     546     553
       8     624     632     633     631     546     554     555     553
       8     634     635     636     630     556     557     558     552
       8     637     638     635     634     559     560     557     556
       8     631     637     634     630     553     559     556     552
       8     639     640     632     641     561     562     554     563
       8     642     643     640     639     564     565     562     561
       8     644     645     643     642     566     567     565     564
       8     646     644     642     647     568     566     564     569
       8     648     633     632     640     570     555     554     562
       8     639     649     647     642     561     571     569     564
       8     624     627     641     632     546     549     563     554
       8     650     637     631     633     572     559     553     555
       8     651     650     633     648     573     572     555     570
       8     652     651     648     653     574     573     570     575
       8     643     653     648     640     565     575     570     562
       8     654     655     649     639     576     577     571     561
       8     656     654     639     641     578     576     561     563
       8     657     656     641     627     579     578     563     549
       8     658     628     626     659     580     550     548     581
       8     660     659     626     625     582     581     548     547
       8     636     660     625     630     558     582     547     552
       8     661     638     637     650     583     560     559     572
       8     662     661     650     651     584     583     572     573
       8     663     662     651     652     585     584     573     574
       8     664     663     652     665     586     585     574     587
       8     666     665     652     653     588     587     574     575
       8     645     666     653     643     567     588     575     565
       8     667     646     647     649     589     568     569     571
       8     668     667     649     655     590     589     571     577
       8     669     668     655     670     591     590     577     592
       8     671     670     655     654     593     592     577     576
       8     672     671     654     656     594     593     576     578
       8     673     672     656     657     595     594     578     579
       8     674     673     657     675     596     595     579     597
       8     629     675     657     627     551     597     579     549
       8     676     677     628     658     598     599     550     580
       8     678     676     658     659     600     598     580     581
       8     679     678     659     660     601     600     581     582
       8     680     679     660     636     602     601     582     558
       8     681     680     636     635     603     602     558     557
       8     682     681     635     638     604     603     557     560
       8     683     682     638     661     605     604     560     583
       8     684     683     661     662     606     605     583     584
       8     685     684     662     663     607     606     584     585
       8     686     685     663     664     608     607     585     586
       8     687     686     664     665     609     608     586     587
       8     688     687     665     666     610     609     587     588
       8     689     688     666     645     611     610     588     567
       8     690     689     645     644     612     611     567     566
       8     691     690     644     646     613     612     566     568
       8     692     691     646     667     614     613     568     589
       8     693     692     667     668     615     614     589     590
       8     694     693     668     669     616     615     590     591
       8     695     694     669     670     617     616     591     592
       8     696     695     670     671     618     617     592     593
       8     697     696     671     672     619     618     593     594
       8     698     697     672     673     620     619     594     595
       8     699     698     673     674     621     620     595     596
       8     700     699     674     675     622     621     596     597
       8     701     700     675     629     623     622     597     551
       8     677     701     629     628     599     623     551     550
       8     702     703     704     705     624     625     626     627
       8     704     706     707     705     626     628     629     627
       8     708     703     702     709     630     625     624     631
       8     702     710     711     709     624     632     633     631
       8     712     713     714     708     634     635     636     630
       8     715     716     713     712     637     638     635     634
       8     709     715     712     708     631     637     634     630
       8     717     718     710     719     639     640     632     641
       8     720     721     718     717     642     643     640     639
       8     722     723     721     720     644     645     643     642
       8     724     722     720     725     646     644     642     647
       8     726     711     710     718     648     633     632     640
       8     717     727     725     720     639     649     647     642
       8     702     705     719     710     624     627     641     632
       8     728     715     709     711     650     637     631     633
       8     729     728     711     726     651     650     633     648
       8     730     729     726     731     652     651     648     653
       8     721     731     726     718     643     653     648     640
       8     732     733     727     717     654     655     649     639
       8     734     732     717     719     656     654     639     641
       8     735     734     719     705     657     656     641     627
       8     736     706     704     737     658     628     626     659
       8     738     737     704     703     660     659     626     625
       8     714     738     703     708     636     660     625     630
       8     739     716     715     728     661     638     637     650
       8     740     739     728     729     662     661     650     651
       8     741     740     729     730     663     662     651     652
       8     742     741     730     743     664     663     652     665
       8     744     743     730     731     666     665     652     653
       8     723     744     731     721     645     666     653     643
       8     745     724     725     727     667     646     647     649
       8     746     745     727     733     668     667     649     655
       8     747     746     733     748     669     668     655     670
       8     749     748     733     732     671     670     655     654
       8     750     749     732     734     672     671     654     656
       8     751     750     734     735     673     672     656     657
       8     752     751     735     753     674     673     657     675
       8     707     753     735     705     629     675     657     627
       8     754     755     706     736     676     677     628     658
       8     756     754     736     737     678     676     658     659
       8     757     756     737     738     679     678     659     660
       8     758     757     738     714     680     679     660     636
       8     759     758     714     713     681     680     636     635
       8     760     759     713     716     682     681     635     638
       8     761     760     716     739     683     682     638     661
       8     762     761     739     740     684     683     661     662
       8     763     762     740     741     685     684     662     663
       8     764     763     741     742     686     685     663     664
       8     765     764     742     743     687     686     664     665
       8     766     765     743     744     688     687     665     666
       8     767     766     744     723     689     688     666     645
       8     768     767     723     722     690     689     645     644
       8     769     768     722     724     691     690     644     646
       8     770     769     724     745     692     691     646     667
       8     771     770     745     746     693     692     667     668
       8     772     771     746     747     694     693     668     669
       8     773     772     747     748     695     694     669     670
       8     774     773     748     749     696     695     670     671
       8     775     774     749     750     697     696     671     672
       8     776     775     750     751     698     697     672     673
       8     777     776     751     752     699     698     673     674
       8     778     777     752     753     700     699     674     675
       8     779     778     753     707     701     700     675     629
       8     755     779     707     706     677     701     629     628
       8     780     781     782     783     702     703     704     705
       8     782     784     785     783     704     706     707     705
       8     786     781     780     787     708     703     702     709
       8     780     788     789     787     702     710     711     709
       8     790     791     792     786     712     713     714     708
       8     793     794     791     790     715     716     713     712
       8     787     793     790     786     709     715     712     708
       8     795     796     788     797     717     718     710     719
       8     798     799     796     795     720     721     718     717
       8     800     801     799     798     722     723     721     720
       8     802     800     798     803     724     722     720     725
       8     804     789     788     796     726     711     710     718
       8     795     805     803     798     717     727     725     720
       8     780     783     797     788     702     705     719     710
       8     806     793     787     789     728     715     709     711
       8     807     806     789     804     729     728     711     726
       8     808     807     804     809     730     729     726     731
       8     799     809     804     796     721     731     726     718
       8     810     811     805     795     732     733     727     717
       8     812     810     795     797     734     732     717     719
       8     813     812     797     783     735     734     719     705
       8     814     784     782     815     736     706     704     737
       8     816     815     782     781     738     737     704     703
       8     792     816     781     786     714     738     703     708
       8     817     794     793     806     739     716     715     728
       8     818     817     806     807     740     739     728     729
       8     819     818     807     808     741     740     729     730
       8     820     819     808     821     742     741     730     743
       8     822     821     808     809     744     743     730     731
       8     801     822     809     799     723     744     731     721
       8     823     802     803     805     745     724     725     727
       8     824     823     805     811     746     745     727     733
       8     825     824     811     826     747     746     733     748
       8     827     826     811     810     749     748     733     732
       8     828     827     810     812     750     749     732     734
       8     829     828     812     813     751     750     734     735
       8     830     829     813     831     752     751     735     753
       8     785     831     813     783     707     753     735     705
       8     832     833     784     814     754     755     706     736
       8     834     832     814     815     756     754     736     737
       8     835     834     815     816     757     756     737     738
       8     836     835     816     792     758     757     738     714
       8     837     836     792     791     759     758     714     713
       8     838     837     791     794     760     759     713     716
       8     839     838     794     817     761     760     716     739
       8     840     839     817     818     762     761     739     740
       8     841     840     818     819     763     762     740     741
       8     842     841     819     820     764     763     741     742
       8     843     842     820     821     765     764     742     743
       8     844     843     821     822     766     765     743     744
       8     845     844     822     801     767     766     744     723
       8     846     845     801     800     768     767     723     722
       8     847     846     800     802     769     768     722     724
       8     848     847     802     823     770     769     724     745
       8     849     848     823     824     771     770     745     746
       8     850     849     824     825     772     771     746     747
       8     851     850     825     826     773     772     747     748
       8     852     851     826     827     774     773     748     749
       8     853     852     827     828     775     774     749     750
       8     854     853     828     829     776     775     750     751
       8     855     854     829     830     777     776     751     752
       8     856     855     830     831     778     777     752     753
       8     857     856     831     785     779     778     753     707
       8     833     857     785     784     755     779     707     706
       8     858     859     860     861     780     781     782     783
       8     860     862     863     861     782     784     785     783
       8     864     859     858     865     786     781     780     787
       8     858     866     867     865     780     788     789     787
       8     868     869     870     864     790     791     792     786
       8     871     872     869     868     793     794     791     790
       8     865     871     868     864     787     793     790     786
       8     873     874     866     875     795     796     788     797
       8     876     877     874     873     798     799     796     795
       8     878     879     877     876     800     801     799     798
       8     880     878     876     881     802     800     798     803
       8     882     867     866     874     804     789     788     796
       8     873     883     881     876     795     805     803     798
       8     858     861     875     866     780     783     797     788
       8     884     871     865     867     806     793     787     789
       8     885     884     867     882     807     806     789     804
       8     886     885     882     887     808     807     804     809
       8     877     887     882     874     799     809     804     796
       8     888     889     883     873     810     811     805     795
       8     890     888     873     875     812     810     795     797
       8     891     890     875     861     813     812     797     783
       8     892     862     860     893     814     784     782     815
       8     894     893     860     859     816     815     782     781
       8     870     894     859     864     792     816     781     786
       8     895     872     871     884     817     794     793     806
       8     896     895     884     885     818     817     806     807
       8     897     896     885     886     819     818     807     808
       8     898     897     886     899     820     819     808     821
       8     900     899     886     887     822     821     808     809
       8     879     900     887     877     801     822     809     799
       8     901     880     881     883     823     802     803     805
       8     902     901     883     889     824     823     805     811
       8     903     902     889     904     825     824     811     826
       8     905     904     889     888     827     826     811     810
       8     906     905     888     890     828     827     810     812
       8     907     906     890     891     829     828     812     813
       8     908     907     891     909     830     829     813     831
       8     863     909     891     861     785     831     813     783
       8     910     911     862     892     832     833     784     814
       8     912     910     892     893     834     832     814     815
       8     913     912     893     894     835     834     815     816
       8     914     913     894     870     836     835     816     792
       8     915     914     870     869     837     836     792     791
       8     916     915     869     872     838     837     791     794
       8     917     916     872     895     839     838     794     817
       8     918     917     895     896     840     839     817     818
       8     919     918     896     897     841     840     818     819
       8     920     919     897     898     842     841     819     820
       8     921     920     898     899     843     842     820     821
       8     922     921     899     900     844     843     821     822
       8     923     922     900     879     845     844     822     801
       8     924     923     879     878     846     845     801     800
       8     925     924     878     880     847     846     800     802
       8     926     925     880     901     848     847     802     823
       8     927     926     901     902     849     848     823     824
       8     928     927     902     903     850     849     824     825
       8     929     928     903     904     851     850     825     826
       8     930     929     904     905     852     851     826     827
       8     931     930     905     906     853     852     827     828
       8     932     931     906     907     854     853     828     829
       8     933     932     907     908     855     854     829     830
       8     934     933     908     909     856     855     830     831
       8     935     934     909     863     857     856     831     785
       8     911     935     863     862     833     857     785     784
       8     936     937     938     939     858     859     860     861
       8     938     940     941     939     860     862     863     861
       8     942     937     936     943     864     859     858     865
       8     936     944     945     943     858     866     867     865
       8     946     947     948     942     868     869     870     864
       8     949     950     947     946     871     872     869     868
       8     943     949     946     942     865     871     868     864
       8     951     952     944     953     873     874     866     875
       8     954     955     952     951     876     877     874     873
       8     956     957     955     954     878     879     877     876
       8     958     956     954     959     880     878     876     881
       8     960     945     944     952     882     867     866     874
       8     951     961     959     954     873     883     881     876
       8     936     939     953     944     858     861     875     866
       8     962     949     943     945     884     871     865     867
       8     963     962     945     960     885     884     867     882
       8     964     963     960     965     886     885     882     887
       8     955     965     960     952     877     887     882     874
       8     966     967     961     951     888     889     883     873
       8     968     966     951     953     890     888     873     875
       8     969     968     953     939     891     890     875     861
       8     970     940     938     971     892     862     860     893
       8     972     971     938     937     894     893     860     859
       8     948     972     937     942     870     894     859     864
       8     973     950     949     962     895     872     871     884
       8     974     973     962     963     896     895     884     885
       8     975     974     963     964     897     896     885     886
       8     976     975     964     977     898     897     886     899
       8     978     977     964     965     900     899     886     887
       8     957     978     965     955     879     900     887     877
       8     979     958     959     961     901     880     881     883
       8     980     979     961     967     902     901     883     889
       8     981     980     967     982     903     902     889     904
       8     983     982     967     966     905     904     889     888
       8     984     983     966     968     906     905     888     890
       8     985     984     968     969     907     906     890     891
       8     986     985     969     987     908     907     891     909
       8     941     987     969     939     863     909     891     861
       8     988     989     940     970     910     911     862     892
       8     990     988     970     971     912     910     892     893
       8     991     990     971     972     913     912     893     894
       8     992     991     972     948     914     913     894     870
       8     993     992     948     947     915     914     870     869
       8     994     993     947     950     916     915     869     872
       8     995     994     950     973     917     916     872     895
       8     996     995     973     974     918     917     895     896
       8     997     996     974     975     919     918     896     897
       8     998     997     975     976     920     919     897     898
       8     999     998     976     977     921     920     898     899
       8    1000     999     977     978     922     921     899     900
       8    1001    1000     978     957     923     922     900     879
       8    1002    1001     957     956     924     923     879     878
       8    1003    1002     956     958     925     924     878     880
       8    1004    1003     958     979     926     925     880     901
       8    1005    1004     979     980     927     926     901     902
       8    1006    1005     980     981     928     927     902     903
       8    1007    1006     981     982     929     928     903     904
       8    1008    1007     982     983     930     929     904     905
       8    1009    1008     983     984     931     930     905     906
       8    1010    1009     984     985     932     931     906     907
       8    1011    1010     985     986     933     932     907     908
       8    1012    1011     986     987     934     933     908     909
       8    1013    1012     987     941     935     934     909     863
       8     989    1013     941     940     911     935     863     862
       8    1014    1015    1016    1017     936     937     938     939
       8    1016    1018    1019    1017     938     940     941     939
       8    1020    1015    1014    1021     942     937     936     943
       8    1014    1022    1023    1021     936     944     945     943
       8    1024    1025    1026    1020     946     947     948     942
       8    1027    1028    1025    1024     949     950     947     946
       8    1021    1027    1024    1020     943     949     946     942
       8    1029    1030    1022    1031     951     952     944     953
       8    1032    1033    1030    1029     954     955     952     951
       8    1034    1035    1033    1032     956     957     955     954
       8    1036    1034    1032    1037     958     956     954     959
       8    1038    1023    1022    1030     960     945     944     952
       8    1029    1039    1037    1032     951     961     959     954
       8    1014    1017    1031    1022     936     939     953     944
       8    1040    1027    1021    1023     962     949     943     945
       8    1041    1040    1023    1038     963     962     945     960
       8    1042    1041    1038    1043     964     963     960     965
       8    1033    1043    1038    1030     955     965     960     952
       8    1044    1045    1039    1029     966     967     961     951
       8    1046    1044    1029    1031     968     966     951     953
       8    1047    1046    1031    1017     969     968     953     939
       8    1048    1018    1016    1049     970     940     938     971
       8    1050    1049    1016    1015     972     971     938     937
       8    1026    1050    1015    1020     948     972     937     942
       8    1051    1028    1027    1040     973     950     949     962
       8    1052    1051    1040    1041     974     973     962     963
       8    1053    1052    1041    1042     975     974     963     964
       8    1054    1053    1042    1055     976     975     964     977
       8    1056    1055    1042    1043     978     977     964     965
       8    1035    1056    1043    1033     957     978     965     955
       8    1057    1036    1037    1039     979     958     959     961
       8    1058    1057    1039    1045     980     979     961     967
       8    1059    1058    1045    1060     981     980     967     982
       8    1061    1060    1045    1044     983     982     967     966
       8    1062    1061    1044    1046     984     983     966     968
       8    1063    1062    1046    1047     985     984     968     969
       8    1064    1063    1047    1065     986     985     969     987
       8    1019    1065    1047    1017     941     987     969     939
       8    1066    1067    1018    1048     988     989     940     970
       8    1068    1066    1048    1049     990     988     970     971
       8    1069    1068    1049    1050     991     990     971     972
       8    1070    1069    1050    1026     992     991     972     948
       8    1071    1070    1026    1025     993     992     948     947
       8    1072    1071    1025    1028     994     993     947     950
       8    1073    1072    1028    1051     995     994     950     973
       8    1074    1073    1051    1052     996     995     973     974
       8    1075    1074    1052    1053     997     996     974     975
       8    1076    1075    1053    1054     998     997     975     976
       8    1077    1076    1054    1055     999     998     976     977
       8    1078    1077    1055    1056    1000     999     977     978
       8    1079    1078    1056    1035    1001    1000     978     957
       8    1080    1079    1035    1034    1002    1001     957     956
       8    1081    1080    1034    1036    1003    1002     956     958
       8    1082    1081    1036    1057    1004    1003     958     979
       8    1083    1082    1057    1058    1005    1004     979     980
       8    1084    1083    1058    1059    1006    1005     980     981
       8    1085    1084    1059    1060    1007    1006     981     982
       8    1086    1085    1060    1061    1008    1007     982     983
       8    1087    1086    1061    1062    1009    1008     983     984
       8    1088    1087    1062    1063    1010    1009     984     985
       8    1089    1088    1063    1064    1011    1010     985     986
       8    1090    1089    1064    1065    1012    1011     986     987
       8    1091    1090    1065    1019    1013    1012     987     941
       8    1067    1091    1019    1018     989    1013     941     940
       8    1092    1093    1094    1095    1014    1015    1016    1017
       8    1094    1096    1097    1095    1016    1018    1019    1017
       8    1098    1093    1092    1099    1020    1015    1014    1021
       8    1092    1100    1101    1099    1014    1022    1023    1021
       8    1102    1103    1104    1098    1024    1025    1026    1020
       8    1105    1106    1103    1102    1027    1028    1025    1024
       8    1099    1105    1102    1098    1021    1027    1024    1020
       8    1107    1108    1100    1109    1029    1030    1022    1031
       8    1110    1111    1108    1107    1032    1033    1030    1029
       8    1112    1113    1111    1110    1034    1035    1033    1032
       8    1114    1112    1110    1115    1036    1034    1032    1037
       8    1116    1101    1100    1108    1038    1023    1022    1030
       8    1107    1117    1115    1110    1029    1039    1037    1032
       8    1092    1095    1109    1100    1014    1017    1031    1022
       8    1118    1105    1099    1101    1040    1027    1021    1023
       8    1119    1118    1101    1116    1041    1040    1023    1038
       8    1120    1119    1116    1121    1042    1041    1038    1043
       8    1111    1121    1116    1108    1033    1043    1038    1030
       8    1122    1123    1117    1107    1044    1045    1039    1029
       8    1124    1122    1107    1109    1046    1044    1029    1031
       8    1125    1124    1109    1095    1047    1046    1031    1017
       8    1126    1096    1094    1127    1048    1018    1016    1049
       8    1128    1127    1094    1093    1050    1049    1016    1015
       8    1104    1128    1093    1098    1026    1050    1015    1020
       8    1129    1106    1105    1118    1051    1028    1027    1040
       8    1130    1129    1118    1119    1052    1051    1040    1041
       8    1131    1130    1119    1120    1053    1052    1041    1042
       8    1132    1131    1120    1133    1054    1053    1042    1055
       8    1134    1133    1120    1121    1056    1055    1042    1043
       8    1113    1134    1121    1111    1035    1056    1043    1033
       8    1135    1114    1115    1117    1057    1036    1037    1039
       8    1136    1135    1117    1123    1058    1057    1039    1045
       8    1137    1136    1123    1138    1059    1058    1045    1060
       8    1139    1138    1123    1122    1061    1060    1045    1044
       8    1140    1139    1122    1124    1062    1061    1044    1046
       8    1141    1140    1124    1125    1063    1062    1046    1047
       8    1142    1141    1125    1143    1064    1063    1047    1065
       8    1097    1143    1125    1095    1019    1065    1047    1017
       8    1144    1145    1096    1126    1066    1067    1018    1048
       8    1146    1144    1126    1127    1068    1066    1048    1049
       8    1147    1146    1127    1128    1069    1068    1049    1050
       8    1148    1147    1128    1104    1070    1069    1050    1026
       8    1149    1148    1104    1103    1071    1070    1026    1025
       8    1150    1149    1103    1106    1072    1071    1025    1028
       8    1151    1150    1106    1129    1073    1072    1028    1051
       8    1152    1151    1129    1130    1074    1073    1051    1052
       8    1153    1152    1130    1131    1075    1074    1052    1053
       8    1154    1153    1131    1132    1076    1075    1053    1054
       8    1155    1154    1132    1133    1077    1076    1054    1055
       8    1156    1155    1133    1134    1078    1077    1055    1056
       8    1157    1156    1134    1113    1079    1078    1056    1035
       8    1158    1157    1113    1112    1080    1079    1035    1034
       8    1159    1158    1112    1114    1081    1080    1034    1036
       8    1160    1159    1114    1135    1082    1081    1036    1057
       8    1161    1160    1135    1136    1083    1082    1057    1058
       8    1162    1161    1136    1137    1084    1083    1058    1059
       8    1163    1162    1137    1138    1085    1084    1059    1060
       8    1164    1163    1138    1139    1086    1085    1060    1061
       8    1165    1164    1139    1140    1087    1086    1061    1062
       8    1166    1165    1140    1141    1088    1087    1062    1063
       8    1167    1166    1141    1142    1089    1088    1063    1064
       8    1168    1167    1142    1143    1090    1089    1064    1065
       8    1169    1168    1143    1097    1091    1090    1065    1019
       8    1145    1169    1097    1096    1067    1091    1019    1018
       8    1170    1171    1172    1173    1092    1093    1094    1095
       8    1172    1174    1175    1173    1094    1096    1097    1095
       8    1176    1171    1170    1177    1098    1093    1092    1099
       8    1170    1178    1179    1177    1092    1100    1101    1099
       8    1180    1181    1182    1176    1102    1103    1104    1098
       8    1183    1184    1181    1180    1105    1106    1103    1102
       8    1177    1183    1180    1176    1099    1105    1102    1098
       8    1185    1186    1178    1187    1107    1108    1100    1109
       8    1188    1189    1186    1185    1110    1111    1108    1107
       8    1190    1191    1189    1188    1112    1113    1111    1110
       8    1192    1190    1188    1193    1114    1112    1110    1115
       8    1194    1179    1178    1186    1116    1101    1100    1108
       8    1185    1195    1193    1188    1107    1117    1115    1110
       8    1170    1173    1187    1178    1092    1095    1109    1100
       8    1196    1183    1177    1179    1118    1105    1099    1101
       8    1197    1196    1179    1194    1119    1118    1101    1116
       8    1198    1197    1194    1199    1120    1119    1116    1121
       8    1189    1199    1194    1186    1111    1121    1116    1108
       8    1200    1201    1195    1185    1122    1123    1117    1107
       8    1202    1200    1185    1187    1124    1122    1107    1109
       8    1203    1202    1187    1173    1125    1124    1109    1095
       8    1204    1174    1172    1205    1126    1096    1094    1127
       8    1206    1205    1172    1171    1128    1127    1094    1093
       8    1182    1206    1171    1176    1104    1128    1093    1098
       8    1207    1184    1183    1196    1129    1106    1105    1118
       8    1208    1207    1196    1197    1130    1129    1118    1119
       8    1209    1208    1197    1198    1131    1130    1119    1120
       8    1210    1209    1198    1211    1132    1131    1120    1133
       8    1212    1211    1198    1199    1134    1133    1120    1121
       8    1191    1212    1199    1189    1113    1134    1121    1111
       8    1213    1192    1193    1195    1135    1114    1115    1117
       8    1214    1213    1195    1201    1136    1135    1117    1123
       8    1215    1214    1201    1216    1137    1136    1123    1138
       8    1217    1216    1201    1200    1139    1138    1123    1122
       8    1218    1217    1200    1202    1140    1139    1122    1124
       8    1219    1218    1202    1203    1141    1140    1124    1125
       8    1220    1219    1203    1221    1142    1141    1125    1143
       8    1175    1221    1203    1173    1097    1143    1125    1095
       8    1222    1223    1174    1204    1144    1145    1096    1126
       8    1224    1222    1204    1205    1146    1144    1126    1127
       8    1225    1224    1205    1206    1147    1146    1127    1128
       8    1226    1225    1206    1182    1148    1147    1128    1104
       8    1227    1226    1182    1181    1149    1148    1104    1103
       8    1228    1227    1181    1184    1150    1149    1103    1106
       8    1229    1228    1184    1207    1151    1150    1106    1129
       8    1230    1229    1207    1208    1152    1151    1129    1130
       8    1231    1230    1208    1209    1153    1152    1130    1131
       8    1232    1231    1209    1210    1154    1153    1131    1132
       8    1233    1232    1210    1211    1155    1154    1132    1133
       8    1234    1233    1211    1212    1156    1155    1133    1134
       8    1235    1234    1212    1191    1157    1156    1134    1113
       8    1236    1235    1191    1190    1158    1157    1113    1112
       8    1237    1236    1190    1192    1159    1158    1112    1114
       8    1238    1237    1192    1213    1160    1159    1114    1135
       8    1239    1238    1213    1214    1161    1160    1135    1136
       8    1240    1239    1214    1215    1162    1161    1136    1137
       8    1241    1240    1215    1216    1163    1162    1137    1138
       8    1242    1241    1216    1217    1164    1163    1138    1139
       8    1243    1242    1217    1218    1165    1164    1139    1140
       8    1244    1243    1218    1219    1166    1165    1140    1141
       8    1245    1244    1219    1220    1167    1166    1141    1142
       8    1246    1245    1220    1221    1168    1167    1142    1143
       8    1247    1246    1221    1175    1169    1168    1143    1097
       8    1223    1247    1175    1174    1145    1169    1097    1096
       8    1248    1249    1250    1251    1170    1171    1172    1173
       8    1250    1252    1253    1251    1172    1174    1175    1173
       8    1254    1249    1248    1255    1176    1171    1170    1177
       8    1248    1256    1257    1255    1170    1178    1179    1177
       8    1258    1259    1260    1254    1180    1181    1182    1176
       8    1261    1262    1259    1258    1183    1184    1181    1180
       8    1255    1261    1258    1254    1177    1183    1180    1176
       8    1263    1264    1256    1265    1185    1186    1178    1187
       8    1266    1267    1264    1263    1188    1189    1186    1185
       8    1268    1269    1267    1266    1190    1191    1189    1188
       8    1270    1268    1266    1271    1192    1190    1188    1193
       8    1272    1257    1256    1264    1194    1179    1178    1186
       8    1263    1273    1271    1266    1185    1195    1193    1188
       8    1248    1251    1265    1256    1170    1173    1187    1178
       8    1274    1261    1255    1257    1196    1183    1177    1179
       8    1275    1274    1257    1272    1197    1196    1179    1194
       8    1276    1275    1272    1277    1198    1197    1194    1199
       8    1267    1277    1272    1264    1189    1199    1194    1186
       8    1278    1279    1273    1263    1200    1201    1195    1185
       8    1280    1278    1263    1265    1202    1200    1185    1187
       8    1281    1280    1265    1251    1203    1202    1187    1173
       8    1282    1252    1250    1283    1204    1174    1172    1205
       8    1284    1283    1250    1249    1206    1205    1172    1171
       8    1260    1284    1249    1254    1182    1206    1171    1176
       8    1285    1262    1261    1274    1207    1184    1183    1196
       8    1286    1285    1274    1275    1208    1207    1196    1197
       8    1287    1286    1275    1276    1209    1208    1197    1198
       8    1288    1287    1276    1289    1210    1209    1198    1211
       8    1290    1289    1276    1277    1212    1211    1198    1199
       8    1269    1290    1277    1267    1191    1212    1199    1189
       8    1291    1270    1271    1273    1213    1192    1193    1195
       8    1292    1291    1273    1279    1214    1213    1195    1201
       8    1293    1292    1279    1294    1215    1214    1201    1216
       8    1295    1294    1279    1278    1217    1216    1201    1200
       8    1296    1295    1278    1280    1218    1217    1200    1202
       8    1297    1296    1280    1281    1219    1218    1202    1203
       8    1298    1297    1281    1299    1220    1219    1203    1221
       8    1253    1299    1281    1251    1175    1221    1203    1173
       8    1300    1301    1252    1282    1222    1223    1174    1204
       8    1302    1300    1282    1283    1224    1222    1204    1205
       8    1303    1302    1283    1284    1225    1224    1205    1206
       8    1304    1303    1284    1260    1226    1225    1206    1182
       8    1305    1304    1260    1259    1227    1226    1182    1181
       8    1306    1305    1259    1262    1228    1227    1181    1184
       8    1307    1306    1262    1285    1229    1228    1184    1207
       8    1308    1307    1285    1286    1230    1229    1207    1208
       8    1309    1308    1286    1287    1231    1230    1208    1209
       8    1310    1309    1287    1288    1232    1231    1209    1210
       8    1311    1310    1288    1289    1233    1232    1210    1211
       8    1312    1311    1289    1290    1234    1233    1211    1212
       8    1313    1312    1290    1269    1235    1234    1212    1191
       8    1314    1313    1269    1268    1236    1235    1191    1190
       8    1315    1314    1268    1270    1237    1236    1190    1192
       8    1316    1315    1270    1291    1238    1237    1192    1213
       8    1317    1316    1291    1292    1239    1238    1213    1214
       8    1318    1317    1292    1293    1240    1239    1214    1215
       8    1319    1318    1293    1294    1241    1240    1215    1216
       8    1320    1319    1294    1295    1242    1241    1216    1217
       8    1321    1320    1295    1296    1243    1242    1217    1218
       8    1322    1321    1296    1297    1244    1243    1218    1219
       8    1323    1322    1297    1298    1245    1244    1219    1220
       8    1324    1323    1298    1299    1246    1245    1220    1221
       8    1325    1324    1299    1253    1247    1246    1221    1175
       8    1301    1325    1253    1252    1223    1247    1175    1174
       8    1326    1327    1328    1329    1248    1249    1250    1251
       8    1328    1330    1331    1329    1250    1252    1253    1251
       8    1332    1327    1326    1333    1254    1249    1248    1255
       8    1326    1334    1335    1333    1248    1256    1257    1255
       8    1336    1337    1338    1332    1258    1259    1260    1254
       8    1339    1340    1337    1336    1261    1262    1259    1258
       8    1333    1339    1336    1332    1255    1261    1258    1254
       8    1341    1342    1334    1343    1263    1264    1256    1265
       8    1344    1345    1342    1341    1266    1267    1264    1263
       8    1346    1347    1345    1344    1268    1269    1267    1266
       8    1348    1346    1344    1349    1270    1268    1266    1271
       8    1350    1335    1334    1342    1272    1257    1256    1264
       8    1341    1351    1349    1344    1263    1273    1271    1266
       8    1326    1329    1343    1334    1248    1251    1265    1256
       8    1352    1339    1333    1335    1274    1261    1255    1257
       8    1353    1352    1335    1350    1275    1274    1257    1272
       8    1354    1353    1350    1355    1276    1275    1272    1277
       8    1345    1355    1350    1342    1267    1277    1272    1264
       8    1356    1357    1351    1341    1278    1279    1273    1263
       8    1358    1356    1341    1343    1280    1278    1263    1265
       8    1359    1358    1343    1329    1281    1280    1265    1251
       8    1360    1330    1328    1361    1282    1252    1250    1283
       8    1362    1361    1328    1327    1284    1283    1250    1249
       8    1338    1362    1327    1332    1260    1284    1249    1254
       8    1363    1340    1339    1352    1285    1262    1261    1274
       8    1364    1363    1352    1353    1286    1285    1274    1275
       8    1365    1364    1353    1354    1287    1286    1275    1276
       8    1366    1365    1354    1367    1288    1287    1276    1289
       8    1368    1367    1354    1355    1290    1289    1276    1277
       8    1347    1368    1355    1345    1269    1290    1277    1267
       8    1369    1348    1349    1351    1291    1270    1271    1273
       8    1370    1369    1351    1357    1292    1291    1273    1279
       8    1371    1370    1357    1372    1293    1292    1279    1294
       8    1373    1372    1357    1356    1295    1294    1279    1278
       8    1374    1373    1356    1358    1296    1295    1278    1280
       8    1375    1374    1358    1359    1297    1296    1280    1281
       8    1376    1375    1359    1377    1298    1297    1281    1299
       8    1331    1377    1359    1329    1253    1299    1281    1251
       8    1378    1379    1330    1360    1300    1301    1252    1282
       8    1380    1378    1360    1361    1302    1300    1282    1283
       8    1381    1380    1361    1362    1303    1302    1283    1284
       8    1382    1381    1362    1338    1304    1303    1284    1260
       8    1383    1382    1338    1337    1305    1304    1260    1259
       8    1384    1383    1337    1340    1306    1305    1259    1262
       8    1385    1384    1340    1363    1307    1306    1262    1285
       8    1386    1385    1363    1364    1308    1307    1285    1286
       8    1387    1386    1364    1365    1309    1308    1286    1287
       8    1388    1387    1365    1366    1310    1309    1287    1288
       8    1389    1388    1366    1367    1311    1310    1288    1289
       8    1390    1389    1367    1368    1312    1311    1289    1290
       8    1391    1390    1368    1347    1313    1312    1290    1269
       8    1392    1391    1347    1346    1314    1313    1269    1268
       8    1393    1392    1346    1348    1315    1314    1268    1270
       8    1394    1393    1348    1369    1316    1315    1270    1291
       8    1395    1394    1369    1370    1317    1316    1291    1292
       8    1396    1395    1370    1371    1318    1317    1292    1293
       8    1397    1396    1371    1372    1319    1318    1293    1294
       8    1398    1397    1372    1373    1320    1319    1294    1295
       8    1399    1398    1373    1374    1321    1320    1295    1296
       8    1400    1399    1374    1375    1322    1321    1296    1297
       8    1401    1400    1375    1376    1323    1322    1297    1298
       8    1402    1401    1376    1377    1324    1323    1298    1299
       8    1403    1402    1377    1331    1325    1324    1299    1253
       8    1379    1403    1331    1330    1301    1325    1253    1252
       8    1404    1405    1406    1407    1326    1327    1328    1329
       8    1406    1408    1409    1407    1328    1330    1331    1329
       8    1410    1405    1404    1411    1332    1327    1326    1333
       8    1404    1412    1413    1411    1326    1334    1335    1333
       8    1414    1415    1416    1410    1336    1337    1338    1332
       8    1417    1418    1415    1414    1339    1340    1337    1336
       8    1411    1417    1414    1410    1333    1339    1336    1332
       8    1419    1420    1412    1421    1341    1342    1334    1343
       8    1422    1423    1420    1419    1344    1345    1342    1341
       8    1424    1425    1423    1422    1346    1347    1345    1344
       8    1426    1424    1422    1427    1348    1346    1344    1349
       8    1428    1413    1412    1420    1350    1335    1334    1342
       8    1419    1429    1427    1422    1341    1351    1349    1344
       8    1404    1407    1421    1412    1326    1329    1343    1334
       8    1430    1417    1411    1413    1352    1339    1333    1335
       8    1431    1430    1413    1428    1353    1352    1335    1350
       8    1432    1431    1428    1433    1354    1353    1350    1355
       8    1423    1433    1428    1420    1345    1355    1350    1342
       8    1434    1435    1429    1419    1356    1357    1351    1341
       8    1436    1434    1419    1421    1358    1356    1341    1343
       8    1437    1436    1421    1407    1359    1358    1343    1329
       8    1438    1408    1406    1439    1360    1330    1328    1361
       8    1440    1439    1406    1405    1362    1361    1328    1327
       8    1416    1440    1405    1410    1338    1362    1327    1332
       8    1441    1418    1417    1430    1363    1340    1339    1352
       8    1442    1441    1430    1431    1364    1363    1352    1353
       8    1443    1442    1431    1432    1365    1364    1353    1354
       8    1444    1443    1432    1445    1366    1365    1354    1367
       8    1446    1445    1432    1433    1368    1367    1354    1355
       8    1425    1446    1433    1423    1347    1368    1355    1345
       8    1447    1426    1427    1429    1369    1348    1349    1351
       8    1448    1447    1429    1435    1370    1369    1351    1357
       8    1449    1448    1435    1450    1371    1370    1357    1372
       8    1451    1450    1435    1434    1373    1372    1357    1356
       8    1452    1451    1434    1436    1374    1373    1356    1358
       8    1453    1452    1436    1437    1375    1374    1358    1359
       8    1454    1453    1437    1455    1376    1375    1359    1377
       8    1409    1455    1437    1407    1331    1377    1359    1329
       8    1456    1457    1408    1438    1378    1379    1330    1360
       8    1458    1456    1438    1439    1380    1378    1360    1361
       8    1459    1458    1439    1440    1381    1380    1361    1362
       8    1460    1459    1440    1416    1382    1381    1362    1338
       8    1461    1460    1416    1415    1383    1382    1338    1337
       8    1462    1461    1415    1418    1384    1383    1337    1340
       8    1463    1462    1418    1441    1385    1384    1340    1363
       8    1464    1463    1441    1442    1386    1385    1363    1364
       8    1465    1464    1442    1443    1387    1386    1364    1365
       8    1466    1465    1443    1444    1388    1387    1365    1366
       8    1467    1466    1444    1445    1389    1388    1366    1367
       8    1468    1467    1445    1446    1390    1389    1367    1368
       8    1469    1468    1446    1425    1391    1390    1368    1347
       8    1470    1469    1425    1424    1392    1391    1347    1346
       8    1471    1470    1424    1426    1393    1392    1346    1348
       8    1472    1471    1426    1447    1394    1393    1348    1369
       8    1473    1472    1447    1448    1395    1394    1369    1370
       8    1474    1473    1448    1449    1396    1395    1370    1371
       8    1475    1474    1449    1450    1397    1396    1371    1372
       8    1476    1475    1450    1451    1398    1397    1372    1373
       8    1477    1476    1451    1452    1399    1398    1373    1374
       8    1478    1477    1452    1453    1400    1399    1374    1375
       8    1479    1478    1453    1454    1401    1400    1375    1376
       8    1480    1479    1454    1455    1402    1401    1376    1377
       8    1481    1480    1455    1409    1403    1402    1377    1331
       8    1457    1481    1409    1408    1379    1403    1331    1330
       8    1482    1483    1484    1485    1404    1405    1406    1407
       8    1484    1486    1487    1485    1406    1408    1409    1407
       8    1488    1483    1482    1489    1410    1405    1404    1411
       8    1482    1490    1491    1489    1404    1412    1413    1411
       8    1492    1493    1494    1488    1414    1415    1416    1410
       8    1495    1496    1493    1492    1417    1418    1415    1414
       8    1489    1495    1492    1488    1411    1417    1414    1410
       8    1497    1498    1490    1499    1419    1420    1412    1421
       8    1500    1501    1498    1497    1422    1423    1420    1419
       8    1502    1503    1501    1500    1424    1425    1423    1422
       8    1504    1502    1500    1505    1426    1424    1422    1427
       8    1506    1491    1490    1498    1428    1413    1412    1420
       8    1497    1507    1505    1500    1419    1429    1427    1422
       8    1482    1485    1499    1490    1404    1407    1421    1412
       8    1508    1495    1489    1491    1430    1417    1411    1413
       8    1509    1508    1491    1506    1431    1430    1413    1428
       8    1510    1509    1506    1511    1432    1431    1428    1433
       8    1501    1511    1506    1498    1423    1433    1428    1420
       8    1512    1513    1507    1497    1434    1435    1429    1419
       8    1514    1512    1497    1499    1436    1434    1419    1421
       8    1515    1514    1499    1485    1437    1436    1421    1407
       8    1516    1486    1484    1517    1438    1408    1406    1439
       8    1518    1517    1484    1483    1440    1439    1406    1405
       8    1494    1518    1483    1488    1416    1440    1405    1410
       8    1519    1496    1495    1508    1441    1418    1417    1430
       8    1520    1519    1508    1509    1442    1441    1430    1431
       8    1521    1520    1509    1510    1443    1442    1431    1432
       8    1522    1521    1510    1523    1444    1443    1432    1445
       8    1524    1523    1510    1511    1446    1445    1432    1433
       8    1503    1524    1511    1501    1425    1446    1433    1423
       8    1525    1504    1505    1507    1447    1426    1427    1429
       8    1526    1525    1507    1513    1448    1447    1429    1435
       8    1527    1526    1513    1528    1449    1448    1435    1450
       8    1529    1528    1513    1512    1451    1450    1435    1434
       8    1530    1529    1512    1514    1452    1451    1434    1436
       8    1531    1530    1514    1515    1453    1452    1436    1437
       8    1532    1531    1515    1533    1454    1453    1437    1455
       8    1487    1533    1515    1485    1409    1455    1437    1407
       8    1534    1535    1486    1516    1456    1457    1408    1438
       8    1536    1534    1516    1517    1458    1456    1438    1439
       8    1537    1536    1517    1518    1459    1458    1439    1440
       8    1538    1537    1518    1494    1460    1459    1440    1416
       8    1539    1538    1494    1493    1461    1460    1416    1415
       8    1540    1539    1493    1496    1462    1461    1415    1418
       8    1541    1540    1496    1519    1463    1462    1418    1441
       8    1542    1541    1519    1520    1464    1463    1441    1442
       8    1543    1542    1520    1521    1465    1464    1442    1443
       8    1544    1543    1521    1522    1466    1465    1443    1444
       8    1545    1544    1522    1523    1467    1466    1444    1445
       8    1546    1545    1523    1524    1468    1467    1445    1446
       8    1547    1546    1524    1503    1469    1468    1446    1425
       8    1548    1547    1503    1502    1470    1469    1425    1424
       8    1549    1548    1502    1504    1471    1470    1424    1426
       8    1550    1549    1504    1525    1472    1471    1426    1447
       8    1551    1550    1525    1526    1473    1472    1447    1448
       8    1552    1551    1526    1527    1474    1473    1448    1449
       8    1553    1552    1527    1528    1475    1474    1449    1450
       8    1554    1553    1528    1529    1476    1475    1450    1451
       8    1555    1554    1529    1530    1477    1476    1451    1452
       8    1556    1555    1530    1531    1478    1477    1452    1453
       8    1557    1556    1531    1532    1479    1478    1453    1454
       8    1558    1557    1532    1533    1480    1479    1454    1455
       8    1559    1558    1533    1487    1481    1480    1455    1409
       8    1535    1559    1487    1486    1457    1481    1409    1408
       8    1560    1561    1562    1563    1482    1483    1484    1485
       8    1562    1564    1565    1563    1484    1486    1487    1485
       8    1566    1561    1560    1567    1488    1483    1482    1489
       8    1560    1568    1569    1567    1482    1490    1491    1489
       8    1570    1571    1572    1566    1492    1493    1494    1488
       8    1573    1574    1571    1570    1495    1496    1493    1492
       8    1567    1573    1570    1566    1489    1495    1492    1488
       8    1575    1576    1568    1577    1497    1498    1490    1499
       8    1578    1579    1576    1575    1500    1501    1498    1497
       8    1580    1581    1579    1578    1502    1503    1501    1500
       8    1582    1580    1578    1583    1504    1502    1500    1505
       8    1584    1569    1568    1576    1506    1491    1490    1498
       8    1575    1585    1583    1578    1497    1507    1505    1500
       8    1560    1563    1577    1568    1482    1485    1499    1490
       8    1586    1573    1567    1569    1508    1495    1489    1491
       8    1587    1586    1569    1584    1509    1508    1491    1506
       8    1588    1587    1584    1589    1510    1509    1506    1511
       8    1579    1589    1584    1576    1501    1511    1506    1498
       8    1590    1591    1585    1575    1512    1513    1507    1497
       8    1592    1590    1575    1577    1514    1512    1497    1499
       8    1593    1592    1577    1563    1515    1514    1499    1485
       8    1594    1564    1562    1595    1516    1486    1484    1517
       8    1596    1595    1562    1561    1518    1517    1484    1483
       8    1572    1596    1561    1566    1494    1518    1483    1488
       8    1597    1574    1573    1586    1519    1496    1495    1508
       8    1598    1597    1586    1587    1520    1519    1508    1509
       8    1599    1598    1587    1588    1521    1520    1509    1510
       8    1600    1599    1588    1601    1522    1521    1510    1523
       8    1602    1601    1588    1589    1524    1523    1510    1511
       8    1581    1602    1589    1579    1503    1524    1511    1501
       8    1603    1582    1583    1585    1525    1504    1505    1507
       8    1604    1603    1585    1591    1526    1525    1507    1513
       8    1605    1604    1591    1606    1527    1526    1513    1528
       8    1607    1606    1591    1590    1529    1528    1513    1512
       8    1608    1607    1590    1592    1530    1529    1512    1514
       8    1609    1608    1592    1593    1531    1530    1514    1515
       8    1610    1609    1593    1611    1532    1531    1515    1533
       8    1565    1611    1593    1563    1487    1533    1515    1485
       8    1612    1613    1564    1594    1534    1535    1486    1516
       8    1614    1612    1594    1595    1536    1534    1516    1517
       8    1615    1614    1595    1596    1537    1536    1517    1518
       8    1616    1615    1596    1572    1538    1537    1518    1494
       8    1617    1616    1572    1571    1539    1538    1494    1493
       8    1618    1617    1571    1574    1540    1539    1493    1496
       8    1619    1618    1574    1597    1541    1540    1496    1519
       8    1620    1619    1597    1598    1542    1541    1519    1520
       8    1621    1620    1598    1599    1543    1542    1520    1521
       8    1622    1621    1599    1600    1544    1543    1521    1522
       8    1623    1622    1600    1601    1545    1544    1522    1523
       8    1624    1623    1601    1602    1546    1545    1523    1524
       8    1625    1624    1602    1581    1547    1546    1524    1503
       8    1626    1625    1581    1580    1548    1547    1503    1502
       8    1627    1626    1580    1582    1549    1548    1502    1504
       8    1628    1627    1582    1603    1550    1549    1504    1525
       8    1629    1628    1603    1604    1551    1550    1525    1526
       8    1630    1629    1604    1605    1552    1551    1526    1527
       8    1631    1630    1605    1606    1553    1552    1527    1528
       8    1632    1631    1606    1607    1554    1553    1528    1529
       8    1633    1632    1607    1608    1555    1554    1529    1530
       8    1634    1633    1608    1609    1556    1555    1530    1531
       8    1635    1634    1609    1610    1557    1556    1531    1532
       8    1636    1635    1610    1611    1558    1557    1532    1533
       8    1637    1636    1611    1565    1559    1558    1533    1487
       8    1613    1637    1565    1564    1535    1559    1487    1486
       8    1638    1639    1640    1641    1560    1561    1562    1563
       8    1640    1642    1643    1641    1562    1564    1565    1563
       8    1644    1639    1638    1645    1566    1561    1560    1567
       8    1638    1646    1647    1645    1560    1568    1569    1567
       8    1648    1649    1650    1644    1570    1571    1572    1566
       8    1651    1652    1649    1648    1573    1574    1571    1570
       8    1645    1651    1648    1644    1567    1573    1570    1566
       8    1653    1654    1646    1655    1575    1576    1568    1577
       8    1656    1657    1654    1653    1578    1579    1576    1575
       8    1658    1659    1657    1656    1580    1581    1579    1578
       8    1660    1658    1656    1661    1582    1580    1578    1583
       8    1662    1647    1646    1654    1584    1569    1568    1576
       8    1653    1663    1661    1656    1575    1585    1583    1578
       8    1638    1641    1655    1646    1560    1563    1577    1568
       8    1664    1651    1645    1647    1586    1573    1567    1569
       8    1665    1664    1647    1662    1587    1586    1569    1584
       8    1666    1665    1662    1667    1588    1587    1584    1589
       8    1657    1667    1662    1654    1579    1589    1584    1576
       8    1668    1669    1663    1653    1590    1591    1585    1575
       8    1670    1668    1653    1655    1592    1590    1575    1577
       8    1671    1670    1655    1641    1593    1592    1577    1563
       8    1672    1642    1640    1673    1594    1564    1562    1595
       8    1674    1673    1640    1639    1596    1595    1562    1561
       8    1650    1674    1639    1644    1572    1596    1561    1566
       8    1675    1652    1651    1664    1597    1574    1573    1586
       8    1676    1675    1664    1665    1598    1597    1586    1587
       8    1677    1676    1665    1666    1599    1598    1587    1588
       8    1678    1677    1666    1679    1600    1599    1588    1601
       8    1680    1679    1666    1667    1602    1601    1588    1589
       8    1659    1680    1667    1657    1581    1602    1589    1579
       8    1681    1660    1661    1663    1603    1582    1583    1585
       8    1682    1681    1663    1669    1604    1603    1585    1591
       8    1683    1682    1669    1684    1605    1604    1591    1606
       8    1685    1684    1669    1668    1607    1606    1591    1590
       8    1686    1685    1668    1670    1608    1607    1590    1592
       8    1687    1686    1670    1671    1609    1608    1592    1593
       8    1688    1687    1671    1689    1610    1609    1593    1611
       8    1643    1689    1671    1641    1565    1611    1593    1563
       8    1690    1691    1642    1672    1612    1613    1564    1594
       8    1692    1690    1672    1673    1614    1612    1594    1595
       8    1693    1692    1673    1674    1615    1614    1595    1596
       8    1694    1693    1674    1650    1616    1615    1596    1572
       8    1695    1694    1650    1649    1617    1616    1572    1571
       8    1696    1695    1649    1652    1618    1617    1571    1574
       8    1697    1696    1652    1675    1619    1618    1574    1597
       8    1698    1697    1675    1676    1620    1619    1597    1598
       8    1699    1698    1676    1677    1621    1620    1598    1599
       8    1700    1699    1677    1678    1622    1621    1599    1600
       8    1701    1700    1678    1679    1623    1622    1600    1601
       8    1702    1701    1679    1680    1624    1623    1601    1602
       8    1703    1702    1680    1659    1625    1624    1602    1581
       8    1704    1703    1659    1658    1626    1625    1581    1580
       8    1705    1704    1658    1660    1627    1626    1580    1582
       8    1706    1705    1660    1681    1628    1627    1582    1603
       8    1707    1706    1681    1682    1629    1628    1603    1604
       8    1708    1707    1682    1683    1630    1629    1604    1605
       8    1709    1708    1683    1684    1631    1630    1605    1606
       8    1710    1709    1684    1685    1632    1631    1606    1607
       8    1711    1710    1685    1686    1633    1632    1607    1608
       8    1712    1711    1686    1687    1634    1633    1608    1609
       8    1713    1712    1687    1688    1635    1634    1609    1610
       8    1714    1713    1688    1689    1636    1635    1610    1611
       8    1715    1714    1689    1643    1637    1636    1611    1565
       8    1691    1715    1643    1642    1613    1637    1565    1564
       8    1716    1717    1718    1719    1638    1639    1640    1641
       8    1718    1720    1721    1719    1640    1642    1643    1641
       8    1722    1717    1716    1723    1644    1639    1638    1645
       8    1716    1724    1725    1723    1638    1646    1647    1645
       8    1726    1727    1728    1722    1648    1649    1650    1644
       8    1729    1730    1727    1726    1651    1652    1649    1648
       8    1723    1729    1726    1722    1645    1651    1648    1644
       8    1731    1732    1724    1733    1653    1654    1646    1655
       8    1734    1735    1732    1731    1656    1657    1654    1653
       8    1736    1737    1735    1734    1658    1659    1657    1656
       8    1738    1736    1734    1739    1660    1658    1656    1661
       8    1740    1725    1724    1732    1662    1647    1646    1654
       8    1731    1741    1739    1734    1653    1663    1661    1656
       8    1716    1719    1733    1724    1638    1641    1655    1646
       8    1742    1729    1723    1725    1664    1651    1645    1647
       8    1743    1742    1725    1740    1665    1664    1647    1662
       8    1744    1743    1740    1745    1666    1665    1662    1667
       8    1735    1745    1740    1732    1657    1667    1662    1654
       8    1746    1747    1741    1731    1668    1669    1663    1653
       8    1748    1746    1731    1733    1670    1668    1653    1655
       8    1749    1748    1733    1719    1671    1670    1655    1641
       8    1750    1720    1718    1751    1672    1642    1640    1673
       8    1752    1751    1718    1717    1674    1673    1640    1639
       8    1728    1752    1717    1722    1650    1674    1639    1644
       8    1753    1730    1729    1742    1675    1652    1651    1664
       8    1754    1753    1742    1743    1676    1675    1664    1665
       8    1755    1754    1743    1744    1677    1676    1665    1666
       8    1756    1755    1744    1757    1678    1677    1666    1679
       8    1758    1757    1744    1745    1680    1679    1666    1667
       8    1737    1758    1745    1735    1659    1680    1667    1657
       8    1759    1738    1739    1741    1681    1660    1661    1663
       8    1760    1759    1741    1747    1682    1681    1663    1669
       8    1761    1760    1747    1762    1683    1682    1669    1684
       8    1763    1762    1747    1746    1685    1684    1669    1668
       8    1764    1763    1746    1748    1686    1685    1668    1670
       8    1765    1764    1748    1749    1687    1686    1670    1671
       8    1766    1765    1749    1767    1688    1687    1671    1689
       8    1721    1767    1749    1719    1643    1689    1671    1641
       8    1768    1769    1720    1750    1690    1691    1642    1672
       8    1770    1768    1750    1751    1692    1690    1672    1673
       8    1771    1770    1751    1752    1693    1692    1673    1674
       8    1772    1771    1752    1728    1694    1693    1674    1650
       8    1773    1772    1728    1727    1695    1694    1650    1649
       8    1774    1773    1727    1730    1696    1695    1649    1652
       8    1775    1774    1730    1753    1697    1696    1652    1675
       8    1776    1775    1753    1754    1698    1697    1675    1676
       8    1777    1776    1754    1755    1699    1698    1676    1677
       8    1778    1777    1755    1756    1700    1699    1677    1678
       8    1779    1778    1756    1757    1701    1700    1678    1679
       8    1780    1779    1757    1758    1702    1701    1679    1680
       8    1781    1780    1758    1737    1703    1702    1680    1659
       8    1782    1781    1737    1736    1704    1703    1659    1658
       8    1783    1782    1736    1738    1705    1704    1658    1660
       8    1784    1783    1738    1759    1706    1705    1660    1681
       8    1785    1784    1759    1760    1707    1706    1681    1682
       8    1786    1785    1760    1761    1708    1707    1682    1683
       8    1787    1786    1761    1762    1709    1708    1683    1684
       8    1788    1787    1762    1763    1710    1709    1684    1685
       8    1789    1788    1763    1764    1711    1710    1685    1686
       8    1790    1789    1764    1765    1712    1711    1686    1687
       8    1791    1790    1765    1766    1713    1712    1687    1688
       8    1792    1791    1766    1767    1714    1713    1688    1689
       8    1793    1792    1767    1721    1715    1714    1689    1643
       8    1769    1793    1721    1720    1691    1715    1643    1642
       8    1794    1795    1796    1797    1716    1717    1718    1719
       8    1796    1798    1799    1797    1718    1720    1721    1719
       8    1800    1795    1794    1801    1722    1717    1716    1723
       8    1794    1802    1803    1801    1716    1724    1725    1723
       8    1804    1805    1806    1800    1726    1727    1728    1722
       8    1807    1808    1805    1804    1729    1730    1727    1726
       8    1801    1807    1804    1800    1723    1729    1726    1722
       8    1809    1810    1802    1811    1731    1732    1724    1733
       8    1812    1813    1810    1809    1734    1735    1732    1731
       8    1814    1815    1813    1812    1736    1737    1735    1734
       8    1816    1814    1812    1817    1738    1736    1734    1739
       8    1818    1803    1802    1810    1740    1725    1724    1732
       8    1809    1819    1817    1812    1731    1741    1739    1734
       8    1794    1797    1811    1802    1716    1719    1733    1724
       8    1820    1807    1801    1803    1742    1729    1723    1725
       8    1821    1820    1803    1818    1743    1742    1725    1740
       8    1822    1821    1818    1823    1744    1743    1740    1745
       8    1813    1823    1818    1810    1735    1745    1740    1732
       8    1824    1825    1819    1809    1746    1747    1741    1731
       8    1826    1824    1809    1811    1748    1746    1731    1733
       8    1827    1826    1811    1797    1749    1748    1733    1719
       8    1828    1798    1796    1829    1750    1720    1718    1751
       8    1830    1829    1796    1795    1752    1751    1718    1717
       8    1806    1830    1795    1800    1728    1752    1717    1722
       8    1831    1808    1807    1820    1753    1730    1729    1742
       8    1832    1831    1820    1821    1754    1753    1742    1743
       8    1833    1832    1821    1822    1755    1754    1743    1744
       8    1834    1833    1822    1835    1756    1755    1744    1757
       8    1836    1835    1822    1823    1758    1757    1744    1745
       8    1815    1836    1823    1813    1737    1758    1745    1735
       8    1837    1816    1817    1819    1759    1738    1739    1741
       8    1838    1837    1819    1825    1760    1759    1741    1747
       8    1839    1838    1825    1840    1761    1760    1747    1762
       8    1841    1840    1825    1824    1763    1762    1747    1746
       8    1842    1841    1824    1826    1764    1763    1746    1748
       8    1843    1842    1826    1827    1765    1764    1748    1749
       8    1844    1843    1827    1845    1766    1765    1749    1767
       8    1799    1845    1827    1797    1721    1767    1749    1719
       8    1846    1847    1798    1828    1768    1769    1720    1750
       8    1848    1846    1828    1829    1770    1768    1750    1751
       8    1849    1848    1829    1830    1771    1770    1751    1752
       8    1850    1849    1830    1806    1772    1771    1752    1728
       8    1851    1850    1806    1805    1773    1772    1728    1727
       8    1852    1851    1805    1808    1774    1773    1727    1730
       8    1853    1852    1808    1831    1775    1774    1730    1753
       8    1854    1853    1831    1832    1776    1775    1753    1754
       8    1855    1854    1832    1833    1777    1776    1754    1755
       8    1856    1855    1833    1834    1778    1777    1755    1756
       8    1857    1856    1834    1835    1779    1778    1756    1757
       8    1858    1857    1835    1836    1780    1779    1757    1758
       8    1859    1858    1836    1815    1781    1780    1758    1737
       8    1860    1859    1815    1814    1782    1781    1737    1736
       8    1861    1860    1814    1816    1783    1782    1736    1738
       8    1862    1861    1816    1837    1784    1783    1738    1759
       8    1863    1862    1837    1838    1785    1784    1759    1760
       8    1864    1863    1838    1839    1786    1785    1760    1761
       8    1865    1864    1839    1840    1787    1786    1761    1762
       8    1866    1865    1840    1841    1788    1787    1762    1763
       8    1867    1866    1841    1842    1789    1788    1763    1764
       8    1868    1867    1842    1843    1790    1789    1764    1765
       8    1869    1868    1843    1844    1791    1790    1765    1766
       8    1870    1869    1844    1845    1792    1791    1766    1767
       8    1871    1870    1845    1799    1793    1792    1767    1721
       8    1847    1871    1799    1798    1769    1793    1721    1720
       8    1872    1873    1874    1875    1794    1795    1796    1797
       8    1874    1876    1877    1875    1796    1798    1799    1797
       8    1878    1873    1872    1879    1800    1795    1794    1801
       8    1872    1880    1881    1879    1794    1802    1803    1801
       8    1882    1883    1884    1878    1804    1805    1806    1800
       8    1885    1886    1883    1882    1807    1808    1805    1804
       8    1879    1885    1882    1878    1801    1807    1804    1800
       8    1887    1888    1880    1889    1809    1810    1802    1811
       8    1890    1891    1888    1887    1812    1813    1810    1809
       8    1892    1893    1891    1890    1814    1815    1813    1812
       8    1894    1892    1890    1895    1816    1814    1812    1817
       8    1896    1881    1880    1888    1818    1803    1802    1810
       8    1887    1897    1895    1890    1809    1819    1817    1812
       8    1872    1875    1889    1880    1794    1797    1811    1802
       8    1898    1885    1879    1881    1820    1807    1801    1803
       8    1899    1898    1881    1896    1821    1820    1803    1818
       8    1900    1899    1896    1901    1822    1821    1818    1823
       8    1891    1901    1896    1888    1813    1823    1818    1810
       8    1902    1903    1897    1887    1824    1825    1819    1809
       8    1904    1902    1887    1889    1826    1824    1809    1811
       8    1905    1904    1889    1875    1827    1826    1811    1797
       8    1906    1876    1874    1907    1828    1798    1796    1829
       8    1908    1907    1874    1873    1830    1829    1796    1795
       8    1884    1908    1873    1878    1806    1830    1795    1800
       8    1909    1886    1885    1898    1831    1808    1807    1820
       8    1910    1909    1898    1899    1832    1831    1820    1821
       8    1911    1910    1899    1900    1833    1832    1821    1822
       8    1912    1911    1900    1913    1834    1833    1822    1835
       8    1914    1913    1900    1901    1836    1835    1822    1823
       8    1893    1914    1901    1891    1815    1836    1823    1813
       8    1915    1894    1895    1897    1837    1816    1817    1819
       8    1916    1915    1897    1903    1838    1837    1819    1825
       8    1917    1916    1903    1918    1839    1838    1825    1840
       8    1919    1918    1903    1902    1841    1840    1825    1824
       8    1920    1919    1902    1904    1842    1841    1824    1826
       8    1921    1920    1904    1905    1843    1842    1826    1827
       8    1922    1921    1905    1923    1844    1843    1827    1845
       8    1877    1923    1905    1875    1799    1845    1827    1797
       8    1924    1925    1876    1906    1846    1847    1798    1828
       8    1926    1924    1906    1907    1848    1846    1828    1829
       8    1927    1926    1907    1908    1849    1848    1829    1830
       8    1928    1927    1908    1884    1850    1849    1830    1806
       8    1929    1928    1884    1883    1851    1850    1806    1805
       8    1930    1929    1883    1886    1852    1851    1805    1808
       8    1931    1930    1886    1909    1853    1852    1808    1831
       8    1932    1931    1909    1910    1854    1853    1831    1832
       8    1933    1932    1910    1911    1855    1854    1832    1833
       8    1934    1933    1911    1912    1856    1855    1833    1834
       8    1935    1934    1912    1913    1857    1856    1834    1835
       8    1936    1935    1913    1914    1858    1857    1835    1836
       8    1937    1936    1914    1893    1859    1858    1836    1815
       8    1938    1937    1893    1892    1860    1859    1815    1814
       8    1939    1938    1892    1894    1861    1860    1814    1816
       8    1940    1939    1894    1915    1862    1861    1816    1837
       8    1941    1940    1915    1916    1863    1862    1837    1838
       8    1942    1941    1916    1917    1864    1863    1838    1839
       8    1943    1942    1917    1918    1865    1864    1839    1840
       8    1944    1943    1918    1919    1866    1865    1840    1841
       8    1945    1944    1919    1920    1867    1866    1841    1842
       8    1946    1945    1920    1921    1868    1867    1842    1843
       8    1947    1946    1921    1922    1869    1868    1843    1844
       8    1948    1947    1922    1923    1870    1869    1844    1845
       8    1949    1948    1923    1877    1871    1870    1845    1799
       8    1925    1949    1877    1876    1847    1871    1799    1798
  
CELL_TYPES    3486
       1
       1
       1
       1
       1
       1
       1
       1
       1
       1
       1
       1
       1
       1
       1
       1
       1
       1
       1
       1
       1
       1
       1
       1
       1
       1
       1
       1
       1
       1
       1
       1
       1
       1
       1
       1
       1
       1
       1
       1
       1
       1
       1
       1
       1
       1
       1
       1
       1
       1
       1
       1
       1
       1
       1
       1
       1
       1
       1
       1
       1
       1
       1
       1
       1
       1
       1
       1
       1
       1
       1
       1
       1
       1
       1
       1
       1
       1
       1
       1
       1
       1
       1
       1
       1
       1
       1
       1
       1
       1
       1
       1
       1
       1
       1
       1
       1
       1
       1
       1
       1
       1
       1
       1
       1
       1
       1
       1
       1
       1
       1
       1
       1
       1
       1
       1
       1
       1
       1
       1
       1
       1
       1
       1
       1
       1
       1
       1
       1
       1
       1
       1
       1
       1
       1
       1
       1
       1
       1
       1
       1
       1
       1
       1
       1
       1
       1
       1
       1
       1
       1
       1
       1
       1
       1
       1
       1
       1
       1
       1
       1
       1
       1
       1
       1
       1
       1
       1
       1
       1
       1
       1
       1
       1
       1
       1
       1
       1
       1
       1
       1
       1
       1
       1
       1
       1
       1
       1
       1
       1
       1
       1
       1
       1
       1
       1
       1
       1
       1
       1
       1
       1
       1
       1
       1
       1
       1
       1
       1
       1
       1
       1
       1
       1
       1
       1
       1
       1
       1
       1
       1
       1
       1
       1
       1
       1
       1
       1
       1
       1
       1
       1
       1
       1
       1
       1
       1
       1
       1
       1
       1
       1
       1
       1
       1
       1
       1
       1
       1
       1
       1
       1
       1
       1
       1
       1
       1
       1
       1
       1
       1
       1
       1
       1
       1
       1
       1
       1
       1
       1
       1
       1
       1
       1
       1
       1
       1
       1
       1
       1
       1
       1
       1
       1
       1
       1
       1
       1
       1
       1
       1
       1
       1
       1
       1
       1
       1
       1
       1
       1
       1
       1
       1
       1
       1
       1
       1
       1
       1
       1
       1
       1
       1
       1
       1
       1
       1
       1
       1
       1
       1
       1
       1
       1
       1
       1
       1
       1
       1
       1
       1
       1
       1
       1
       1
       1
       1
       1
       1
       1
       1
       1
       1
       1
       1
       1
       1
       1
       1
       1
       1
       1
       1
       1
       1
       1
       1
       1
       1
       1
       1
       1
       1
       1
       1
       1
       1
       1
       1
       1
       1
       1
       1
       1
       1
       1
       1
       1
       1
       1
       1
       1
       1
       1
       1
       1
       1
       1
       1
       1
       1
       1
       1
       1
       1
       1
       1
       1
       1
       1
       1
       1
       1
       1
       1
       1
       1
       1
       1
       1
       1
       1
       1
       1
       1
       1
       1
       1
       1
       1
       1
       1
       1
       1
       1
       1
       1
       1
       1
       1
       1
       1
       1
       1
       1
       1
       1
       1
       1
       1
       1
       1
       1
       1
       1
       1
       1
       1
       1
       1
       1
       1
       1
       1
       1
       1
       1
       1
       1
       1
       1
       1
       1
       1
       1
       1
       1
       1
       1
       1
       1
       1
       1
       1
       1
       1
       1
       1
       1
       1
       1
       1
       1
       1
       1
       1
       1
       1
       1
       1
       1
       1
       1
       1
       1
       1
       1
       1
       1
       1
       1
       1
       1
       1
       1
       1
       1
       1
       1
       1
       1
       1
       1
       1
       1
       1
       1
       1
       1
       1
       1
       1
       1
       1
       1
       1
       1
       1
       1
       1
       1
       1
       1
       1
       1
       1
       1
       1
       1
       1
       1
       1
       1
       1
       1
       1
       1
       1
       1
       1
       1
       1
       1
       1
       1
       1
       1
       1
       1
       1
       1
       1
       1
       1
       1
       1
       1
       1
       1
       1
       1
       1
       1
       1
       1
       1
       1
       1
       1
       1
       1
       1
       1
       1
       1
       1
       1
       1
       1
       1
       1
       1
       1
       1
       1
       1
       1
       1
       1
       1
       1
       1
       1
       1
       1
       1
       1
       1
       1
       1
       1
       1
       1
       1
       1
       1
       1
       1
       1
       1
       1
       1
       1
       1
       1
       1
       1
       1
       1
       1
       1
       1
       1
       1
       1
       1
       1
       1
       1
       1
       1
       1
       1
       1
       1
       1
       1
       1
       1
       1
       1
       1
       1
       1
       1
       1
       1
       1
       1
       1
       1
       1
       1
       1
       1
       1
       1
       1
       1
       1
       1
       1
       1
       1
       1
       1
       1
       1
       1
       1
       1
       1
       1
       1
       1
       1
       1
       1
       1
       1
       1
       1
       1
       1
       1
       1
       1
       1
       1
       1
       1
       1
       1
       1
       1
       1
       1
       1
       1
       1
       1
       1
       1
       1
       1
       1
       1
       1
       1
       1
       1
       1
       1
       1
       1
       1
       1
       1
       1
       1
       1
       1
       1
       1
       1
       1
       1
       1
       1
       1
       1
       1
       1
       1
       1
       1
       1
       1
       1
       1
       1
       1
       1
       1
       1
       1
       1
       1
       1
       1
       1
       1
       1
       1
       1
       1
       1
       1
       1
       1
       1
       1
       1
       1
       1
       1
       1
       1
       1
       1
       1
       1
       1
       1
       1
       1
       1
       1
       1
       1
       1
       1
       1
       1
       1
       1
       1
       1
       1
       1
       1
       1
       1
       1
       1
       1
       1
       1
       1
       1
       1
       1
       1
       1
       1
       1
       1
       1
       1
       1
       1
       1
       1
       1
       1
       1
       1
       1
       1
       1
       1
       1
       1
       1
       1
       1
       1
       1
       1
       1
       1
       1
       1
       1
       1
       1
       1
       1
       1
       1
       1
       1
       1
       1
       1
       1
       1
       1
       1
       1
       1
       1
       1
       1
       1
       1
       1
       1
       1
       1
       1
       1
       1
       1
       1
       1
       1
       1
       1
       1
       1
       1
       1
       1
       1
       1
       1
       1
       1
       1
       1
       1
       1
       1
       1
       1
       1
       1
       1
       1
       1
       1
       1
       1
       1
       1
       1
       1
       1
       1
       1
       1
       1
       1
       1
       1
       1
       1
       1
       1
       1
       1
       1
       1
       1
       1
       1
       1
       1
       1
       1
       1
       1
       1
       1
       1
       1
       1
       1
       1
       1
       1
       1
       1
       1
       1
       1
       1
       1
       1
       1
       1
       1
       1
       1
       1
       1
       1
       1
       1
       1
       1
       1
       1
       1
       1
       1
       1
       1
       1
       1
       1
       1
       1
       1
       1
       1
       1
       1
       1
       1
       1
       1
       1
       1
       1
       1
       1
       1
       1
       1
       1
       1
       1
       1
       1
       1
       1
       1
       1
       1
       1
       1
       1
       1
       1
       1
       1
       1
       1
       1
       1
       1
       1
       1
       1
       1
       1
       1
       1
       1
       1
       1
       1
       1
       1
       1
       1
       1
       1
       1
       1
       1
       1
       1
       1
       1
       1
       1
       1
       1
       1
       1
       1
       1
       1
       1
       1
       1
       1
       1
       1
       1
       1
       1
       1
       1
       1
       1
       1
       1
       1
       1
       1
       1
       1
       1
       1
       1
       1
       1
       1
       1
       1
       1
       1
       1
       1
       1
       1
       1
       1
       1
       1
       1
       1
       1
       1
       1
       1
       1
       1
       1
       1
       1
       1
       1
       1
       1
       1
       1
       1
       1
       1
       1
       1
       1
       1
       1
       1
       1
       1
       1
       1
       1
       1
       1
       1
       1
       1
       1
       1
       1
       1
       1
       1
       1
       1
       1
       1
       1
       1
       1
       1
       1
       1
       1
       1
       1
       1
       1
       1
       1
       1
       1
       1
       1
       1
       1
       1
       1
       1
       1
       1
       1
       1
       1
       1
       1
       1
       1
       1
       1
       1
       1
       1
       1
       1
       1
       1
       1
       1
       1
       1
       1
       1
       1
       1
       1
       1
       1
       1
       1
       1
       1
       1
       1
       1
       1
       1
       1
       1
       1
       1
       1
       1
       1
       1
       1
       1
       1
       1
       1
       1
       1
       1
       1
       1
       1
       1
       1
       1
       1
       1
       1
       1
       1
       1
       1
       1
       1
       1
       1
       1
       1
       1
       1
       1
       1
       1
       1
       1
       1
       1
       1
       1
       1
       1
       1
       1
       1
       1
       1
       1
       1
       1
       1
       1
       1
       1
       1
       1
       1
       1
       1
       1
       1
       1
       1
       1
       1
       1
       1
       1
       1
       1
       1
       1
       1
       1
       1
       1
       1
       1
       1
       1
       1
       1
       1
       1
       1
       1
       1
       1
       1
       1
       1
       1
       1
       1
       1
       1
       1
       1
       1
       1
       1
       1
       1
       1
       1
       1
       1
       1
       1
       1
       1
       1
       1
       1
       1
       1
       1
       1
       1
       1
       1
       1
       1
       1
       1
       1
       1
       1
       1
       1
       1
       1
       1
       1
       1
       1
       1
       1
       1
       1
       1
       1
       1
       1
       1
       1
       1
       1
       1
       1
       1
       1
       1
       1
       1
       1
       1
       1
       1
       1
       1
       1
       1
       1
       1
       1
       1
       1
       1
       1
       1
       1
       1
       1
       1
       1
       1
       1
       1
       1
       1
       1
       1
       1
       1
       1
       1
       1
       1
       1
       1
       1
       1
       1
       1
       1
       1
       1
       1
       1
       1
       1
       1
       1
       1
       1
       1
       1
       1
       1
       1
       1
       1
       1
       1
       1
       1
       1
       1
       1
       1
       1
       1
       1
       1
       1
       1
       1
       1
       1
       1
       1
       1
       1
       1
       1
       1
       1
       1
       1
       1
       1
       1
       1
       1
       1
       1
       1
       1
       1
       1
       1
       1
       1
       1
       1
       1
       1
       1
       1
       1
       1
       1
       1
       1
       1
       1
       1
       1
       1
       1
       1
       1
       1
       1
       1
       1
       1
       1
       1
       1
       1
       1
       1
       1
       1
       1
       1
       1
       1
       1
       1
       1
       1
       1
       1
       1
       1
       1
       1
       1
       1
       1
       1
       1
       1
       1
       1
       1
       1
       1
       1
       1
       1
       1
       1
       1
       1
       1
       1
       1
       1
       1
       1
       1
       1
       1
       1
       1
       1
       1
       1
       1
       1
       1
       1
       1
       1
       1
       1
       1
       1
       1
       1
       1
       1
       1
       1
       1
       1
       1
       1
       1
       1
       1
       1
       1
       1
       1
       1
       1
       1
       1
       1
       1
       1
       1
       1
       1
       1
       1
       1
       1
       1
       1
       1
       1
       1
       1
       1
       1
       1
       1
       1
       1
       1
       1
       1
       1
       1
       1
       1
       1
       1
       1
       1
       1
       1
       1
       1
       1
       1
       1
       1
       1
       1
       1
       1
       1
       1
       1
       1
       1
       1
       1
       1
       1
       1
       1
       1
       1
       1
       1
       1
       1
       1
       1
       1
       1
       1
       1
       1
       1
       1
       1
       1
       1
       1
       1
       1
       1
       1
       1
       1
       1
       1
       1
       1
       1
       1
       1
       1
       1
       1
       1
       1
       1
       1
       1
       1
       1
       1
       1
       1
       1
       1
       1
       1
       1
       1
       1
       1
       1
       1
       1
       1
       1
       1
       1
       1
       1
       1
       1
       1
       1
       1
       1
       1
       1
       1
       1
       1
       1
       1
       1
       1
       1
       1
       1
       1
       1
       1
       1
       1
       1
       1
       1
       1
       1
       1
       1
       1
       1
       1
       1
       1
       1
       1
       1
       1
       1
       1
       1
       1
       1
       1
       1
       1
       1
       1
       1
       1
       1
       1
       1
       1
       1
       1
       1
       1
       1
       1
       1
       1
       1
       1
       1
       1
       1
       1
       1
       1
       1
       1
       1
       1
       1
       1
       1
       1
       1
       1
       1
       1
       1
       1
       1
       1
       1
       1
       1
       1
       1
       1
       1
       1
       1
       1
       1
       1
       1
       1
       1
       1
       1
       1
       1
       1
       1
       1
       1
       1
       1
       1
       1
       1
       1
       1
       1
       1
       1
       1
       1
       1
       1
       1
       1
       1
       1
       1
       1
       1
       1
       1
       1
       1
       1
       1
       1
       1
       1
       1
       1
       1
       1
       1
       1
       1
       1
       1
       1
       1
       1
       1
       1
       1
       1
       1
       1
       1
       1
       1
       1
       1
       1
       1
       1
       1
       1
       1
       1
       1
       1
       1
       1
       1
       1
       1
       1
       1
       1
       1
       1
       1
       1
       1
       1
       1
       1
       1
       1
       1
       1
       1
       1
       1
       1
       1
       1
       1
       1
       1
       1
       1
       1
       1
       1
       1
       1
       1
       1
       1
       1
       1
       1
       1
       1
       1
       1
       1
       1
       1
       1
       1
       1
       1
       1
       1
       1
       1
       1
       1
       1
       1
       1
       1
       1
       1
       1
       1
       1
       1
       1
       1
       1
       1
       1
       1
       1
       1
       1
       1
       1
       1
       1
       1
       1
       1
       1
       1
       1
       1
       1
       1
       1
       1
       1
       1
       1
       1
       1
       1
       1
       1
      12
      12
      12
      12
      12
      12
      12
      12
      12
      12
      12
      12
      12
      12
      12
      12
      12
      12
      12
      12
      12
      12
      12
      12
      12
      12
      12
      12
      12
      12
      12
      12
      12
      12
      12
      12
      12
      12
      12
      12
      12
      12
      12
      12
      12
      12
      12
      12
      12
      12
      12
      12
      12
      12
      12
      12
      12
      12
      12
      12
      12
      12
      12
      12
      12
      12
      12
      12
      12
      12
      12
      12
      12
      12
      12
      12
      12
      12
      12
      12
      12
      12
      12
      12
      12
      12
      12
      12
      12
      12
      12
      12
      12
      12
      12
      12
      12
      12
      12
      12
      12
      12
      12
      12
      12
      12
      12
      12
      12
      12
      12
      12
      12
      12
      12
      12
      12
      12
      12
      12
      12
      12
      12
      12
      12
      12
      12
      12
      12
      12
      12
      12
      12
      12
      12
      12
      12
      12
      12
      12
      12
      12
      12
      12
      12
      12
      12
      12
      12
      12
      12
      12
      12
      12
      12
      12
      12
      12
      12
      12
      12
      12
      12
      12
      12
      12
      12
      12
      12
      12
      12
      12
      12
      12
      12
      12
      12
      12
      12
      12
      12
      12
      12
      12
      12
      12
      12
      12
      12
      12
      12
      12
      12
      12
      12
      12
      12
      12
      12
      12
      12
      12
      12
      12
      12
      12
      12
      12
      12
      12
      12
      12
      12
      12
      12
      12
      12
      12
      12
      12
      12
      12
      12
      12
      12
      12
      12
      12
      12
      12
      12
      12
      12
      12
      12
      12
      12
      12
      12
      12
      12
      12
      12
      12
      12
      12
      12
      12
      12
      12
      12
      12
      12
      12
      12
      12
      12
      12
      12
      12
      12
      12
      12
      12
      12
      12
      12
      12
      12
      12
      12
      12
      12
      12
      12
      12
      12
      12
      12
      12
      12
      12
      12
      12
      12
      12
      12
      12
      12
      12
      12
      12
      12
      12
      12
      12
      12
      12
      12
      12
      12
      12
      12
      12
      12
      12
      12
      12
      12
      12
      12
      12
      12
      12
      12
      12
      12
      12
      12
      12
      12
      12
      12
      12
      12
      12
      12
      12
      12
      12
      12
      12
      12
      12
      12
      12
      12
      12
      12
      12
      12
      12
      12
      12
      12
      12
      12
      12
      12
      12
      12
      12
      12
      12
      12
      12
      12
      12
      12
      12
      12
      12
      12
      12
      12
      12
      12
      12
      12
      12
      12
      12
      12
      12
      12
      12
      12
      12
      12
      12
      12
      12
      12
      12
      12
      12
      12
      12
      12
      12
      12
      12
      12
      12
      12
      12
      12
      12
      12
      12
      12
      12
      12
      12
      12
      12
      12
      12
      12
      12
      12
      12
      12
      12
      12
      12
      12
      12
      12
      12
      12
      12
      12
      12
      12
      12
      12
      12
      12
      12
      12
      12
      12
      12
      12
      12
      12
      12
      12
      12
      12
      12
      12
      12
      12
      12
      12
      12
      12
      12
      12
      12
      12
      12
      12
      12
      12
      12
      12
      12
      12
      12
      12
      12
      12
      12
      12
      12
      12
      12
      12
      12
      12
      12
      12
      12
      12
      12
      12
      12
      12
      12
      12
      12
      12
      12
      12
      12
      12
      12
      12
      12
      12
      12
      12
      12
      12
      12
      12
      12
      12
      12
      12
      12
      12
      12
      12
      12
      12
      12
      12
      12
      12
      12
      12
      12
      12
      12
      12
      12
      12
      12
      12
      12
      12
      12
      12
      12
      12
      12
      12
      12
      12
      12
      12
      12
      12
      12
      12
      12
      12
      12
      12
      12
      12
      12
      12
      12
      12
      12
      12
      12
      12
      12
      12
      12
      12
      12
      12
      12
      12
      12
      12
      12
      12
      12
      12
      12
      12
      12
      12
      12
      12
      12
      12
      12
      12
      12
      12
      12
      12
      12
      12
      12
      12
      12
      12
      12
      12
      12
      12
      12
      12
      12
      12
      12
      12
      12
      12
      12
      12
      12
      12
      12
      12
      12
      12
      12
      12
      12
      12
      12
      12
      12
      12
      12
      12
      12
      12
      12
      12
      12
      12
      12
      12
      12
      12
      12
      12
      12
      12
      12
      12
      12
      12
      12
      12
      12
      12
      12
      12
      12
      12
      12
      12
      12
      12
      12
      12
      12
      12
      12
      12
      12
      12
      12
      12
      12
      12
      12
      12
      12
      12
      12
      12
      12
      12
      12
      12
      12
      12
      12
      12
      12
      12
      12
      12
      12
      12
      12
      12
      12
      12
      12
      12
      12
      12
      12
      12
      12
      12
      12
      12
      12
      12
      12
      12
      12
      12
      12
      12
      12
      12
      12
      12
      12
      12
      12
      12
      12
      12
      12
      12
      12
      12
      12
      12
      12
      12
      12
      12
      12
      12
      12
      12
      12
      12
      12
      12
      12
      12
      12
      12
      12
      12
      12
      12
      12
      12
      12
      12
      12
      12
      12
      12
      12
      12
      12
      12
      12
      12
      12
      12
      12
      12
      12
      12
      12
      12
      12
      12
      12
      12
      12
      12
      12
      12
      12
      12
      12
      12
      12
      12
      12
      12
      12
      12
      12
      12
      12
      12
      12
      12
      12
      12
      12
      12
      12
      12
      12
      12
      12
      12
      12
      12
      12
      12
      12
      12
      12
      12
      12
      12
      12
      12
      12
      12
      12
      12
      12
      12
      12
      12
      12
      12
      12
      12
      12
      12
      12
      12
      12
      12
      12
      12
      12
      12
      12
      12
      12
      12
      12
      12
      12
      12
      12
      12
      12
      12
      12
      12
      12
      12
      12
      12
      12
      12
      12
      12
      12
      12
      12
      12
      12
      12
      12
      12
      12
      12
      12
      12
      12
      12
      12
      12
      12
      12
      12
      12
      12
      12
      12
      12
      12
      12
      12
      12
      12
      12
      12
      12
      12
      12
      12
      12
      12
      12
      12
      12
      12
      12
      12
      12
      12
      12
      12
      12
      12
      12
      12
      12
      12
      12
      12
      12
      12
      12
      12
      12
      12
      12
      12
      12
      12
      12
      12
      12
      12
      12
      12
      12
      12
      12
      12
      12
      12
      12
      12
      12
      12
      12
      12
      12
      12
      12
      12
      12
      12
      12
      12
      12
      12
      12
      12
      12
      12
      12
      12
      12
      12
      12
      12
      12
      12
      12
      12
      12
      12
      12
      12
      12
      12
      12
      12
      12
      12
      12
      12
      12
      12
      12
      12
      12
      12
      12
      12
      12
      12
      12
      12
      12
      12
      12
      12
      12
      12
      12
      12
      12
      12
      12
      12
      12
      12
      12
      12
      12
      12
      12
      12
      12
      12
      12
      12
      12
      12
      12
      12
      12
      12
      12
      12
      12
      12
      12
      12
      12
      12
      12
      12
      12
      12
      12
      12
      12
      12
      12
      12
      12
      12
      12
      12
      12
      12
      12
      12
      12
      12
      12
      12
      12
      12
      12
      12
      12
      12
      12
      12
      12
      12
      12
      12
      12
      12
      12
      12
      12
      12
      12
      12
      12
      12
      12
      12
      12
      12
      12
      12
      12
      12
      12
      12
      12
      12
      12
      12
      12
      12
      12
      12
      12
      12
      12
      12
      12
      12
      12
      12
      12
      12
      12
      12
      12
      12
      12
      12
      12
      12
      12
      12
      12
      12
      12
      12
      12
      12
      12
      12
      12
      12
      12
      12
      12
      12
      12
      12
      12
      12
      12
      12
      12
      12
      12
      12
      12
      12
      12
      12
      12
      12
      12
      12
      12
      12
      12
      12
      12
      12
      12
      12
      12
      12
      12
      12
      12
      12
      12
      12
      12
      12
      12
      12
      12
      12
      12
      12
      12
      12
      12
      12
      12
      12
      12
      12
      12
      12
      12
      12
      12
      12
      12
      12
      12
      12
      12
      12
      12
      12
      12
      12
      12
      12
      12
      12
      12
      12
      12
      12
      12
      12
      12
      12
      12
      12
      12
      12
      12
      12
      12
      12
      12
      12
      12
      12
      12
      12
      12
      12
      12
      12
      12
      12
      12
      12
      12
      12
      12
      12
      12
      12
      12
      12
      12
      12
      12
      12
      12
      12
      12
      12
      12
      12
      12
      12
      12
      12
      12
      12
      12
      12
      12
      12
      12
      12
      12
      12
      12
      12
      12
      12
      12
      12
      12
      12
      12
      12
      12
      12
      12
      12
      12
      12
      12
      12
      12
      12
      12
      12
      12
      12
      12
      12
      12
      12
      12
      12
      12
      12
      12
      12
      12
      12
      12
      12
      12
      12
      12
      12
      12
      12
      12
      12
      12
      12
      12
      12
      12
      12
      12
      12
      12
      12
      12
      12
      12
      12
      12
      12
      12
      12
      12
      12
      12
      12
      12
      12
      12
      12
      12
      12
      12
      12
      12
      12
      12
      12
      12
      12
      12
      12
      12
      12
      12
      12
      12
      12
      12
      12
      12
      12
      12
      12
      12
      12
      12
      12
      12
      12
      12
      12
      12
      12
      12
      12
      12
      12
      12
      12
      12
      12
      12
      12
      12
      12
      12
      12
      12
      12
      12
      12
      12
      12
      12
      12
      12
      12
      12
      12
      12
      12
      12
      12
      12
      12
      12
      12
      12
      12
      12
      12
      12
      12
      12
      12
      12
      12
      12
      12
      12
      12
      12
      12
      12
      12
      12
      12
      12
      12
      12
      12
      12
      12
      12
      12
      12
      12
      12
      12
      12
      12
      12
      12
      12
      12
      12
      12
      12
      12
      12
      12
      12
      12
      12
      12
      12
      12
      12
      12
      12
      12
      12
      12
      12
      12
      12
      12
      12
      12
      12
      12
      12
      12
      12
      12
      12
      12
      12
      12
      12
      12
      12
      12
      12
      12
      12
      12
      12
      12
      12
      12
      12
      12
      12
      12
      12
      12
      12
      12
      12
      12
      12
      12
      12
      12
      12
      12
      12
      12
      12
      12
      12
      12
      12
      12
      12
      12
      12
      12
      12
      12
      12
      12
      12
      12
      12
      12
      12
      12
      12
      12
      12
      12
      12
      12
      12
      12
      12
      12
      12
      12
      12
      12
      12
      12
      12
      12
      12
      12
      12
      12
      12
      12
      12
      12
      12
      12
  
  
POINT_DATA       1950
  
SCALARS                  material_type  double 1
LOOKUP_TABLE default
                   2
                   2
                   2
                   2
                   2
                   2
                   2
                   2
                   2
                   2
                   2
                   2
                   2
                   2
                   2
                   2
                   2
                   2
                   2
                   2
                   2
                   2
                   2
                   2
                   2
                   2
                   2
                   2
                   2
                   2
                   2
                   2
                   2
                   2
                   2
                   2
                   2
                   2
                   2
                   2
                   2
                   2
                   2
                   2
                   2
                   2
                   2
                   2
                   2
                   2
                   2
                   2
                   2
                   2
                   2
                   2
                   2
                   2
                   2
                   2
                   2
                   2
                   2
                   2
                   2
                   2
                   2
                   2
                   2
                   2
                   2
                   2
                   2
                   2
                   2
                   2
                   2
                   2
                   2
                   2
                   2
                   2
                   2
                   2
                   2
                   2
                   2
                   2
                   2
                   2
                   2
                   2
                   2
                   2
                   2
                   2
                   2
                   2
                   2
                   2
                   2
                   2
                   2
                   2
                   2
                   2
                   2
                   2
                   2
                   2
                   2
                   2
                   2
                   2
                   2
                   2
                   2
                   2
                   2
                   2
                   2
                   2
                   2
                   2
                   2
                   2
                   2
                   2
                   2
                   2
                   2
                   2
                   2
                   2
                   2
                   2
                   2
                   2
                   2
                   2
                   2
                   2
                   2
                   2
                   2
                   2
                   2
                   2
                   2
                   2
                   2
                   2
                   2
                   2
                   2
                   2
                   2
                   2
                   2
                   2
                   2
                   2
                   2
                   2
                   2
                   2
                   2
                   2
                   2
                   2
                   2
                   2
                   2
                   2
                   2
                   2
                   2
                   2
                   2
                   2
                   2
                   2
                   2
                   2
                   2
                   2
                   2
                   2
                   2
                   2
                   2
                   2
                   2
                   2
                   2
                   2
                   2
                   2
                   2
                   2
                   2
                   2
                   2
                   2
                   2
                   2
                   2
                   2
                   2
                   2
                   2
                   2
                   2
                   2
                   2
                   2
                   2
                   2
                   2
                   2
                   2
                   2
                   2
                   2
                   2
                   2
                   2
                   2
                   2
                   2
                   2
                   2
                   2
                   2
                   2
                   2
                   2
                   2
                   2
                   2
                   2
                   2
                   2
                   2
                   2
                   2
                   2
                   2
                   2
                   2
                   2
                   2
                   2
                   2
                   2
                   2
                   2
                   2
                   2
                   2
                   2
                   2
                   2
                   2
                   2
                   2
                   2
                   2
                   2
                   2
                   2
                   2
                   2
                   2
                   2
                   2
                   2
                   2
                   2
                   2
                   2
                   2
                   2
                   2
                   2
                   2
                   2
                   2
                   2
                   2
                   2
                   2
                   2
                   2
                   2
                   2
                   2
                   2
                   2
                   2
                   2
                   2
                   2
                   2
                   2
                   2
                   2
                   2
                   2
                   2
                   2
                   2
                   2
                   2
                   2
                   2
                   2
                   2
                   2
                   2
                   2
                   2
                   2
                   2
                   2
                   2
                   2
                   2
                   2
                   2
                   2
                   2
                   2
                   2
                   2
                   2
                   2
                   2
                   2
                   2
                   2
                   2
                   2
                   2
                   2
                   2
                   2
                   2
                   2
                   2
                   2
                   2
                   2
                   2
                   2
                   2
                   2
                   2
                   2
                   2
                   2
                   2
                   2
                   2
                   2
                   2
                   2
                   2
                   2
                   2
                   2
                   2
                   2
                   2
                   2
                   2
                   2
                   2
                   2
                   2
                   2
                   2
                   2
                   2
                   2
                   2
                   2
                   2
                   2
                   2
                   2
                   2
                   2
                   2
                   2
                   2
                   2
                   2
                   2
                   2
                   2
                   2
                   2
                   2
                   2
                   2
                   2
                   2
                   2
                   2
                   2
                   2
                   2
                   2
                   2
                   2
                   2
                   2
                   2
                   2
                   2
                   2
                   2
                   2
                   2
                   2
                   2
                   2
                   2
                   2
                   2
                   2
                   2
                   2
                   2
                   2
                   2
                   2
                   2
                   2
                   2
                   2
                   2
                   2
                   2
                   2
                   2
                   2
                   2
                   2
                   2
                   2
                   2
                   2
                   2
                   2
                   2
                   2
                   2
                   2
                   2
                   2
                   2
                   2
                   2
                   2
                   2
                   2
                   2
                   2
                   2
                   2
                   2
                   2
                   2
                   2
                   2
                   2
                   2
                   2
                   2
                   2
                   2
                   2
                   2
                   2
                   2
                   2
                   2
                   2
                   2
                   2
                   2
                   2
                   2
                   2
                   2
                   2
                   2
                   2
                   2
                   2
                   2
                   2
                   2
                   2
                   2
                   2
                   2
                   2
                   2
                   2
                   2
                   2
                   2
                   2
                   2
                   2
                   2
                   2
                   2
                   2
                   2
                   2
                   2
                   2
                   2
                   2
                   2
                   2
                   2
                   2
                   2
                   2
                   2
                   2
                   2
                   2
                   2
                   2
                   2
                   2
                   2
                   2
                   2
                   2
                   2
                   2
                   2
                   2
                   2
                   2
                   2
                   2
                   2
                   2
                   2
                   2
                   2
                   2
                   2
                   2
                   2
                   2
                   2
                   2
                   2
                   2
                   2
                   2
                   2
                   2
                   2
                   2
                   2
                   2
                   2
                   2
                   2
                   2
                   2
                   2
                   2
                   2
                   2
                   2
                   2
                   2
                   2
                   2
                   2
                   2
                   2
                   2
                   2
                   2
                   2
                   2
                   2
                   2
                   2
                   2
                   2
                   2
                   2
                   2
                   2
                   2
                   2
                   2
                   2
                   2
                   2
                   2
                   2
                   2
                   2
                   2
                   2
                   2
                   2
                   2
                   2
                   2
                   2
                   2
                   2
                   2
                   2
                   2
                   2
                   2
                   2
                   2
                   2
                   2
                   2
                   2
                   2
                   2
                   2
                   2
                   2
                   2
                   2
                   2
                   2
                   2
                   2
                   2
                   2
                   2
                   2
                   2
                   2
                   2
                   2
                   2
                   2
                   2
                   2
                   2
                   2
                   2
                   2
                   2
                   2
                   2
                   2
                   2
                   2
                   2
                   2
                   2
                   2
                   2
                   2
                   2
                   2
                   2
                   2
                   2
                   2
                   2
                   2
                   2
                   2
                   2
                   2
                   2
                   2
                   2
                   2
                   2
                   2
                   2
                   2
                   2
                   2
                   2
                   2
                   2
                   2
                   2
                   2
                   2
                   2
                   2
                   2
                   2
                   2
                   2
                   2
                   2
                   2
                   2
                   2
                   2
                   2
                   2
                   2
                   2
                   2
                   2
                   2
                   2
                   2
                   2
                   2
                   2
                   2
                   2
                   2
                   2
                   2
                   2
                   2
                   2
                   2
                   2
                   2
                   2
                   2
                   2
                   2
                   2
                   2
                   2
                   2
                   2
                   2
                   2
                   2
                   2
                   2
                   2
                   2
                   2
                   2
                   2
                   2
                   2
                   2
                   2
                   2
                   2
                   2
                   2
                   2
                   2
                   2
                   2
                   2
                   2
                   2
                   2
                   2
                   2
                   2
                   2
                   2
                   2
                   2
                   2
                   2
                   2
                   2
                   2
                   2
                   2
                   2
                   2
                   2
                   2
                   2
                   2
                   2
                   2
                   2
                   2
                   2
                   2
                   2
                   2
                   2
                   2
                   2
                   2
                   2
                   2
                   2
                   2
                   2
                   2
                   2
                   2
                   2
                   2
                   2
                   2
                   2
                   2
                   2
                   2
                   2
                   2
                   2
                   2
                   2
                   2
                   2
                   2
                   2
                   2
                   2
                   2
                   2
                   2
                   2
                   2
                   2
                   2
                   2
                   2
                   2
                   2
                   2
                   2
                   2
                   2
                   2
                   2
                   2
                   2
                   2
                   2
                   2
                   2
                   2
                   2
                   2
                   2
                   2
                   2
                   2
                   2
                   2
                   2
                   2
                   2
                   2
                   2
                   2
                   2
                   2
                   2
                   2
                   2
                   2
                   2
                   2
                   2
                   2
                   2
                   2
                   2
                   2
                   2
                   2
                   2
                   2
                   2
                   2
                   2
                   2
                   2
                   2
                   2
                   2
                   2
                   2
                   2
                   2
                   2
                   2
                   2
                   2
                   2
                   2
                   2
                   2
                   2
                   2
                   2
                   2
                   2
                   2
                   2
                   2
                   2
                   2
                   2
                   2
                   2
                   2
                   2
                   2
                   2
                   2
                   2
                   2
                   2
                   2
                   2
                   2
                   2
                   2
                   2
                   2
                   2
                   2
                   2
                   2
                   2
                   2
                   2
                   2
                   2
                   2
                   2
                   2
                   2
                   2
                   2
                   2
                   2
                   2
                   2
                   2
                   2
                   2
                   2
                   2
                   2
                   2
                   2
                   2
                   2
                   2
                   2
                   2
                   2
                   2
                   2
                   2
                   2
                   2
                   2
                   2
                   2
                   2
                   2
                   2
                   2
                   2
                   2
                   2
                   2
                   2
                   2
                   2
                   2
                   2
                   2
                   2
                   2
                   2
                   2
                   2
                   2
                   2
                   2
                   2
                   2
                   2
                   2
                   2
                   2
                   2
                   2
                   2
                   2
                   2
                   2
                   2
                   2
                   2
                   2
                   2
                   2
                   2
                   2
                   2
                   2
                   2
                   2
                   2
                   2
                   2
                   2
                   2
                   2
                   2
                   2
                   2
                   2
                   2
                   2
                   2
                   2
                   2
                   2
                   2
                   2
                   2
                   2
                   2
                   2
                   2
                   2
                   2
                   2
                   2
                   2
                   2
                   2
                   2
                   2
                   2
                   2
                   2
                   2
                   2
                   2
                   2
                   2
                   2
                   2
                   2
                   2
                   2
                   2
                   2
                   2
                   2
                   2
                   2
                   2
                   2
                   2
                   2
                   2
                   2
                   2
                   2
                   2
                   2
                   2
                   2
                   2
                   2
                   2
                   2
                   2
                   2
                   2
                   2
                   2
                   2
                   2
                   2
                   2
                   2
                   2
                   2
                   2
                   2
                   2
                   2
                   2
                   2
                   2
                   2
                   2
                   2
                   2
                   2
                   2
                   2
                   2
                   2
                   2
                   2
                   2
                   2
                   2
                   2
                   2
                   2
                   2
                   2
                   2
                   2
                   2
                   2
                   2
                   2
                   2
                   2
                   2
                   2
                   2
                   2
                   2
                   2
                   2
                   2
                   2
                   2
                   2
                   2
                   2
                   2
                   2
                   2
                   2
                   2
                   2
                   2
                   2
                   2
                   2
                   2
                   2
                   2
                   2
                   2
                   2
                   2
                   2
                   2
                   2
                   2
                   2
                   2
                   2
                   2
                   2
                   2
                   2
                   2
                   2
                   2
                   2
                   2
                   2
                   2
                   2
                   2
                   2
                   2
                   2
                   2
                   2
                   2
                   2
                   2
                   2
                   2
                   2
                   2
                   2
                   2
                   2
                   2
                   2
                   2
                   2
                   2
                   2
                   2
                   2
                   2
                   2
                   2
                   2
                   2
                   2
                   2
                   2
                   2
                   2
                   2
                   2
                   2
                   2
                   2
                   2
                   2
                   2
                   2
                   2
                   2
                   2
                   2
                   2
                   2
                   2
                   2
                   2
                   2
                   2
                   2
                   2
                   2
                   2
                   2
                   2
                   2
                   2
                   2
                   2
                   2
                   2
                   2
                   2
                   2
                   2
                   2
                   2
                   2
                   2
                   2
                   2
                   2
                   2
                   2
                   2
                   2
                   2
                   2
                   2
                   2
                   2
                   2
                   2
                   2
                   2
                   2
                   2
                   2
                   2
                   2
                   2
                   2
                   2
                   2
                   2
                   2
                   2
                   2
                   2
                   2
                   2
                   2
                   2
                   2
                   2
                   2
                   2
                   2
                   2
                   2
                   2
                   2
                   2
                   2
                   2
                   2
                   2
                   2
                   2
                   2
                   2
                   2
                   2
                   2
                   2
                   2
                   2
                   2
                   2
                   2
                   2
                   2
                   2
                   2
                   2
                   2
                   2
                   2
                   2
                   2
                   2
                   2
                   2
                   2
                   2
                   2
                   2
                   2
                   2
                   2
                   2
                   2
                   2
                   2
                   2
                   2
                   2
                   2
                   2
                   2
                   2
                   2
                   2
                   2
                   2
                   2
                   2
                   2
                   2
                   2
                   2
                   2
                   2
                   2
                   2
                   2
                   2
                   2
                   2
                   2
                   2
                   2
                   2
                   2
                   2
                   2
                   2
                   2
                   2
                   2
                   2
                   2
                   2
                   2
                   2
                   2
                   2
                   2
                   2
                   2
                   2
                   2
                   2
                   2
                   2
                   2
                   2
                   2
                   2
                   2
                   2
                   2
                   2
                   2
                   2
                   2
                   2
                   2
                   2
                   2
                   2
                   2
                   2
                   2
                   2
                   2
                   2
                   2
                   2
                   2
                   2
                   2
                   2
                   2
                   2
                   2
                   2
                   2
                   2
                   2
                   2
                   2
                   2
                   2
                   2
                   2
                   2
                   2
                   2
                   2
                   2
                   2
                   2
                   2
                   2
                   2
                   2
                   2
                   2
                   2
                   2
                   2
                   2
                   2
                   2
                   2
                   2
                   2
                   2
                   2
                   2
                   2
                   2
                   2
                   2
                   2
                   2
                   2
                   2
                   2
                   2
                   2
                   2
                   2
                   2
                   2
                   2
                   2
                   2
                   2
                   2
                   2
                   2
                   2
                   2
                   2
                   2
                   2
                   2
                   2
                   2
                   2
                   2
                   2
                   2
                   2
                   2
                   2
                   2
                   2
                   2
                   2
                   2
                   2
                   2
                   2
                   2
                   2
                   2
                   2
                   2
                   2
                   2
                   2
                   2
                   2
                   2
                   2
                   2
                   2
                   2
                   2
                   2
                   2
                   2
                   2
                   2
                   2
                   2
                   2
                   2
                   2
                   2
                   2
                   2
                   2
                   2
                   2
                   2
                   2
                   2
                   2
                   2
                   2
                   2
                   2
                   2
                   2
                   2
                   2
                   2
                   2
                   2
                   2
                   2
                   2
                   2
                   2
                   2
                   2
                   2
                   2
                   2
                   2
                   2
                   2
                   2
                   2
                   2
                   2
                   2
                   2
                   2
                   2
                   2
                   2
                   2
                   2
                   2
                   2
                   2
                   2
                   2
                   2
                   2
                   2
                   2
                   2
                   2
                   2
                   2
                   2
                   2
                   2
                   2
                   2
                   2
                   2
                   2
                   2
                   2
                   2
                   2
                   2
                   2
                   2
                   2
                   2
                   2
                   2
                   2
                   2
                   2
                   2
                   2
                   2
                   2
                   2
                   2
                   2
                   2
                   2
                   2
                   2
                   2
                   2
                   2
                   2
                   2
                   2
                   2
                   2
                   2
                   2
                   2
                   2
                   2
                   2
                   2
                   2
                   2
                   2
                   2
                   2
                   2
                   2
                   2
                   2
                   2
                   2
                   2
                   2
                   2
                   2
                   2
                   2
                   2
                   2
                   2
                   2
                   2
                   2
                   2
                   2
                   2
                   2
                   2
                   2
                   2
                   2
                   2
                   2
                   2
                   2
                   2
                   2
                   2
                   2
                   2
                   2
                   2
                   2
                   2
                   2
                   2
                   2
                   2
                   2
                   2
                   2
                   2
                   2
                   2
                   2
                   2
                   2
                   2
                   2
                   2
                   2
                   2
                   2
                   2
                   2
                   2
                   2
                   2
                   2
                   2
                   2
                   2
                   2
                   2
                   2
                   2
                   2
                   2
                   2
                   2
                   2
                   2
                   2
                   2
                   2
                   2
                   2
                   2
                   2
                   2
                   2
                   2
                   2
                   2
                   2
                   2
                   2
                   2
                   2
                   2
                   2
                   2
                   2
                   2
                   2
                   2
                   2
                   2
                   2
                   2
                   2
                   2
                   2
                   2
                   2
                   2
                   2
                   2
                   2
                   2
                   2
                   2
                   2
                   2
                   2
                   2
                   2
                   2
                   2
                   2
                   2
                   2
                   2
                   2
                   2
                   2
                   2
                   2
                   2
                   2
                   2
                   2
                   2
                   2
                   2
                   2
                   2
                   2
                   2
                   2
                   2
                   2
                   2
                   2
                   2
                   2
                   2
                   2
                   2
                   2
                   2
                   2
                   2
                   2
                   2
                   2
                   2
                   2
                   2
                   2
                   2
                   2
                   2
                   2
                   2
                   2
                   2
                   2
                   2
                   2
                   2
                   2
                   2
                   2
                   2
                   2
                   2
                   2
                   2
                   2
                   2
                   2
                   2
                   2
                   2
                   2
                   2
                   2
                   2
                   2
                   2
                   2
                   2
                   2
                   2
                   2
                   2
                   2
                   2
                   2
                   2
                   2
                   2
                   2
                   2
                   2
                   2
                   2
                   2
                   2
                   2
                   2
                   2
                   2
                   2
                   2
                   2
                   2
                   2
                   2
                   2
                   2
                   2
                   2
                   2
                   2
                   2
                   2
                   2
                   2
                   2
                   2
                   2
                   2
                   2
                   2
                   2
                   2
                   2
                   2
                   2
                   2
                   2
                   2
                   2
                   2
                   2
                   2
                   2
                   2
                   2
                   2
                   2
                   2
                   2
                   2
                   2
                   2
                   2
                   2
                   2
                   2
                   2
                   2
                   2
                   2
                   2
                   2
                   2
                   2
                   2
                   2
                   2
                   2
                   2
                   2
                   2
                   2
                   2
                   2
                   2
                   2
                   2
                   2
                   2
                   2
                   2
                   2
                   2
                   2
                   2
                   2
                   2
                   2
                   2
                   2
                   2
                   2
  
SCALARS                        node_id  double 1
LOOKUP_TABLE default
                   1
                   2
                   3
                   4
                   5
                   6
                   7
                   8
                   9
                  10
                  11
                  12
                  13
                  14
                  15
                  16
                  17
                  18
                  19
                  20
                  21
                  22
                  23
                  24
                  25
                  26
                  27
                  28
                  29
                  30
                  31
                  32
                  33
                  34
                  35
                  36
                  37
                  38
                  39
                  40
                  41
                  42
                  43
                  44
                  45
                  46
                  47
                  48
                  49
                  50
                  51
                  52
                  53
                  54
                  55
                  56
                  57
                  58
                  59
                  60
                  61
                  62
                  63
                  64
                  65
                  66
                  67
                  68
                  69
                  70
                  71
                  72
                  73
                  74
                  75
                  76
                  77
                  78
                  79
                  80
                  81
                  82
                  83
                  84
                  85
                  86
                  87
                  88
                  89
                  90
                  91
                  92
                  93
                  94
                  95
                  96
                  97
                  98
                  99
                 100
                 101
                 102
                 103
                 104
                 105
                 106
                 107
                 108
                 109
                 110
                 111
                 112
                 113
                 114
                 115
                 116
                 117
                 118
                 119
                 120
                 121
                 122
                 123
                 124
                 125
                 126
                 127
                 128
                 129
                 130
                 131
                 132
                 133
                 134
                 135
                 136
                 137
                 138
                 139
                 140
                 141
                 142
                 143
                 144
                 145
                 146
                 147
                 148
                 149
                 150
                 151
                 152
                 153
                 154
                 155
                 156
                 157
                 158
                 159
                 160
                 161
                 162
                 163
                 164
                 165
                 166
                 167
                 168
                 169
                 170
                 171
                 172
                 173
                 174
                 175
                 176
                 177
                 178
                 179
                 180
                 181
                 182
                 183
                 184
                 185
                 186
                 187
                 188
                 189
                 190
                 191
                 192
                 193
                 194
                 195
                 196
                 197
                 198
                 199
                 200
                 201
                 202
                 203
                 204
                 205
                 206
                 207
                 208
                 209
                 210
                 211
                 212
                 213
                 214
                 215
                 216
                 217
                 218
                 219
                 220
                 221
                 222
                 223
                 224
                 225
                 226
                 227
                 228
                 229
                 230
                 231
                 232
                 233
                 234
                 235
                 236
                 237
                 238
                 239
                 240
                 241
                 242
                 243
                 244
                 245
                 246
                 247
                 248
                 249
                 250
                 251
                 252
                 253
                 254
                 255
                 256
                 257
                 258
                 259
                 260
                 261
                 262
                 263
                 264
                 265
                 266
                 267
                 268
                 269
                 270
                 271
                 272
                 273
                 274
                 275
                 276
                 277
                 278
                 279
                 280
                 281
                 282
                 283
                 284
                 285
                 286
                 287
                 288
                 289
                 290
                 291
                 292
                 293
                 294
                 295
                 296
                 297
                 298
                 299
                 300
                 301
                 302
                 303
                 304
                 305
                 306
                 307
                 308
                 309
                 310
                 311
                 312
                 313
                 314
                 315
                 316
                 317
                 318
                 319
                 320
                 321
                 322
                 323
                 324
                 325
                 326
                 327
                 328
                 329
                 330
                 331
                 332
                 333
                 334
                 335
                 336
                 337
                 338
                 339
                 340
                 341
                 342
                 343
                 344
                 345
                 346
                 347
                 348
                 349
                 350
                 351
                 352
                 353
                 354
                 355
                 356
                 357
                 358
                 359
                 360
                 361
                 362
                 363
                 364
                 365
                 366
                 367
                 368
                 369
                 370
                 371
                 372
                 373
                 374
                 375
                 376
                 377
                 378
                 379
                 380
                 381
                 382
                 383
                 384
                 385
                 386
                 387
                 388
                 389
                 390
                 391
                 392
                 393
                 394
                 395
                 396
                 397
                 398
                 399
                 400
                 401
                 402
                 403
                 404
                 405
                 406
                 407
                 408
                 409
                 410
                 411
                 412
                 413
                 414
                 415
                 416
                 417
                 418
                 419
                 420
                 421
                 422
                 423
                 424
                 425
                 426
                 427
                 428
                 429
                 430
                 431
                 432
                 433
                 434
                 435
                 436
                 437
                 438
                 439
                 440
                 441
                 442
                 443
                 444
                 445
                 446
                 447
                 448
                 449
                 450
                 451
                 452
                 453
                 454
                 455
                 456
                 457
                 458
                 459
                 460
                 461
                 462
                 463
                 464
                 465
                 466
                 467
                 468
                 469
                 470
                 471
                 472
                 473
                 474
                 475
                 476
                 477
                 478
                 479
                 480
                 481
                 482
                 483
                 484
                 485
                 486
                 487
                 488
                 489
                 490
                 491
                 492
                 493
                 494
                 495
                 496
                 497
                 498
                 499
                 500
                 501
                 502
                 503
                 504
                 505
                 506
                 507
                 508
                 509
                 510
                 511
                 512
                 513
                 514
                 515
                 516
                 517
                 518
                 519
                 520
                 521
                 522
                 523
                 524
                 525
                 526
                 527
                 528
                 529
                 530
                 531
                 532
                 533
                 534
                 535
                 536
                 537
                 538
                 539
                 540
                 541
                 542
                 543
                 544
                 545
                 546
                 547
                 548
                 549
                 550
                 551
                 552
                 553
                 554
                 555
                 556
                 557
                 558
                 559
                 560
                 561
                 562
                 563
                 564
                 565
                 566
                 567
                 568
                 569
                 570
                 571
                 572
                 573
                 574
                 575
                 576
                 577
                 578
                 579
                 580
                 581
                 582
                 583
                 584
                 585
                 586
                 587
                 588
                 589
                 590
                 591
                 592
                 593
                 594
                 595
                 596
                 597
                 598
                 599
                 600
                 601
                 602
                 603
                 604
                 605
                 606
                 607
                 608
                 609
                 610
                 611
                 612
                 613
                 614
                 615
                 616
                 617
                 618
                 619
                 620
                 621
                 622
                 623
                 624
                 625
                 626
                 627
                 628
                 629
                 630
                 631
                 632
                 633
                 634
                 635
                 636
                 637
                 638
                 639
                 640
                 641
                 642
                 643
                 644
                 645
                 646
                 647
                 648
                 649
                 650
                 651
                 652
                 653
                 654
                 655
                 656
                 657
                 658
                 659
                 660
                 661
                 662
                 663
                 664
                 665
                 666
                 667
                 668
                 669
                 670
                 671
                 672
                 673
                 674
                 675
                 676
                 677
                 678
                 679
                 680
                 681
                 682
                 683
                 684
                 685
                 686
                 687
                 688
                 689
                 690
                 691
                 692
                 693
                 694
                 695
                 696
                 697
                 698
                 699
                 700
                 701
                 702
                 703
                 704
                 705
                 706
                 707
                 708
                 709
                 710
                 711
                 712
                 713
                 714
                 715
                 716
                 717
                 718
                 719
                 720
                 721
                 722
                 723
                 724
                 725
                 726
                 727
                 728
                 729
                 730
                 731
                 732
                 733
                 734
                 735
                 736
                 737
                 738
                 739
                 740
                 741
                 742
                 743
                 744
                 745
                 746
                 747
                 748
                 749
                 750
                 751
                 752
                 753
                 754
                 755
                 756
                 757
                 758
                 759
                 760
                 761
                 762
                 763
                 764
                 765
                 766
                 767
                 768
                 769
                 770
                 771
                 772
                 773
                 774
                 775
                 776
                 777
                 778
                 779
                 780
                 781
                 782
                 783
                 784
                 785
                 786
                 787
                 788
                 789
                 790
                 791
                 792
                 793
                 794
                 795
                 796
                 797
                 798
                 799
                 800
                 801
                 802
                 803
                 804
                 805
                 806
                 807
                 808
                 809
                 810
                 811
                 812
                 813
                 814
                 815
                 816
                 817
                 818
                 819
                 820
                 821
                 822
                 823
                 824
                 825
                 826
                 827
                 828
                 829
                 830
                 831
                 832
                 833
                 834
                 835
                 836
                 837
                 838
                 839
                 840
                 841
                 842
                 843
                 844
                 845
                 846
                 847
                 848
                 849
                 850
                 851
                 852
                 853
                 854
                 855
                 856
                 857
                 858
                 859
                 860
                 861
                 862
                 863
                 864
                 865
                 866
                 867
                 868
                 869
                 870
                 871
                 872
                 873
                 874
                 875
                 876
                 877
                 878
                 879
                 880
                 881
                 882
                 883
                 884
                 885
                 886
                 887
                 888
                 889
                 890
                 891
                 892
                 893
                 894
                 895
                 896
                 897
                 898
                 899
                 900
                 901
                 902
                 903
                 904
                 905
                 906
                 907
                 908
                 909
                 910
                 911
                 912
                 913
                 914
                 915
                 916
                 917
                 918
                 919
                 920
                 921
                 922
                 923
                 924
                 925
                 926
                 927
                 928
                 929
                 930
                 931
                 932
                 933
                 934
                 935
                 936
                 937
                 938
                 939
                 940
                 941
                 942
                 943
                 944
                 945
                 946
                 947
                 948
                 949
                 950
                 951
                 952
                 953
                 954
                 955
                 956
                 957
                 958
                 959
                 960
                 961
                 962
                 963
                 964
                 965
                 966
                 967
                 968
                 969
                 970
                 971
                 972
                 973
                 974
                 975
                 976
                 977
                 978
                 979
                 980
                 981
                 982
                 983
                 984
                 985
                 986
                 987
                 988
                 989
                 990
                 991
                 992
                 993
                 994
                 995
                 996
                 997
                 998
                 999
                1000
                1001
                1002
                1003
                1004
                1005
                1006
                1007
                1008
                1009
                1010
                1011
                1012
                1013
                1014
                1015
                1016
                1017
                1018
                1019
                1020
                1021
                1022
                1023
                1024
                1025
                1026
                1027
                1028
                1029
                1030
                1031
                1032
                1033
                1034
                1035
                1036
                1037
                1038
                1039
                1040
                1041
                1042
                1043
                1044
                1045
                1046
                1047
                1048
                1049
                1050
                1051
                1052
                1053
                1054
                1055
                1056
                1057
                1058
                1059
                1060
                1061
                1062
                1063
                1064
                1065
                1066
                1067
                1068
                1069
                1070
                1071
                1072
                1073
                1074
                1075
                1076
                1077
                1078
                1079
                1080
                1081
                1082
                1083
                1084
                1085
                1086
                1087
                1088
                1089
                1090
                1091
                1092
                1093
                1094
                1095
                1096
                1097
                1098
                1099
                1100
                1101
                1102
                1103
                1104
                1105
                1106
                1107
                1108
                1109
                1110
                1111
                1112
                1113
                1114
                1115
                1116
                1117
                1118
                1119
                1120
                1121
                1122
                1123
                1124
                1125
                1126
                1127
                1128
                1129
                1130
                1131
                1132
                1133
                1134
                1135
                1136
                1137
                1138
                1139
                1140
                1141
                1142
                1143
                1144
                1145
                1146
                1147
                1148
                1149
                1150
                1151
                1152
                1153
                1154
                1155
                1156
                1157
                1158
                1159
                1160
                1161
                1162
                1163
                1164
                1165
                1166
                1167
                1168
                1169
                1170
                1171
                1172
                1173
                1174
                1175
                1176
                1177
                1178
                1179
                1180
                1181
                1182
                1183
                1184
                1185
                1186
                1187
                1188
                1189
                1190
                1191
                1192
                1193
                1194
                1195
                1196
                1197
                1198
                1199
                1200
                1201
                1202
                1203
                1204
                1205
                1206
                1207
                1208
                1209
                1210
                1211
                1212
                1213
                1214
                1215
                1216
                1217
                1218
                1219
                1220
                1221
                1222
                1223
                1224
                1225
                1226
                1227
                1228
                1229
                1230
                1231
                1232
                1233
                1234
                1235
                1236
                1237
                1238
                1239
                1240
                1241
                1242
                1243
                1244
                1245
                1246
                1247
                1248
                1249
                1250
                1251
                1252
                1253
                1254
                1255
                1256
                1257
                1258
                1259
                1260
                1261
                1262
                1263
                1264
                1265
                1266
                1267
                1268
                1269
                1270
                1271
                1272
                1273
                1274
                1275
                1276
                1277
                1278
                1279
                1280
                1281
                1282
                1283
                1284
                1285
                1286
                1287
                1288
                1289
                1290
                1291
                1292
                1293
                1294
                1295
                1296
                1297
                1298
                1299
                1300
                1301
                1302
                1303
                1304
                1305
                1306
                1307
                1308
                1309
                1310
                1311
                1312
                1313
                1314
                1315
                1316
                1317
                1318
                1319
                1320
                1321
                1322
                1323
                1324
                1325
                1326
                1327
                1328
                1329
                1330
                1331
                1332
                1333
                1334
                1335
                1336
                1337
                1338
                1339
                1340
                1341
                1342
                1343
                1344
                1345
                1346
                1347
                1348
                1349
                1350
                1351
                1352
                1353
                1354
                1355
                1356
                1357
                1358
                1359
                1360
                1361
                1362
                1363
                1364
                1365
                1366
                1367
                1368
                1369
                1370
                1371
                1372
                1373
                1374
                1375
                1376
                1377
                1378
                1379
                1380
                1381
                1382
                1383
                1384
                1385
                1386
                1387
                1388
                1389
                1390
                1391
                1392
                1393
                1394
                1395
                1396
                1397
                1398
                1399
                1400
                1401
                1402
                1403
                1404
                1405
                1406
                1407
                1408
                1409
                1410
                1411
                1412
                1413
                1414
                1415
                1416
                1417
                1418
                1419
                1420
                1421
                1422
                1423
                1424
                1425
                1426
                1427
                1428
                1429
                1430
                1431
                1432
                1433
                1434
                1435
                1436
                1437
                1438
                1439
                1440
                1441
                1442
                1443
                1444
                1445
                1446
                1447
                1448
                1449
                1450
                1451
                1452
                1453
                1454
                1455
                1456
                1457
                1458
                1459
                1460
                1461
                1462
                1463
                1464
                1465
                1466
                1467
                1468
                1469
                1470
                1471
                1472
                1473
                1474
                1475
                1476
                1477
                1478
                1479
                1480
                1481
                1482
                1483
                1484
                1485
                1486
                1487
                1488
                1489
                1490
                1491
                1492
                1493
                1494
                1495
                1496
                1497
                1498
                1499
                1500
                1501
                1502
                1503
                1504
                1505
                1506
                1507
                1508
                1509
                1510
                1511
                1512
                1513
                1514
                1515
                1516
                1517
                1518
                1519
                1520
                1521
                1522
                1523
                1524
                1525
                1526
                1527
                1528
                1529
                1530
                1531
                1532
                1533
                1534
                1535
                1536
                1537
                1538
                1539
                1540
                1541
                1542
                1543
                1544
                1545
                1546
                1547
                1548
                1549
                1550
                1551
                1552
                1553
                1554
                1555
                1556
                1557
                1558
                1559
                1560
                1561
                1562
                1563
                1564
                1565
                1566
                1567
                1568
                1569
                1570
                1571
                1572
                1573
                1574
                1575
                1576
                1577
                1578
                1579
                1580
                1581
                1582
                1583
                1584
                1585
                1586
                1587
                1588
                1589
                1590
                1591
                1592
                1593
                1594
                1595
                1596
                1597
                1598
                1599
                1600
                1601
                1602
                1603
                1604
                1605
                1606
                1607
                1608
                1609
                1610
                1611
                1612
                1613
                1614
                1615
                1616
                1617
                1618
                1619
                1620
                1621
                1622
                1623
                1624
                1625
                1626
                1627
                1628
                1629
                1630
                1631
                1632
                1633
                1634
                1635
                1636
                1637
                1638
                1639
                1640
                1641
                1642
                1643
                1644
                1645
                1646
                1647
                1648
                1649
                1650
                1651
                1652
                1653
                1654
                1655
                1656
                1657
                1658
                1659
                1660
                1661
                1662
                1663
                1664
                1665
                1666
                1667
                1668
                1669
                1670
                1671
                1672
                1673
                1674
                1675
                1676
                1677
                1678
                1679
                1680
                1681
                1682
                1683
                1684
                1685
                1686
                1687
                1688
                1689
                1690
                1691
                1692
                1693
                1694
                1695
                1696
                1697
                1698
                1699
                1700
                1701
                1702
                1703
                1704
                1705
                1706
                1707
                1708
                1709
                1710
                1711
                1712
                1713
                1714
                1715
                1716
                1717
                1718
                1719
                1720
                1721
                1722
                1723
                1724
                1725
                1726
                1727
                1728
                1729
                1730
                1731
                1732
                1733
                1734
                1735
                1736
                1737
                1738
                1739
                1740
                1741
                1742
                1743
                1744
                1745
                1746
                1747
                1748
                1749
                1750
                1751
                1752
                1753
                1754
                1755
                1756
                1757
                1758
                1759
                1760
                1761
                1762
                1763
                1764
                1765
                1766
                1767
                1768
                1769
                1770
                1771
                1772
                1773
                1774
                1775
                1776
                1777
                1778
                1779
                1780
                1781
                1782
                1783
                1784
                1785
                1786
                1787
                1788
                1789
                1790
                1791
                1792
                1793
                1794
                1795
                1796
                1797
                1798
                1799
                1800
                1801
                1802
                1803
                1804
                1805
                1806
                1807
                1808
                1809
                1810
                1811
                1812
                1813
                1814
                1815
                1816
                1817
                1818
                1819
                1820
                1821
                1822
                1823
                1824
                1825
                1826
                1827
                1828
                1829
                1830
                1831
                1832
                1833
                1834
                1835
                1836
                1837
                1838
                1839
                1840
                1841
                1842
                1843
                1844
                1845
                1846
                1847
                1848
                1849
                1850
                1851
                1852
                1853
                1854
                1855
                1856
                1857
                1858
                1859
                1860
                1861
                1862
                1863
                1864
                1865
                1866
                1867
                1868
                1869
                1870
                1871
                1872
                1873
                1874
                1875
                1876
                1877
                1878
                1879
                1880
                1881
                1882
                1883
                1884
                1885
                1886
                1887
                1888
                1889
                1890
                1891
                1892
                1893
                1894
                1895
                1896
                1897
                1898
                1899
                1900
                1901
                1902
                1903
                1904
                1905
                1906
                1907
                1908
                1909
                1910
                1911
                1912
                1913
                1914
                1915
                1916
                1917
                1918
                1919
                1920
                1921
                1922
                1923
                1924
                1925
                1926
                1927
                1928
                1929
                1930
                1931
                1932
                1933
                1934
                1935
                1936
                1937
                1938
                1939
                1940
                1941
                1942
                1943
                1944
                1945
                1946
                1947
                1948
                1949
                1950
  
SCALARS                         bodyid  double 1
LOOKUP_TABLE default
                   1
                   1
                   1
                   1
                   1
                   1
                   1
                   1
                   1
                   1
                   1
                   1
                   1
                   1
                   1
                   1
                   1
                   1
                   1
                   1
                   1
                   1
                   1
                   1
                   1
                   1
                   1
                   1
                   1
                   1
                   1
                   1
                   1
                   1
                   1
                   1
                   1
                   1
                   1
                   1
                   1
                   1
                   1
                   1
                   1
                   1
                   1
                   1
                   1
                   1
                   1
                   1
                   1
                   1
                   1
                   1
                   1
                   1
                   1
                   1
                   1
                   1
                   1
                   1
                   1
                   1
                   1
                   1
                   1
                   1
                   1
                   1
                   1
                   1
                   1
                   1
                   1
                   1
                   1
                   1
                   1
                   1
                   1
                   1
                   1
                   1
                   1
                   1
                   1
                   1
                   1
                   1
                   1
                   1
                   1
                   1
                   1
                   1
                   1
                   1
                   1
                   1
                   1
                   1
                   1
                   1
                   1
                   1
                   1
                   1
                   1
                   1
                   1
                   1
                   1
                   1
                   1
                   1
                   1
                   1
                   1
                   1
                   1
                   1
                   1
                   1
                   1
                   1
                   1
                   1
                   1
                   1
                   1
                   1
                   1
                   1
                   1
                   1
                   1
                   1
                   1
                   1
                   1
                   1
                   1
                   1
                   1
                   1
                   1
                   1
                   1
                   1
                   1
                   1
                   1
                   1
                   1
                   1
                   1
                   1
                   1
                   1
                   1
                   1
                   1
                   1
                   1
                   1
                   1
                   1
                   1
                   1
                   1
                   1
                   1
                   1
                   1
                   1
                   1
                   1
                   1
                   1
                   1
                   1
                   1
                   1
                   1
                   1
                   1
                   1
                   1
                   1
                   1
                   1
                   1
                   1
                   1
                   1
                   1
                   1
                   1
                   1
                   1
                   1
                   1
                   1
                   1
                   1
                   1
                   1
                   1
                   1
                   1
                   1
                   1
                   1
                   1
                   1
                   1
                   1
                   1
                   1
                   1
                   1
                   1
                   1
                   1
                   1
                   1
                   1
                   1
                   1
                   1
                   1
                   1
                   1
                   1
                   1
                   1
                   1
                   1
                   1
                   1
                   1
                   1
                   1
                   1
                   1
                   1
                   1
                   1
                   1
                   1
                   1
                   1
                   1
                   1
                   1
                   1
                   1
                   1
                   1
                   1
                   1
                   1
                   1
                   1
                   1
                   1
                   1
                   1
                   1
                   1
                   1
                   1
                   1
                   1
                   1
                   1
                   1
                   1
                   1
                   1
                   1
                   1
                   1
                   1
                   1
                   1
                   1
                   1
                   1
                   1
                   1
                   1
                   1
                   1
                   1
                   1
                   1
                   1
                   1
                   1
                   1
                   1
                   1
                   1
                   1
                   1
                   1
                   1
                   1
                   1
                   1
                   1
                   1
                   1
                   1
                   1
                   1
                   1
                   1
                   1
                   1
                   1
                   1
                   1
                   1
                   1
                   1
                   1
                   1
                   1
                   1
                   1
                   1
                   1
                   1
                   1
                   1
                   1
                   1
                   1
                   1
                   1
                   1
                   1
                   1
                   1
                   1
                   1
                   1
                   1
                   1
                   1
                   1
                   1
                   1
                   1
                   1
                   1
                   1
                   1
                   1
                   1
                   1
                   1
                   1
                   1
                   1
                   1
                   1
                   1
                   1
                   1
                   1
                   1
                   1
                   1
                   1
                   1
                   1
                   1
                   1
                   1
                   1
                   1
                   1
                   1
                   1
                   1
                   1
                   1
                   1
                   1
                   1
                   1
                   1
                   1
                   1
                   1
                   1
                   1
                   1
                   1
                   1
                   1
                   1
                   1
                   1
                   1
                   1
                   1
                   1
                   1
                   1
                   1
                   1
                   1
                   1
                   1
                   1
                   1
                   1
                   1
                   1
                   1
                   1
                   1
                   1
                   1
                   1
                   1
                   1
                   1
                   1
                   1
                   1
                   1
                   1
                   1
                   1
                   1
                   1
                   1
                   1
                   1
                   1
                   1
                   1
                   1
                   1
                   1
                   1
                   1
                   1
                   1
                   1
                   1
                   1
                   1
                   1
                   1
                   1
                   1
                   1
                   1
                   1
                   1
                   1
                   1
                   1
                   1
                   1
                   1
                   1
                   1
                   1
                   1
                   1
                   1
                   1
                   1
                   1
                   1
                   1
                   1
                   1
                   1
                   1
                   1
                   1
                   1
                   1
                   1
                   1
                   1
                   1
                   1
                   1
                   1
                   1
                   1
                   1
                   1
                   1
                   1
                   1
                   1
                   1
                   1
                   1
                   1
                   1
                   1
                   1
                   1
                   1
                   1
                   1
                   1
                   1
                   1
                   1
                   1
                   1
                   1
                   1
                   1
                   1
                   1
                   1
                   1
                   1
                   1
                   1
                   1
                   1
                   1
                   1
                   1
                   1
                   1
                   1
                   1
                   1
                   1
                   1
                   1
                   1
                   1
                   1
                   1
                   1
                   1
                   1
                   1
                   1
                   1
                   1
                   1
                   1
                   1
                   1
                   1
                   1
                   1
                   1
                   1
                   1
                   1
                   1
                   1
                   1
                   1
                   1
                   1
                   1
                   1
                   1
                   1
                   1
                   1
                   1
                   1
                   1
                   1
                   1
                   1
                   1
                   1
                   1
                   1
                   1
                   1
                   1
                   1
                   1
                   1
                   1
                   1
                   1
                   1
                   1
                   1
                   1
                   1
                   1
                   1
                   1
                   1
                   1
                   1
                   1
                   1
                   1
                   1
                   1
                   1
                   1
                   1
                   1
                   1
                   1
                   1
                   1
                   1
                   1
                   1
                   1
                   1
                   1
                   1
                   1
                   1
                   1
                   1
                   1
                   1
                   1
                   1
                   1
                   1
                   1
                   1
                   1
                   1
                   1
                   1
                   1
                   1
                   1
                   1
                   1
                   1
                   1
                   1
                   1
                   1
                   1
                   1
                   1
                   1
                   1
                   1
                   1
                   1
                   1
                   1
                   1
                   1
                   1
                   1
                   1
                   1
                   1
                   1
                   1
                   1
                   1
                   1
                   1
                   1
                   1
                   1
                   1
                   1
                   1
                   1
                   1
                   1
                   1
                   1
                   1
                   1
                   1
                   1
                   1
                   1
                   1
                   1
                   1
                   1
                   1
                   1
                   1
                   1
                   1
                   1
                   1
                   1
                   1
                   1
                   1
                   1
                   1
                   1
                   1
                   1
                   1
                   1
                   1
                   1
                   1
                   1
                   1
                   1
                   1
                   1
                   1
                   1
                   1
                   1
                   1
                   1
                   1
                   1
                   1
                   1
                   1
                   1
                   1
                   1
                   1
                   1
                   1
                   1
                   1
                   1
                   1
                   1
                   1
                   1
                   1
                   1
                   1
                   1
                   1
                   1
                   1
                   1
                   1
                   1
                   1
                   1
                   1
                   1
                   1
                   1
                   1
                   1
                   1
                   1
                   1
                   1
                   1
                   1
                   1
                   1
                   1
                   1
                   1
                   1
                   1
                   1
                   1
                   1
                   1
                   1
                   1
                   1
                   1
                   1
                   1
                   1
                   1
                   1
                   1
                   1
                   1
                   1
                   1
                   1
                   1
                   1
                   1
                   1
                   1
                   1
                   1
                   1
                   1
                   1
                   1
                   1
                   1
                   1
                   1
                   1
                   1
                   1
                   1
                   1
                   1
                   1
                   1
                   1
                   1
                   1
                   1
                   1
                   1
                   1
                   1
                   1
                   1
                   1
                   1
                   1
                   1
                   1
                   1
                   1
                   1
                   1
                   1
                   1
                   1
                   1
                   1
                   1
                   1
                   1
                   1
                   1
                   1
                   1
                   1
                   1
                   1
                   1
                   1
                   1
                   1
                   1
                   1
                   1
                   1
                   1
                   1
                   1
                   1
                   1
                   1
                   1
                   1
                   1
                   1
                   1
                   1
                   1
                   1
                   1
                   1
                   1
                   1
                   1
                   1
                   1
                   1
                   1
                   1
                   1
                   1
                   1
                   1
                   1
                   1
                   1
                   1
                   1
                   1
                   1
                   1
                   1
                   1
                   1
                   1
                   1
                   1
                   1
                   1
                   1
                   1
                   1
                   1
                   1
                   1
                   1
                   1
                   1
                   1
                   1
                   1
                   1
                   1
                   1
                   1
                   1
                   1
                   1
                   1
                   1
                   1
                   1
                   1
                   1
                   1
                   1
                   1
                   1
                   1
                   1
                   1
                   1
                   1
                   1
                   1
                   1
                   1
                   1
                   1
                   1
                   1
                   1
                   1
                   1
                   1
                   1
                   1
                   1
                   1
                   1
                   1
                   1
                   1
                   1
                   1
                   1
                   1
                   1
                   1
                   1
                   1
                   1
                   1
                   1
                   1
                   1
                   1
                   1
                   1
                   1
                   1
                   1
                   1
                   1
                   1
                   1
                   1
                   1
                   1
                   1
                   1
                   1
                   1
                   1
                   1
                   1
                   1
                   1
                   1
                   1
                   1
                   1
                   1
                   1
                   1
                   1
                   1
                   1
                   1
                   1
                   1
                   1
                   1
                   1
                   1
                   1
                   1
                   1
                   1
                   1
                   1
                   1
                   1
                   1
                   1
                   1
                   1
                   1
                   1
                   1
                   1
                   1
                   1
                   1
                   1
                   1
                   1
                   1
                   1
                   1
                   1
                   1
                   1
                   1
                   1
                   1
                   1
                   1
                   1
                   1
                   1
                   1
                   1
                   1
                   1
                   1
                   1
                   1
                   1
                   1
                   1
                   1
                   1
                   1
                   1
                   1
                   1
                   1
                   1
                   1
                   1
                   1
                   1
                   1
                   1
                   1
                   1
                   1
                   1
                   1
                   1
                   1
                   1
                   1
                   1
                   1
                   1
                   1
                   1
                   1
                   1
                   1
                   1
                   1
                   1
                   1
                   1
                   1
                   1
                   1
                   1
                   1
                   1
                   1
                   1
                   1
                   1
                   1
                   1
                   1
                   1
                   1
                   1
                   1
                   1
                   1
                   1
                   1
                   1
                   1
                   1
                   1
                   1
                   1
                   1
                   1
                   1
                   1
                   1
                   1
                   1
                   1
                   1
                   1
                   1
                   1
                   1
                   1
                   1
                   1
                   1
                   1
                   1
                   1
                   1
                   1
                   1
                   1
                   1
                   1
                   1
                   1
                   1
                   1
                   1
                   1
                   1
                   1
                   1
                   1
                   1
                   1
                   1
                   1
                   1
                   1
                   1
                   1
                   1
                   1
                   1
                   1
                   1
                   1
                   1
                   1
                   1
                   1
                   1
                   1
                   1
                   1
                   1
                   1
                   1
                   1
                   1
                   1
                   1
                   1
                   1
                   1
                   1
                   1
                   1
                   1
                   1
                   1
                   1
                   1
                   1
                   1
                   1
                   1
                   1
                   1
                   1
                   1
                   1
                   1
                   1
                   1
                   1
                   1
                   1
                   1
                   1
                   1
                   1
                   1
                   1
                   1
                   1
                   1
                   1
                   1
                   1
                   1
                   1
                   1
                   1
                   1
                   1
                   1
                   1
                   1
                   1
                   1
                   1
                   1
                   1
                   1
                   1
                   1
                   1
                   1
                   1
                   1
                   1
                   1
                   1
                   1
                   1
                   1
                   1
                   1
                   1
                   1
                   1
                   1
                   1
                   1
                   1
                   1
                   1
                   1
                   1
                   1
                   1
                   1
                   1
                   1
                   1
                   1
                   1
                   1
                   1
                   1
                   1
                   1
                   1
                   1
                   1
                   1
                   1
                   1
                   1
                   1
                   1
                   1
                   1
                   1
                   1
                   1
                   1
                   1
                   1
                   1
                   1
                   1
                   1
                   1
                   1
                   1
                   1
                   1
                   1
                   1
                   1
                   1
                   1
                   1
                   1
                   1
                   1
                   1
                   1
                   1
                   1
                   1
                   1
                   1
                   1
                   1
                   1
                   1
                   1
                   1
                   1
                   1
                   1
                   1
                   1
                   1
                   1
                   1
                   1
                   1
                   1
                   1
                   1
                   1
                   1
                   1
                   1
                   1
                   1
                   1
                   1
                   1
                   1
                   1
                   1
                   1
                   1
                   1
                   1
                   1
                   1
                   1
                   1
                   1
                   1
                   1
                   1
                   1
                   1
                   1
                   1
                   1
                   1
                   1
                   1
                   1
                   1
                   1
                   1
                   1
                   1
                   1
                   1
                   1
                   1
                   1
                   1
                   1
                   1
                   1
                   1
                   1
                   1
                   1
                   1
                   1
                   1
                   1
                   1
                   1
                   1
                   1
                   1
                   1
                   1
                   1
                   1
                   1
                   1
                   1
                   1
                   1
                   1
                   1
                   1
                   1
                   1
                   1
                   1
                   1
                   1
                   1
                   1
                   1
                   1
                   1
                   1
                   1
                   1
                   1
                   1
                   1
                   1
                   1
                   1
                   1
                   1
                   1
                   1
                   1
                   1
                   1
                   1
                   1
                   1
                   1
                   1
                   1
                   1
                   1
                   1
                   1
                   1
                   1
                   1
                   1
                   1
                   1
                   1
                   1
                   1
                   1
                   1
                   1
                   1
                   1
                   1
                   1
                   1
                   1
                   1
                   1
                   1
                   1
                   1
                   1
                   1
                   1
                   1
                   1
                   1
                   1
                   1
                   1
                   1
                   1
                   1
                   1
                   1
                   1
                   1
                   1
                   1
                   1
                   1
                   1
                   1
                   1
                   1
                   1
                   1
                   1
                   1
                   1
                   1
                   1
                   1
                   1
                   1
                   1
                   1
                   1
                   1
                   1
                   1
                   1
                   1
                   1
                   1
                   1
                   1
                   1
                   1
                   1
                   1
                   1
                   1
                   1
                   1
                   1
                   1
                   1
                   1
                   1
                   1
                   1
                   1
                   1
                   1
                   1
                   1
                   1
                   1
                   1
                   1
                   1
                   1
                   1
                   1
                   1
                   1
                   1
                   1
                   1
                   1
                   1
                   1
                   1
                   1
                   1
                   1
                   1
                   1
                   1
                   1
                   1
                   1
                   1
                   1
                   1
                   1
                   1
                   1
                   1
                   1
                   1
                   1
                   1
                   1
                   1
                   1
                   1
                   1
                   1
                   1
                   1
                   1
                   1
                   1
                   1
                   1
                   1
                   1
                   1
                   1
                   1
                   1
                   1
                   1
                   1
                   1
                   1
                   1
                   1
                   1
                   1
                   1
                   1
                   1
                   1
                   1
                   1
                   1
                   1
                   1
                   1
                   1
                   1
                   1
                   1
                   1
                   1
                   1
                   1
                   1
                   1
                   1
                   1
                   1
                   1
                   1
                   1
                   1
                   1
                   1
                   1
                   1
                   1
                   1
                   1
                   1
                   1
                   1
                   1
                   1
                   1
                   1
                   1
                   1
                   1
                   1
                   1
                   1
                   1
                   1
                   1
                   1
                   1
                   1
                   1
                   1
                   1
                   1
                   1
                   1
                   1
                   1
                   1
                   1
                   1
                   1
                   1
                   1
                   1
                   1
                   1
                   1
                   1
                   1
                   1
                   1
                   1
                   1
                   1
                   1
                   1
                   1
                   1
                   1
                   1
                   1
                   1
                   1
                   1
                   1
                   1
                   1
                   1
                   1
                   1
                   1
                   1
                   1
                   1
                   1
                   1
                   1
                   1
                   1
                   1
                   1
                   1
                   1
                   1
                   1
                   1
                   1
                   1
                   1
                   1
                   1
                   1
                   1
                   1
                   1
                   1
                   1
                   1
                   1
                   1
                   1
                   1
                   1
                   1
                   1
                   1
                   1
                   1
                   1
                   1
                   1
                   1
                   1
                   1
                   1
                   1
                   1
                   1
                   1
                   1
                   1
                   1
                   1
                   1
                   1
                   1
                   1
                   1
                   1
                   1
                   1
                   1
                   1
                   1
                   1
                   1
                   1
                   1
                   1
                   1
                   1
                   1
                   1
                   1
                   1
                   1
                   1
                   1
                   1
                   1
                   1
                   1
                   1
                   1
                   1
                   1
                   1
                   1
                   1
                   1
                   1
                   1
                   1
                   1
                   1
                   1
                   1
                   1
                   1
                   1
                   1
                   1
                   1
                   1
                   1
                   1
                   1
                   1
                   1
                   1
                   1
                   1
                   1
                   1
                   1
                   1
                   1
                   1
                   1
                   1
                   1
                   1
                   1
                   1
                   1
                   1
                   1
                   1
                   1
                   1
                   1
                   1
                   1
                   1
                   1
                   1
                   1
                   1
                   1
                   1
                   1
                   1
                   1
                   1
                   1
                   1
                   1
                   1
                   1
                   1
                   1
                   1
                   1
                   1
                   1
                   1
                   1
                   1
                   1
                   1
                   1
                   1
                   1
                   1
                   1
                   1
                   1
                   1
                   1
                   1
                   1
                   1
                   1
                   1
                   1
                   1
                   1
                   1
                   1
                   1
                   1
                   1
                   1
                   1
                   1
                   1
                   1
                   1
                   1
                   1
                   1
                   1
                   1
                   1
                   1
                   1
                   1
                   1
                   1
                   1
                   1
                   1
                   1
                   1
                   1
                   1
                   1
                   1
                   1
                   1
                   1
                   1
                   1
                   1
                   1
                   1
                   1
                   1
                   1
                   1
                   1
                   1
                   1
                   1
                   1
                   1
                   1
                   1
                   1
                   1
                   1
                   1
                   1
                   1
                   1
                   1
                   1
                   1
                   1
                   1
                   1
                   1
                   1
                   1
                   1
                   1
                   1
                   1
                   1
  
SCALARS                  material_type  double 1
LOOKUP_TABLE default
                   2
                   2
                   2
                   2
                   2
                   2
                   2
                   2
                   2
                   2
                   2
                   2
                   2
                   2
                   2
                   2
                   2
                   2
                   2
                   2
                   2
                   2
                   2
                   2
                   2
                   2
                   2
                   2
                   2
                   2
                   2
                   2
                   2
                   2
                   2
                   2
                   2
                   2
                   2
                   2
                   2
                   2
                   2
                   2
                   2
                   2
                   2
                   2
                   2
                   2
                   2
                   2
                   2
                   2
                   2
                   2
                   2
                   2
                   2
                   2
                   2
                   2
                   2
                   2
                   2
                   2
                   2
                   2
                   2
                   2
                   2
                   2
                   2
                   2
                   2
                   2
                   2
                   2
                   2
                   2
                   2
                   2
                   2
                   2
                   2
                   2
                   2
                   2
                   2
                   2
                   2
                   2
                   2
                   2
                   2
                   2
                   2
                   2
                   2
                   2
                   2
                   2
                   2
                   2
                   2
                   2
                   2
                   2
                   2
                   2
                   2
                   2
                   2
                   2
                   2
                   2
                   2
                   2
                   2
                   2
                   2
                   2
                   2
                   2
                   2
                   2
                   2
                   2
                   2
                   2
                   2
                   2
                   2
                   2
                   2
                   2
                   2
                   2
                   2
                   2
                   2
                   2
                   2
                   2
                   2
                   2
                   2
                   2
                   2
                   2
                   2
                   2
                   2
                   2
                   2
                   2
                   2
                   2
                   2
                   2
                   2
                   2
                   2
                   2
                   2
                   2
                   2
                   2
                   2
                   2
                   2
                   2
                   2
                   2
                   2
                   2
                   2
                   2
                   2
                   2
                   2
                   2
                   2
                   2
                   2
                   2
                   2
                   2
                   2
                   2
                   2
                   2
                   2
                   2
                   2
                   2
                   2
                   2
                   2
                   2
                   2
                   2
                   2
                   2
                   2
                   2
                   2
                   2
                   2
                   2
                   2
                   2
                   2
                   2
                   2
                   2
                   2
                   2
                   2
                   2
                   2
                   2
                   2
                   2
                   2
                   2
                   2
                   2
                   2
                   2
                   2
                   2
                   2
                   2
                   2
                   2
                   2
                   2
                   2
                   2
                   2
                   2
                   2
                   2
                   2
                   2
                   2
                   2
                   2
                   2
                   2
                   2
                   2
                   2
                   2
                   2
                   2
                   2
                   2
                   2
                   2
                   2
                   2
                   2
                   2
                   2
                   2
                   2
                   2
                   2
                   2
                   2
                   2
                   2
                   2
                   2
                   2
                   2
                   2
                   2
                   2
                   2
                   2
                   2
                   2
                   2
                   2
                   2
                   2
                   2
                   2
                   2
                   2
                   2
                   2
                   2
                   2
                   2
                   2
                   2
                   2
                   2
                   2
                   2
                   2
                   2
                   2
                   2
                   2
                   2
                   2
                   2
                   2
                   2
                   2
                   2
                   2
                   2
                   2
                   2
                   2
                   2
                   2
                   2
                   2
                   2
                   2
                   2
                   2
                   2
                   2
                   2
                   2
                   2
                   2
                   2
                   2
                   2
                   2
                   2
                   2
                   2
                   2
                   2
                   2
                   2
                   2
                   2
                   2
                   2
                   2
                   2
                   2
                   2
                   2
                   2
                   2
                   2
                   2
                   2
                   2
                   2
                   2
                   2
                   2
                   2
                   2
                   2
                   2
                   2
                   2
                   2
                   2
                   2
                   2
                   2
                   2
                   2
                   2
                   2
                   2
                   2
                   2
                   2
                   2
                   2
                   2
                   2
                   2
                   2
                   2
                   2
                   2
                   2
                   2
                   2
                   2
                   2
                   2
                   2
                   2
                   2
                   2
                   2
                   2
                   2
                   2
                   2
                   2
                   2
                   2
                   2
                   2
                   2
                   2
                   2
                   2
                   2
                   2
                   2
                   2
                   2
                   2
                   2
                   2
                   2
                   2
                   2
                   2
                   2
                   2
                   2
                   2
                   2
                   2
                   2
                   2
                   2
                   2
                   2
                   2
                   2
                   2
                   2
                   2
                   2
                   2
                   2
                   2
                   2
                   2
                   2
                   2
                   2
                   2
                   2
                   2
                   2
                   2
                   2
                   2
                   2
                   2
                   2
                   2
                   2
                   2
                   2
                   2
                   2
                   2
                   2
                   2
                   2
                   2
                   2
                   2
                   2
                   2
                   2
                   2
                   2
                   2
                   2
                   2
                   2
                   2
                   2
                   2
                   2
                   2
                   2
                   2
                   2
                   2
                   2
                   2
                   2
                   2
                   2
                   2
                   2
                   2
                   2
                   2
                   2
                   2
                   2
                   2
                   2
                   2
                   2
                   2
                   2
                   2
                   2
                   2
                   2
                   2
                   2
                   2
                   2
                   2
                   2
                   2
                   2
                   2
                   2
                   2
                   2
                   2
                   2
                   2
                   2
                   2
                   2
                   2
                   2
                   2
                   2
                   2
                   2
                   2
                   2
                   2
                   2
                   2
                   2
                   2
                   2
                   2
                   2
                   2
                   2
                   2
                   2
                   2
                   2
                   2
                   2
                   2
                   2
                   2
                   2
                   2
                   2
                   2
                   2
                   2
                   2
                   2
                   2
                   2
                   2
                   2
                   2
                   2
                   2
                   2
                   2
                   2
                   2
                   2
                   2
                   2
                   2
                   2
                   2
                   2
                   2
                   2
                   2
                   2
                   2
                   2
                   2
                   2
                   2
                   2
                   2
                   2
                   2
                   2
                   2
                   2
                   2
                   2
                   2
                   2
                   2
                   2
                   2
                   2
                   2
                   2
                   2
                   2
                   2
                   2
                   2
                   2
                   2
                   2
                   2
                   2
                   2
                   2
                   2
                   2
                   2
                   2
                   2
                   2
                   2
                   2
                   2
                   2
                   2
                   2
                   2
                   2
                   2
                   2
                   2
                   2
                   2
                   2
                   2
                   2
                   2
                   2
                   2
                   2
                   2
                   2
                   2
                   2
                   2
                   2
                   2
                   2
                   2
                   2
                   2
                   2
                   2
                   2
                   2
                   2
                   2
                   2
                   2
                   2
                   2
                   2
                   2
                   2
                   2
                   2
                   2
                   2
                   2
                   2
                   2
                   2
                   2
                   2
                   2
                   2
                   2
                   2
                   2
                   2
                   2
                   2
                   2
                   2
                   2
                   2
                   2
                   2
                   2
                   2
                   2
                   2
                   2
                   2
                   2
                   2
                   2
                   2
                   2
                   2
                   2
                   2
                   2
                   2
                   2
                   2
                   2
                   2
                   2
                   2
                   2
                   2
                   2
                   2
                   2
                   2
                   2
                   2
                   2
                   2
                   2
                   2
                   2
                   2
                   2
                   2
                   2
                   2
                   2
                   2
                   2
                   2
                   2
                   2
                   2
                   2
                   2
                   2
                   2
                   2
                   2
                   2
                   2
                   2
                   2
                   2
                   2
                   2
                   2
                   2
                   2
                   2
                   2
                   2
                   2
                   2
                   2
                   2
                   2
                   2
                   2
                   2
                   2
                   2
                   2
                   2
                   2
                   2
                   2
                   2
                   2
                   2
                   2
                   2
                   2
                   2
                   2
                   2
                   2
                   2
                   2
                   2
                   2
                   2
                   2
                   2
                   2
                   2
                   2
                   2
                   2
                   2
                   2
                   2
                   2
                   2
                   2
                   2
                   2
                   2
                   2
                   2
                   2
                   2
                   2
                   2
                   2
                   2
                   2
                   2
                   2
                   2
                   2
                   2
                   2
                   2
                   2
                   2
                   2
                   2
                   2
                   2
                   2
                   2
                   2
                   2
                   2
                   2
                   2
                   2
                   2
                   2
                   2
                   2
                   2
                   2
                   2
                   2
                   2
                   2
                   2
                   2
                   2
                   2
                   2
                   2
                   2
                   2
                   2
                   2
                   2
                   2
                   2
                   2
                   2
                   2
                   2
                   2
                   2
                   2
                   2
                   2
                   2
                   2
                   2
                   2
                   2
                   2
                   2
                   2
                   2
                   2
                   2
                   2
                   2
                   2
                   2
                   2
                   2
                   2
                   2
                   2
                   2
                   2
                   2
                   2
                   2
                   2
                   2
                   2
                   2
                   2
                   2
                   2
                   2
                   2
                   2
                   2
                   2
                   2
                   2
                   2
                   2
                   2
                   2
                   2
                   2
                   2
                   2
                   2
                   2
                   2
                   2
                   2
                   2
                   2
                   2
                   2
                   2
                   2
                   2
                   2
                   2
                   2
                   2
                   2
                   2
                   2
                   2
                   2
                   2
                   2
                   2
                   2
                   2
                   2
                   2
                   2
                   2
                   2
                   2
                   2
                   2
                   2
                   2
                   2
                   2
                   2
                   2
                   2
                   2
                   2
                   2
                   2
                   2
                   2
                   2
                   2
                   2
                   2
                   2
                   2
                   2
                   2
                   2
                   2
                   2
                   2
                   2
                   2
                   2
                   2
                   2
                   2
                   2
                   2
                   2
                   2
                   2
                   2
                   2
                   2
                   2
                   2
                   2
                   2
                   2
                   2
                   2
                   2
                   2
                   2
                   2
                   2
                   2
                   2
                   2
                   2
                   2
                   2
                   2
                   2
                   2
                   2
                   2
                   2
                   2
                   2
                   2
                   2
                   2
                   2
                   2
                   2
                   2
                   2
                   2
                   2
                   2
                   2
                   2
                   2
                   2
                   2
                   2
                   2
                   2
                   2
                   2
                   2
                   2
                   2
                   2
                   2
                   2
                   2
                   2
                   2
                   2
                   2
                   2
                   2
                   2
                   2
                   2
                   2
                   2
                   2
                   2
                   2
                   2
                   2
                   2
                   2
                   2
                   2
                   2
                   2
                   2
                   2
                   2
                   2
                   2
                   2
                   2
                   2
                   2
                   2
                   2
                   2
                   2
                   2
                   2
                   2
                   2
                   2
                   2
                   2
                   2
                   2
                   2
                   2
                   2
                   2
                   2
                   2
                   2
                   2
                   2
                   2
                   2
                   2
                   2
                   2
                   2
                   2
                   2
                   2
                   2
                   2
                   2
                   2
                   2
                   2
                   2
                   2
                   2
                   2
                   2
                   2
                   2
                   2
                   2
                   2
                   2
                   2
                   2
                   2
                   2
                   2
                   2
                   2
                   2
                   2
                   2
                   2
                   2
                   2
                   2
                   2
                   2
                   2
                   2
                   2
                   2
                   2
                   2
                   2
                   2
                   2
                   2
                   2
                   2
                   2
                   2
                   2
                   2
                   2
                   2
                   2
                   2
                   2
                   2
                   2
                   2
                   2
                   2
                   2
                   2
                   2
                   2
                   2
                   2
                   2
                   2
                   2
                   2
                   2
                   2
                   2
                   2
                   2
                   2
                   2
                   2
                   2
                   2
                   2
                   2
                   2
                   2
                   2
                   2
                   2
                   2
                   2
                   2
                   2
                   2
                   2
                   2
                   2
                   2
                   2
                   2
                   2
                   2
                   2
                   2
                   2
                   2
                   2
                   2
                   2
                   2
                   2
                   2
                   2
                   2
                   2
                   2
                   2
                   2
                   2
                   2
                   2
                   2
                   2
                   2
                   2
                   2
                   2
                   2
                   2
                   2
                   2
                   2
                   2
                   2
                   2
                   2
                   2
                   2
                   2
                   2
                   2
                   2
                   2
                   2
                   2
                   2
                   2
                   2
                   2
                   2
                   2
                   2
                   2
                   2
                   2
                   2
                   2
                   2
                   2
                   2
                   2
                   2
                   2
                   2
                   2
                   2
                   2
                   2
                   2
                   2
                   2
                   2
                   2
                   2
                   2
                   2
                   2
                   2
                   2
                   2
                   2
                   2
                   2
                   2
                   2
                   2
                   2
                   2
                   2
                   2
                   2
                   2
                   2
                   2
                   2
                   2
                   2
                   2
                   2
                   2
                   2
                   2
                   2
                   2
                   2
                   2
                   2
                   2
                   2
                   2
                   2
                   2
                   2
                   2
                   2
                   2
                   2
                   2
                   2
                   2
                   2
                   2
                   2
                   2
                   2
                   2
                   2
                   2
                   2
                   2
                   2
                   2
                   2
                   2
                   2
                   2
                   2
                   2
                   2
                   2
                   2
                   2
                   2
                   2
                   2
                   2
                   2
                   2
                   2
                   2
                   2
                   2
                   2
                   2
                   2
                   2
                   2
                   2
                   2
                   2
                   2
                   2
                   2
                   2
                   2
                   2
                   2
                   2
                   2
                   2
                   2
                   2
                   2
                   2
                   2
                   2
                   2
                   2
                   2
                   2
                   2
                   2
                   2
                   2
                   2
                   2
                   2
                   2
                   2
                   2
                   2
                   2
                   2
                   2
                   2
                   2
                   2
                   2
                   2
                   2
                   2
                   2
                   2
                   2
                   2
                   2
                   2
                   2
                   2
                   2
                   2
                   2
                   2
                   2
                   2
                   2
                   2
                   2
                   2
                   2
                   2
                   2
                   2
                   2
                   2
                   2
                   2
                   2
                   2
                   2
                   2
                   2
                   2
                   2
                   2
                   2
                   2
                   2
                   2
                   2
                   2
                   2
                   2
                   2
                   2
                   2
                   2
                   2
                   2
                   2
                   2
                   2
                   2
                   2
                   2
                   2
                   2
                   2
                   2
                   2
                   2
                   2
                   2
                   2
                   2
                   2
                   2
                   2
                   2
                   2
                   2
                   2
                   2
                   2
                   2
                   2
                   2
                   2
                   2
                   2
                   2
                   2
                   2
                   2
                   2
                   2
                   2
                   2
                   2
                   2
                   2
                   2
                   2
                   2
                   2
                   2
                   2
                   2
                   2
                   2
                   2
                   2
                   2
                   2
                   2
                   2
                   2
                   2
                   2
                   2
                   2
                   2
                   2
                   2
                   2
                   2
                   2
                   2
                   2
                   2
                   2
                   2
                   2
                   2
                   2
                   2
                   2
                   2
                   2
                   2
                   2
                   2
                   2
                   2
                   2
                   2
                   2
                   2
                   2
                   2
                   2
                   2
                   2
                   2
                   2
                   2
                   2
                   2
                   2
                   2
                   2
                   2
                   2
                   2
                   2
                   2
                   2
                   2
                   2
                   2
                   2
                   2
                   2
                   2
                   2
                   2
                   2
                   2
                   2
                   2
                   2
                   2
                   2
                   2
                   2
                   2
                   2
                   2
                   2
                   2
                   2
                   2
                   2
                   2
                   2
                   2
                   2
                   2
                   2
                   2
                   2
                   2
                   2
                   2
                   2
                   2
                   2
                   2
                   2
                   2
                   2
                   2
                   2
                   2
                   2
                   2
                   2
                   2
                   2
                   2
                   2
                   2
                   2
                   2
                   2
                   2
                   2
                   2
                   2
                   2
                   2
                   2
                   2
                   2
                   2
                   2
                   2
                   2
                   2
                   2
                   2
                   2
                   2
                   2
                   2
                   2
                   2
                   2
                   2
                   2
                   2
                   2
                   2
                   2
                   2
                   2
                   2
                   2
                   2
                   2
                   2
                   2
                   2
                   2
                   2
                   2
                   2
                   2
                   2
                   2
                   2
                   2
                   2
                   2
                   2
                   2
                   2
                   2
                   2
                   2
                   2
                   2
                   2
                   2
                   2
                   2
                   2
                   2
                   2
                   2
                   2
                   2
                   2
                   2
                   2
                   2
                   2
                   2
                   2
                   2
                   2
                   2
                   2
                   2
                   2
                   2
                   2
                   2
                   2
                   2
                   2
                   2
                   2
                   2
                   2
                   2
                   2
                   2
                   2
                   2
                   2
                   2
                   2
                   2
                   2
                   2
                   2
                   2
                   2
                   2
                   2
                   2
                   2
                   2
                   2
                   2
                   2
                   2
                   2
                   2
                   2
                   2
                   2
                   2
                   2
                   2
                   2
                   2
                   2
                   2
                   2
                   2
                   2
                   2
                   2
                   2
                   2
                   2
                   2
                   2
                   2
                   2
                   2
                   2
                   2
                   2
                   2
                   2
                   2
                   2
                   2
                   2
                   2
                   2
                   2
                   2
                   2
                   2
                   2
                   2
                   2
                   2
                   2
                   2
                   2
                   2
                   2
                   2
                   2
                   2
                   2
                   2
                   2
                   2
                   2
                   2
                   2
                   2
                   2
                   2
                   2
                   2
                   2
                   2
                   2
                   2
                   2
                   2
                   2
                   2
                   2
                   2
                   2
                   2
                   2
                   2
                   2
                   2
                   2
                   2
                   2
                   2
                   2
                   2
                   2
                   2
                   2
                   2
                   2
                   2
                   2
                   2
                   2
                   2
                   2
                   2
                   2
                   2
                   2
                   2
                   2
                   2
                   2
                   2
                   2
                   2
                   2
                   2
                   2
                   2
                   2
                   2
                   2
                   2
                   2
                   2
                   2
                   2
                   2
                   2
                   2
                   2
                   2
                   2
                   2
                   2
                   2
                   2
                   2
                   2
                   2
                   2
                   2
                   2
                   2
                   2
                   2
                   2
                   2
                   2
                   2
                   2
                   2
                   2
                   2
                   2
                   2
                   2
                   2
                   2
                   2
                   2
                   2
                   2
                   2
                   2
                   2
                   2
                   2
                   2
                   2
                   2
                   2
                   2
                   2
                   2
                   2
                   2
                   2
                   2
                   2
                   2
                   2
                   2
                   2
                   2
                   2
                   2
                   2
                   2
                   2
                   2
                   2
                   2
                   2
                   2
                   2
                   2
                   2
                   2
                   2
                   2
                   2
                   2
                   2
                   2
                   2
                   2
                   2
                   2
                   2
                   2
                   2
                   2
                   2
                   2
                   2
                   2
                   2
                   2
                   2
                   2
  
SCALARS                       fixity_x  double 1
LOOKUP_TABLE default
                   0
                   0
                   0
                   0
                   0
                   0
                   0
                   0
                   0
                   0
                   0
                   0
                   0
                   0
                   0
                   0
                   0
                   0
                   0
                   0
                   0
                   0
                   0
                   0
                   0
                   0
                   0
                   0
                   0
                   0
                   0
                   0
                   0
                   0
                   0
                   0
                   0
                   0
                   0
                   0
                   0
                   0
                   0
                   0
                   0
                   0
                   0
                   0
                   0
                   0
                   0
                   0
                   0
                   0
                   0
                   0
                   0
                   0
                   0
                   0
                   0
                   0
                   0
                   0
                   0
                   0
                   0
                   0
                   0
                   0
                   0
                   0
                   0
                   0
                   0
                   0
                   0
                   0
                   0
                   0
                   0
                   0
                   0
                   0
                   0
                   0
                   0
                   0
                   0
                   0
                   0
                   0
                   0
                   0
                   0
                   0
                   0
                   0
                   0
                   0
                   0
                   0
                   0
                   0
                   0
                   0
                   0
                   0
                   0
                   0
                   0
                   0
                   0
                   0
                   0
                   0
                   0
                   0
                   0
                   0
                   0
                   0
                   0
                   0
                   0
                   0
                   0
                   0
                   0
                   0
                   0
                   0
                   0
                   0
                   0
                   0
                   0
                   0
                   0
                   0
                   0
                   0
                   0
                   0
                   0
                   0
                   0
                   0
                   0
                   0
                   0
                   0
                   0
                   0
                   0
                   0
                   0
                   0
                   0
                   0
                   0
                   0
                   0
                   0
                   0
                   0
                   0
                   0
                   0
                   0
                   0
                   0
                   0
                   0
                   0
                   0
                   0
                   0
                   0
                   0
                   0
                   0
                   0
                   0
                   0
                   0
                   0
                   0
                   0
                   0
                   0
                   0
                   0
                   0
                   0
                   0
                   0
                   0
                   0
                   0
                   0
                   0
                   0
                   0
                   0
                   0
                   0
                   0
                   0
                   0
                   0
                   0
                   0
                   0
                   0
                   0
                   0
                   0
                   0
                   0
                   0
                   0
                   0
                   0
                   0
                   0
                   0
                   0
                   0
                   0
                   0
                   0
                   0
                   0
                   0
                   0
                   0
                   0
                   0
                   0
                   0
                   0
                   0
                   0
                   0
                   0
                   0
                   0
                   0
                   0
                   0
                   0
                   0
                   0
                   0
                   0
                   0
                   0
                   0
                   0
                   0
                   0
                   0
                   0
                   0
                   0
                   0
                   0
                   0
                   0
                   0
                   0
                   0
                   0
                   0
                   0
                   0
                   0
                   0
                   0
                   0
                   0
                   0
                   0
                   0
                   0
                   0
                   0
                   0
                   0
                   0
                   0
                   0
                   0
                   0
                   0
                   0
                   0
                   0
                   0
                   0
                   0
                   0
                   0
                   0
                   0
                   0
                   0
                   0
                   0
                   0
                   0
                   0
                   0
                   0
                   0
                   0
                   0
                   0
                   0
                   0
                   0
                   0
                   0
                   0
                   0
                   0
                   0
                   0
                   0
                   0
                   0
                   0
                   0
                   0
                   0
                   0
                   0
                   0
                   0
                   0
                   0
                   0
                   0
                   0
                   0
                   0
                   0
                   0
                   0
                   0
                   0
                   0
                   0
                   0
                   0
                   0
                   0
                   0
                   0
                   0
                   0
                   0
                   0
                   0
                   0
                   0
                   0
                   0
                   0
                   0
                   0
                   0
                   0
                   0
                   0
                   0
                   0
                   0
                   0
                   0
                   0
                   0
                   0
                   0
                   0
                   0
                   0
                   0
                   0
                   0
                   0
                   0
                   0
                   0
                   0
                   0
                   0
                   0
                   0
                   0
                   0
                   0
                   0
                   0
                   0
                   0
                   0
                   0
                   0
                   0
                   0
                   0
                   0
                   0
                   0
                   0
                   0
                   0
                   0
                   0
                   0
                   0
                   0
                   0
                   0
                   0
                   0
                   0
                   0
                   0
                   0
                   0
                   0
                   0
                   0
                   0
                   0
                   0
                   0
                   0
                   0
                   0
                   0
                   0
                   0
                   0
                   0
                   0
                   0
                   0
                   0
                   0
                   0
                   0
                   0
                   0
                   0
                   0
                   0
                   0
                   0
                   0
                   0
                   0
                   0
                   0
                   0
                   0
                   0
                   0
                   0
                   0
                   0
                   0
                   0
                   0
                   0
                   0
                   0
                   0
                   0
                   0
                   0
                   0
                   0
                   0
                   0
                   0
                   0
                   0
                   0
                   0
                   0
                   0
                   0
                   0
                   0
                   0
                   0
                   0
                   0
                   0
                   0
                   0
                   0
                   0
                   0
                   0
                   0
                   0
                   0
                   0
                   0
                   0
                   0
                   0
                   0
                   0
                   0
                   0
                   0
                   0
                   0
                   0
                   0
                   0
                   0
                   0
                   0
                   0
                   0
                   0
                   0
                   0
                   0
                   0
                   0
                   0
                   0
                   0
                   0
                   0
                   0
                   0
                   0
                   0
                   0
                   0
                   0
                   0
                   0
                   0
                   0
                   0
                   0
                   0
                   0
                   0
                   0
                   0
                   0
                   0
                   0
                   0
                   0
                   0
                   0
                   0
                   0
                   0
                   0
                   0
                   0
                   0
                   0
                   0
                   0
                   0
                   0
                   0
                   0
                   0
                   0
                   0
                   0
                   0
                   0
                   0
                   0
                   0
                   0
                   0
                   0
                   0
                   0
                   0
                   0
                   0
                   0
                   0
                   0
                   0
                   0
                   0
                   0
                   0
                   0
                   0
                   0
                   0
                   0
                   0
                   0
                   0
                   0
                   0
                   0
                   0
                   0
                   0
                   0
                   0
                   0
                   0
                   0
                   0
                   0
                   0
                   0
                   0
                   0
                   0
                   0
                   0
                   0
                   0
                   0
                   0
                   0
                   0
                   0
                   0
                   0
                   0
                   0
                   0
                   0
                   0
                   0
                   0
                   0
                   0
                   0
                   0
                   0
                   0
                   0
                   0
                   0
                   0
                   0
                   0
                   0
                   0
                   0
                   0
                   0
                   0
                   0
                   0
                   0
                   0
                   0
                   0
                   0
                   0
                   0
                   0
                   0
                   0
                   0
                   0
                   0
                   0
                   0
                   0
                   0
                   0
                   0
                   0
                   0
                   0
                   0
                   0
                   0
                   0
                   0
                   0
                   0
                   0
                   0
                   0
                   0
                   0
                   0
                   0
                   0
                   0
                   0
                   0
                   0
                   0
                   0
                   0
                   0
                   0
                   0
                   0
                   0
                   0
                   0
                   0
                   0
                   0
                   0
                   0
                   0
                   0
                   0
                   0
                   0
                   0
                   0
                   0
                   0
                   0
                   0
                   0
                   0
                   0
                   0
                   0
                   0
                   0
                   0
                   0
                   0
                   0
                   0
                   0
                   0
                   0
                   0
                   0
                   0
                   0
                   0
                   0
                   0
                   0
                   0
                   0
                   0
                   0
                   0
                   0
                   0
                   0
                   0
                   0
                   0
                   0
                   0
                   0
                   0
                   0
                   0
                   0
                   0
                   0
                   0
                   0
                   0
                   0
                   0
                   0
                   0
                   0
                   0
                   0
                   0
                   0
                   0
                   0
                   0
                   0
                   0
                   0
                   0
                   0
                   0
                   0
                   0
                   0
                   0
                   0
                   0
                   0
                   0
                   0
                   0
                   0
                   0
                   0
                   0
                   0
                   0
                   0
                   0
                   0
                   0
                   0
                   0
                   0
                   0
                   0
                   0
                   0
                   0
                   0
                   0
                   0
                   0
                   0
                   0
                   0
                   0
                   0
                   0
                   0
                   0
                   0
                   0
                   0
                   0
                   0
                   0
                   0
                   0
                   0
                   0
                   0
                   0
                   0
                   0
                   0
                   0
                   0
                   0
                   0
                   0
                   0
                   0
                   0
                   0
                   0
                   0
                   0
                   0
                   0
                   0
                   0
                   0
                   0
                   0
                   0
                   0
                   0
                   0
                   0
                   0
                   0
                   0
                   0
                   0
                   0
                   0
                   0
                   0
                   0
                   0
                   0
                   0
                   0
                   0
                   0
                   0
                   0
                   0
                   0
                   0
                   0
                   0
                   0
                   0
                   0
                   0
                   0
                   0
                   0
                   0
                   0
                   0
                   0
                   0
                   0
                   0
                   0
                   0
                   0
                   0
                   0
                   0
                   0
                   0
                   0
                   0
                   0
                   0
                   0
                   0
                   0
                   0
                   0
                   0
                   0
                   0
                   0
                   0
                   0
                   0
                   0
                   0
                   0
                   0
                   0
                   0
                   0
                   0
                   0
                   0
                   0
                   0
                   0
                   0
                   0
                   0
                   0
                   0
                   0
                   0
                   0
                   0
                   0
                   0
                   0
                   0
                   0
                   0
                   0
                   0
                   0
                   0
                   0
                   0
                   0
                   0
                   0
                   0
                   0
                   0
                   0
                   0
                   0
                   0
                   0
                   0
                   0
                   0
                   0
                   0
                   0
                   0
                   0
                   0
                   0
                   0
                   0
                   0
                   0
                   0
                   0
                   0
                   0
                   0
                   0
                   0
                   0
                   0
                   0
                   0
                   0
                   0
                   0
                   0
                   0
                   0
                   0
                   0
                   0
                   0
                   0
                   0
                   0
                   0
                   0
                   0
                   0
                   0
                   0
                   0
                   0
                   0
                   0
                   0
                   0
                   0
                   0
                   0
                   0
                   0
                   0
                   0
                   0
                   0
                   0
                   0
                   0
                   0
                   0
                   0
                   0
                   0
                   0
                   0
                   0
                   0
                   0
                   0
                   0
                   0
                   0
                   0
                   0
                   0
                   0
                   0
                   0
                   0
                   0
                   0
                   0
                   0
                   0
                   0
                   0
                   0
                   0
                   0
                   0
                   0
                   0
                   0
                   0
                   0
                   0
                   0
                   0
                   0
                   0
                   0
                   0
                   0
                   0
                   0
                   0
                   0
                   0
                   0
                   0
                   0
                   0
                   0
                   0
                   0
                   0
                   0
                   0
                   0
                   0
                   0
                   0
                   0
                   0
                   0
                   0
                   0
                   0
                   0
                   0
                   0
                   0
                   0
                   0
                   0
                   0
                   0
                   0
                   0
                   0
                   0
                   0
                   0
                   0
                   0
                   0
                   0
                   0
                   0
                   0
                   0
                   0
                   0
                   0
                   0
                   0
                   0
                   0
                   0
                   0
                   0
                   0
                   0
                   0
                   0
                   0
                   0
                   0
                   0
                   0
                   0
                   0
                   0
                   0
                   0
                   0
                   0
                   0
                   0
                   0
                   0
                   0
                   0
                   0
                   0
                   0
                   0
                   0
                   0
                   0
                   0
                   0
                   0
                   0
                   0
                   0
                   0
                   0
                   0
                   0
                   0
                   0
                   0
                   0
                   0
                   0
                   0
                   0
                   0
                   0
                   0
                   0
                   0
                   0
                   0
                   0
                   0
                   0
                   0
                   0
                   0
                   0
                   0
                   0
                   0
                   0
                   0
                   0
                   0
                   0
                   0
                   0
                   0
                   0
                   0
                   0
                   0
                   0
                   0
                   0
                   0
                   0
                   0
                   0
                   0
                   0
                   0
                   0
                   0
                   0
                   0
                   0
                   0
                   0
                   0
                   0
                   0
                   0
                   0
                   0
                   0
                   0
                   0
                   0
                   0
                   0
                   0
                   0
                   0
                   0
                   0
                   0
                   0
                   0
                   0
                   0
                   0
                   0
                   0
                   0
                   0
                   0
                   0
                   0
                   0
                   0
                   0
                   0
                   0
                   0
                   0
                   0
                   0
                   0
                   0
                   0
                   0
                   0
                   0
                   0
                   0
                   0
                   0
                   0
                   0
                   0
                   0
                   0
                   0
                   0
                   0
                   0
                   0
                   0
                   0
                   0
                   0
                   0
                   0
                   0
                   0
                   0
                   0
                   0
                   0
                   0
                   0
                   0
                   0
                   0
                   0
                   0
                   0
                   0
                   0
                   0
                   0
                   0
                   0
                   0
                   0
                   0
                   0
                   0
                   0
                   0
                   0
                   0
                   0
                   0
                   0
                   0
                   0
                   0
                   0
                   0
                   0
                   0
                   0
                   0
                   0
                   0
                   0
                   0
                   0
                   0
                   0
                   0
                   0
                   0
                   0
                   0
                   0
                   0
                   0
                   0
                   0
                   0
                   0
                   0
                   0
                   0
                   0
                   0
                   0
                   0
                   0
                   0
                   0
                   0
                   0
                   0
                   0
                   0
                   0
                   0
                   0
                   0
                   0
                   0
                   0
                   0
                   0
                   0
                   0
                   0
                   0
                   0
                   0
                   0
                   0
                   0
                   0
                   0
                   0
                   0
                   0
                   0
                   0
                   0
                   0
                   0
                   0
                   0
                   0
                   0
                   0
                   0
                   0
                   0
                   0
                   0
                   0
                   0
                   0
                   0
                   0
                   0
                   0
                   0
                   0
                   0
                   0
                   0
                   0
                   0
                   0
                   0
                   0
                   0
                   0
                   0
                   0
                   0
                   0
                   0
                   0
                   0
                   0
                   0
                   0
                   0
                   0
                   0
                   0
                   0
                   0
                   0
                   0
                   0
                   0
                   0
                   0
                   0
                   0
                   0
                   0
                   0
                   0
                   0
                   0
                   0
                   0
                   0
                   0
                   0
                   0
                   0
                   0
                   0
                   0
                   0
                   0
                   0
                   0
                   0
                   0
                   0
                   0
                   0
                   0
                   0
                   0
                   0
                   0
                   0
                   0
                   0
                   0
                   0
                   0
                   0
                   0
                   0
                   0
                   0
                   0
                   0
                   0
                   0
                   0
                   0
                   0
                   0
                   0
                   0
                   0
                   0
                   0
                   0
                   0
                   0
                   0
                   0
                   0
                   0
                   0
                   0
                   0
                   0
                   0
                   0
                   0
                   0
                   0
                   0
                   0
                   0
                   0
                   0
                   0
                   0
                   0
                   0
                   0
                   0
                   0
                   0
                   0
                   0
                   0
                   0
                   0
                   0
                   0
                   0
                   0
                   0
                   0
                   0
                   0
                   0
                   0
                   0
                   0
                   0
                   0
                   0
                   0
                   0
                   0
                   0
                   0
                   0
                   0
                   0
                   0
                   0
                   0
                   0
                   0
                   0
                   0
                   0
                   0
                   0
                   0
                   0
                   0
                   0
                   0
                   0
                   0
                   0
                   0
                   0
                   0
                   0
                   0
                   0
                   0
                   0
                   0
                   0
                   0
                   0
                   0
                   0
                   0
                   0
                   0
                   0
                   0
                   0
                   0
                   0
                   0
                   0
                   0
                   0
                   0
                   0
                   0
                   0
                   0
                   0
                   0
                   0
                   0
                   0
                   0
                   0
                   0
                   0
                   0
                   0
                   0
                   0
                   0
                   0
                   0
                   0
                   0
                   0
                   0
                   0
                   0
                   0
                   0
                   0
                   0
                   0
                   0
                   0
                   0
                   0
                   0
                   0
                   0
                   0
                   0
                   0
                   0
                   0
                   0
                   0
                   0
                   0
                   0
                   0
                   0
                   0
                   0
                   0
                   0
                   0
                   0
                   0
                   0
                   0
                   0
                   0
                   0
                   0
                   0
                   0
                   0
                   0
                   0
                   0
                   0
                   0
                   0
                   0
                   0
                   0
                   0
                   0
                   0
                   0
                   0
                   0
                   0
                   0
                   0
                   0
                   0
                   0
                   0
                   0
                   0
                   0
                   0
                   0
                   0
                   0
                   0
                   0
                   0
                   0
                   0
                   0
                   0
                   0
                   0
                   0
                   0
                   0
                   0
                   0
                   0
                   0
                   0
                   0
                   0
                   0
                   0
                   0
                   0
                   0
                   0
                   0
                   0
                   0
                   0
                   0
                   0
                   0
                   0
                   0
                   0
                   0
                   0
                   0
                   0
                   0
                   0
                   0
                   0
                   0
                   0
                   0
                   0
                   0
                   0
                   0
                   0
                   0
                   0
                   0
                   0
                   0
                   0
                   0
                   0
                   0
                   0
                   0
                   0
                   0
                   0
                   0
                   0
                   0
                   0
                   0
                   0
                   0
                   0
                   0
                   0
                   0
                   0
                   0
                   0
                   0
                   0
                   0
                   0
                   0
                   0
                   0
                   0
                   0
                   0
                   0
                   0
                   0
                   0
                   0
                   0
                   0
                   0
                   0
                   0
                   0
                   0
                   0
                   0
                   0
                   0
                   0
                   0
                   0
                   0
                   0
                   0
                   0
                   0
                   0
                   0
                   0
                   0
                   0
                   0
                   0
                   0
                   0
                   0
                   0
                   0
                   0
                   0
                   0
                   0
                   0
                   0
                   0
                   0
                   0
                   0
                   0
                   0
                   0
                   0
                   0
                   0
                   0
                   0
                   0
                   0
                   0
                   0
                   0
                   0
                   0
                   0
                   0
                   0
                   0
                   0
                   0
                   0
                   0
                   0
                   0
                   0
                   0
                   0
                   0
                   0
                   0
                   0
                   0
                   0
                   0
                   0
                   0
                   0
                   0
                   0
                   0
                   0
                   0
                   0
                   0
                   0
                   0
                   0
                   0
                   0
                   0
                   0
                   0
                   0
                   0
                   0
                   0
                   0
                   0
                   0
                   0
                   0
                   0
                   0
                   0
                   0
                   0
                   0
                   0
                   0
                   0
                   0
                   0
                   0
                   0
                   0
                   0
                   0
                   0
                   0
                   0
                   0
                   0
                   0
                   0
                   0
                   0
                   0
                   0
                   0
                   0
                   0
                   0
                   0
                   0
                   0
                   0
                   0
  
SCALARS                       fixity_y  double 1
LOOKUP_TABLE default
                   0
                   0
                   0
                   0
                   0
                   0
                   0
                   0
                   0
                   0
                   0
                   0
                   0
                   0
                   0
                   0
                   0
                   0
                   0
                   0
                   0
                   0
                   0
                   0
                   0
                   0
                   0
                   0
                   0
                   0
                   0
                   0
                   0
                   0
                   0
                   0
                   0
                   0
                   0
                   0
                   0
                   0
                   0
                   0
                   0
                   0
                   0
                   0
                   0
                   0
                   0
                   0
                   0
                   0
                   0
                   0
                   0
                   0
                   0
                   0
                   0
                   0
                   0
                   0
                   0
                   0
                   0
                   0
                   0
                   0
                   0
                   0
                   0
                   0
                   0
                   0
                   0
                   0
                   0
                   0
                   0
                   0
                   0
                   0
                   0
                   0
                   0
                   0
                   0
                   0
                   0
                   0
                   0
                   0
                   0
                   0
                   0
                   0
                   0
                   0
                   0
                   0
                   0
                   0
                   0
                   0
                   0
                   0
                   0
                   0
                   0
                   0
                   0
                   0
                   0
                   0
                   0
                   0
                   0
                   0
                   0
                   0
                   0
                   0
                   0
                   0
                   0
                   0
                   0
                   0
                   0
                   0
                   0
                   0
                   0
                   0
                   0
                   0
                   0
                   0
                   0
                   0
                   0
                   0
                   0
                   0
                   0
                   0
                   0
                   0
                   0
                   0
                   0
                   0
                   0
                   0
                   0
                   0
                   0
                   0
                   0
                   0
                   0
                   0
                   0
                   0
                   0
                   0
                   0
                   0
                   0
                   0
                   0
                   0
                   0
                   0
                   0
                   0
                   0
                   0
                   0
                   0
                   0
                   0
                   0
                   0
                   0
                   0
                   0
                   0
                   0
                   0
                   0
                   0
                   0
                   0
                   0
                   0
                   0
                   0
                   0
                   0
                   0
                   0
                   0
                   0
                   0
                   0
                   0
                   0
                   0
                   0
                   0
                   0
                   0
                   0
                   0
                   0
                   0
                   0
                   0
                   0
                   0
                   0
                   0
                   0
                   0
                   0
                   0
                   0
                   0
                   0
                   0
                   0
                   0
                   0
                   0
                   0
                   0
                   0
                   0
                   0
                   0
                   0
                   0
                   0
                   0
                   0
                   0
                   0
                   0
                   0
                   0
                   0
                   0
                   0
                   0
                   0
                   0
                   0
                   0
                   0
                   0
                   0
                   0
                   0
                   0
                   0
                   0
                   0
                   0
                   0
                   0
                   0
                   0
                   0
                   0
                   0
                   0
                   0
                   0
                   0
                   0
                   0
                   0
                   0
                   0
                   0
                   0
                   0
                   0
                   0
                   0
                   0
                   0
                   0
                   0
                   0
                   0
                   0
                   0
                   0
                   0
                   0
                   0
                   0
                   0
                   0
                   0
                   0
                   0
                   0
                   0
                   0
                   0
                   0
                   0
                   0
                   0
                   0
                   0
                   0
                   0
                   0
                   0
                   0
                   0
                   0
                   0
                   0
                   0
                   0
                   0
                   0
                   0
                   0
                   0
                   0
                   0
                   0
                   0
                   0
                   0
                   0
                   0
                   0
                   0
                   0
                   0
                   0
                   0
                   0
                   0
                   0
                   0
                   0
                   0
                   0
                   0
                   0
                   0
                   0
                   0
                   0
                   0
                   0
                   0
                   0
                   0
                   0
                   0
                   0
                   0
                   0
                   0
                   0
                   0
                   0
                   0
                   0
                   0
                   0
                   0
                   0
                   0
                   0
                   0
                   0
                   0
                   0
                   0
                   0
                   0
                   0
                   0
                   0
                   0
                   0
                   0
                   0
                   0
                   0
                   0
                   0
                   0
                   0
                   0
                   0
                   0
                   0
                   0
                   0
                   0
                   0
                   0
                   0
                   0
                   0
                   0
                   0
                   0
                   0
                   0
                   0
                   0
                   0
                   0
                   0
                   0
                   0
                   0
                   0
                   0
                   0
                   0
                   0
                   0
                   0
                   0
                   0
                   0
                   0
                   0
                   0
                   0
                   0
                   0
                   0
                   0
                   0
                   0
                   0
                   0
                   0
                   0
                   0
                   0
                   0
                   0
                   0
                   0
                   0
                   0
                   0
                   0
                   0
                   0
                   0
                   0
                   0
                   0
                   0
                   0
                   0
                   0
                   0
                   0
                   0
                   0
                   0
                   0
                   0
                   0
                   0
                   0
                   0
                   0
                   0
                   0
                   0
                   0
                   0
                   0
                   0
                   0
                   0
                   0
                   0
                   0
                   0
                   0
                   0
                   0
                   0
                   0
                   0
                   0
                   0
                   0
                   0
                   0
                   0
                   0
                   0
                   0
                   0
                   0
                   0
                   0
                   0
                   0
                   0
                   0
                   0
                   0
                   0
                   0
                   0
                   0
                   0
                   0
                   0
                   0
                   0
                   0
                   0
                   0
                   0
                   0
                   0
                   0
                   0
                   0
                   0
                   0
                   0
                   0
                   0
                   0
                   0
                   0
                   0
                   0
                   0
                   0
                   0
                   0
                   0
                   0
                   0
                   0
                   0
                   0
                   0
                   0
                   0
                   0
                   0
                   0
                   0
                   0
                   0
                   0
                   0
                   0
                   0
                   0
                   0
                   0
                   0
                   0
                   0
                   0
                   0
                   0
                   0
                   0
                   0
                   0
                   0
                   0
                   0
                   0
                   0
                   0
                   0
                   0
                   0
                   0
                   0
                   0
                   0
                   0
                   0
                   0
                   0
                   0
                   0
                   0
                   0
                   0
                   0
                   0
                   0
                   0
                   0
                   0
                   0
                   0
                   0
                   0
                   0
                   0
                   0
                   0
                   0
                   0
                   0
                   0
                   0
                   0
                   0
                   0
                   0
                   0
                   0
                   0
                   0
                   0
                   0
                   0
                   0
                   0
                   0
                   0
                   0
                   0
                   0
                   0
                   0
                   0
                   0
                   0
                   0
                   0
                   0
                   0
                   0
                   0
                   0
                   0
                   0
                   0
                   0
                   0
                   0
                   0
                   0
                   0
                   0
                   0
                   0
                   0
                   0
                   0
                   0
                   0
                   0
                   0
                   0
                   0
                   0
                   0
                   0
                   0
                   0
                   0
                   0
                   0
                   0
                   0
                   0
                   0
                   0
                   0
                   0
                   0
                   0
                   0
                   0
                   0
                   0
                   0
                   0
                   0
                   0
                   0
                   0
                   0
                   0
                   0
                   0
                   0
                   0
                   0
                   0
                   0
                   0
                   0
                   0
                   0
                   0
                   0
                   0
                   0
                   0
                   0
                   0
                   0
                   0
                   0
                   0
                   0
                   0
                   0
                   0
                   0
                   0
                   0
                   0
                   0
                   0
                   0
                   0
                   0
                   0
                   0
                   0
                   0
                   0
                   0
                   0
                   0
                   0
                   0
                   0
                   0
                   0
                   0
                   0
                   0
                   0
                   0
                   0
                   0
                   0
                   0
                   0
                   0
                   0
                   0
                   0
                   0
                   0
                   0
                   0
                   0
                   0
                   0
                   0
                   0
                   0
                   0
                   0
                   0
                   0
                   0
                   0
                   0
                   0
                   0
                   0
                   0
                   0
                   0
                   0
                   0
                   0
                   0
                   0
                   0
                   0
                   0
                   0
                   0
                   0
                   0
                   0
                   0
                   0
                   0
                   0
                   0
                   0
                   0
                   0
                   0
                   0
                   0
                   0
                   0
                   0
                   0
                   0
                   0
                   0
                   0
                   0
                   0
                   0
                   0
                   0
                   0
                   0
                   0
                   0
                   0
                   0
                   0
                   0
                   0
                   0
                   0
                   0
                   0
                   0
                   0
                   0
                   0
                   0
                   0
                   0
                   0
                   0
                   0
                   0
                   0
                   0
                   0
                   0
                   0
                   0
                   0
                   0
                   0
                   0
                   0
                   0
                   0
                   0
                   0
                   0
                   0
                   0
                   0
                   0
                   0
                   0
                   0
                   0
                   0
                   0
                   0
                   0
                   0
                   0
                   0
                   0
                   0
                   0
                   0
                   0
                   0
                   0
                   0
                   0
                   0
                   0
                   0
                   0
                   0
                   0
                   0
                   0
                   0
                   0
                   0
                   0
                   0
                   0
                   0
                   0
                   0
                   0
                   0
                   0
                   0
                   0
                   0
                   0
                   0
                   0
                   0
                   0
                   0
                   0
                   0
                   0
                   0
                   0
                   0
                   0
                   0
                   0
                   0
                   0
                   0
                   0
                   0
                   0
                   0
                   0
                   0
                   0
                   0
                   0
                   0
                   0
                   0
                   0
                   0
                   0
                   0
                   0
                   0
                   0
                   0
                   0
                   0
                   0
                   0
                   0
                   0
                   0
                   0
                   0
                   0
                   0
                   0
                   0
                   0
                   0
                   0
                   0
                   0
                   0
                   0
                   0
                   0
                   0
                   0
                   0
                   0
                   0
                   0
                   0
                   0
                   0
                   0
                   0
                   0
                   0
                   0
                   0
                   0
                   0
                   0
                   0
                   0
                   0
                   0
                   0
                   0
                   0
                   0
                   0
                   0
                   0
                   0
                   0
                   0
                   0
                   0
                   0
                   0
                   0
                   0
                   0
                   0
                   0
                   0
                   0
                   0
                   0
                   0
                   0
                   0
                   0
                   0
                   0
                   0
                   0
                   0
                   0
                   0
                   0
                   0
                   0
                   0
                   0
                   0
                   0
                   0
                   0
                   0
                   0
                   0
                   0
                   0
                   0
                   0
                   0
                   0
                   0
                   0
                   0
                   0
                   0
                   0
                   0
                   0
                   0
                   0
                   0
                   0
                   0
                   0
                   0
                   0
                   0
                   0
                   0
                   0
                   0
                   0
                   0
                   0
                   0
                   0
                   0
                   0
                   0
                   0
                   0
                   0
                   0
                   0
                   0
                   0
                   0
                   0
                   0
                   0
                   0
                   0
                   0
                   0
                   0
                   0
                   0
                   0
                   0
                   0
                   0
                   0
                   0
                   0
                   0
                   0
                   0
                   0
                   0
                   0
                   0
                   0
                   0
                   0
                   0
                   0
                   0
                   0
                   0
                   0
                   0
                   0
                   0
                   0
                   0
                   0
                   0
                   0
                   0
                   0
                   0
                   0
                   0
                   0
                   0
                   0
                   0
                   0
                   0
                   0
                   0
                   0
                   0
                   0
                   0
                   0
                   0
                   0
                   0
                   0
                   0
                   0
                   0
                   0
                   0
                   0
                   0
                   0
                   0
                   0
                   0
                   0
                   0
                   0
                   0
                   0
                   0
                   0
                   0
                   0
                   0
                   0
                   0
                   0
                   0
                   0
                   0
                   0
                   0
                   0
                   0
                   0
                   0
                   0
                   0
                   0
                   0
                   0
                   0
                   0
                   0
                   0
                   0
                   0
                   0
                   0
                   0
                   0
                   0
                   0
                   0
                   0
                   0
                   0
                   0
                   0
                   0
                   0
                   0
                   0
                   0
                   0
                   0
                   0
                   0
                   0
                   0
                   0
                   0
                   0
                   0
                   0
                   0
                   0
                   0
                   0
                   0
                   0
                   0
                   0
                   0
                   0
                   0
                   0
                   0
                   0
                   0
                   0
                   0
                   0
                   0
                   0
                   0
                   0
                   0
                   0
                   0
                   0
                   0
                   0
                   0
                   0
                   0
                   0
                   0
                   0
                   0
                   0
                   0
                   0
                   0
                   0
                   0
                   0
                   0
                   0
                   0
                   0
                   0
                   0
                   0
                   0
                   0
                   0
                   0
                   0
                   0
                   0
                   0
                   0
                   0
                   0
                   0
                   0
                   0
                   0
                   0
                   0
                   0
                   0
                   0
                   0
                   0
                   0
                   0
                   0
                   0
                   0
                   0
                   0
                   0
                   0
                   0
                   0
                   0
                   0
                   0
                   0
                   0
                   0
                   0
                   0
                   0
                   0
                   0
                   0
                   0
                   0
                   0
                   0
                   0
                   0
                   0
                   0
                   0
                   0
                   0
                   0
                   0
                   0
                   0
                   0
                   0
                   0
                   0
                   0
                   0
                   0
                   0
                   0
                   0
                   0
                   0
                   0
                   0
                   0
                   0
                   0
                   0
                   0
                   0
                   0
                   0
                   0
                   0
                   0
                   0
                   0
                   0
                   0
                   0
                   0
                   0
                   0
                   0
                   0
                   0
                   0
                   0
                   0
                   0
                   0
                   0
                   0
                   0
                   0
                   0
                   0
                   0
                   0
                   0
                   0
                   0
                   0
                   0
                   0
                   0
                   0
                   0
                   0
                   0
                   0
                   0
                   0
                   0
                   0
                   0
                   0
                   0
                   0
                   0
                   0
                   0
                   0
                   0
                   0
                   0
                   0
                   0
                   0
                   0
                   0
                   0
                   0
                   0
                   0
                   0
                   0
                   0
                   0
                   0
                   0
                   0
                   0
                   0
                   0
                   0
                   0
                   0
                   0
                   0
                   0
                   0
                   0
                   0
                   0
                   0
                   0
                   0
                   0
                   0
                   0
                   0
                   0
                   0
                   0
                   0
                   0
                   0
                   0
                   0
                   0
                   0
                   0
                   0
                   0
                   0
                   0
                   0
                   0
                   0
                   0
                   0
                   0
                   0
                   0
                   0
                   0
                   0
                   0
                   0
                   0
                   0
                   0
                   0
                   0
                   0
                   0
                   0
                   0
                   0
                   0
                   0
                   0
                   0
                   0
                   0
                   0
                   0
                   0
                   0
                   0
                   0
                   0
                   0
                   0
                   0
                   0
                   0
                   0
                   0
                   0
                   0
                   0
                   0
                   0
                   0
                   0
                   0
                   0
                   0
                   0
                   0
                   0
                   0
                   0
                   0
                   0
                   0
                   0
                   0
                   0
                   0
                   0
                   0
                   0
                   0
                   0
                   0
                   0
                   0
                   0
                   0
                   0
                   0
                   0
                   0
                   0
                   0
                   0
                   0
                   0
                   0
                   0
                   0
                   0
                   0
                   0
                   0
                   0
                   0
                   0
                   0
                   0
                   0
                   0
                   0
                   0
                   0
                   0
                   0
                   0
                   0
                   0
                   0
                   0
                   0
                   0
                   0
                   0
                   0
                   0
                   0
                   0
                   0
                   0
                   0
                   0
                   0
                   0
                   0
                   0
                   0
                   0
                   0
                   0
                   0
                   0
                   0
                   0
                   0
                   0
                   0
                   0
                   0
                   0
                   0
                   0
                   0
                   0
                   0
                   0
                   0
                   0
                   0
                   0
                   0
                   0
                   0
                   0
                   0
                   0
                   0
                   0
                   0
                   0
                   0
                   0
                   0
                   0
                   0
                   0
                   0
                   0
                   0
                   0
                   0
                   0
                   0
                   0
                   0
                   0
                   0
                   0
                   0
                   0
                   0
                   0
                   0
                   0
                   0
                   0
                   0
                   0
                   0
                   0
                   0
                   0
                   0
                   0
                   0
                   0
                   0
                   0
                   0
                   0
                   0
                   0
                   0
                   0
                   0
                   0
                   0
                   0
                   0
                   0
                   0
                   0
                   0
                   0
                   0
                   0
                   0
                   0
                   0
                   0
                   0
                   0
                   0
                   0
                   0
                   0
                   0
                   0
                   0
                   0
                   0
                   0
                   0
                   0
                   0
                   0
                   0
                   0
                   0
                   0
                   0
                   0
                   0
                   0
                   0
                   0
                   0
                   0
                   0
                   0
                   0
                   0
                   0
                   0
                   0
                   0
                   0
                   0
                   0
                   0
                   0
                   0
                   0
                   0
                   0
                   0
                   0
                   0
                   0
                   0
                   0
                   0
                   0
                   0
                   0
                   0
                   0
                   0
                   0
                   0
                   0
                   0
                   0
                   0
                   0
                   0
                   0
                   0
                   0
                   0
                   0
                   0
                   0
                   0
                   0
                   0
                   0
                   0
                   0
                   0
                   0
                   0
                   0
                   0
                   0
                   0
                   0
                   0
                   0
                   0
                   0
                   0
                   0
                   0
                   0
                   0
                   0
                   0
                   0
                   0
                   0
                   0
                   0
                   0
                   0
                   0
                   0
                   0
                   0
                   0
                   0
                   0
                   0
                   0
                   0
                   0
                   0
                   0
                   0
                   0
                   0
                   0
                   0
                   0
                   0
                   0
                   0
                   0
                   0
                   0
                   0
                   0
                   0
                   0
                   0
                   0
                   0
                   0
                   0
                   0
                   0
                   0
                   0
                   0
                   0
                   0
                   0
                   0
                   0
                   0
                   0
                   0
                   0
                   0
                   0
                   0
                   0
                   0
                   0
                   0
                   0
                   0
                   0
                   0
                   0
                   0
                   0
                   0
                   0
                   0
                   0
                   0
                   0
                   0
                   0
                   0
                   0
                   0
                   0
                   0
                   0
                   0
                   0
                   0
                   0
                   0
                   0
                   0
                   0
                   0
                   0
                   0
                   0
                   0
                   0
                   0
                   0
                   0
                   0
                   0
                   0
                   0
                   0
                   0
                   0
                   0
                   0
                   0
                   0
                   0
                   0
                   0
                   0
                   0
                   0
                   0
                   0
                   0
                   0
                   0
                   0
                   0
                   0
                   0
                   0
                   0
                   0
                   0
                   0
                   0
                   0
                   0
                   0
                   0
                   0
                   0
                   0
                   0
                   0
                   0
                   0
                   0
                   0
                   0
                   0
                   0
                   0
                   0
                   0
                   0
                   0
                   0
                   0
                   0
                   0
                   0
                   0
                   0
                   0
                   0
                   0
                   0
                   0
                   0
                   0
                   0
                   0
                   0
                   0
                   0
                   0
  
SCALARS                       fixity_z  double 1
LOOKUP_TABLE default
                   0
                   0
                   0
                   0
                   1
                   1
                   1
                   1
                   0
                   0
                   1
                   1
                   0
                   0
                   1
                   1
                   0
                   0
                   1
                   1
                   0
                   0
                   0
                   1
                   1
                   1
                   0
                   0
                   1
                   1
                   0
                   0
                   0
                   1
                   1
                   1
                   0
                   0
                   1
                   1
                   0
                   0
                   1
                   1
                   0
                   0
                   1
                   1
                   0
                   1
                   0
                   1
                   0
                   1
                   0
                   1
                   0
                   0
                   1
                   1
                   0
                   0
                   1
                   1
                   0
                   1
                   0
                   1
                   0
                   0
                   1
                   1
                   0
                   1
                   0
                   1
                   0
                   1
                   0
                   1
                   0
                   0
                   1
                   1
                   0
                   1
                   0
                   1
                   0
                   1
                   0
                   0
                   1
                   1
                   0
                   1
                   0
                   1
                   0
                   1
                   0
                   0
                   1
                   1
                   0
                   0
                   1
                   1
                   0
                   1
                   0
                   1
                   0
                   1
                   0
                   1
                   0
                   1
                   0
                   1
                   0
                   1
                   0
                   1
                   0
                   1
                   0
                   1
                   0
                   1
                   0
                   1
                   0
                   1
                   0
                   1
                   0
                   1
                   0
                   1
                   0
                   1
                   0
                   1
                   0
                   1
                   0
                   1
                   0
                   1
                   0
                   1
                   0
                   1
                   0
                   1
                   0
                   0
                   0
                   0
                   0
                   0
                   0
                   0
                   0
                   0
                   0
                   0
                   0
                   0
                   0
                   0
                   0
                   0
                   0
                   0
                   0
                   0
                   0
                   0
                   0
                   0
                   0
                   0
                   0
                   0
                   0
                   0
                   0
                   0
                   0
                   0
                   0
                   0
                   0
                   0
                   0
                   0
                   0
                   0
                   0
                   0
                   0
                   0
                   0
                   0
                   0
                   0
                   0
                   0
                   0
                   0
                   0
                   0
                   0
                   0
                   0
                   0
                   0
                   0
                   0
                   0
                   0
                   0
                   0
                   0
                   0
                   0
                   0
                   0
                   0
                   0
                   0
                   0
                   0
                   0
                   0
                   0
                   0
                   0
                   0
                   0
                   0
                   0
                   0
                   0
                   0
                   0
                   0
                   0
                   0
                   0
                   0
                   0
                   0
                   0
                   0
                   0
                   0
                   0
                   0
                   0
                   0
                   0
                   0
                   0
                   0
                   0
                   0
                   0
                   0
                   0
                   0
                   0
                   0
                   0
                   0
                   0
                   0
                   0
                   0
                   0
                   0
                   0
                   0
                   0
                   0
                   0
                   0
                   0
                   0
                   0
                   0
                   0
                   0
                   0
                   0
                   0
                   0
                   0
                   0
                   0
                   0
                   0
                   0
                   0
                   0
                   0
                   0
                   0
                   0
                   0
                   0
                   0
                   0
                   0
                   0
                   0
                   0
                   0
                   0
                   0
                   0
                   0
                   0
                   0
                   0
                   0
                   0
                   0
                   0
                   0
                   0
                   0
                   0
                   0
                   0
                   0
                   0
                   0
                   0
                   0
                   0
                   0
                   0
                   0
                   0
                   0
                   0
                   0
                   0
                   0
                   0
                   0
                   0
                   0
                   0
                   0
                   0
                   0
                   0
                   0
                   0
                   0
                   0
                   0
                   0
                   0
                   0
                   0
                   0
                   0
                   0
                   0
                   0
                   0
                   0
                   0
                   0
                   0
                   0
                   0
                   0
                   0
                   0
                   0
                   0
                   0
                   0
                   0
                   0
                   0
                   0
                   0
                   0
                   0
                   0
                   0
                   0
                   0
                   0
                   0
                   0
                   0
                   0
                   0
                   0
                   0
                   0
                   0
                   0
                   0
                   0
                   0
                   0
                   0
                   0
                   0
                   0
                   0
                   0
                   0
                   0
                   0
                   0
                   0
                   0
                   0
                   0
                   0
                   0
                   0
                   0
                   0
                   0
                   0
                   0
                   0
                   0
                   0
                   0
                   0
                   0
                   0
                   0
                   0
                   0
                   0
                   0
                   0
                   0
                   0
                   0
                   0
                   0
                   0
                   0
                   0
                   0
                   0
                   0
                   0
                   0
                   0
                   0
                   0
                   0
                   0
                   0
                   0
                   0
                   0
                   0
                   0
                   0
                   0
                   0
                   0
                   0
                   0
                   0
                   0
                   0
                   0
                   0
                   0
                   0
                   0
                   0
                   0
                   0
                   0
                   0
                   0
                   0
                   0
                   0
                   0
                   0
                   0
                   0
                   0
                   0
                   0
                   0
                   0
                   0
                   0
                   0
                   0
                   0
                   0
                   0
                   0
                   0
                   0
                   0
                   0
                   0
                   0
                   0
                   0
                   0
                   0
                   0
                   0
                   0
                   0
                   0
                   0
                   0
                   0
                   0
                   0
                   0
                   0
                   0
                   0
                   0
                   0
                   0
                   0
                   0
                   0
                   0
                   0
                   0
                   0
                   0
                   0
                   0
                   0
                   0
                   0
                   0
                   0
                   0
                   0
                   0
                   0
                   0
                   0
                   0
                   0
                   0
                   0
                   0
                   0
                   0
                   0
                   0
                   0
                   0
                   0
                   0
                   0
                   0
                   0
                   0
                   0
                   0
                   0
                   0
                   0
                   0
                   0
                   0
                   0
                   0
                   0
                   0
                   0
                   0
                   0
                   0
                   0
                   0
                   0
                   0
                   0
                   0
                   0
                   0
                   0
                   0
                   0
                   0
                   0
                   0
                   0
                   0
                   0
                   0
                   0
                   0
                   0
                   0
                   0
                   0
                   0
                   0
                   0
                   0
                   0
                   0
                   0
                   0
                   0
                   0
                   0
                   0
                   0
                   0
                   0
                   0
                   0
                   0
                   0
                   0
                   0
                   0
                   0
                   0
                   0
                   0
                   0
                   0
                   0
                   0
                   0
                   0
                   0
                   0
                   0
                   0
                   0
                   0
                   0
                   0
                   0
                   0
                   0
                   0
                   0
                   0
                   0
                   0
                   0
                   0
                   0
                   0
                   0
                   0
                   0
                   0
                   0
                   0
                   0
                   0
                   0
                   0
                   0
                   0
                   0
                   0
                   0
                   0
                   0
                   0
                   0
                   0
                   0
                   0
                   0
                   0
                   0
                   0
                   0
                   0
                   0
                   0
                   0
                   0
                   0
                   0
                   0
                   0
                   0
                   0
                   0
                   0
                   0
                   0
                   0
                   0
                   0
                   0
                   0
                   0
                   0
                   0
                   0
                   0
                   0
                   0
                   0
                   0
                   0
                   0
                   0
                   0
                   0
                   0
                   0
                   0
                   0
                   0
                   0
                   0
                   0
                   0
                   0
                   0
                   0
                   0
                   0
                   0
                   0
                   0
                   0
                   0
                   0
                   0
                   0
                   0
                   0
                   0
                   0
                   0
                   0
                   0
                   0
                   0
                   0
                   0
                   0
                   0
                   0
                   0
                   0
                   0
                   0
                   0
                   0
                   0
                   0
                   0
                   0
                   0
                   0
                   0
                   0
                   0
                   0
                   0
                   0
                   0
                   0
                   0
                   0
                   0
                   0
                   0
                   0
                   0
                   0
                   0
                   0
                   0
                   0
                   0
                   0
                   0
                   0
                   0
                   0
                   0
                   0
                   0
                   0
                   0
                   0
                   0
                   0
                   0
                   0
                   0
                   0
                   0
                   0
                   0
                   0
                   0
                   0
                   0
                   0
                   0
                   0
                   0
                   0
                   0
                   0
                   0
                   0
                   0
                   0
                   0
                   0
                   0
                   0
                   0
                   0
                   0
                   0
                   0
                   0
                   0
                   0
                   0
                   0
                   0
                   0
                   0
                   0
                   0
                   0
                   0
                   0
                   0
                   0
                   0
                   0
                   0
                   0
                   0
                   0
                   0
                   0
                   0
                   0
                   0
                   0
                   0
                   0
                   0
                   0
                   0
                   0
                   0
                   0
                   0
                   0
                   0
                   0
                   0
                   0
                   0
                   0
                   0
                   0
                   0
                   0
                   0
                   0
                   0
                   0
                   0
                   0
                   0
                   0
                   0
                   0
                   0
                   0
                   0
                   0
                   0
                   0
                   0
                   0
                   0
                   0
                   0
                   0
                   0
                   0
                   0
                   0
                   0
                   0
                   0
                   0
                   0
                   0
                   0
                   0
                   0
                   0
                   0
                   0
                   0
                   0
                   0
                   0
                   0
                   0
                   0
                   0
                   0
                   0
                   0
                   0
                   0
                   0
                   0
                   0
                   0
                   0
                   0
                   0
                   0
                   0
                   0
                   0
                   0
                   0
                   0
                   0
                   0
                   0
                   0
                   0
                   0
                   0
                   0
                   0
                   0
                   0
                   0
                   0
                   0
                   0
                   0
                   0
                   0
                   0
                   0
                   0
                   0
                   0
                   0
                   0
                   0
                   0
                   0
                   0
                   0
                   0
                   0
                   0
                   0
                   0
                   0
                   0
                   0
                   0
                   0
                   0
                   0
                   0
                   0
                   0
                   0
                   0
                   0
                   0
                   0
                   0
                   0
                   0
                   0
                   0
                   0
                   0
                   0
                   0
                   0
                   0
                   0
                   0
                   0
                   0
                   0
                   0
                   0
                   0
                   0
                   0
                   0
                   0
                   0
                   0
                   0
                   0
                   0
                   0
                   0
                   0
                   0
                   0
                   0
                   0
                   0
                   0
                   0
                   0
                   0
                   0
                   0
                   0
                   0
                   0
                   0
                   0
                   0
                   0
                   0
                   0
                   0
                   0
                   0
                   0
                   0
                   0
                   0
                   0
                   0
                   0
                   0
                   0
                   0
                   0
                   0
                   0
                   0
                   0
                   0
                   0
                   0
                   0
                   0
                   0
                   0
                   0
                   0
                   0
                   0
                   0
                   0
                   0
                   0
                   0
                   0
                   0
                   0
                   0
                   0
                   0
                   0
                   0
                   0
                   0
                   0
                   0
                   0
                   0
                   0
                   0
                   0
                   0
                   0
                   0
                   0
                   0
                   0
                   0
                   0
                   0
                   0
                   0
                   0
                   0
                   0
                   0
                   0
                   0
                   0
                   0
                   0
                   0
                   0
                   0
                   0
                   0
                   0
                   0
                   0
                   0
                   0
                   0
                   0
                   0
                   0
                   0
                   0
                   0
                   0
                   0
                   0
                   0
                   0
                   0
                   0
                   0
                   0
                   0
                   0
                   0
                   0
                   0
                   0
                   0
                   0
                   0
                   0
                   0
                   0
                   0
                   0
                   0
                   0
                   0
                   0
                   0
                   0
                   0
                   0
                   0
                   0
                   0
                   0
                   0
                   0
                   0
                   0
                   0
                   0
                   0
                   0
                   0
                   0
                   0
                   0
                   0
                   0
                   0
                   0
                   0
                   0
                   0
                   0
                   0
                   0
                   0
                   0
                   0
                   0
                   0
                   0
                   0
                   0
                   0
                   0
                   0
                   0
                   0
                   0
                   0
                   0
                   0
                   0
                   0
                   0
                   0
                   0
                   0
                   0
                   0
                   0
                   0
                   0
                   0
                   0
                   0
                   0
                   0
                   0
                   0
                   0
                   0
                   0
                   0
                   0
                   0
                   0
                   0
                   0
                   0
                   0
                   0
                   0
                   0
                   0
                   0
                   0
                   0
                   0
                   0
                   0
                   0
                   0
                   0
                   0
                   0
                   0
                   0
                   0
                   0
                   0
                   0
                   0
                   0
                   0
                   0
                   0
                   0
                   0
                   0
                   0
                   0
                   0
                   0
                   0
                   0
                   0
                   0
                   0
                   0
                   0
                   0
                   0
                   0
                   0
                   0
                   0
                   0
                   0
                   0
                   0
                   0
                   0
                   0
                   0
                   0
                   0
                   0
                   0
                   0
                   0
                   0
                   0
                   0
                   0
                   0
                   0
                   0
                   0
                   0
                   0
                   0
                   0
                   0
                   0
                   0
                   0
                   0
                   0
                   0
                   0
                   0
                   0
                   0
                   0
                   0
                   0
                   0
                   0
                   0
                   0
                   0
                   0
                   0
                   0
                   0
                   0
                   0
                   0
                   0
                   0
                   0
                   0
                   0
                   0
                   0
                   0
                   0
                   0
                   0
                   0
                   0
                   0
                   0
                   0
                   0
                   0
                   0
                   0
                   0
                   0
                   0
                   0
                   0
                   0
                   0
                   0
                   0
                   0
                   0
                   0
                   0
                   0
                   0
                   0
                   0
                   0
                   0
                   0
                   0
                   0
                   0
                   0
                   0
                   0
                   0
                   0
                   0
                   0
                   0
                   0
                   0
                   0
                   0
                   0
                   0
                   0
                   0
                   0
                   0
                   0
                   0
                   0
                   0
                   0
                   0
                   0
                   0
                   0
                   0
                   0
                   0
                   0
                   0
                   0
                   0
                   0
                   0
                   0
                   0
                   0
                   0
                   0
                   0
                   0
                   0
                   0
                   0
                   0
                   0
                   0
                   0
                   0
                   0
                   0
                   0
                   0
                   0
                   0
                   0
                   0
                   0
                   0
                   0
                   0
                   0
                   0
                   0
                   0
                   0
                   0
                   0
                   0
                   0
                   0
                   0
                   0
                   0
                   0
                   0
                   0
                   0
                   0
                   0
                   0
                   0
                   0
                   0
                   0
                   0
                   0
                   0
                   0
                   0
                   0
                   0
                   0
                   0
                   0
                   0
                   0
                   0
                   0
                   0
                   0
                   0
                   0
                   0
                   0
                   0
                   0
                   0
                   0
                   0
                   0
                   0
                   0
                   0
                   0
                   0
                   0
                   0
                   0
                   0
                   0
                   0
                   0
                   0
                   0
                   0
                   0
                   0
                   0
                   0
                   0
                   0
                   0
                   0
                   0
                   0
                   0
                   0
                   0
                   0
                   0
                   0
                   0
                   0
                   0
                   0
                   0
                   0
                   0
                   0
                   0
                   0
                   0
                   0
                   0
                   0
                   0
                   0
                   0
                   0
                   0
                   0
                   0
                   0
                   0
                   0
                   0
                   0
                   0
                   0
                   0
                   0
                   0
                   0
                   0
                   0
                   0
                   0
                   0
                   0
                   0
                   0
                   0
                   0
                   0
                   0
                   0
                   0
                   0
                   0
                   0
                   0
                   0
                   0
                   0
                   0
                   0
                   0
                   0
                   0
                   0
                   0
                   0
                   0
                   0
                   0
                   0
                   0
                   0
                   0
                   0
                   0
                   0
                   0
                   0
                   0
                   0
                   0
                   0
                   0
                   0
                   0
                   0
                   0
                   0
                   0
                   0
                   0
                   0
                   0
                   0
                   0
                   0
                   0
                   0
                   0
                   0
                   0
                   0
                   0
                   0
                   0
                   0
                   0
                   0
                   0
                   0
                   0
                   0
                   0
                   0
                   0
                   0
                   0
                   0
                   0
                   0
                   0
                   0
                   0
                   0
                   0
                   0
                   0
                   0
                   0
                   0
                   0
                   0
                   0
                   0
                   0
                   0
                   0
                   0
                   0
                   0
                   0
                   0
                   0
                   0
                   0
                   0
                   0
                   0
                   0
                   0
                   0
                   0
                   0
                   0
                   0
                   0
                   0
                   0
                   0
                   0
                   0
                   0
                   0
                   0
                   0
                   0
                   0
                   0
                   0
                   0
                   0
                   0
                   0
                   0
                   0
                   0
                   0
                   0
                   0
                   0
                   0
                   0
                   0
                   0
                   0
                   0
                   0
                   0
                   0
                   0
                   0
                   0
                   0
                   0
                   0
                   0
                   0
                   0
                   0
                   0
                   0
                   0
                   0
                   0
                   0
                   0
                   0
                   0
                   0
                   0
                   0
                   0
                   0
                   0
                   0
                   0
                   0
                   0
                   0
                   0
                   0
                   0
                   0
                   0
                   0
                   0
                   0
                   0
                   0
                   0
                   0
                   0
                   0
                   0
                   0
                   0
                   0
                   0
                   0
                   0
                   0
                   0
                   0
                   0
                   0
                   0
                   0
                   0
                   0
                   0
                   0
                   0
                   0
                   0
                   0
                   0
                   0
                   0
                   0
                   0
                   0
                   0
                   0
                   0
                   0
                   0
                   0
                   0
                   0
                   0
                   0
                   0
                   0
                   0
                   0
                   0
                   0
                   0
                   0
                   0
                   0
                   0
                   0
                   0
                   0
                   0
                   0
                   0
                   0
                   0
                   0
                   0
                   0
                   0
                   0
                   0
                   0
                   0
                   0
                   0
                   0
                   0
                   0
                   0
                   0
                   0
                   0
                   0
                   0
                   0
                   0
                   0
                   0
                   0
                   0
                   0
                   0
                   0
                   0
                   0
                   0
                   0
                   0
                   0
                   0
                   0
                   0
                   0
                   0
                   0
                   0
                   0
                   0
                   0
                   0
                   0
                   0
                   0
                   0
                   0
                   0
                   0
                   0
                   0
                   0
                   0
                   0
                   0
                   0
                   0
                   0
                   0
                   0
                   0
                   0
                   0
                   0
                   0
                   0
                   0
                   0
                   0
                   0
                   0
                   0
                   0
                   0
                   0
                   0
                   0
                   0
                   0
                   0
                   0
                   0
                   0
                   0
                   0
                   0
                   0
                   0
                   0
                   0
                   0
                   0
                   0
                   0
                   0
                   0
                   0
                   0
                   0
                   0
                   0
                   0
                   0
                   0
                   0
                   0
                   0
                   0
                   0
                   0
                   0
                   0
                   0
                   0
                   0
                   0
                   0
                   0
                   0
                   0
                   0
                   0
                   0
                   0
                   0
                   0
                   0
                   0
  
SCALARS                         Ispace  double 1
LOOKUP_TABLE default
                  12
                  12
                  12
                  12
                  12
                  12
                  12
                  12
                  12
                  12
                  12
                  12
                  12
                  11
                  12
                  11
                  11
                  11
                  11
                  11
                  11
                  12
                  12
                  11
                  12
                  12
                  11
                  11
                  11
                  11
                  11
                  11
                  11
                  11
                  11
                  11
                  11
                  11
                  11
                  11
                  11
                  11
                  11
                  11
                  11
                  11
                  11
                  11
                  11
                  11
                  11
                  11
                  11
                  11
                  11
                  11
                  11
                  11
                  11
                  11
                  11
                  11
                  11
                  11
                  11
                  11
                  12
                  12
                  12
                  12
                  12
                  12
                  12
                  12
                  11
                  11
                  11
                  11
                  11
                  11
                  11
                  11
                  11
                  11
                  11
                  11
                  11
                  11
                  11
                  11
                  11
                  11
                  11
                  11
                  11
                  11
                  12
                  12
                  12
                  12
                  12
                  12
                  12
                  12
                  12
                  12
                  12
                  12
                  12
                  12
                  12
                  12
                  12
                  12
                  12
                  12
                  11
                  11
                  11
                  11
                  11
                  11
                  11
                  11
                  11
                  11
                  11
                  11
                  11
                  11
                  11
                  11
                  11
                  11
                  11
                  11
                  11
                  11
                  11
                  11
                  11
                  11
                  11
                  11
                  11
                  11
                  12
                  12
                  12
                  12
                  12
                  12
                  12
                  12
                  12
                  12
                  12
                  12
                  12
                  12
                  12
                  12
                  12
                  11
                  11
                  11
                  11
                  12
                  12
                  11
                  11
                  11
                  11
                  11
                  11
                  11
                  11
                  11
                  11
                  11
                  11
                  11
                  11
                  11
                  11
                  11
                  11
                  11
                  11
                  12
                  12
                  12
                  12
                  11
                  11
                  11
                  11
                  11
                  11
                  11
                  11
                  11
                  11
                  11
                  12
                  12
                  12
                  12
                  12
                  12
                  12
                  12
                  12
                  12
                  11
                  11
                  11
                  11
                  11
                  11
                  11
                  11
                  11
                  11
                  11
                  11
                  11
                  11
                  11
                  12
                  12
                  12
                  12
                  12
                  12
                  12
                  12
                  12
                  12
                  12
                  12
                  11
                  11
                  11
                  11
                  12
                  12
                  11
                  11
                  11
                  11
                  11
                  11
                  11
                  11
                  11
                  11
                  11
                  11
                  11
                  11
                  11
                  11
                  11
                  11
                  11
                  11
                  12
                  12
                  12
                  12
                  11
                  11
                  11
                  11
                  11
                  11
                  11
                  11
                  11
                  11
                  11
                  12
                  12
                  12
                  12
                  12
                  12
                  12
                  12
                  12
                  12
                  11
                  11
                  11
                  11
                  11
                  11
                  11
                  11
                  11
                  11
                  11
                  11
                  11
                  11
                  11
                  12
                  12
                  12
                  12
                  12
                  12
                  12
                  12
                  12
                  12
                  12
                  12
                  11
                  11
                  11
                  11
                  12
                  12
                  11
                  11
                  11
                  11
                  11
                  11
                  11
                  11
                  11
                  11
                  11
                  11
                  11
                  11
                  11
                  11
                  11
                  11
                  11
                  11
                  12
                  12
                  12
                  12
                  11
                  11
                  11
                  11
                  11
                  11
                  11
                  11
                  11
                  11
                  11
                  12
                  12
                  12
                  12
                  12
                  12
                  12
                  12
                  12
                  12
                  11
                  11
                  11
                  11
                  11
                  11
                  11
                  11
                  11
                  11
                  11
                  11
                  11
                  11
                  11
                  12
                  12
                  12
                  12
                  12
                  12
                  12
                  12
                  12
                  12
                  12
                  12
                  11
                  11
                  11
                  11
                  12
                  12
                  11
                  11
                  11
                  11
                  11
                  11
                  11
                  11
                  11
                  11
                  11
                  11
                  11
                  11
                  11
                  11
                  11
                  11
                  11
                  11
                  12
                  12
                  12
                  12
                  11
                  11
                  11
                  11
                  11
                  11
                  11
                  11
                  11
                  11
                  11
                  12
                  12
                  12
                  12
                  12
                  12
                  12
                  12
                  12
                  12
                  11
                  11
                  11
                  11
                  11
                  11
                  11
                  11
                  11
                  11
                  11
                  11
                  11
                  11
                  11
                  12
                  12
                  12
                  12
                  12
                  12
                  12
                  12
                  12
                  12
                  12
                  12
                  11
                  11
                  11
                  11
                  12
                  12
                  11
                  11
                  11
                  11
                  11
                  11
                  11
                  11
                  11
                  11
                  11
                  11
                  11
                  11
                  11
                  11
                  11
                  11
                  11
                  11
                  12
                  12
                  12
                  12
                  11
                  11
                  11
                  11
                  11
                  11
                  11
                  11
                  11
                  11
                  11
                  12
                  12
                  12
                  12
                  12
                  12
                  12
                  12
                  12
                  12
                  11
                  11
                  11
                  11
                  11
                  11
                  11
                  11
                  11
                  11
                  11
                  11
                  11
                  11
                  11
                  12
                  12
                  12
                  12
                  12
                  12
                  12
                  12
                  12
                  12
                  12
                  12
                  11
                  11
                  11
                  11
                  12
                  12
                  11
                  11
                  11
                  11
                  11
                  11
                  11
                  11
                  11
                  11
                  11
                  11
                  11
                  11
                  11
                  11
                  11
                  11
                  11
                  11
                  12
                  12
                  12
                  12
                  11
                  11
                  11
                  11
                  11
                  11
                  11
                  11
                  11
                  11
                  11
                  12
                  12
                  12
                  12
                  12
                  12
                  12
                  12
                  12
                  12
                  11
                  11
                  11
                  11
                  11
                  11
                  11
                  11
                  11
                  11
                  11
                  11
                  11
                  11
                  11
                  12
                  12
                  12
                  12
                  12
                  12
                  12
                  12
                  12
                  12
                  12
                  12
                  11
                  11
                  11
                  11
                  12
                  12
                  11
                  11
                  11
                  11
                  11
                  11
                  11
                  11
                  11
                  11
                  11
                  11
                  11
                  11
                  11
                  11
                  11
                  11
                  11
                  11
                  12
                  12
                  12
                  12
                  11
                  11
                  11
                  11
                  11
                  11
                  11
                  11
                  11
                  11
                  11
                  12
                  12
                  12
                  12
                  12
                  12
                  12
                  12
                  12
                  12
                  11
                  11
                  11
                  11
                  11
                  11
                  11
                  11
                  11
                  11
                  11
                  11
                  11
                  11
                  11
                  12
                  12
                  12
                  12
                  12
                  12
                  12
                  12
                  12
                  12
                  12
                  12
                  11
                  11
                  11
                  11
                  12
                  12
                  11
                  11
                  11
                  11
                  11
                  11
                  11
                  11
                  11
                  11
                  11
                  11
                  11
                  11
                  11
                  11
                  11
                  11
                  11
                  11
                  12
                  12
                  12
                  12
                  11
                  11
                  11
                  11
                  11
                  11
                  11
                  11
                  11
                  11
                  11
                  12
                  12
                  12
                  12
                  12
                  12
                  12
                  12
                  12
                  12
                  11
                  11
                  11
                  11
                  11
                  11
                  11
                  11
                  11
                  11
                  11
                  11
                  11
                  11
                  11
                  12
                  12
                  12
                  12
                  12
                  12
                  12
                  12
                  12
                  12
                  12
                  12
                  11
                  11
                  11
                  11
                  12
                  12
                  11
                  11
                  11
                  11
                  11
                  11
                  11
                  11
                  11
                  11
                  11
                  11
                  11
                  11
                  11
                  11
                  11
                  11
                  11
                  11
                  12
                  12
                  12
                  12
                  11
                  11
                  11
                  11
                  11
                  11
                  11
                  11
                  11
                  11
                  11
                  12
                  12
                  12
                  12
                  12
                  12
                  12
                  12
                  12
                  12
                  11
                  11
                  11
                  11
                  11
                  11
                  11
                  11
                  11
                  11
                  11
                  11
                  11
                  11
                  11
                  12
                  12
                  12
                  12
                  12
                  12
                  12
                  12
                  12
                  12
                  12
                  12
                  11
                  11
                  11
                  11
                  12
                  12
                  11
                  11
                  11
                  11
                  11
                  11
                  11
                  11
                  11
                  11
                  11
                  11
                  11
                  11
                  11
                  11
                  11
                  11
                  11
                  11
                  12
                  12
                  12
                  12
                  11
                  11
                  11
                  11
                  11
                  11
                  11
                  11
                  11
                  11
                  11
                  12
                  12
                  12
                  12
                  12
                  12
                  12
                  12
                  12
                  12
                  11
                  11
                  11
                  11
                  11
                  11
                  11
                  11
                  11
                  11
                  11
                  11
                  11
                  11
                  11
                  12
                  12
                  12
                  12
                  12
                  12
                  12
                  12
                  12
                  12
                  12
                  12
                  11
                  11
                  11
                  11
                  12
                  12
                  11
                  11
                  11
                  11
                  11
                  11
                  11
                  11
                  11
                  11
                  11
                  11
                  11
                  11
                  11
                  11
                  11
                  11
                  11
                  11
                  12
                  12
                  12
                  12
                  11
                  11
                  11
                  11
                  11
                  11
                  11
                  11
                  11
                  11
                  11
                  12
                  12
                  12
                  12
                  12
                  12
                  12
                  12
                  12
                  12
                  11
                  11
                  11
                  11
                  11
                  11
                  11
                  11
                  11
                  11
                  11
                  11
                  11
                  11
                  11
                  12
                  12
                  12
                  12
                  12
                  12
                  12
                  12
                  12
                  12
                  12
                  12
                  11
                  11
                  11
                  11
                  12
                  12
                  11
                  11
                  11
                  11
                  11
                  11
                  11
                  11
                  11
                  11
                  11
                  11
                  11
                  11
                  11
                  11
                  11
                  11
                  11
                  11
                  12
                  12
                  12
                  12
                  11
                  11
                  11
                  11
                  11
                  11
                  11
                  11
                  11
                  11
                  11
                  12
                  12
                  12
                  12
                  12
                  12
                  12
                  12
                  12
                  12
                  11
                  11
                  11
                  11
                  11
                  11
                  11
                  11
                  11
                  11
                  11
                  11
                  11
                  11
                  11
                  12
                  12
                  12
                  12
                  12
                  12
                  12
                  12
                  12
                  12
                  12
                  12
                  11
                  11
                  11
                  11
                  12
                  12
                  11
                  11
                  11
                  11
                  11
                  11
                  11
                  11
                  11
                  11
                  11
                  11
                  11
                  11
                  11
                  11
                  11
                  11
                  11
                  11
                  12
                  12
                  12
                  12
                  11
                  11
                  11
                  11
                  11
                  11
                  11
                  11
                  11
                  11
                  11
                  12
                  12
                  12
                  12
                  12
                  12
                  12
                  12
                  12
                  12
                  11
                  11
                  11
                  11
                  11
                  11
                  11
                  11
                  11
                  11
                  11
                  11
                  11
                  11
                  11
                  12
                  12
                  12
                  12
                  12
                  12
                  12
                  12
                  12
                  12
                  12
                  12
                  11
                  11
                  11
                  11
                  12
                  12
                  11
                  11
                  11
                  11
                  11
                  11
                  11
                  11
                  11
                  11
                  11
                  11
                  11
                  11
                  11
                  11
                  11
                  11
                  11
                  11
                  12
                  12
                  12
                  12
                  11
                  11
                  11
                  11
                  11
                  11
                  11
                  11
                  11
                  11
                  11
                  12
                  12
                  12
                  12
                  12
                  12
                  12
                  12
                  12
                  12
                  11
                  11
                  11
                  11
                  11
                  11
                  11
                  11
                  11
                  11
                  11
                  11
                  11
                  11
                  11
                  12
                  12
                  12
                  12
                  12
                  12
                  12
                  12
                  12
                  12
                  12
                  12
                  11
                  11
                  11
                  11
                  12
                  12
                  11
                  11
                  11
                  11
                  11
                  11
                  11
                  11
                  11
                  11
                  11
                  11
                  11
                  11
                  11
                  11
                  11
                  11
                  11
                  11
                  12
                  12
                  12
                  12
                  11
                  11
                  11
                  11
                  11
                  11
                  11
                  11
                  11
                  11
                  11
                  12
                  12
                  12
                  12
                  12
                  12
                  12
                  12
                  12
                  12
                  11
                  11
                  11
                  11
                  11
                  11
                  11
                  11
                  11
                  11
                  11
                  11
                  11
                  11
                  11
                  12
                  12
                  12
                  12
                  12
                  12
                  12
                  12
                  12
                  12
                  12
                  12
                  11
                  11
                  11
                  11
                  12
                  12
                  11
                  11
                  11
                  11
                  11
                  11
                  11
                  11
                  11
                  11
                  11
                  11
                  11
                  11
                  11
                  11
                  11
                  11
                  11
                  11
                  12
                  12
                  12
                  12
                  11
                  11
                  11
                  11
                  11
                  11
                  11
                  11
                  11
                  11
                  11
                  12
                  12
                  12
                  12
                  12
                  12
                  12
                  12
                  12
                  12
                  11
                  11
                  11
                  11
                  11
                  11
                  11
                  11
                  11
                  11
                  11
                  11
                  11
                  11
                  11
                  12
                  12
                  12
                  12
                  12
                  12
                  12
                  12
                  12
                  12
                  12
                  12
                  11
                  11
                  11
                  11
                  12
                  12
                  11
                  11
                  11
                  11
                  11
                  11
                  11
                  11
                  11
                  11
                  11
                  11
                  11
                  11
                  11
                  11
                  11
                  11
                  11
                  11
                  12
                  12
                  12
                  12
                  11
                  11
                  11
                  11
                  11
                  11
                  11
                  11
                  11
                  11
                  11
                  12
                  12
                  12
                  12
                  12
                  12
                  12
                  12
                  12
                  12
                  11
                  11
                  11
                  11
                  11
                  11
                  11
                  11
                  11
                  11
                  11
                  11
                  11
                  11
                  11
                  12
                  12
                  12
                  12
                  12
                  12
                  12
                  12
                  12
                  12
                  12
                  12
                  11
                  11
                  11
                  11
                  12
                  12
                  11
                  11
                  11
                  11
                  11
                  11
                  11
                  11
                  11
                  11
                  11
                  11
                  11
                  11
                  11
                  11
                  11
                  11
                  11
                  11
                  12
                  12
                  12
                  12
                  11
                  11
                  11
                  11
                  11
                  11
                  11
                  11
                  11
                  11
                  11
                  12
                  12
                  12
                  12
                  12
                  12
                  12
                  12
                  12
                  12
                  11
                  11
                  11
                  11
                  11
                  11
                  11
                  11
                  11
                  11
                  11
                  11
                  11
                  11
                  11
                  12
                  12
                  12
                  12
                  12
                  12
                  12
                  12
                  12
                  12
                  12
                  12
                  11
                  11
                  11
                  11
                  12
                  12
                  11
                  11
                  11
                  11
                  11
                  11
                  11
                  11
                  11
                  11
                  11
                  11
                  11
                  11
                  11
                  11
                  11
                  11
                  11
                  11
                  12
                  12
                  12
                  12
                  11
                  11
                  11
                  11
                  11
                  11
                  11
                  11
                  11
                  11
                  11
                  12
                  12
                  12
                  12
                  12
                  12
                  12
                  12
                  12
                  12
                  11
                  11
                  11
                  11
                  11
                  11
                  11
                  11
                  11
                  11
                  11
                  11
                  11
                  11
                  11
                  12
                  12
                  12
                  12
                  12
                  12
                  12
                  12
                  12
                  12
                  12
                  12
                  11
                  11
                  11
                  11
                  12
                  12
                  11
                  11
                  11
                  11
                  11
                  11
                  11
                  11
                  11
                  11
                  11
                  11
                  11
                  11
                  11
                  11
                  11
                  11
                  11
                  11
                  12
                  12
                  12
                  12
                  11
                  11
                  11
                  11
                  11
                  11
                  11
                  11
                  11
                  11
                  11
                  12
                  12
                  12
                  12
                  12
                  12
                  12
                  12
                  12
                  12
                  11
                  11
                  11
                  11
                  11
                  11
                  11
                  11
                  11
                  11
                  11
                  11
                  11
                  11
                  11
                  12
                  12
                  12
                  12
                  12
                  12
                  12
                  12
                  12
                  12
                  12
                  12
                  11
                  11
                  11
                  11
                  12
                  12
                  11
                  11
                  11
                  11
                  11
                  11
                  11
                  11
                  11
                  11
                  11
                  11
                  11
                  11
                  11
                  11
                  11
                  11
                  11
                  11
                  12
                  12
                  12
                  12
                  11
                  11
                  11
                  11
                  11
                  11
                  11
                  11
                  11
                  11
                  11
                  12
                  12
                  12
                  12
                  12
                  12
                  12
                  12
                  12
                  12
                  11
                  11
                  11
                  11
                  11
                  11
                  11
                  11
                  11
                  11
                  11
                  11
                  11
                  11
                  11
                  12
                  12
                  12
                  12
                  12
                  12
                  12
                  12
                  12
                  12
                  12
                  12
                  11
                  11
                  11
                  11
                  12
                  12
                  11
                  11
                  11
                  11
                  11
                  11
                  11
                  11
                  11
                  11
                  11
                  11
                  11
                  11
                  11
                  11
                  11
                  11
                  11
                  11
                  12
                  12
                  12
                  12
                  11
                  11
                  11
                  11
                  11
                  11
                  11
                  11
                  11
                  11
                  11
                  12
                  12
                  12
                  12
                  12
                  12
                  12
                  12
                  12
                  12
                  11
                  11
                  11
                  11
                  11
                  11
                  11
                  11
                  11
                  11
                  11
                  11
                  11
                  11
                  11
                  12
                  12
                  12
                  12
                  12
                  12
                  12
                  12
                  12
                  12
                  12
                  12
                  11
                  11
                  11
                  11
                  12
                  12
                  11
                  11
                  11
                  11
                  11
                  11
                  11
                  11
                  11
                  11
                  11
                  11
                  11
                  11
                  11
                  11
                  11
                  11
                  11
                  11
                  12
                  12
                  12
                  12
                  11
                  11
                  11
                  11
                  11
                  11
                  11
                  11
                  11
                  11
                  11
                  12
                  12
                  12
                  12
                  12
                  12
                  12
                  12
                  12
                  12
                  11
                  11
                  11
                  11
                  11
                  11
                  11
                  11
                  11
                  11
                  11
                  11
                  11
                  11
                  11
                  12
                  12
                  12
                  12
                  12
  
SCALARS                         Jspace  double 1
LOOKUP_TABLE default
                  11
                  12
                  11
                  11
                  11
                  12
                  11
                  11
                  11
                  11
                  11
                  11
                  12
                  12
                  12
                  12
                  11
                  12
                  11
                  12
                  12
                  12
                  12
                  12
                  12
                  12
                  12
                  12
                  12
                  12
                  11
                  11
                  11
                  11
                  11
                  11
                  11
                  11
                  11
                  11
                  11
                  11
                  11
                  11
                  11
                  11
                  11
                  11
                  11
                  11
                  11
                  11
                  12
                  12
                  12
                  12
                  12
                  11
                  12
                  11
                  11
                  11
                  11
                  11
                  11
                  11
                  11
                  11
                  11
                  12
                  11
                  12
                  12
                  12
                  12
                  12
                  12
                  12
                  12
                  12
                  12
                  12
                  12
                  12
                  11
                  11
                  11
                  11
                  11
                  11
                  11
                  11
                  11
                  11
                  11
                  11
                  11
                  11
                  11
                  11
                  11
                  11
                  11
                  11
                  11
                  11
                  11
                  11
                  12
                  12
                  12
                  12
                  12
                  12
                  12
                  12
                  12
                  12
                  12
                  12
                  12
                  12
                  12
                  12
                  12
                  12
                  12
                  12
                  11
                  11
                  11
                  11
                  11
                  11
                  11
                  11
                  11
                  11
                  11
                  11
                  11
                  11
                  11
                  11
                  11
                  11
                  11
                  11
                  11
                  11
                  11
                  11
                  11
                  11
                  11
                  11
                  11
                  12
                  11
                  11
                  11
                  11
                  12
                  12
                  11
                  12
                  12
                  12
                  12
                  12
                  12
                  11
                  11
                  11
                  11
                  11
                  11
                  11
                  11
                  11
                  11
                  11
                  12
                  12
                  12
                  11
                  11
                  11
                  11
                  11
                  11
                  12
                  12
                  12
                  12
                  12
                  12
                  12
                  11
                  11
                  11
                  11
                  11
                  11
                  11
                  11
                  11
                  11
                  11
                  11
                  12
                  12
                  12
                  12
                  12
                  12
                  12
                  12
                  12
                  12
                  11
                  11
                  11
                  11
                  11
                  11
                  11
                  11
                  11
                  11
                  11
                  11
                  11
                  11
                  11
                  12
                  11
                  11
                  11
                  11
                  12
                  12
                  11
                  12
                  12
                  12
                  12
                  12
                  12
                  11
                  11
                  11
                  11
                  11
                  11
                  11
                  11
                  11
                  11
                  11
                  12
                  12
                  12
                  11
                  11
                  11
                  11
                  11
                  11
                  12
                  12
                  12
                  12
                  12
                  12
                  12
                  11
                  11
                  11
                  11
                  11
                  11
                  11
                  11
                  11
                  11
                  11
                  11
                  12
                  12
                  12
                  12
                  12
                  12
                  12
                  12
                  12
                  12
                  11
                  11
                  11
                  11
                  11
                  11
                  11
                  11
                  11
                  11
                  11
                  11
                  11
                  11
                  11
                  12
                  11
                  11
                  11
                  11
                  12
                  12
                  11
                  12
                  12
                  12
                  12
                  12
                  12
                  11
                  11
                  11
                  11
                  11
                  11
                  11
                  11
                  11
                  11
                  11
                  12
                  12
                  12
                  11
                  11
                  11
                  11
                  11
                  11
                  12
                  12
                  12
                  12
                  12
                  12
                  12
                  11
                  11
                  11
                  11
                  11
                  11
                  11
                  11
                  11
                  11
                  11
                  11
                  12
                  12
                  12
                  12
                  12
                  12
                  12
                  12
                  12
                  12
                  11
                  11
                  11
                  11
                  11
                  11
                  11
                  11
                  11
                  11
                  11
                  11
                  11
                  11
                  11
                  12
                  11
                  11
                  11
                  11
                  12
                  12
                  11
                  12
                  12
                  12
                  12
                  12
                  12
                  11
                  11
                  11
                  11
                  11
                  11
                  11
                  11
                  11
                  11
                  11
                  12
                  12
                  12
                  11
                  11
                  11
                  11
                  11
                  11
                  12
                  12
                  12
                  12
                  12
                  12
                  12
                  11
                  11
                  11
                  11
                  11
                  11
                  11
                  11
                  11
                  11
                  11
                  11
                  12
                  12
                  12
                  12
                  12
                  12
                  12
                  12
                  12
                  12
                  11
                  11
                  11
                  11
                  11
                  11
                  11
                  11
                  11
                  11
                  11
                  11
                  11
                  11
                  11
                  12
                  11
                  11
                  11
                  11
                  12
                  12
                  11
                  12
                  12
                  12
                  12
                  12
                  12
                  11
                  11
                  11
                  11
                  11
                  11
                  11
                  11
                  11
                  11
                  11
                  12
                  12
                  12
                  11
                  11
                  11
                  11
                  11
                  11
                  12
                  12
                  12
                  12
                  12
                  12
                  12
                  11
                  11
                  11
                  11
                  11
                  11
                  11
                  11
                  11
                  11
                  11
                  11
                  12
                  12
                  12
                  12
                  12
                  12
                  12
                  12
                  12
                  12
                  11
                  11
                  11
                  11
                  11
                  11
                  11
                  11
                  11
                  11
                  11
                  11
                  11
                  11
                  11
                  12
                  11
                  11
                  11
                  11
                  12
                  12
                  11
                  12
                  12
                  12
                  12
                  12
                  12
                  11
                  11
                  11
                  11
                  11
                  11
                  11
                  11
                  11
                  11
                  11
                  12
                  12
                  12
                  11
                  11
                  11
                  11
                  11
                  11
                  12
                  12
                  12
                  12
                  12
                  12
                  12
                  11
                  11
                  11
                  11
                  11
                  11
                  11
                  11
                  11
                  11
                  11
                  11
                  12
                  12
                  12
                  12
                  12
                  12
                  12
                  12
                  12
                  12
                  11
                  11
                  11
                  11
                  11
                  11
                  11
                  11
                  11
                  11
                  11
                  11
                  11
                  11
                  11
                  12
                  11
                  11
                  11
                  11
                  12
                  12
                  11
                  12
                  12
                  12
                  12
                  12
                  12
                  11
                  11
                  11
                  11
                  11
                  11
                  11
                  11
                  11
                  11
                  11
                  12
                  12
                  12
                  11
                  11
                  11
                  11
                  11
                  11
                  12
                  12
                  12
                  12
                  12
                  12
                  12
                  11
                  11
                  11
                  11
                  11
                  11
                  11
                  11
                  11
                  11
                  11
                  11
                  12
                  12
                  12
                  12
                  12
                  12
                  12
                  12
                  12
                  12
                  11
                  11
                  11
                  11
                  11
                  11
                  11
                  11
                  11
                  11
                  11
                  11
                  11
                  11
                  11
                  12
                  11
                  11
                  11
                  11
                  12
                  12
                  11
                  12
                  12
                  12
                  12
                  12
                  12
                  11
                  11
                  11
                  11
                  11
                  11
                  11
                  11
                  11
                  11
                  11
                  12
                  12
                  12
                  11
                  11
                  11
                  11
                  11
                  11
                  12
                  12
                  12
                  12
                  12
                  12
                  12
                  11
                  11
                  11
                  11
                  11
                  11
                  11
                  11
                  11
                  11
                  11
                  11
                  12
                  12
                  12
                  12
                  12
                  12
                  12
                  12
                  12
                  12
                  11
                  11
                  11
                  11
                  11
                  11
                  11
                  11
                  11
                  11
                  11
                  11
                  11
                  11
                  11
                  12
                  11
                  11
                  11
                  11
                  12
                  12
                  11
                  12
                  12
                  12
                  12
                  12
                  12
                  11
                  11
                  11
                  11
                  11
                  11
                  11
                  11
                  11
                  11
                  11
                  12
                  12
                  12
                  11
                  11
                  11
                  11
                  11
                  11
                  12
                  12
                  12
                  12
                  12
                  12
                  12
                  11
                  11
                  11
                  11
                  11
                  11
                  11
                  11
                  11
                  11
                  11
                  11
                  12
                  12
                  12
                  12
                  12
                  12
                  12
                  12
                  12
                  12
                  11
                  11
                  11
                  11
                  11
                  11
                  11
                  11
                  11
                  11
                  11
                  11
                  11
                  11
                  11
                  12
                  11
                  11
                  11
                  11
                  12
                  12
                  11
                  12
                  12
                  12
                  12
                  12
                  12
                  11
                  11
                  11
                  11
                  11
                  11
                  11
                  11
                  11
                  11
                  11
                  12
                  12
                  12
                  11
                  11
                  11
                  11
                  11
                  11
                  12
                  12
                  12
                  12
                  12
                  12
                  12
                  11
                  11
                  11
                  11
                  11
                  11
                  11
                  11
                  11
                  11
                  11
                  11
                  12
                  12
                  12
                  12
                  12
                  12
                  12
                  12
                  12
                  12
                  11
                  11
                  11
                  11
                  11
                  11
                  11
                  11
                  11
                  11
                  11
                  11
                  11
                  11
                  11
                  12
                  11
                  11
                  11
                  11
                  12
                  12
                  11
                  12
                  12
                  12
                  12
                  12
                  12
                  11
                  11
                  11
                  11
                  11
                  11
                  11
                  11
                  11
                  11
                  11
                  12
                  12
                  12
                  11
                  11
                  11
                  11
                  11
                  11
                  12
                  12
                  12
                  12
                  12
                  12
                  12
                  11
                  11
                  11
                  11
                  11
                  11
                  11
                  11
                  11
                  11
                  11
                  11
                  12
                  12
                  12
                  12
                  12
                  12
                  12
                  12
                  12
                  12
                  11
                  11
                  11
                  11
                  11
                  11
                  11
                  11
                  11
                  11
                  11
                  11
                  11
                  11
                  11
                  12
                  11
                  11
                  11
                  11
                  12
                  12
                  11
                  12
                  12
                  12
                  12
                  12
                  12
                  11
                  11
                  11
                  11
                  11
                  11
                  11
                  11
                  11
                  11
                  11
                  12
                  12
                  12
                  11
                  11
                  11
                  11
                  11
                  11
                  12
                  12
                  12
                  12
                  12
                  12
                  12
                  11
                  11
                  11
                  11
                  11
                  11
                  11
                  11
                  11
                  11
                  11
                  11
                  12
                  12
                  12
                  12
                  12
                  12
                  12
                  12
                  12
                  12
                  11
                  11
                  11
                  11
                  11
                  11
                  11
                  11
                  11
                  11
                  11
                  11
                  11
                  11
                  11
                  12
                  11
                  11
                  11
                  11
                  12
                  12
                  11
                  12
                  12
                  12
                  12
                  12
                  12
                  11
                  11
                  11
                  11
                  11
                  11
                  11
                  11
                  11
                  11
                  11
                  12
                  12
                  12
                  11
                  11
                  11
                  11
                  11
                  11
                  12
                  12
                  12
                  12
                  12
                  12
                  12
                  11
                  11
                  11
                  11
                  11
                  11
                  11
                  11
                  11
                  11
                  11
                  11
                  12
                  12
                  12
                  12
                  12
                  12
                  12
                  12
                  12
                  12
                  11
                  11
                  11
                  11
                  11
                  11
                  11
                  11
                  11
                  11
                  11
                  11
                  11
                  11
                  11
                  12
                  11
                  11
                  11
                  11
                  12
                  12
                  11
                  12
                  12
                  12
                  12
                  12
                  12
                  11
                  11
                  11
                  11
                  11
                  11
                  11
                  11
                  11
                  11
                  11
                  12
                  12
                  12
                  11
                  11
                  11
                  11
                  11
                  11
                  12
                  12
                  12
                  12
                  12
                  12
                  12
                  11
                  11
                  11
                  11
                  11
                  11
                  11
                  11
                  11
                  11
                  11
                  11
                  12
                  12
                  12
                  12
                  12
                  12
                  12
                  12
                  12
                  12
                  11
                  11
                  11
                  11
                  11
                  11
                  11
                  11
                  11
                  11
                  11
                  11
                  11
                  11
                  11
                  12
                  11
                  11
                  11
                  11
                  12
                  12
                  11
                  12
                  12
                  12
                  12
                  12
                  12
                  11
                  11
                  11
                  11
                  11
                  11
                  11
                  11
                  11
                  11
                  11
                  12
                  12
                  12
                  11
                  11
                  11
                  11
                  11
                  11
                  12
                  12
                  12
                  12
                  12
                  12
                  12
                  11
                  11
                  11
                  11
                  11
                  11
                  11
                  11
                  11
                  11
                  11
                  11
                  12
                  12
                  12
                  12
                  12
                  12
                  12
                  12
                  12
                  12
                  11
                  11
                  11
                  11
                  11
                  11
                  11
                  11
                  11
                  11
                  11
                  11
                  11
                  11
                  11
                  12
                  11
                  11
                  11
                  11
                  12
                  12
                  11
                  12
                  12
                  12
                  12
                  12
                  12
                  11
                  11
                  11
                  11
                  11
                  11
                  11
                  11
                  11
                  11
                  11
                  12
                  12
                  12
                  11
                  11
                  11
                  11
                  11
                  11
                  12
                  12
                  12
                  12
                  12
                  12
                  12
                  11
                  11
                  11
                  11
                  11
                  11
                  11
                  11
                  11
                  11
                  11
                  11
                  12
                  12
                  12
                  12
                  12
                  12
                  12
                  12
                  12
                  12
                  11
                  11
                  11
                  11
                  11
                  11
                  11
                  11
                  11
                  11
                  11
                  11
                  11
                  11
                  11
                  12
                  11
                  11
                  11
                  11
                  12
                  12
                  11
                  12
                  12
                  12
                  12
                  12
                  12
                  11
                  11
                  11
                  11
                  11
                  11
                  11
                  11
                  11
                  11
                  11
                  12
                  12
                  12
                  11
                  11
                  11
                  11
                  11
                  11
                  12
                  12
                  12
                  12
                  12
                  12
                  12
                  11
                  11
                  11
                  11
                  11
                  11
                  11
                  11
                  11
                  11
                  11
                  11
                  12
                  12
                  12
                  12
                  12
                  12
                  12
                  12
                  12
                  12
                  11
                  11
                  11
                  11
                  11
                  11
                  11
                  11
                  11
                  11
                  11
                  11
                  11
                  11
                  11
                  12
                  11
                  11
                  11
                  11
                  12
                  12
                  11
                  12
                  12
                  12
                  12
                  12
                  12
                  11
                  11
                  11
                  11
                  11
                  11
                  11
                  11
                  11
                  11
                  11
                  12
                  12
                  12
                  11
                  11
                  11
                  11
                  11
                  11
                  12
                  12
                  12
                  12
                  12
                  12
                  12
                  11
                  11
                  11
                  11
                  11
                  11
                  11
                  11
                  11
                  11
                  11
                  11
                  12
                  12
                  12
                  12
                  12
                  12
                  12
                  12
                  12
                  12
                  11
                  11
                  11
                  11
                  11
                  11
                  11
                  11
                  11
                  11
                  11
                  11
                  11
                  11
                  11
                  12
                  11
                  11
                  11
                  11
                  12
                  12
                  11
                  12
                  12
                  12
                  12
                  12
                  12
                  11
                  11
                  11
                  11
                  11
                  11
                  11
                  11
                  11
                  11
                  11
                  12
                  12
                  12
                  11
                  11
                  11
                  11
                  11
                  11
                  12
                  12
                  12
                  12
                  12
                  12
                  12
                  11
                  11
                  11
                  11
                  11
                  11
                  11
                  11
                  11
                  11
                  11
                  11
                  12
                  12
                  12
                  12
                  12
                  12
                  12
                  12
                  12
                  12
                  11
                  11
                  11
                  11
                  11
                  11
                  11
                  11
                  11
                  11
                  11
                  11
                  11
                  11
                  11
                  12
                  11
                  11
                  11
                  11
                  12
                  12
                  11
                  12
                  12
                  12
                  12
                  12
                  12
                  11
                  11
                  11
                  11
                  11
                  11
                  11
                  11
                  11
                  11
                  11
                  12
                  12
                  12
                  11
                  11
                  11
                  11
                  11
                  11
                  12
                  12
                  12
                  12
                  12
                  12
                  12
                  11
                  11
                  11
                  11
                  11
                  11
                  11
                  11
                  11
                  11
                  11
                  11
                  12
                  12
                  12
                  12
                  12
                  12
                  12
                  12
                  12
                  12
                  11
                  11
                  11
                  11
                  11
                  11
                  11
                  11
                  11
                  11
                  11
                  11
                  11
                  11
                  11
                  12
                  11
                  11
                  11
                  11
                  12
                  12
                  11
                  12
                  12
                  12
                  12
                  12
                  12
                  11
                  11
                  11
                  11
                  11
                  11
                  11
                  11
                  11
                  11
                  11
                  12
                  12
                  12
                  11
                  11
                  11
                  11
                  11
                  11
                  12
                  12
                  12
                  12
                  12
                  12
                  12
                  11
                  11
                  11
                  11
                  11
                  11
                  11
                  11
                  11
                  11
                  11
                  11
                  12
                  12
                  12
                  12
                  12
                  12
                  12
                  12
                  12
                  12
                  11
                  11
                  11
                  11
                  11
                  11
                  11
                  11
                  11
                  11
                  11
                  11
                  11
                  11
                  11
                  12
                  11
                  11
                  11
                  11
                  12
                  12
                  11
                  12
                  12
                  12
                  12
                  12
                  12
                  11
                  11
                  11
                  11
                  11
                  11
                  11
                  11
                  11
                  11
                  11
                  12
                  12
                  12
                  11
                  11
                  11
                  11
                  11
                  11
                  12
                  12
                  12
                  12
                  12
                  12
                  12
                  11
                  11
                  11
                  11
                  11
                  11
                  11
                  11
                  11
                  11
                  11
                  11
                  12
                  12
                  12
                  12
                  12
                  12
                  12
                  12
                  12
                  12
                  11
                  11
                  11
                  11
                  11
                  11
                  11
                  11
                  11
                  11
                  11
                  11
                  11
                  11
                  11
                  12
                  11
                  11
                  11
                  11
                  12
                  12
                  11
                  12
                  12
                  12
                  12
                  12
                  12
                  11
                  11
                  11
                  11
                  11
                  11
                  11
                  11
                  11
                  11
                  11
                  12
                  12
                  12
                  11
                  11
                  11
                  11
                  11
                  11
                  12
                  12
                  12
                  12
                  12
                  12
                  12
                  11
                  11
                  11
                  11
                  11
                  11
                  11
                  11
                  11
                  11
                  11
                  11
                  12
                  12
                  12
                  12
                  12
                  12
                  12
                  12
                  12
                  12
                  11
                  11
                  11
                  11
                  11
                  11
                  11
                  11
                  11
                  11
                  11
                  11
                  11
                  11
  
SCALARS                         Kspace  double 1
LOOKUP_TABLE default
                  11
                  11
                  11
                  11
                  11
                  11
                  11
                  11
                  11
                  11
                  11
                  11
                  11
                  11
                  11
                  11
                  11
                  11
                  11
                  11
                  11
                  11
                  11
                  11
                  11
                  11
                  11
                  11
                  11
                  11
                  11
                  11
                  11
                  11
                  11
                  11
                  11
                  11
                  11
                  11
                  11
                  11
                  11
                  11
                  11
                  11
                  11
                  11
                  11
                  11
                  11
                  11
                  11
                  11
                  11
                  11
                  11
                  11
                  11
                  11
                  11
                  11
                  11
                  11
                  11
                  11
                  11
                  11
                  11
                  11
                  11
                  11
                  11
                  11
                  11
                  11
                  11
                  11
                  11
                  11
                  11
                  11
                  11
                  11
                  11
                  11
                  11
                  11
                  11
                  11
                  11
                  11
                  11
                  11
                  11
                  11
                  11
                  11
                  11
                  11
                  11
                  11
                  11
                  11
                  11
                  11
                  11
                  11
                  11
                  11
                  11
                  11
                  11
                  11
                  11
                  11
                  11
                  11
                  11
                  11
                  11
                  11
                  11
                  11
                  11
                  11
                  11
                  11
                  11
                  11
                  11
                  11
                  11
                  11
                  11
                  11
                  11
                  11
                  11
                  11
                  11
                  11
                  11
                  11
                  11
                  11
                  11
                  11
                  11
                  11
                  11
                  11
                  11
                  11
                  11
                  11
                  11
                  11
                  11
                  11
                  11
                  11
                  11
                  11
                  11
                  11
                  11
                  11
                  11
                  11
                  11
                  11
                  11
                  11
                  11
                  11
                  11
                  11
                  11
                  11
                  11
                  11
                  11
                  11
                  11
                  11
                  11
                  11
                  11
                  11
                  11
                  11
                  11
                  11
                  11
                  11
                  11
                  11
                  11
                  11
                  11
                  11
                  11
                  11
                  11
                  11
                  11
                  11
                  11
                  11
                  11
                  11
                  11
                  11
                  11
                  11
                  11
                  11
                  11
                  11
                  11
                  11
                  11
                  11
                  11
                  11
                  11
                  11
                  11
                  11
                  11
                  11
                  11
                  11
                  11
                  11
                  11
                  11
                  11
                  11
                  11
                  11
                  11
                  11
                  11
                  11
                  11
                  11
                  11
                  11
                  11
                  11
                  11
                  11
                  11
                  11
                  11
                  11
                  11
                  11
                  11
                  11
                  11
                  11
                  11
                  11
                  11
                  11
                  11
                  11
                  11
                  11
                  11
                  11
                  11
                  11
                  11
                  11
                  11
                  11
                  11
                  11
                  11
                  11
                  11
                  11
                  11
                  11
                  11
                  11
                  11
                  11
                  11
                  11
                  11
                  11
                  11
                  11
                  11
                  11
                  11
                  11
                  11
                  11
                  11
                  11
                  11
                  11
                  11
                  11
                  11
                  11
                  12
                  12
                  12
                  12
                  12
                  12
                  12
                  12
                  12
                  12
                  12
                  12
                  12
                  12
                  12
                  12
                  12
                  12
                  12
                  12
                  12
                  12
                  12
                  12
                  12
                  12
                  12
                  12
                  12
                  12
                  12
                  12
                  12
                  12
                  12
                  12
                  12
                  12
                  12
                  12
                  12
                  12
                  12
                  12
                  12
                  12
                  12
                  12
                  12
                  12
                  12
                  12
                  12
                  12
                  12
                  12
                  12
                  12
                  12
                  12
                  12
                  12
                  12
                  12
                  12
                  12
                  12
                  12
                  12
                  12
                  12
                  12
                  12
                  12
                  12
                  12
                  12
                  12
                  12
                  12
                  12
                  12
                  12
                  12
                  12
                  12
                  12
                  12
                  12
                  12
                  12
                  12
                  12
                  12
                  12
                  12
                  12
                  12
                  12
                  12
                  12
                  12
                  12
                  12
                  12
                  12
                  12
                  12
                  12
                  12
                  12
                  12
                  12
                  12
                  12
                  12
                  12
                  12
                  12
                  12
                  12
                  12
                  12
                  12
                  12
                  12
                  12
                  12
                  12
                  12
                  12
                  12
                  12
                  12
                  12
                  12
                  12
                  12
                  12
                  12
                  12
                  12
                  12
                  12
                  12
                  12
                  12
                  12
                  12
                  12
                  12
                  12
                  12
                  12
                  12
                  12
                  12
                  12
                  12
                  12
                  12
                  12
                  12
                  12
                  12
                  12
                  12
                  12
                  12
                  12
                  12
                  12
                  12
                  12
                  12
                  12
                  12
                  12
                  12
                  12
                  12
                  12
                  12
                  12
                  12
                  12
                  12
                  12
                  12
                  12
                  12
                  12
                  12
                  12
                  12
                  12
                  12
                  12
                  12
                  12
                  12
                  12
                  12
                  12
                  12
                  12
                  12
                  12
                  12
                  12
                  12
                  12
                  12
                  12
                  12
                  12
                  12
                  12
                  12
                  12
                  12
                  12
                  12
                  12
                  12
                  12
                  12
                  12
                  12
                  12
                  12
                  12
                  12
                  12
                  13
                  13
                  13
                  13
                  13
                  13
                  13
                  13
                  13
                  13
                  13
                  13
                  13
                  13
                  13
                  13
                  13
                  13
                  13
                  13
                  13
                  13
                  13
                  13
                  13
                  13
                  13
                  13
                  13
                  13
                  13
                  13
                  13
                  13
                  13
                  13
                  13
                  13
                  13
                  13
                  13
                  13
                  13
                  13
                  13
                  13
                  13
                  13
                  13
                  13
                  13
                  13
                  13
                  13
                  13
                  13
                  13
                  13
                  13
                  13
                  13
                  13
                  13
                  13
                  13
                  13
                  13
                  13
                  13
                  13
                  13
                  13
                  13
                  13
                  13
                  13
                  13
                  13
                  13
                  13
                  13
                  13
                  13
                  13
                  13
                  13
                  13
                  13
                  13
                  13
                  13
                  13
                  13
                  13
                  13
                  13
                  13
                  13
                  13
                  13
                  13
                  13
                  13
                  13
                  13
                  13
                  13
                  13
                  13
                  13
                  13
                  13
                  13
                  13
                  13
                  13
                  13
                  13
                  13
                  13
                  13
                  13
                  13
                  13
                  13
                  13
                  13
                  13
                  13
                  13
                  13
                  13
                  13
                  13
                  13
                  13
                  13
                  13
                  13
                  13
                  13
                  13
                  13
                  13
                  13
                  13
                  13
                  13
                  13
                  13
                  13
                  13
                  13
                  13
                  13
                  13
                  13
                  13
                  13
                  13
                  13
                  13
                  13
                  13
                  13
                  13
                  13
                  13
                  13
                  13
                  13
                  13
                  13
                  13
                  13
                  13
                  13
                  13
                  13
                  13
                  13
                  13
                  13
                  13
                  13
                  13
                  13
                  13
                  13
                  13
                  13
                  13
                  13
                  13
                  13
                  13
                  13
                  13
                  13
                  13
                  13
                  13
                  13
                  13
                  13
                  13
                  13
                  13
                  13
                  13
                  13
                  13
                  13
                  13
                  13
                  13
                  13
                  13
                  13
                  13
                  13
                  13
                  13
                  13
                  13
                  13
                  13
                  13
                  13
                  13
                  13
                  13
                  13
                  13
                  14
                  14
                  14
                  14
                  14
                  14
                  14
                  14
                  14
                  14
                  14
                  14
                  14
                  14
                  14
                  14
                  14
                  14
                  14
                  14
                  14
                  14
                  14
                  14
                  14
                  14
                  14
                  14
                  14
                  14
                  14
                  14
                  14
                  14
                  14
                  14
                  14
                  14
                  14
                  14
                  14
                  14
                  14
                  14
                  14
                  14
                  14
                  14
                  14
                  14
                  14
                  14
                  14
                  14
                  14
                  14
                  14
                  14
                  14
                  14
                  14
                  14
                  14
                  14
                  14
                  14
                  14
                  14
                  14
                  14
                  14
                  14
                  14
                  14
                  14
                  14
                  14
                  14
                  14
                  14
                  14
                  14
                  14
                  14
                  14
                  14
                  14
                  14
                  14
                  14
                  14
                  14
                  14
                  14
                  14
                  14
                  14
                  14
                  14
                  14
                  14
                  14
                  14
                  14
                  14
                  14
                  14
                  14
                  14
                  14
                  14
                  14
                  14
                  14
                  14
                  14
                  14
                  14
                  14
                  14
                  14
                  14
                  14
                  14
                  14
                  14
                  14
                  14
                  14
                  14
                  14
                  14
                  14
                  14
                  14
                  14
                  14
                  14
                  14
                  14
                  14
                  14
                  14
                  14
                  14
                  14
                  14
                  14
                  14
                  14
                  14
                  14
                  14
                  14
                  14
                  14
                  14
                  14
                  14
                  14
                  14
                  14
                  14
                  14
                  14
                  14
                  14
                  14
                  14
                  14
                  14
                  14
                  14
                  14
                  14
                  14
                  14
                  14
                  14
                  14
                  14
                  14
                  14
                  14
                  14
                  14
                  14
                  14
                  14
                  14
                  14
                  14
                  14
                  14
                  14
                  14
                  14
                  14
                  14
                  14
                  14
                  14
                  14
                  14
                  14
                  14
                  14
                  14
                  14
                  14
                  14
                  14
                  14
                  14
                  14
                  14
                  14
                  14
                  14
                  14
                  14
                  14
                  14
                  14
                  14
                  14
                  14
                  14
                  14
                  14
                  14
                  14
                  14
                  14
                  15
                  15
                  15
                  15
                  15
                  15
                  15
                  15
                  15
                  15
                  15
                  15
                  15
                  15
                  15
                  15
                  15
                  15
                  15
                  15
                  15
                  15
                  15
                  15
                  15
                  15
                  15
                  15
                  15
                  15
                  15
                  15
                  15
                  15
                  15
                  15
                  15
                  15
                  15
                  15
                  15
                  15
                  15
                  15
                  15
                  15
                  15
                  15
                  15
                  15
                  15
                  15
                  15
                  15
                  15
                  15
                  15
                  15
                  15
                  15
                  15
                  15
                  15
                  15
                  15
                  15
                  15
                  15
                  15
                  15
                  15
                  15
                  15
                  15
                  15
                  15
                  15
                  15
                  15
                  15
                  15
                  15
                  15
                  15
                  15
                  15
                  15
                  15
                  15
                  15
                  15
                  15
                  15
                  15
                  15
                  15
                  15
                  15
                  15
                  15
                  15
                  15
                  15
                  15
                  15
                  15
                  15
                  15
                  15
                  15
                  15
                  15
                  15
                  15
                  15
                  15
                  15
                  15
                  15
                  15
                  15
                  15
                  15
                  15
                  15
                  15
                  15
                  15
                  15
                  15
                  15
                  15
                  15
                  15
                  15
                  15
                  15
                  15
                  15
                  15
                  15
                  15
                  15
                  15
                  15
                  15
                  15
                  15
                  15
                  15
                  15
                  15
                  15
                  15
                  15
                  15
                  15
                  15
                  15
                  15
                  15
                  15
                  15
                  15
                  15
                  15
                  15
                  15
                  15
                  15
                  15
                  15
                  15
                  15
                  15
                  15
                  15
                  15
                  15
                  15
                  15
                  15
                  15
                  15
                  15
                  15
                  15
                  15
                  15
                  15
                  15
                  15
                  15
                  15
                  15
                  15
                  15
                  15
                  15
                  15
                  15
                  15
                  15
                  15
                  15
                  15
                  15
                  15
                  15
                  15
                  15
                  15
                  15
                  15
                  15
                  15
                  15
                  15
                  15
                  15
                  15
                  15
                  15
                  15
                  15
                  15
                  15
                  15
                  15
                  15
                  15
                  15
                  15
                  15
                  15
                  15
                  15
                  15
                  15
                  15
                  15
                  15
                  15
                  15
                  15
                  15
                  15
                  15
                  15
                  15
                  15
                  15
                  15
                  15
                  15
                  15
                  15
                  15
                  15
                  15
                  15
                  15
                  15
                  15
                  15
                  15
                  15
                  15
                  15
                  15
                  15
                  15
                  15
                  15
                  15
                  15
                  15
                  15
                  15
                  15
                  15
                  15
                  15
                  15
                  15
                  15
                  15
                  15
                  15
                  15
                  15
                  15
                  15
                  15
                  15
                  15
                  15
                  15
                  15
                  15
                  15
                  15
                  15
                  15
                  15
                  15
                  15
                  15
                  15
                  15
                  15
                  15
                  16
                  16
                  16
                  16
                  16
                  16
                  16
                  16
                  16
                  16
                  16
                  16
                  16
                  16
                  16
                  16
                  16
                  16
                  16
                  16
                  16
                  16
                  16
                  16
                  16
                  16
                  16
                  16
                  16
                  16
                  16
                  16
                  16
                  16
                  16
                  16
                  16
                  16
                  16
                  16
                  16
                  16
                  16
                  16
                  16
                  16
                  16
                  16
                  16
                  16
                  16
                  16
                  16
                  16
                  16
                  16
                  16
                  16
                  16
                  16
                  16
                  16
                  16
                  16
                  16
                  16
                  16
                  16
                  16
                  16
                  16
                  16
                  16
                  16
                  16
                  16
                  16
                  16
                  16
                  16
                  16
                  16
                  16
                  16
                  16
                  16
                  16
                  16
                  16
                  16
                  16
                  16
                  16
                  16
                  16
                  16
                  16
                  16
                  16
                  16
                  16
                  16
                  16
                  16
                  16
                  16
                  16
                  16
                  16
                  16
                  16
                  16
                  16
                  16
                  16
                  16
                  16
                  16
                  16
                  16
                  16
                  16
                  16
                  16
                  16
                  16
                  16
                  16
                  16
                  16
                  16
                  16
                  16
                  16
                  16
                  16
                  16
                  16
                  16
                  16
                  16
                  16
                  16
                  16
                  16
                  16
                  16
                  16
                  16
                  16
                  16
                  16
                  16
                  16
                  16
                  16
                  16
                  16
                  16
                  16
                  16
                  16
                  16
                  16
                  16
                  16
                  16
                  16
                  16
                  16
                  16
                  16
                  16
                  16
                  16
                  16
                  16
                  16
                  16
                  16
                  16
                  16
                  16
                  16
                  16
                  16
                  16
                  16
                  16
                  16
                  16
                  16
                  16
                  16
                  16
                  16
                  16
                  16
                  16
                  16
                  16
                  16
                  16
                  16
                  16
                  16
                  16
                  16
                  16
                  16
                  16
                  16
                  16
                  16
                  16
                  16
                  16
                  16
                  16
                  16
                  16
                  16
                  16
                  16
                  16
                  16
                  16
                  16
                  16
                  16
                  16
                  16
                  16
                  16
                  17
                  17
                  17
                  17
                  17
                  17
                  17
                  17
                  17
                  17
                  17
                  17
                  17
                  17
                  17
                  17
                  17
                  17
                  17
                  17
                  17
                  17
                  17
                  17
                  17
                  17
                  17
                  17
                  17
                  17
                  17
                  17
                  17
                  17
                  17
                  17
                  17
                  17
                  17
                  17
                  17
                  17
                  17
                  17
                  17
                  17
                  17
                  17
                  17
                  17
                  17
                  17
                  17
                  17
                  17
                  17
                  17
                  17
                  17
                  17
                  17
                  17
                  17
                  17
                  17
                  17
                  17
                  17
                  17
                  17
                  17
                  17
                  17
                  17
                  17
                  17
                  17
                  17
                  17
                  17
                  17
                  17
                  17
                  17
                  17
                  17
                  17
                  17
                  17
                  17
                  17
                  17
                  17
                  17
                  17
                  17
                  17
                  17
                  17
                  17
                  17
                  17
                  17
                  17
                  17
                  17
                  17
                  17
                  17
                  17
                  17
                  17
                  17
                  17
                  17
                  17
                  17
                  17
                  17
                  17
                  17
                  17
                  17
                  17
                  17
                  17
                  17
                  17
                  17
                  17
                  17
                  17
                  17
                  17
                  17
                  17
                  17
                  17
                  17
                  17
                  17
                  17
                  17
                  17
                  17
                  17
                  17
                  17
                  17
                  17
                  17
                  17
                  17
                  17
                  17
                  17
                  17
                  17
                  17
                  17
                  17
                  17
                  17
                  17
                  17
                  17
                  17
                  17
                  17
                  17
                  17
                  17
                  17
                  17
                  17
                  17
                  17
                  17
                  17
                  17
                  17
                  17
                  17
                  17
                  17
                  17
                  17
                  17
                  17
                  17
                  17
                  17
                  17
                  17
                  17
                  17
                  17
                  17
                  17
                  17
                  17
                  17
                  17
                  17
                  17
                  17
                  17
                  17
                  17
                  17
                  17
                  17
                  17
                  17
                  17
                  17
                  17
                  17
                  17
                  17
                  17
                  17
                  17
                  17
                  17
                  17
                  17
                  17
                  17
                  17
                  17
                  17
                  17
                  17
                  18
                  18
                  18
                  18
                  18
                  18
                  18
                  18
                  18
                  18
                  18
                  18
                  18
                  18
                  18
                  18
                  18
                  18
                  18
                  18
                  18
                  18
                  18
                  18
                  18
                  18
                  18
                  18
                  18
                  18
                  18
                  18
                  18
                  18
                  18
                  18
                  18
                  18
                  18
                  18
                  18
                  18
                  18
                  18
                  18
                  18
                  18
                  18
                  18
                  18
                  18
                  18
                  18
                  18
                  18
                  18
                  18
                  18
                  18
                  18
                  18
                  18
                  18
                  18
                  18
                  18
                  18
                  18
                  18
                  18
                  18
                  18
                  18
                  18
                  18
                  18
                  18
                  18
                  18
                  18
                  18
                  18
                  18
                  18
                  18
                  18
                  18
                  18
                  18
                  18
                  18
                  18
                  18
                  18
                  18
                  18
                  18
                  18
                  18
                  18
                  18
                  18
                  18
                  18
                  18
                  18
                  18
                  18
                  18
                  18
                  18
                  18
                  18
                  18
                  18
                  18
                  18
                  18
                  18
                  18
                  18
                  18
                  18
                  18
                  18
                  18
                  18
                  18
                  18
                  18
                  18
                  18
                  18
                  18
                  18
                  18
                  18
                  18
                  18
                  18
                  18
                  18
                  18
                  18
                  18
                  18
                  18
                  18
                  18
                  18
                  18
                  18
                  18
                  18
                  18
                  18
  
SCALARS                 displacement_x  double 1
LOOKUP_TABLE default
        -0.11512E-03
        -0.16410E-03
        -0.15995E-03
        -0.10916E-03
        -0.52791E-05
        -0.10651E-02
        -0.65780E-03
        -0.58304E-03
        -0.16767E-03
        -0.13656E-03
         0.34375E-04
        -0.74089E-03
        -0.17195E-03
        -0.12842E-03
        -0.41730E-04
        -0.57047E-03
        -0.49758E-04
        -0.73219E-04
         0.68169E-06
        -0.49795E-03
        -0.18175E-03
        -0.19779E-03
        -0.16147E-03
        -0.10346E-03
        -0.92507E-03
        -0.72586E-03
        -0.14647E-03
        -0.19488E-03
        -0.51984E-04
        -0.96807E-03
        -0.98331E-05
        -0.17770E-04
        -0.46894E-04
         0.63514E-05
        -0.78617E-04
        -0.21400E-03
         0.52933E-05
        -0.36885E-04
         0.21738E-05
        -0.13556E-04
        -0.41110E-04
        -0.91166E-04
        -0.52699E-04
         0.67265E-06
        -0.21926E-04
        -0.14949E-05
        -0.16372E-04
        -0.34507E-04
        -0.71987E-04
         0.20348E-04
        -0.13642E-04
        -0.27654E-04
        -0.10942E-03
        -0.92606E-04
        -0.13260E-03
        -0.14908E-03
        -0.19504E-03
        -0.12409E-03
        -0.90952E-05
        -0.84559E-03
        -0.26580E-04
        -0.35322E-04
        -0.25737E-04
        -0.34466E-03
        -0.27758E-04
        -0.35856E-04
        -0.56268E-04
        -0.70815E-05
        -0.15320E-03
        -0.14499E-03
        -0.50195E-04
        -0.72247E-03
        -0.13685E-03
        -0.48194E-04
        -0.16568E-03
        -0.64877E-04
        -0.20118E-03
        -0.12830E-03
        -0.27580E-03
        -0.25554E-03
        -0.34329E-03
        -0.27905E-03
        -0.37029E-03
        -0.79506E-03
        -0.17768E-03
        -0.99191E-04
        -0.10610E-04
         0.30936E-04
        -0.96029E-05
         0.96104E-04
        -0.36963E-05
        -0.25722E-04
         0.70327E-04
        -0.72783E-03
        -0.38636E-05
         0.37055E-04
         0.79362E-05
         0.46001E-04
        -0.42407E-05
         0.96608E-04
        -0.16325E-04
        -0.78082E-04
         0.14841E-03
        -0.72914E-03
        -0.12971E-03
        -0.23608E-03
         0.10731E-03
        -0.14446E-02
        -0.68783E-04
         0.64596E-05
        -0.36743E-04
        -0.93475E-05
        -0.58360E-04
        -0.20957E-04
        -0.12839E-03
        -0.17479E-03
        -0.19272E-03
        -0.34199E-03
        -0.22695E-03
        -0.22249E-03
        -0.30722E-03
        -0.30230E-03
        -0.43498E-03
        -0.44823E-03
        -0.50830E-03
        -0.60951E-03
        -0.41220E-03
        -0.34688E-03
        -0.28957E-03
        -0.34825E-04
        -0.23132E-03
        -0.23486E-04
        -0.15449E-03
         0.14068E-03
        -0.66354E-04
         0.26271E-03
         0.22199E-04
         0.34829E-03
         0.76350E-04
         0.55635E-03
         0.70769E-04
         0.65235E-03
         0.69744E-04
         0.58290E-03
         0.96142E-04
         0.59580E-03
         0.10116E-03
         0.71695E-03
         0.74509E-04
         0.68525E-03
         0.52911E-04
         0.69597E-03
        -0.15605E-04
         0.36154E-03
        -0.11675E-03
         0.18219E-03
         0.82704E-04
         0.99060E-04
         0.12105E-03
         0.10277E-03
         0.18742E-03
         0.18551E-03
         0.10543E-03
         0.10289E-03
         0.94388E-04
         0.10838E-03
         0.10931E-03
         0.10003E-03
         0.11234E-03
         0.10654E-03
         0.82930E-04
         0.11385E-03
         0.11215E-03
         0.87396E-04
         0.12714E-03
         0.10870E-03
         0.10834E-03
         0.78995E-04
         0.13127E-03
         0.13443E-03
         0.10478E-03
         0.13585E-03
         0.96852E-04
         0.84329E-04
         0.70145E-04
         0.89802E-04
         0.12230E-03
         0.14772E-03
         0.12318E-03
         0.16265E-03
         0.21881E-03
         0.17469E-03
         0.13401E-03
         0.56643E-04
         0.37714E-04
         0.27675E-04
         0.14518E-04
         0.39251E-04
         0.56430E-04
         0.15419E-03
         0.18366E-03
         0.20879E-03
         0.17952E-03
         0.16113E-03
         0.17903E-03
         0.23212E-03
         0.28232E-03
         0.23361E-03
         0.33060E-03
         0.30061E-03
         0.27723E-03
         0.17929E-03
         0.10372E-03
         0.57340E-04
         0.18717E-04
        -0.18581E-04
        -0.52356E-04
        -0.74853E-04
        -0.70099E-04
        -0.42637E-04
        -0.24667E-05
         0.36319E-04
         0.81445E-04
         0.13518E-03
         0.20132E-03
         0.26335E-03
         0.27294E-03
         0.22964E-03
         0.20921E-03
         0.25723E-03
         0.34744E-03
         0.39456E-03
         0.33607E-03
         0.27895E-03
         0.11903E-03
         0.13922E-03
         0.15033E-03
         0.11901E-03
         0.19734E-03
         0.17294E-03
         0.15452E-03
         0.14220E-03
         0.11259E-03
         0.12865E-03
         0.16169E-03
         0.15459E-03
         0.15315E-03
         0.15111E-03
         0.14392E-03
         0.12004E-03
         0.11548E-03
         0.10492E-03
         0.13146E-03
         0.12088E-03
         0.15576E-03
         0.14144E-03
         0.17151E-03
         0.14800E-03
         0.12716E-03
         0.14657E-03
         0.13834E-03
         0.14617E-03
         0.16122E-03
         0.13259E-03
         0.12446E-03
         0.15234E-03
         0.12288E-03
         0.15006E-03
         0.23564E-03
         0.19835E-03
         0.16145E-03
         0.13408E-03
         0.15068E-03
         0.18117E-03
         0.19686E-03
         0.17330E-03
         0.14689E-03
         0.17972E-03
         0.19249E-03
         0.20398E-03
         0.17003E-03
         0.14487E-03
         0.15604E-03
         0.19513E-03
         0.22693E-03
         0.19510E-03
         0.32561E-03
         0.27924E-03
         0.27897E-03
         0.18998E-03
         0.13711E-03
         0.12216E-03
         0.12126E-03
         0.12277E-03
         0.14295E-03
         0.19098E-03
         0.22061E-03
         0.19801E-03
         0.19409E-03
         0.21919E-03
         0.23702E-03
         0.23702E-03
         0.24020E-03
         0.25798E-03
         0.25594E-03
         0.20809E-03
         0.17218E-03
         0.19744E-03
         0.26264E-03
         0.29417E-03
         0.26044E-03
         0.23849E-03
         0.43821E-04
         0.44307E-04
         0.36776E-04
         0.30480E-04
         0.22921E-04
        -0.11193E-05
         0.52989E-04
         0.50631E-04
         0.41577E-04
         0.46903E-04
         0.58911E-04
         0.62284E-04
         0.50899E-04
         0.56492E-04
         0.65722E-04
         0.42649E-04
         0.41596E-04
         0.36786E-04
         0.49796E-04
         0.49717E-04
         0.73909E-04
         0.75864E-04
         0.70607E-04
         0.56297E-04
         0.52048E-04
         0.49378E-04
         0.57064E-04
         0.71615E-04
         0.92008E-04
         0.65021E-04
         0.30466E-04
         0.34580E-04
         0.21568E-04
         0.53588E-05
         0.32840E-04
         0.36970E-04
         0.40518E-04
         0.72135E-04
         0.93961E-04
         0.12229E-03
         0.13961E-03
         0.11406E-03
         0.88446E-04
         0.55563E-04
         0.34115E-04
         0.12769E-04
         0.82217E-05
        -0.72941E-06
        -0.14850E-04
        -0.34834E-04
        -0.57776E-04
        -0.31602E-04
         0.27945E-04
         0.42737E-05
         0.28463E-04
         0.32547E-04
         0.45823E-04
         0.65531E-04
         0.84442E-04
         0.10036E-03
         0.13115E-03
         0.17029E-03
         0.18195E-03
         0.15051E-03
         0.13569E-03
         0.14373E-03
         0.13511E-03
         0.10073E-03
         0.57174E-04
         0.17699E-04
        -0.11288E-04
        -0.32854E-04
        -0.56811E-04
        -0.90590E-04
        -0.12149E-03
        -0.12778E-03
        -0.10236E-03
        -0.50108E-04
        -0.17190E-06
        -0.13356E-05
        -0.81147E-05
        -0.68092E-05
        -0.23819E-04
        -0.35204E-04
         0.49951E-05
         0.42246E-05
         0.25835E-05
         0.68225E-05
         0.11174E-04
         0.18162E-04
         0.77554E-05
         0.11747E-04
         0.23850E-04
         0.77083E-05
         0.77015E-05
         0.18459E-05
         0.13265E-04
         0.17868E-04
         0.29424E-04
         0.37747E-04
         0.22948E-04
         0.15475E-04
         0.16977E-04
         0.10140E-04
         0.17127E-04
         0.32272E-04
         0.51982E-04
         0.32326E-04
        -0.10852E-05
        -0.25908E-05
        -0.83954E-05
        -0.25266E-04
        -0.23548E-04
        -0.14038E-04
        -0.36600E-05
         0.33273E-04
         0.52422E-04
         0.74921E-04
         0.88601E-04
         0.71057E-04
         0.51852E-04
         0.92231E-05
        -0.10676E-04
        -0.29426E-04
        -0.25471E-04
        -0.26005E-04
        -0.37212E-04
        -0.57957E-04
        -0.79791E-04
        -0.58259E-04
        -0.42151E-04
        -0.51322E-04
        -0.31673E-04
        -0.10931E-04
         0.10280E-04
         0.29919E-04
         0.45579E-04
         0.59650E-04
         0.85544E-04
         0.11197E-03
         0.11724E-03
         0.93957E-04
         0.82658E-04
         0.81395E-04
         0.65242E-04
         0.34729E-04
        -0.14961E-05
        -0.36778E-04
        -0.58020E-04
        -0.61986E-04
        -0.68453E-04
        -0.93683E-04
        -0.12576E-03
        -0.13761E-03
        -0.11908E-03
        -0.81710E-04
        -0.40332E-05
        -0.33674E-05
        -0.48566E-05
        -0.40637E-05
        -0.81222E-05
        -0.99176E-05
        -0.52544E-06
        -0.14640E-05
        -0.23934E-05
         0.55204E-06
         0.26730E-05
         0.62124E-05
         0.15560E-05
         0.33348E-05
         0.98168E-05
         0.23051E-05
         0.17635E-05
        -0.12382E-05
         0.53324E-05
         0.87324E-05
         0.13573E-04
         0.19968E-04
         0.10149E-04
         0.67237E-05
         0.78809E-05
         0.47682E-05
         0.74995E-05
         0.17935E-04
         0.31903E-04
         0.18649E-04
         0.81580E-06
         0.28565E-06
        -0.14739E-05
        -0.57307E-05
        -0.80950E-05
        -0.59589E-05
        -0.29736E-05
         0.17173E-04
         0.30910E-04
         0.47245E-04
         0.58039E-04
         0.45878E-04
         0.31309E-04
         0.43351E-05
        -0.36194E-05
        -0.10451E-04
        -0.74884E-05
        -0.57701E-05
        -0.73050E-05
        -0.11642E-04
        -0.16862E-04
        -0.13487E-04
        -0.12775E-04
        -0.16340E-04
        -0.11333E-04
        -0.61391E-05
         0.23097E-05
         0.11201E-04
         0.19460E-04
         0.30396E-04
         0.50028E-04
         0.71552E-04
         0.79597E-04
         0.64323E-04
         0.50018E-04
         0.42525E-04
         0.30414E-04
         0.13985E-04
        -0.26678E-05
        -0.16568E-04
        -0.22418E-04
        -0.20032E-04
        -0.17467E-04
        -0.20361E-04
        -0.25935E-04
        -0.29170E-04
        -0.28766E-04
        -0.23369E-04
        -0.96780E-06
        -0.48552E-06
        -0.20264E-06
         0.12808E-06
         0.13021E-06
         0.83597E-06
         0.81872E-07
        -0.18524E-06
        -0.82082E-06
         0.51706E-06
         0.88327E-06
         0.10888E-05
        -0.30950E-06
         0.15253E-05
         0.31867E-05
         0.12098E-05
         0.78978E-06
         0.14402E-06
         0.21649E-05
         0.40223E-05
         0.48738E-05
         0.90640E-05
         0.29361E-05
         0.26109E-05
         0.38996E-05
         0.22845E-05
         0.38645E-05
         0.93373E-05
         0.17227E-04
         0.95016E-05
         0.17378E-05
         0.12414E-05
         0.17605E-05
         0.22297E-05
         0.28300E-06
        -0.49073E-06
        -0.11264E-05
         0.79512E-05
         0.16211E-04
         0.26379E-04
         0.34117E-04
         0.26419E-04
         0.16738E-04
         0.98472E-06
        -0.12859E-05
        -0.31398E-05
        -0.95116E-06
         0.85700E-06
         0.22380E-05
         0.34925E-05
         0.40645E-05
         0.27090E-05
         0.55597E-06
        -0.14161E-05
        -0.27381E-05
        -0.52751E-05
        -0.31936E-05
         0.70596E-07
         0.40303E-05
         0.11857E-04
         0.25319E-04
         0.41468E-04
         0.50410E-04
         0.41286E-04
         0.27641E-04
         0.18001E-04
         0.92120E-05
         0.87155E-06
        -0.54917E-05
        -0.89616E-05
        -0.86429E-05
        -0.55190E-05
        -0.20278E-05
         0.93916E-06
         0.38937E-05
         0.51417E-05
         0.24434E-05
        -0.12720E-05
         0.22855E-06
         0.29515E-06
         0.44019E-06
         0.73105E-06
         0.15323E-06
         0.63818E-06
         0.31339E-06
         0.48231E-06
         0.47362E-07
         0.69319E-06
         0.35627E-06
        -0.68741E-06
        -0.10952E-05
         0.94503E-06
         0.49508E-06
         0.74471E-06
         0.57460E-06
         0.47898E-06
         0.83254E-06
         0.18299E-05
         0.76331E-06
         0.34382E-05
        -0.55000E-06
         0.67276E-06
         0.20345E-05
         0.76971E-06
         0.21370E-05
         0.46617E-05
         0.86183E-05
         0.46021E-05
         0.91570E-06
         0.23389E-06
         0.11324E-05
         0.15330E-05
         0.53012E-07
        -0.42596E-06
        -0.11559E-05
         0.31277E-05
         0.75954E-05
         0.13285E-04
         0.17924E-04
         0.13696E-04
         0.80737E-05
        -0.13300E-05
        -0.22567E-05
        -0.32957E-05
        -0.14616E-05
        -0.19297E-06
         0.70449E-06
         0.15573E-05
         0.19092E-05
         0.15542E-05
        -0.41731E-06
        -0.18275E-05
        -0.33588E-05
        -0.60391E-05
        -0.53450E-05
        -0.39866E-05
        -0.23527E-05
         0.20509E-05
         0.10317E-04
         0.20874E-04
         0.27543E-04
         0.22320E-04
         0.12807E-04
         0.51877E-05
        -0.10350E-05
        -0.54653E-05
        -0.80827E-05
        -0.89452E-05
        -0.78513E-05
        -0.56548E-05
        -0.36119E-05
        -0.18215E-05
         0.31167E-06
         0.16591E-05
         0.67900E-06
        -0.16132E-05
         0.45981E-06
         0.43070E-06
         0.36759E-06
         0.60892E-06
        -0.47173E-06
        -0.32767E-06
         0.40223E-06
         0.67619E-06
         0.26134E-06
         0.69831E-06
         0.26808E-06
        -0.11493E-05
        -0.12008E-05
         0.74737E-06
        -0.62012E-06
         0.58927E-06
         0.47444E-06
         0.44844E-06
         0.39900E-06
         0.87663E-06
        -0.77775E-06
         0.71937E-06
        -0.14984E-05
         0.11103E-06
         0.11462E-05
         0.33803E-06
         0.12740E-05
         0.22866E-05
         0.41338E-05
         0.21951E-05
         0.53919E-06
        -0.71932E-07
         0.56138E-06
         0.47071E-06
        -0.71989E-06
        -0.74515E-06
        -0.11524E-05
         0.56116E-06
         0.28770E-05
         0.60754E-05
         0.87604E-05
         0.66217E-05
         0.33884E-05
        -0.17552E-05
        -0.23059E-05
        -0.32102E-05
        -0.16923E-05
        -0.87637E-06
        -0.65430E-06
        -0.63300E-06
        -0.93038E-06
        -0.39582E-06
        -0.20144E-05
        -0.31171E-05
        -0.40940E-05
        -0.59675E-05
        -0.56901E-05
        -0.52213E-05
        -0.51265E-05
        -0.34733E-05
         0.15094E-05
         0.87344E-05
         0.13718E-04
         0.10794E-04
         0.39458E-05
        -0.12601E-05
        -0.49109E-05
        -0.68094E-05
        -0.77242E-05
        -0.80637E-05
        -0.73518E-05
        -0.58598E-05
        -0.47827E-05
        -0.43589E-05
        -0.36910E-05
        -0.28795E-05
        -0.27603E-05
        -0.34612E-05
         0.49568E-06
         0.42217E-06
         0.34237E-06
         0.61250E-06
        -0.54435E-06
        -0.38490E-06
         0.41209E-06
         0.75884E-06
         0.31440E-06
         0.71886E-06
         0.24180E-06
        -0.14131E-05
        -0.13716E-05
         0.71437E-06
        -0.11092E-05
         0.57872E-06
         0.45417E-06
         0.45081E-06
         0.26747E-06
         0.51725E-06
        -0.15053E-05
        -0.56217E-06
        -0.20367E-05
        -0.96323E-07
         0.81650E-06
         0.23108E-06
         0.96478E-06
         0.13209E-05
         0.21890E-05
         0.11787E-05
         0.55647E-06
        -0.77524E-07
         0.55958E-06
         0.43728E-06
        -0.86205E-06
        -0.87637E-06
        -0.12891E-05
        -0.55611E-06
         0.81120E-06
         0.29008E-05
         0.45689E-05
         0.32680E-05
         0.11182E-05
        -0.20599E-05
        -0.24122E-05
        -0.32266E-05
        -0.15983E-05
        -0.75095E-06
        -0.62651E-06
        -0.72257E-06
        -0.10647E-05
        -0.47776E-06
        -0.23074E-05
        -0.32787E-05
        -0.44853E-05
        -0.63584E-05
        -0.62356E-05
        -0.60761E-05
        -0.65526E-05
        -0.60910E-05
        -0.26206E-05
         0.32368E-05
         0.72606E-05
         0.47576E-05
        -0.84236E-06
        -0.46397E-05
        -0.70541E-05
        -0.80611E-05
        -0.82640E-05
        -0.82946E-05
        -0.75065E-05
        -0.57355E-05
        -0.44936E-05
        -0.43024E-05
        -0.39644E-05
        -0.31276E-05
        -0.29208E-05
        -0.36301E-05
         0.48610E-06
         0.30530E-06
         0.27032E-06
         0.67759E-06
        -0.60390E-06
        -0.22177E-06
         0.29648E-06
         0.79077E-06
         0.33608E-06
         0.76403E-06
         0.12361E-06
        -0.18556E-05
        -0.19039E-05
         0.72259E-06
        -0.13736E-05
         0.61082E-06
         0.47178E-06
         0.50218E-06
         0.19903E-06
         0.44428E-06
        -0.19434E-05
        -0.89524E-06
        -0.27838E-05
        -0.33502E-06
         0.75973E-06
         0.62551E-07
         0.94183E-06
         0.10873E-05
         0.16707E-05
         0.93977E-06
         0.63023E-06
        -0.27131E-06
         0.74011E-06
         0.75410E-06
        -0.10078E-05
        -0.11529E-05
        -0.17639E-05
        -0.89252E-06
         0.19002E-06
         0.19667E-05
         0.34446E-05
         0.24678E-05
         0.63956E-06
        -0.29346E-05
        -0.33148E-05
        -0.42252E-05
        -0.20480E-05
        -0.77708E-06
        -0.38062E-06
        -0.23034E-06
        -0.37056E-06
         0.29617E-07
        -0.25137E-05
        -0.35454E-05
        -0.52452E-05
        -0.77116E-05
        -0.77509E-05
        -0.74162E-05
        -0.75301E-05
        -0.71560E-05
        -0.41394E-05
         0.14644E-05
         0.56073E-05
         0.36417E-05
        -0.15937E-05
        -0.56085E-05
        -0.85215E-05
        -0.10233E-04
        -0.10861E-04
        -0.10814E-04
        -0.95638E-05
        -0.70118E-05
        -0.49511E-05
        -0.42156E-05
        -0.34020E-05
        -0.21206E-05
        -0.20978E-05
        -0.35250E-05
         0.45687E-06
         0.24420E-06
         0.18508E-06
         0.65301E-06
        -0.69396E-06
        -0.18722E-06
         0.28864E-06
         0.82894E-06
         0.31327E-06
         0.79673E-06
         0.16767E-06
        -0.18819E-05
        -0.20718E-05
         0.83072E-06
        -0.12382E-05
         0.60884E-06
         0.45218E-06
         0.49137E-06
         0.20418E-06
         0.48311E-06
        -0.18611E-05
        -0.57269E-06
        -0.29367E-05
        -0.38508E-06
         0.78261E-06
        -0.17747E-07
         0.10703E-05
         0.12337E-05
         0.19811E-05
         0.10828E-05
         0.58494E-06
        -0.47486E-06
         0.74534E-06
         0.81661E-06
        -0.11394E-05
        -0.13162E-05
        -0.19732E-05
        -0.64850E-06
         0.51730E-06
         0.24790E-05
         0.43251E-05
         0.32918E-05
         0.12632E-05
        -0.33041E-05
        -0.38832E-05
        -0.50600E-05
        -0.26717E-05
        -0.12056E-05
        -0.60137E-06
        -0.20687E-06
        -0.15662E-06
         0.20940E-06
        -0.26503E-05
        -0.36922E-05
        -0.55666E-05
        -0.83625E-05
        -0.83871E-05
        -0.77092E-05
        -0.74462E-05
        -0.67996E-05
        -0.35349E-05
         0.23547E-05
         0.71543E-05
         0.57242E-05
         0.22960E-06
        -0.46719E-05
        -0.83025E-05
        -0.10709E-04
        -0.11963E-04
        -0.12229E-04
        -0.11166E-04
        -0.87036E-05
        -0.64572E-05
        -0.51856E-05
        -0.35794E-05
        -0.17208E-05
        -0.16472E-05
        -0.33816E-05
         0.48538E-06
         0.35815E-06
         0.25578E-06
         0.66588E-06
        -0.62782E-06
        -0.12319E-06
         0.44843E-06
         0.87900E-06
         0.29356E-06
         0.79190E-06
         0.36075E-06
        -0.15073E-05
        -0.16962E-05
         0.94457E-06
        -0.98114E-06
         0.59601E-06
         0.40749E-06
         0.47862E-06
         0.21904E-06
         0.43931E-06
        -0.16833E-05
        -0.52484E-06
        -0.27162E-05
        -0.32101E-06
         0.74775E-06
        -0.32890E-08
         0.11520E-05
         0.12897E-05
         0.19391E-05
         0.10094E-05
         0.51021E-06
        -0.53557E-06
         0.67187E-06
         0.77970E-06
        -0.10399E-05
        -0.11620E-05
        -0.17105E-05
        -0.37037E-06
         0.77556E-06
         0.25193E-05
         0.40319E-05
         0.30176E-05
         0.11351E-05
        -0.31687E-05
        -0.38725E-05
        -0.51952E-05
        -0.29204E-05
        -0.15385E-05
        -0.88728E-06
        -0.33019E-06
        -0.13725E-06
         0.26292E-06
        -0.24968E-05
        -0.35645E-05
        -0.52754E-05
        -0.78988E-05
        -0.75903E-05
        -0.68956E-05
        -0.69700E-05
        -0.61675E-05
        -0.27981E-05
         0.23974E-05
         0.62411E-05
         0.47735E-05
         0.17791E-08
        -0.43405E-05
        -0.76751E-05
        -0.10024E-04
        -0.11484E-04
        -0.12062E-04
        -0.11369E-04
        -0.93312E-05
        -0.74103E-05
        -0.59609E-05
        -0.37811E-05
        -0.15598E-05
        -0.13920E-05
        -0.31538E-05
         0.54019E-06
         0.51498E-06
         0.44315E-06
         0.75175E-06
        -0.37101E-06
        -0.14079E-09
         0.57341E-06
         0.87719E-06
         0.29375E-06
         0.73677E-06
         0.44077E-06
        -0.12479E-05
        -0.12781E-05
         0.89725E-06
        -0.10118E-05
         0.60247E-06
         0.37962E-06
         0.50716E-06
         0.21913E-06
         0.33329E-06
        -0.16631E-05
        -0.89907E-06
        -0.25371E-05
        -0.25892E-06
         0.63235E-06
         0.60155E-07
         0.10213E-05
         0.99867E-06
         0.11881E-05
         0.64136E-06
         0.52372E-06
        -0.44518E-06
         0.68578E-06
         0.82218E-06
        -0.63958E-06
        -0.77067E-06
        -0.12874E-05
        -0.61029E-06
         0.22101E-06
         0.12766E-05
         0.18554E-05
         0.12428E-05
         0.52295E-07
        -0.29179E-05
        -0.35758E-05
        -0.48456E-05
        -0.27424E-05
        -0.15039E-05
        -0.90463E-06
        -0.34636E-06
        -0.17871E-06
         0.28534E-06
        -0.18596E-05
        -0.31859E-05
        -0.44678E-05
        -0.68693E-05
        -0.64525E-05
        -0.61193E-05
        -0.69109E-05
        -0.66509E-05
        -0.38500E-05
        -0.10254E-06
         0.20612E-05
         0.54394E-06
        -0.26546E-05
        -0.51596E-05
        -0.75557E-05
        -0.95343E-05
        -0.10785E-04
        -0.11296E-04
        -0.10679E-04
        -0.88682E-05
        -0.72672E-05
        -0.59821E-05
        -0.38570E-05
        -0.17406E-05
        -0.15397E-05
        -0.30765E-05
         0.52993E-06
         0.52222E-06
         0.54454E-06
         0.80750E-06
        -0.97239E-07
         0.12848E-06
         0.52445E-06
         0.79741E-06
         0.29147E-06
         0.65529E-06
         0.32797E-06
        -0.12990E-05
        -0.12064E-05
         0.70127E-06
        -0.12961E-05
         0.63963E-06
         0.38460E-06
         0.54359E-06
         0.27898E-06
         0.34882E-06
        -0.14866E-05
        -0.85938E-06
        -0.22233E-05
        -0.11189E-06
         0.53835E-06
         0.23129E-06
         0.73336E-06
         0.59046E-06
         0.62020E-06
         0.48430E-06
         0.64892E-06
        -0.19169E-06
         0.79605E-06
         0.93393E-06
        -0.20302E-06
        -0.46386E-06
        -0.11089E-05
        -0.12480E-05
        -0.80444E-06
        -0.16046E-07
         0.48833E-06
         0.45021E-06
        -0.23480E-06
        -0.24638E-05
        -0.30156E-05
        -0.42277E-05
        -0.23718E-05
        -0.13019E-05
        -0.78216E-06
        -0.29368E-06
        -0.22377E-06
         0.32197E-06
        -0.10442E-05
        -0.26643E-05
        -0.36300E-05
        -0.61620E-05
        -0.59887E-05
        -0.59316E-05
        -0.71696E-05
        -0.78618E-05
        -0.61514E-05
        -0.29877E-05
        -0.17007E-06
        -0.76151E-06
        -0.31370E-05
        -0.49757E-05
        -0.70846E-05
        -0.88283E-05
        -0.97478E-05
        -0.10080E-04
        -0.96414E-05
        -0.82888E-05
        -0.70329E-05
        -0.59762E-05
        -0.40858E-05
        -0.21123E-05
        -0.17951E-05
        -0.29810E-05
         0.51460E-06
         0.42739E-06
         0.49258E-06
         0.82028E-06
        -0.79136E-07
         0.19891E-06
         0.40660E-06
         0.76288E-06
         0.33242E-06
         0.67484E-06
         0.19660E-06
        -0.15084E-05
        -0.14538E-05
         0.60630E-06
        -0.14876E-05
         0.71121E-06
         0.45322E-06
         0.59361E-06
         0.42129E-06
         0.51640E-06
        -0.10505E-05
        -0.30416E-06
        -0.17889E-05
         0.89777E-07
         0.61446E-06
         0.39917E-06
         0.65407E-06
         0.62409E-06
         0.10764E-05
         0.78112E-06
         0.77686E-06
         0.14820E-07
         0.91410E-06
         0.10578E-05
        -0.20457E-06
        -0.54059E-06
        -0.12942E-05
        -0.15224E-05
        -0.95071E-06
         0.53871E-06
         0.20871E-05
         0.18716E-05
         0.71341E-06
        -0.20735E-05
        -0.26271E-05
        -0.38222E-05
        -0.20953E-05
        -0.10986E-05
        -0.57790E-06
        -0.70495E-07
        -0.12936E-08
         0.47404E-06
        -0.96911E-06
        -0.25279E-05
        -0.36485E-05
        -0.64572E-05
        -0.64718E-05
        -0.62983E-05
        -0.74537E-05
        -0.84731E-05
        -0.67489E-05
        -0.19492E-05
         0.32746E-05
         0.29778E-05
        -0.78140E-06
        -0.35279E-05
        -0.58408E-05
        -0.77260E-05
        -0.88616E-05
        -0.93312E-05
        -0.90350E-05
        -0.79213E-05
        -0.67718E-05
        -0.56796E-05
        -0.37519E-05
        -0.18228E-05
        -0.15463E-05
        -0.27623E-05
         0.57890E-06
         0.47877E-06
         0.50347E-06
         0.84574E-06
        -0.14792E-06
         0.17972E-06
         0.48604E-06
         0.85813E-06
         0.39764E-06
         0.75943E-06
         0.31631E-06
        -0.13708E-05
        -0.13965E-05
         0.74941E-06
        -0.12737E-05
         0.73877E-06
         0.49736E-06
         0.62992E-06
         0.44163E-06
         0.52803E-06
        -0.10608E-05
        -0.26086E-06
        -0.18542E-05
         0.67293E-07
         0.66570E-06
         0.36272E-06
         0.79689E-06
         0.80143E-06
         0.14439E-05
         0.87107E-06
         0.79370E-06
         0.76460E-08
         0.93774E-06
         0.10855E-05
        -0.29521E-06
        -0.57087E-06
        -0.12786E-05
        -0.12417E-05
        -0.48862E-06
         0.14089E-05
         0.34606E-05
         0.27590E-05
         0.10723E-05
        -0.22016E-05
        -0.26944E-05
        -0.37539E-05
        -0.19672E-05
        -0.94335E-06
        -0.42772E-06
         0.71652E-07
         0.16481E-06
         0.54043E-06
        -0.11508E-05
        -0.26957E-05
        -0.37756E-05
        -0.65566E-05
        -0.64976E-05
        -0.61346E-05
        -0.71096E-05
        -0.79579E-05
        -0.57263E-05
         0.22341E-06
         0.62366E-05
         0.54535E-05
         0.34118E-06
        -0.33942E-05
        -0.58716E-05
        -0.78207E-05
        -0.91668E-05
        -0.95166E-05
        -0.88602E-05
        -0.74946E-05
        -0.62225E-05
        -0.51447E-05
        -0.33081E-05
        -0.14306E-05
        -0.13347E-05
        -0.28035E-05
         0.66148E-06
         0.70641E-06
         0.71788E-06
         0.91407E-06
         0.59199E-07
         0.26030E-06
         0.72342E-06
         0.94054E-06
         0.37821E-06
         0.71963E-06
         0.56910E-06
        -0.90587E-06
        -0.87775E-06
         0.89284E-06
        -0.87262E-06
         0.60148E-06
         0.39169E-06
         0.59495E-06
         0.13083E-06
         0.23719E-06
        -0.18531E-05
        -0.10558E-05
        -0.26834E-05
        -0.37914E-06
         0.50328E-06
         0.43092E-07
         0.80695E-06
         0.59274E-06
         0.83572E-06
         0.45773E-06
         0.65824E-06
        -0.20252E-06
         0.85150E-06
         0.10467E-05
         0.42562E-07
        -0.16742E-06
        -0.78243E-06
        -0.93421E-06
        -0.55965E-06
         0.64878E-06
         0.19933E-05
         0.14643E-05
         0.82265E-07
        -0.28018E-05
        -0.30026E-05
        -0.38617E-05
        -0.20339E-05
        -0.99002E-06
        -0.49345E-06
        -0.21674E-07
         0.80634E-07
         0.52386E-06
        -0.70108E-06
        -0.24837E-05
        -0.30644E-05
        -0.55521E-05
        -0.53957E-05
        -0.51708E-05
        -0.61419E-05
        -0.68711E-05
        -0.52199E-05
        -0.80009E-06
         0.37153E-05
         0.28768E-05
        -0.16920E-05
        -0.52628E-05
        -0.77948E-05
        -0.95606E-05
        -0.10226E-04
        -0.98522E-05
        -0.87949E-05
        -0.72853E-05
        -0.59731E-05
        -0.50233E-05
        -0.34154E-05
        -0.15612E-05
        -0.14225E-05
        -0.28147E-05
         0.68744E-06
         0.86952E-06
         0.87248E-06
         0.94329E-06
         0.24813E-06
         0.30164E-06
         0.88943E-06
         0.94759E-06
         0.32760E-06
         0.63477E-06
         0.72992E-06
        -0.49545E-06
        -0.34979E-06
         0.92926E-06
        -0.56833E-06
         0.44972E-06
         0.27269E-06
         0.54885E-06
        -0.16106E-06
        -0.40030E-07
        -0.24676E-05
        -0.18566E-05
        -0.32069E-05
        -0.74225E-06
         0.32280E-06
        -0.21306E-06
         0.72012E-06
         0.25564E-06
        -0.56307E-07
        -0.12177E-07
         0.59384E-06
        -0.31673E-06
         0.84282E-06
         0.10559E-05
         0.35942E-06
         0.20538E-06
        -0.28149E-06
        -0.78498E-06
        -0.99753E-06
        -0.81958E-06
        -0.56541E-06
        -0.54419E-06
        -0.12233E-05
        -0.31125E-05
        -0.31000E-05
        -0.38305E-05
        -0.19906E-05
        -0.90233E-06
        -0.39041E-06
         0.26426E-07
         0.32315E-07
         0.47452E-06
        -0.26136E-06
        -0.22083E-05
        -0.23349E-05
        -0.43042E-05
        -0.40043E-05
        -0.41163E-05
        -0.51510E-05
        -0.58967E-05
        -0.55675E-05
        -0.36647E-05
        -0.11641E-05
        -0.18287E-05
        -0.49363E-05
        -0.71991E-05
        -0.90298E-05
        -0.10282E-04
        -0.10343E-04
        -0.96777E-05
        -0.86208E-05
        -0.70662E-05
        -0.56411E-05
        -0.46764E-05
        -0.32791E-05
        -0.17225E-05
        -0.17027E-05
        -0.28688E-05
         0.85602E-06
         0.11199E-05
         0.12631E-05
         0.12569E-05
         0.94130E-06
         0.97473E-06
         0.10663E-05
         0.10802E-05
         0.40037E-06
         0.67629E-06
         0.79925E-06
        -0.57005E-06
        -0.22546E-06
         0.95252E-06
        -0.80561E-06
         0.56412E-06
         0.29295E-06
         0.71139E-06
        -0.36828E-07
        -0.49978E-07
        -0.21866E-05
        -0.18767E-05
        -0.26782E-05
        -0.47788E-06
         0.23682E-06
         0.98138E-07
         0.62519E-06
        -0.81835E-07
        -0.75649E-06
        -0.26781E-06
         0.10742E-05
         0.31930E-06
         0.13850E-05
         0.17766E-05
         0.11750E-05
         0.74242E-06
         0.54124E-08
        -0.12631E-05
        -0.19349E-05
        -0.22976E-05
        -0.24670E-05
        -0.17247E-05
        -0.17017E-05
        -0.24402E-05
        -0.21124E-05
        -0.23623E-05
        -0.63473E-06
         0.38013E-06
         0.91032E-06
         0.14065E-05
         0.14692E-05
         0.14653E-05
         0.99928E-06
        -0.10719E-05
        -0.15923E-05
        -0.40096E-05
        -0.39424E-05
        -0.44782E-05
        -0.59127E-05
        -0.71721E-05
        -0.79654E-05
        -0.70932E-05
        -0.46953E-05
        -0.41102E-05
        -0.57842E-05
        -0.71761E-05
        -0.82480E-05
        -0.89738E-05
        -0.88531E-05
        -0.78790E-05
        -0.62913E-05
        -0.44224E-05
        -0.29806E-05
        -0.20601E-05
        -0.78352E-06
         0.34051E-06
        -0.32611E-06
        -0.18737E-05
         0.14126E-05
         0.18943E-05
         0.25929E-05
         0.23243E-05
         0.34344E-05
         0.35952E-05
         0.15774E-05
         0.15543E-05
         0.75560E-06
         0.98077E-06
         0.96707E-06
        -0.10303E-05
        -0.59422E-07
         0.10302E-05
        -0.18625E-05
         0.11375E-05
         0.61423E-06
         0.12901E-05
         0.76366E-06
         0.45407E-06
        -0.48885E-06
        -0.67012E-06
        -0.50328E-06
         0.78722E-06
         0.35829E-06
         0.13720E-05
         0.44005E-06
        -0.67500E-06
        -0.18839E-05
        -0.26702E-06
         0.24566E-05
         0.21867E-05
         0.29686E-05
         0.41334E-05
         0.41037E-05
         0.27118E-05
         0.91754E-06
        -0.30085E-05
        -0.44622E-05
        -0.55864E-05
        -0.63208E-05
        -0.35098E-05
        -0.15511E-05
        -0.89286E-07
         0.69645E-06
         0.12566E-05
         0.26120E-05
         0.34622E-05
         0.43117E-05
         0.55184E-05
         0.62604E-05
         0.51381E-05
         0.56546E-05
         0.31199E-05
         0.17936E-05
        -0.29128E-05
        -0.44911E-05
        -0.63220E-05
        -0.93409E-05
        -0.12376E-04
        -0.14899E-04
        -0.15370E-04
        -0.12448E-04
        -0.78465E-05
        -0.48643E-05
        -0.41962E-05
        -0.43071E-05
        -0.45626E-05
        -0.45720E-05
        -0.33071E-05
        -0.95411E-06
         0.13041E-05
         0.28496E-05
         0.41822E-05
         0.60599E-05
         0.71554E-05
         0.54690E-05
         0.26386E-05
         0.28333E-05
         0.36965E-05
         0.49761E-05
         0.40099E-05
         0.74226E-05
         0.71478E-05
         0.32160E-05
         0.30662E-05
         0.19856E-05
         0.23149E-05
         0.23329E-05
        -0.17940E-06
         0.14055E-05
         0.22315E-05
        -0.15762E-05
         0.27171E-05
         0.20474E-05
         0.25158E-05
         0.31293E-05
         0.27346E-05
         0.37199E-05
         0.36468E-05
         0.37620E-05
         0.37556E-05
         0.19269E-05
         0.39268E-05
         0.14317E-05
         0.54806E-06
         0.67167E-07
         0.21221E-05
         0.41676E-05
         0.44641E-05
         0.46644E-05
         0.65069E-05
         0.89282E-05
         0.63774E-05
         0.33179E-05
        -0.31932E-05
        -0.45898E-05
        -0.49621E-05
        -0.47933E-05
        -0.54346E-06
         0.25063E-05
         0.35485E-05
         0.36032E-05
         0.38377E-05
         0.48685E-05
         0.54581E-05
         0.64913E-05
         0.84337E-05
         0.10053E-04
         0.88601E-05
         0.13174E-04
         0.10135E-04
         0.84628E-05
         0.86968E-06
        -0.33300E-05
        -0.65447E-05
        -0.10699E-04
        -0.14856E-04
        -0.17896E-04
        -0.17544E-04
        -0.12316E-04
        -0.43340E-05
         0.23810E-05
         0.44747E-05
         0.38015E-05
         0.20651E-05
        -0.23901E-07
        -0.29136E-06
         0.17266E-05
         0.38124E-05
         0.50076E-05
         0.62993E-05
         0.90968E-05
         0.11788E-04
         0.11446E-04
         0.93120E-05
         0.95389E-06
         0.16406E-05
         0.17321E-05
         0.40967E-06
         0.24609E-05
         0.65861E-06
         0.11410E-05
         0.82085E-06
         0.11272E-06
         0.12430E-06
         0.58868E-06
        -0.77619E-07
         0.11491E-05
         0.53183E-06
        -0.63310E-06
        -0.12964E-05
        -0.75145E-06
        -0.27843E-06
        -0.32583E-05
        -0.24023E-05
        -0.10039E-04
        -0.83250E-05
        -0.11679E-04
        -0.53142E-05
        -0.74377E-06
        -0.45500E-05
         0.15399E-06
        -0.65465E-06
        -0.16750E-05
        -0.20391E-05
        -0.32421E-05
        -0.64306E-05
        -0.26695E-05
        -0.27295E-05
         0.35313E-05
         0.31304E-05
         0.25021E-05
        -0.86684E-06
        -0.11475E-05
        -0.16102E-05
        -0.27223E-05
        -0.39744E-05
        -0.61891E-05
        -0.12223E-04
        -0.13876E-04
        -0.16838E-04
        -0.12340E-04
        -0.99615E-05
        -0.98350E-05
        -0.96215E-05
        -0.86878E-05
        -0.32048E-05
         0.59834E-05
         0.53109E-05
         0.60936E-05
         0.37612E-05
         0.45269E-06
        -0.19738E-05
        -0.41852E-05
        -0.53485E-05
        -0.45974E-05
        -0.33700E-05
        -0.42835E-05
        -0.95400E-05
        -0.17482E-04
        -0.24653E-04
        -0.28438E-04
        -0.29450E-04
        -0.30079E-04
        -0.30550E-04
        -0.28805E-04
        -0.25451E-04
        -0.24384E-04
        -0.26077E-04
        -0.24338E-04
        -0.15671E-04
        -0.49411E-05
         0.25071E-05
        -0.11315E-04
        -0.12148E-04
        -0.16029E-04
        -0.16196E-04
        -0.23137E-04
        -0.26940E-04
        -0.13343E-04
        -0.13769E-04
        -0.11959E-04
        -0.14114E-04
        -0.13323E-04
        -0.90197E-05
        -0.87662E-05
        -0.12924E-04
        -0.69140E-05
        -0.22173E-04
        -0.17357E-04
        -0.14429E-04
        -0.34691E-04
        -0.30182E-04
        -0.67456E-04
        -0.63389E-04
        -0.72930E-04
        -0.46343E-04
        -0.19047E-04
        -0.42300E-04
        -0.12260E-04
        -0.16805E-04
        -0.27046E-04
        -0.30592E-04
        -0.32248E-04
        -0.48311E-04
        -0.29625E-04
        -0.35340E-04
        -0.24996E-04
        -0.17667E-04
        -0.97753E-05
        -0.38172E-05
        -0.61658E-05
        -0.16309E-04
        -0.29046E-04
        -0.43336E-04
        -0.56642E-04
        -0.71901E-04
        -0.74461E-04
        -0.82629E-04
        -0.67740E-04
        -0.57987E-04
        -0.59095E-04
        -0.63875E-04
        -0.65577E-04
        -0.44642E-04
        -0.31670E-04
        -0.26249E-04
        -0.18623E-04
        -0.30116E-05
         0.33248E-06
         0.92052E-06
         0.35570E-05
         0.87928E-05
         0.12222E-04
         0.20599E-05
        -0.25896E-04
        -0.66191E-04
        -0.11077E-03
        -0.13870E-03
        -0.14312E-03
        -0.13478E-03
        -0.12471E-03
        -0.11985E-03
        -0.11609E-03
        -0.10689E-03
        -0.10277E-03
        -0.10922E-03
        -0.11024E-03
        -0.91557E-04
        -0.59283E-04
        -0.31911E-04
  
SCALARS                 displacement_y  double 1
LOOKUP_TABLE default
        -0.13859E-05
         0.50523E-04
         0.10151E-03
         0.29671E-04
        -0.15764E-03
        -0.41936E-04
        -0.13676E-03
        -0.15513E-03
         0.33825E-03
         0.32020E-03
         0.49720E-04
         0.96560E-04
         0.73241E-04
         0.25867E-04
         0.35879E-04
         0.11571E-03
        -0.13144E-04
        -0.17089E-05
         0.53094E-04
         0.88899E-05
         0.91518E-04
         0.16073E-03
         0.16720E-03
         0.19899E-03
         0.20898E-03
         0.17319E-03
         0.45149E-04
         0.82807E-04
         0.21522E-04
         0.47559E-04
        -0.15018E-04
        -0.84432E-05
        -0.14751E-04
        -0.12656E-04
        -0.78153E-04
         0.37109E-04
        -0.22901E-04
        -0.60877E-05
        -0.16302E-04
        -0.54069E-04
        -0.13695E-03
        -0.15820E-03
         0.10731E-03
         0.23573E-03
        -0.17187E-03
        -0.60392E-04
         0.34792E-05
        -0.17803E-04
        -0.70976E-05
        -0.51490E-04
        -0.44184E-04
         0.46099E-04
        -0.31266E-05
        -0.27305E-04
        -0.48209E-04
        -0.36318E-04
        -0.15147E-03
        -0.41018E-04
         0.77017E-04
         0.74450E-04
        -0.66889E-06
        -0.26091E-04
         0.22747E-04
         0.20809E-03
         0.22000E-04
        -0.19692E-03
         0.11661E-03
         0.31064E-04
         0.38482E-03
         0.23469E-03
         0.32720E-03
         0.13358E-03
         0.16390E-03
         0.84262E-04
        -0.18873E-04
        -0.50336E-04
        -0.14513E-03
        -0.11794E-03
        -0.35441E-03
         0.22672E-04
        -0.65329E-03
        -0.48263E-03
        -0.11032E-03
         0.48235E-04
        -0.28702E-03
         0.24123E-03
        -0.18256E-03
        -0.10423E-03
        -0.15303E-03
        -0.52398E-05
        -0.11081E-03
        -0.11748E-04
         0.21212E-03
         0.17857E-03
         0.48994E-04
        -0.87777E-04
         0.12767E-03
        -0.72225E-04
         0.26117E-03
         0.76236E-04
         0.43838E-03
         0.37737E-03
         0.44487E-03
         0.21862E-03
         0.71052E-03
         0.84132E-03
         0.14188E-02
         0.13060E-02
         0.48260E-03
         0.59665E-03
         0.34480E-03
         0.38196E-03
         0.33203E-03
         0.49357E-03
         0.30287E-03
         0.41877E-03
         0.18157E-03
         0.27146E-03
        -0.24385E-04
        -0.93943E-06
        -0.32955E-03
        -0.15507E-03
        -0.88020E-03
        -0.11353E-02
        -0.14509E-02
        -0.23851E-02
        -0.14954E-02
        -0.21758E-02
        -0.10862E-02
        -0.13594E-02
        -0.71118E-03
        -0.83799E-03
        -0.53462E-03
        -0.67285E-03
        -0.49418E-03
        -0.65931E-03
        -0.52674E-03
        -0.81744E-03
        -0.47261E-03
        -0.11190E-02
        -0.24307E-03
        -0.45004E-03
        -0.35554E-04
        -0.97843E-04
         0.14108E-03
         0.40334E-04
         0.35307E-03
         0.62772E-03
         0.56647E-03
         0.91502E-03
         0.78307E-03
         0.16163E-02
         0.90910E-03
         0.16854E-02
         0.91457E-03
         0.14988E-02
         0.79964E-05
         0.43713E-04
         0.74529E-04
         0.36320E-04
         0.17912E-03
         0.15742E-03
         0.53033E-04
         0.19969E-04
        -0.72109E-05
         0.51883E-05
         0.65509E-04
         0.11585E-03
         0.11478E-03
         0.37820E-04
         0.66659E-04
        -0.15423E-04
        -0.16568E-05
        -0.32962E-06
        -0.22085E-04
        -0.38000E-05
        -0.11308E-03
        -0.14149E-03
        -0.12206E-03
        -0.53221E-04
         0.56157E-05
        -0.42857E-04
         0.10871E-04
        -0.28138E-04
        -0.13291E-03
        -0.34923E-04
         0.58990E-05
        -0.24534E-04
         0.33592E-04
         0.72449E-04
         0.19833E-03
         0.13507E-03
         0.10636E-03
        -0.10123E-04
        -0.12408E-03
        -0.31070E-03
        -0.55257E-03
        -0.41114E-03
        -0.25089E-03
        -0.11191E-03
        -0.82470E-04
        -0.45303E-04
         0.74099E-05
         0.49871E-04
         0.79161E-04
         0.10740E-03
         0.14668E-03
         0.15160E-03
         0.32468E-03
         0.37564E-03
         0.24067E-03
         0.19900E-03
         0.22057E-03
         0.22188E-03
         0.13170E-03
        -0.52055E-04
        -0.34509E-03
        -0.77147E-03
        -0.11717E-02
        -0.11889E-02
        -0.87746E-03
        -0.57624E-03
        -0.39932E-03
        -0.31065E-03
        -0.26036E-03
        -0.18660E-03
        -0.70367E-04
         0.42911E-04
         0.11252E-03
         0.13643E-03
         0.14507E-03
         0.19234E-03
         0.28504E-03
         0.36061E-03
         0.13904E-04
         0.25758E-04
         0.28236E-04
         0.25594E-04
         0.26933E-04
         0.12399E-04
         0.32488E-04
         0.19094E-04
         0.76091E-05
         0.18299E-04
         0.42611E-04
         0.72661E-04
         0.63565E-04
         0.33282E-04
         0.52742E-04
         0.69222E-06
         0.13960E-04
         0.14247E-04
        -0.12721E-05
         0.13895E-04
        -0.59030E-04
        -0.88703E-04
        -0.47211E-04
        -0.18091E-04
         0.24230E-04
        -0.12714E-04
         0.26121E-04
         0.15481E-05
        -0.77364E-04
        -0.52295E-05
         0.16899E-04
         0.16419E-05
         0.29776E-04
         0.22632E-04
         0.32492E-04
         0.36253E-04
         0.46268E-04
         0.10079E-04
        -0.74868E-04
        -0.21901E-03
        -0.39491E-03
        -0.28171E-03
        -0.16674E-03
        -0.29363E-04
        -0.93263E-05
         0.13881E-04
         0.29747E-04
         0.41690E-04
         0.29985E-04
        -0.64884E-05
        -0.46729E-04
        -0.16722E-04
         0.30621E-04
         0.11735E-04
         0.43670E-04
         0.74606E-04
         0.12136E-03
         0.14016E-03
         0.92090E-04
        -0.28381E-04
        -0.26313E-03
        -0.59878E-03
        -0.86324E-03
        -0.84675E-03
        -0.63793E-03
        -0.41187E-03
        -0.24075E-03
        -0.12466E-03
        -0.49737E-04
        -0.49376E-05
         0.31706E-04
         0.73473E-04
         0.74191E-04
         0.34720E-05
        -0.99864E-04
        -0.15085E-03
        -0.11359E-03
        -0.39918E-04
         0.14593E-04
         0.13636E-04
         0.55437E-05
         0.14688E-04
        -0.24959E-04
        -0.28265E-04
         0.19728E-04
         0.19329E-04
         0.15829E-04
         0.25327E-04
         0.27867E-04
         0.40821E-04
         0.29416E-04
         0.29794E-04
         0.40769E-04
         0.11837E-04
         0.22329E-04
         0.16503E-04
         0.14358E-04
         0.23773E-04
        -0.14815E-04
        -0.38036E-04
         0.38085E-06
         0.78914E-05
         0.31820E-04
         0.89773E-05
         0.32506E-04
         0.19024E-04
        -0.30574E-04
         0.13958E-04
         0.17344E-04
         0.14697E-04
         0.19959E-04
         0.53287E-05
        -0.26120E-04
        -0.41338E-05
         0.14289E-04
         0.22627E-04
        -0.31810E-04
        -0.12493E-03
        -0.23076E-03
        -0.15518E-03
        -0.85683E-04
         0.13511E-04
         0.21642E-04
         0.29621E-04
         0.28064E-04
         0.26544E-04
         0.11644E-04
        -0.22025E-04
        -0.63523E-04
        -0.45495E-04
        -0.64224E-04
        -0.93444E-04
        -0.26457E-04
         0.15450E-04
         0.52113E-04
         0.72135E-04
         0.61375E-04
        -0.23824E-05
        -0.16366E-03
        -0.38649E-03
        -0.52536E-03
        -0.49588E-03
        -0.37916E-03
        -0.23346E-03
        -0.10870E-03
        -0.19871E-04
         0.34388E-04
         0.51117E-04
         0.48741E-04
         0.52378E-04
         0.39168E-04
        -0.15809E-04
        -0.95557E-04
        -0.15252E-03
        -0.15633E-03
        -0.12583E-03
         0.93737E-05
         0.80053E-05
         0.39956E-05
         0.70714E-05
        -0.56600E-05
        -0.41819E-05
         0.13117E-04
         0.15395E-04
         0.12209E-04
         0.21062E-04
         0.19736E-04
         0.25890E-04
         0.16615E-04
         0.23961E-04
         0.31806E-04
         0.91246E-05
         0.17161E-04
         0.84224E-05
         0.12970E-04
         0.18531E-04
        -0.24377E-07
        -0.13440E-04
         0.77695E-05
         0.99801E-05
         0.25388E-04
         0.90610E-05
         0.28147E-04
         0.20657E-04
        -0.10241E-04
         0.14239E-04
         0.81734E-05
         0.92919E-05
         0.89846E-05
         0.68002E-05
        -0.65479E-05
         0.12207E-05
         0.86573E-05
         0.24921E-04
        -0.82233E-05
        -0.66701E-04
        -0.13245E-03
        -0.86049E-04
        -0.42851E-04
         0.13103E-04
         0.14989E-04
         0.16200E-04
         0.12827E-04
         0.11788E-04
         0.10392E-04
         0.49954E-05
        -0.42505E-05
        -0.43422E-05
        -0.19537E-04
        -0.27184E-04
        -0.50860E-05
         0.11524E-04
         0.27329E-04
         0.41086E-04
         0.45531E-04
         0.14300E-04
        -0.88865E-04
        -0.23124E-03
        -0.31520E-03
        -0.29038E-03
        -0.20501E-03
        -0.11167E-03
        -0.42872E-04
         0.71402E-06
         0.24958E-04
         0.30534E-04
         0.24837E-04
         0.20958E-04
         0.18858E-04
         0.12071E-04
        -0.23010E-05
        -0.19855E-04
        -0.30057E-04
        -0.30711E-04
         0.35168E-05
         0.36214E-05
         0.32141E-05
         0.16143E-05
         0.70066E-05
         0.82402E-05
         0.67959E-05
         0.81338E-05
         0.54364E-05
         0.11337E-04
         0.11114E-04
         0.14894E-04
         0.91117E-05
         0.13950E-04
         0.20306E-04
         0.29322E-05
         0.81022E-05
         0.13022E-05
         0.60714E-05
         0.89199E-05
         0.28006E-05
        -0.32065E-05
         0.55743E-05
         0.48432E-05
         0.13376E-04
         0.33612E-05
         0.16630E-04
         0.12762E-04
        -0.36538E-05
         0.75315E-05
         0.39567E-06
         0.21068E-05
         0.93928E-06
         0.44973E-05
         0.74421E-05
         0.58121E-05
         0.61119E-05
         0.18373E-04
         0.69505E-06
        -0.31441E-04
        -0.67023E-04
        -0.42302E-04
        -0.18557E-04
         0.65339E-05
         0.61163E-05
         0.55944E-05
         0.26677E-05
         0.22954E-05
         0.57944E-05
         0.11849E-04
         0.17781E-04
         0.12701E-04
         0.11800E-04
         0.15332E-04
         0.10835E-04
         0.11777E-04
         0.15740E-04
         0.23783E-04
         0.31708E-04
         0.19820E-04
        -0.36359E-04
        -0.11690E-03
        -0.16495E-03
        -0.14501E-03
        -0.87755E-04
        -0.37996E-04
        -0.83691E-05
         0.71074E-05
         0.13831E-04
         0.14224E-04
         0.99314E-05
         0.57903E-05
         0.79863E-05
         0.17736E-04
         0.28745E-04
         0.32876E-04
         0.28620E-04
         0.21312E-04
        -0.31489E-07
         0.33081E-06
         0.67561E-06
        -0.11455E-05
         0.53567E-05
         0.55185E-05
         0.17653E-05
         0.22261E-05
         0.93679E-06
         0.35714E-05
         0.38630E-05
         0.61709E-05
         0.33814E-05
         0.51333E-05
         0.94717E-05
        -0.69866E-06
         0.17989E-05
        -0.14969E-05
         0.10810E-05
         0.21424E-05
         0.27918E-05
         0.99158E-06
         0.35186E-05
         0.98241E-06
         0.41089E-05
        -0.25272E-06
         0.63245E-05
         0.47882E-05
        -0.98971E-06
         0.21408E-05
        -0.23993E-05
        -0.11620E-05
        -0.20832E-05
         0.59019E-06
         0.60095E-05
         0.34219E-05
         0.25314E-05
         0.95288E-05
         0.26385E-05
        -0.95883E-05
        -0.21589E-04
        -0.12573E-04
        -0.40503E-05
         0.29968E-05
         0.20813E-05
         0.14403E-05
        -0.90840E-06
        -0.14417E-05
         0.83413E-06
         0.54700E-05
         0.10869E-04
         0.79556E-05
         0.12032E-04
         0.16207E-04
         0.90264E-05
         0.73161E-05
         0.74249E-05
         0.11391E-04
         0.18121E-04
         0.16047E-04
        -0.60182E-05
        -0.37850E-04
        -0.54449E-04
        -0.41624E-04
        -0.17520E-04
        -0.30485E-06
         0.79943E-05
         0.10813E-04
         0.10772E-04
         0.87033E-05
         0.47124E-05
         0.12068E-05
         0.20917E-05
         0.85298E-05
         0.17265E-04
         0.23007E-04
         0.23203E-04
         0.20178E-04
        -0.12711E-05
        -0.98406E-06
        -0.46721E-06
        -0.16587E-05
         0.31245E-05
         0.29087E-05
        -0.58371E-06
        -0.55710E-06
        -0.83234E-06
        -0.18861E-06
         0.11688E-06
         0.14694E-05
         0.70054E-06
         0.43323E-06
         0.28582E-05
        -0.17284E-05
        -0.98326E-06
        -0.18633E-05
        -0.10691E-05
        -0.11182E-05
         0.21584E-05
         0.22699E-05
         0.23578E-05
        -0.52458E-06
        -0.52056E-06
        -0.12720E-05
         0.78876E-06
         0.44195E-06
         0.10952E-06
        -0.74211E-06
        -0.24241E-05
        -0.16713E-05
        -0.21766E-05
        -0.68881E-06
         0.36281E-05
         0.15971E-05
         0.76348E-06
         0.38161E-05
         0.31331E-05
         0.19028E-05
         0.22876E-05
         0.21790E-05
         0.24403E-05
         0.17310E-05
         0.89654E-06
         0.36588E-06
        -0.13587E-05
        -0.18018E-05
        -0.64110E-06
         0.18675E-05
         0.50701E-05
         0.38357E-05
         0.83932E-05
         0.11562E-04
         0.61379E-05
         0.47289E-05
         0.37672E-05
         0.47336E-05
         0.84328E-05
         0.11262E-04
         0.96044E-05
         0.58433E-05
         0.54178E-05
         0.10613E-04
         0.15163E-04
         0.14808E-04
         0.12573E-04
         0.10901E-04
         0.92584E-05
         0.65469E-05
         0.29149E-05
         0.29747E-06
         0.37446E-06
         0.34425E-05
         0.80663E-05
         0.11852E-04
         0.13477E-04
         0.13416E-04
        -0.16028E-05
        -0.13256E-05
        -0.65524E-06
        -0.15570E-05
         0.27609E-05
         0.27772E-05
        -0.13967E-05
        -0.15548E-05
        -0.14001E-05
        -0.16482E-05
        -0.13634E-05
        -0.52552E-06
        -0.24696E-06
        -0.14946E-05
        -0.19914E-06
        -0.19001E-05
        -0.20378E-05
        -0.17806E-05
        -0.18686E-05
        -0.25156E-05
         0.16758E-05
         0.24665E-05
         0.19235E-05
        -0.94738E-06
        -0.24724E-05
        -0.13488E-05
        -0.15906E-05
        -0.15869E-05
         0.18097E-06
        -0.21448E-05
        -0.20392E-05
        -0.14562E-05
        -0.17429E-05
        -0.40417E-06
         0.30899E-05
         0.11798E-05
         0.29347E-06
         0.90443E-06
         0.26662E-05
         0.59939E-05
         0.11537E-04
         0.77323E-05
         0.47066E-05
         0.14802E-05
         0.79088E-06
         0.34933E-06
        -0.10651E-05
        -0.13186E-05
        -0.23156E-06
         0.19904E-05
         0.48701E-05
         0.37438E-05
         0.74662E-05
         0.10633E-04
         0.54153E-05
         0.40717E-05
         0.25341E-05
         0.18056E-05
         0.35324E-05
         0.79120E-05
         0.14374E-04
         0.22534E-04
         0.29570E-04
         0.31520E-04
         0.27959E-04
         0.19957E-04
         0.13521E-04
         0.10539E-04
         0.85264E-05
         0.58216E-05
         0.25458E-05
         0.44531E-06
         0.68954E-06
         0.33718E-05
         0.74420E-05
         0.10944E-04
         0.12676E-04
         0.12633E-04
        -0.17658E-05
        -0.14215E-05
        -0.69223E-06
        -0.16244E-05
         0.29369E-05
         0.32663E-05
        -0.16563E-05
        -0.19285E-05
        -0.16597E-05
        -0.22073E-05
        -0.18877E-05
        -0.11852E-05
        -0.42875E-06
        -0.22287E-05
        -0.13696E-05
        -0.21532E-05
        -0.25332E-05
        -0.19144E-05
        -0.22210E-05
        -0.30768E-05
         0.23296E-05
         0.32613E-05
         0.24615E-05
        -0.10663E-05
        -0.32454E-05
        -0.14883E-05
        -0.25022E-05
        -0.23957E-05
         0.29317E-07
        -0.27166E-05
        -0.21306E-05
        -0.15039E-05
        -0.17756E-05
        -0.19943E-06
         0.31475E-05
         0.12246E-05
         0.32954E-06
        -0.24680E-06
         0.23781E-05
         0.71001E-05
         0.14216E-04
         0.94978E-05
         0.58549E-05
         0.17810E-05
         0.97565E-06
         0.48675E-06
        -0.10240E-05
        -0.12239E-05
         0.11236E-06
         0.27838E-05
         0.62114E-05
         0.46803E-05
         0.75722E-05
         0.11298E-04
         0.56646E-05
         0.44236E-05
         0.25548E-05
         0.99304E-06
         0.17373E-05
         0.65823E-05
         0.16092E-04
         0.27848E-04
         0.36772E-04
         0.38692E-04
         0.34282E-04
         0.25132E-04
         0.17552E-04
         0.13153E-04
         0.99537E-05
         0.65709E-05
         0.28270E-05
         0.60128E-06
         0.11604E-05
         0.46207E-05
         0.96195E-05
         0.13672E-04
         0.15285E-04
         0.14407E-04
        -0.19044E-05
        -0.14472E-05
        -0.63575E-06
        -0.18397E-05
         0.34873E-05
         0.38120E-05
        -0.17646E-05
        -0.21542E-05
        -0.18446E-05
        -0.25225E-05
        -0.21350E-05
        -0.13489E-05
        -0.25042E-06
        -0.26389E-05
        -0.18625E-05
        -0.25004E-05
        -0.28592E-05
        -0.22015E-05
        -0.24132E-05
        -0.34161E-05
         0.33108E-05
         0.39606E-05
         0.35053E-05
        -0.10240E-05
        -0.36775E-05
        -0.16546E-05
        -0.30068E-05
        -0.28597E-05
        -0.28225E-06
        -0.31547E-05
        -0.25341E-05
        -0.17038E-05
        -0.21680E-05
        -0.34321E-06
         0.37879E-05
         0.16560E-05
         0.68016E-06
        -0.67599E-06
         0.24002E-05
         0.75396E-05
         0.14861E-04
         0.96519E-05
         0.61480E-05
         0.25327E-05
         0.14734E-05
         0.88983E-06
        -0.10472E-05
        -0.13919E-05
         0.11490E-06
         0.32368E-05
         0.73220E-05
         0.54473E-05
         0.88378E-05
         0.13115E-04
         0.69094E-05
         0.56986E-05
         0.34582E-05
         0.11622E-05
         0.13373E-05
         0.67841E-05
         0.18196E-04
         0.31088E-04
         0.39019E-04
         0.40345E-04
         0.37387E-04
         0.29489E-04
         0.22155E-04
         0.17163E-04
         0.13046E-04
         0.86573E-05
         0.39430E-05
         0.11734E-05
         0.17997E-05
         0.59530E-05
         0.11816E-04
         0.16458E-04
         0.18175E-04
         0.16904E-04
        -0.20111E-05
        -0.15420E-05
        -0.60346E-06
        -0.19559E-05
         0.37852E-05
         0.39398E-05
        -0.19697E-05
        -0.23477E-05
        -0.19263E-05
        -0.26904E-05
        -0.24177E-05
        -0.16443E-05
        -0.38180E-06
        -0.29226E-05
        -0.21900E-05
        -0.26249E-05
        -0.29592E-05
        -0.23234E-05
        -0.25081E-05
        -0.35470E-05
         0.33633E-05
         0.39423E-05
         0.36730E-05
        -0.10636E-05
        -0.38215E-05
        -0.17416E-05
        -0.32397E-05
        -0.29227E-05
         0.65552E-07
        -0.31874E-05
        -0.27071E-05
        -0.17694E-05
        -0.23392E-05
        -0.45551E-06
         0.42578E-05
         0.19394E-05
         0.76459E-06
        -0.84268E-06
         0.27049E-05
         0.86423E-05
         0.16784E-04
         0.10774E-04
         0.64668E-05
         0.27172E-05
         0.17075E-05
         0.12698E-05
        -0.85843E-06
        -0.12963E-05
         0.22966E-06
         0.33881E-05
         0.75517E-05
         0.55530E-05
         0.97929E-05
         0.14020E-04
         0.78069E-05
         0.63111E-05
         0.35898E-05
         0.91812E-06
         0.98658E-06
         0.67480E-05
         0.19305E-04
         0.34126E-04
         0.43269E-04
         0.43506E-04
         0.38674E-04
         0.30013E-04
         0.22771E-04
         0.17958E-04
         0.13898E-04
         0.95608E-05
         0.49022E-05
         0.20892E-05
         0.27398E-05
         0.70194E-05
         0.12739E-04
         0.17103E-04
         0.18791E-04
         0.17622E-04
        -0.21757E-05
        -0.18286E-05
        -0.79723E-06
        -0.20859E-05
         0.38455E-05
         0.40287E-05
        -0.22697E-05
        -0.25038E-05
        -0.19718E-05
        -0.27609E-05
        -0.27075E-05
        -0.21005E-05
        -0.93959E-06
        -0.30932E-05
        -0.24114E-05
        -0.25784E-05
        -0.29260E-05
        -0.23728E-05
        -0.25098E-05
        -0.35567E-05
         0.29506E-05
         0.36143E-05
         0.32838E-05
        -0.11355E-05
        -0.38482E-05
        -0.17461E-05
        -0.33297E-05
        -0.29248E-05
         0.39065E-06
        -0.31300E-05
        -0.26528E-05
        -0.17118E-05
        -0.23117E-05
        -0.42734E-06
         0.42820E-05
         0.16946E-05
         0.27552E-06
        -0.83398E-06
         0.29033E-05
         0.93867E-05
         0.18383E-04
         0.11744E-04
         0.66085E-05
         0.24680E-05
         0.16562E-05
         0.14124E-05
        -0.63470E-06
        -0.10528E-05
         0.44130E-06
         0.35583E-05
         0.77257E-05
         0.56878E-05
         0.10115E-04
         0.14573E-04
         0.75376E-05
         0.53917E-05
         0.24886E-05
         0.77338E-07
         0.63521E-06
         0.71540E-05
         0.19996E-04
         0.35707E-04
         0.46896E-04
         0.45907E-04
         0.38710E-04
         0.28748E-04
         0.21316E-04
         0.16724E-04
         0.13053E-04
         0.92965E-05
         0.51506E-05
         0.26272E-05
         0.33730E-05
         0.74968E-05
         0.13009E-04
         0.17310E-04
         0.19168E-04
         0.18188E-04
        -0.22294E-05
        -0.19768E-05
        -0.92865E-06
        -0.21290E-05
         0.39682E-05
         0.43357E-05
        -0.23836E-05
        -0.25366E-05
        -0.19793E-05
        -0.27473E-05
        -0.27999E-05
        -0.22728E-05
        -0.12897E-05
        -0.31218E-05
        -0.23644E-05
        -0.25400E-05
        -0.28495E-05
        -0.24176E-05
        -0.24412E-05
        -0.34536E-05
         0.25642E-05
         0.33138E-05
         0.28584E-05
        -0.11845E-05
        -0.37782E-05
        -0.17564E-05
        -0.33070E-05
        -0.29086E-05
         0.33597E-06
        -0.30587E-05
        -0.26283E-05
        -0.16943E-05
        -0.23175E-05
        -0.38559E-06
         0.41449E-05
         0.13137E-05
        -0.19176E-06
        -0.66342E-06
         0.28378E-05
         0.89544E-05
         0.17839E-04
         0.11549E-04
         0.64433E-05
         0.21511E-05
         0.14967E-05
         0.13773E-05
        -0.54871E-06
        -0.95732E-06
         0.45005E-06
         0.35712E-05
         0.79291E-05
         0.60147E-05
         0.10013E-04
         0.15265E-04
         0.65647E-05
         0.40710E-05
         0.15298E-05
        -0.33261E-06
         0.89493E-06
         0.80680E-05
         0.19962E-04
         0.34052E-04
         0.45577E-04
         0.45497E-04
         0.37792E-04
         0.26939E-04
         0.19456E-04
         0.15173E-04
         0.11900E-04
         0.86997E-05
         0.50189E-05
         0.27761E-05
         0.35251E-05
         0.72740E-05
         0.12748E-04
         0.17622E-04
         0.20182E-04
         0.19409E-04
        -0.20884E-05
        -0.17899E-05
        -0.82382E-06
        -0.20172E-05
         0.38484E-05
         0.42629E-05
        -0.22350E-05
        -0.24585E-05
        -0.19374E-05
        -0.27068E-05
        -0.27046E-05
        -0.21466E-05
        -0.11243E-05
        -0.30715E-05
        -0.22753E-05
        -0.25440E-05
        -0.27874E-05
        -0.24002E-05
        -0.23380E-05
        -0.32751E-05
         0.24307E-05
         0.33952E-05
         0.24815E-05
        -0.12488E-05
        -0.36921E-05
        -0.18577E-05
        -0.32508E-05
        -0.28473E-05
         0.24855E-06
        -0.29285E-05
        -0.26804E-05
        -0.17993E-05
        -0.23614E-05
        -0.46646E-06
         0.38813E-05
         0.12153E-05
        -0.11091E-06
        -0.61590E-06
         0.27047E-05
         0.83574E-05
         0.16678E-04
         0.11065E-04
         0.64713E-05
         0.17285E-05
         0.11790E-05
         0.12180E-05
        -0.56108E-06
        -0.95581E-06
         0.32318E-06
         0.32541E-05
         0.74810E-05
         0.57762E-05
         0.93074E-05
         0.14732E-04
         0.58901E-05
         0.37533E-05
         0.15855E-05
        -0.20258E-06
         0.10351E-05
         0.80937E-05
         0.19313E-04
         0.32061E-04
         0.42429E-04
         0.44053E-04
         0.37441E-04
         0.26080E-04
         0.18085E-04
         0.13737E-04
         0.10608E-04
         0.78574E-05
         0.48081E-05
         0.29644E-05
         0.37073E-05
         0.69993E-05
         0.11987E-04
         0.16763E-04
         0.19628E-04
         0.19041E-04
        -0.19804E-05
        -0.15522E-05
        -0.56299E-06
        -0.18384E-05
         0.38452E-05
         0.40488E-05
        -0.20902E-05
        -0.24350E-05
        -0.19538E-05
        -0.27484E-05
        -0.26213E-05
        -0.19795E-05
        -0.79501E-06
        -0.30671E-05
        -0.22817E-05
        -0.26254E-05
        -0.28764E-05
        -0.23591E-05
        -0.24455E-05
        -0.33660E-05
         0.23368E-05
         0.34664E-05
         0.23003E-05
        -0.13807E-05
        -0.37897E-05
        -0.19842E-05
        -0.33011E-05
        -0.29836E-05
         0.34478E-07
        -0.30392E-05
        -0.26969E-05
        -0.18896E-05
        -0.22956E-05
        -0.42898E-06
         0.40431E-05
         0.15589E-05
         0.29886E-06
        -0.80370E-06
         0.23923E-05
         0.79601E-05
         0.16282E-04
         0.10939E-04
         0.65652E-05
         0.15377E-05
         0.10099E-05
         0.11187E-05
        -0.57516E-06
        -0.90414E-06
         0.37437E-06
         0.31445E-05
         0.70376E-05
         0.53793E-05
         0.92896E-05
         0.14059E-04
         0.63252E-05
         0.44614E-05
         0.22265E-05
         0.12941E-06
         0.95961E-06
         0.73615E-05
         0.18373E-04
         0.31398E-04
         0.41845E-04
         0.44337E-04
         0.38236E-04
         0.26576E-04
         0.17860E-04
         0.13339E-04
         0.10278E-04
         0.75573E-05
         0.47101E-05
         0.30487E-05
         0.38416E-05
         0.70639E-05
         0.11643E-04
         0.15730E-04
         0.18064E-04
         0.17637E-04
        -0.19228E-05
        -0.14983E-05
        -0.40748E-06
        -0.15940E-05
         0.39399E-05
         0.41413E-05
        -0.20946E-05
        -0.24371E-05
        -0.19503E-05
        -0.27972E-05
        -0.26467E-05
        -0.20465E-05
        -0.83752E-06
        -0.31105E-05
        -0.24635E-05
        -0.26070E-05
        -0.29751E-05
        -0.21927E-05
        -0.25536E-05
        -0.35155E-05
         0.25368E-05
         0.36687E-05
         0.25060E-05
        -0.13800E-05
        -0.39237E-05
        -0.19388E-05
        -0.34244E-05
        -0.31369E-05
         0.15410E-06
        -0.31286E-05
        -0.24769E-05
        -0.17793E-05
        -0.19720E-05
        -0.10544E-06
         0.41478E-05
         0.16624E-05
         0.32050E-06
        -0.11507E-05
         0.22868E-05
         0.86366E-05
         0.17975E-04
         0.11954E-04
         0.69885E-05
         0.16626E-05
         0.10448E-05
         0.10759E-05
        -0.53561E-06
        -0.74658E-06
         0.62603E-06
         0.33499E-05
         0.70433E-05
         0.54384E-05
         0.92951E-05
         0.13766E-04
         0.63835E-05
         0.44658E-05
         0.21506E-05
         0.61063E-08
         0.52559E-06
         0.63911E-05
         0.18479E-04
         0.34245E-04
         0.46635E-04
         0.48100E-04
         0.40161E-04
         0.28114E-04
         0.19132E-04
         0.14169E-04
         0.10663E-04
         0.75081E-05
         0.44682E-05
         0.27480E-05
         0.35748E-05
         0.69590E-05
         0.11437E-04
         0.15233E-04
         0.17386E-04
         0.17031E-04
        -0.18303E-05
        -0.15741E-05
        -0.57537E-06
        -0.14821E-05
         0.35121E-05
         0.38500E-05
        -0.20697E-05
        -0.23131E-05
        -0.18058E-05
        -0.27112E-05
        -0.25691E-05
        -0.21327E-05
        -0.10868E-05
        -0.30045E-05
        -0.25793E-05
        -0.22640E-05
        -0.28276E-05
        -0.19014E-05
        -0.22063E-05
        -0.32754E-05
         0.32873E-05
         0.43638E-05
         0.30780E-05
        -0.95199E-06
        -0.38955E-05
        -0.15189E-05
        -0.34305E-05
        -0.32112E-05
         0.28906E-06
        -0.30048E-05
        -0.20375E-05
        -0.13751E-05
        -0.16260E-05
         0.84792E-08
         0.35623E-05
         0.11592E-05
        -0.10871E-06
        -0.14286E-05
         0.21690E-05
         0.91685E-05
         0.19311E-04
         0.12754E-04
         0.75687E-05
         0.20309E-05
         0.12998E-05
         0.12212E-05
        -0.31785E-06
        -0.55112E-06
         0.67028E-06
         0.31370E-05
         0.65470E-05
         0.51141E-05
         0.83164E-05
         0.12727E-04
         0.52623E-05
         0.33617E-05
         0.13822E-05
        -0.49456E-06
        -0.17750E-06
         0.54452E-05
         0.18530E-04
         0.36684E-04
         0.50585E-04
         0.50811E-04
         0.41722E-04
         0.29906E-04
         0.20885E-04
         0.15065E-04
         0.10864E-04
         0.74229E-05
         0.43112E-05
         0.25072E-05
         0.31053E-05
         0.61479E-05
         0.10288E-04
         0.14000E-04
         0.16285E-04
         0.15963E-04
        -0.15493E-05
        -0.14114E-05
        -0.59337E-06
        -0.12520E-05
         0.28207E-05
         0.30597E-05
        -0.18452E-05
        -0.20510E-05
        -0.15300E-05
        -0.24788E-05
        -0.23064E-05
        -0.19695E-05
        -0.10807E-05
        -0.27297E-05
        -0.24234E-05
        -0.18050E-05
        -0.24719E-05
        -0.15094E-05
        -0.17481E-05
        -0.28112E-05
         0.34179E-05
         0.43804E-05
         0.33530E-05
        -0.47966E-06
        -0.35993E-05
        -0.98891E-06
        -0.32418E-05
        -0.31119E-05
         0.35368E-06
        -0.26217E-05
        -0.15633E-05
        -0.86136E-06
        -0.13050E-05
        -0.83462E-07
         0.28051E-05
         0.73612E-06
        -0.31107E-06
        -0.15280E-05
         0.17404E-05
         0.85935E-05
         0.18658E-04
         0.12488E-04
         0.74952E-05
         0.24356E-05
         0.17411E-05
         0.15981E-05
         0.31052E-07
        -0.38911E-06
         0.42871E-06
         0.22950E-05
         0.50008E-05
         0.39700E-05
         0.68001E-05
         0.10663E-04
         0.39514E-05
         0.23708E-05
         0.90131E-06
        -0.64884E-06
        -0.52068E-06
         0.44600E-05
         0.16690E-04
         0.34563E-04
         0.48890E-04
         0.48831E-04
         0.39258E-04
         0.27889E-04
         0.19837E-04
         0.14634E-04
         0.10833E-04
         0.76391E-05
         0.45194E-05
         0.24781E-05
         0.24834E-05
         0.45312E-05
         0.76923E-05
         0.10832E-04
         0.13010E-04
         0.13133E-04
        -0.12446E-05
        -0.11632E-05
        -0.55718E-06
        -0.99083E-06
         0.18164E-05
         0.19215E-05
        -0.16542E-05
        -0.18782E-05
        -0.12463E-05
        -0.22812E-05
        -0.21234E-05
        -0.17169E-05
        -0.91708E-06
        -0.25441E-05
        -0.20426E-05
        -0.14662E-05
        -0.20997E-05
        -0.11305E-05
        -0.14506E-05
        -0.23673E-05
         0.29881E-05
         0.40437E-05
         0.31376E-05
        -0.31061E-06
        -0.32265E-05
        -0.77300E-06
        -0.30121E-05
        -0.27168E-05
         0.11267E-05
        -0.19852E-05
        -0.13108E-05
        -0.71506E-06
        -0.11332E-05
        -0.42502E-06
         0.17308E-05
         0.38857E-06
        -0.24457E-06
        -0.11089E-05
         0.22100E-05
         0.93395E-05
         0.19929E-04
         0.13719E-04
         0.79106E-05
         0.24052E-05
         0.16840E-05
         0.14088E-05
        -0.88659E-07
        -0.62419E-06
        -0.27471E-06
         0.75801E-06
         0.24677E-05
         0.21803E-05
         0.44071E-05
         0.74443E-05
         0.27847E-05
         0.21149E-05
         0.98069E-06
        -0.27587E-06
         0.22165E-06
         0.52105E-05
         0.17110E-04
         0.34965E-04
         0.50401E-04
         0.50640E-04
         0.37564E-04
         0.24359E-04
         0.17112E-04
         0.13344E-04
         0.10335E-04
         0.72031E-05
         0.39670E-05
         0.17347E-05
         0.11190E-05
         0.18978E-05
         0.35774E-05
         0.58358E-05
         0.82105E-05
         0.91810E-05
        -0.16373E-05
        -0.17471E-05
        -0.16689E-05
        -0.15679E-05
        -0.13322E-05
        -0.12842E-05
        -0.22550E-05
        -0.24626E-05
        -0.15926E-05
        -0.27387E-05
        -0.26532E-05
        -0.19563E-05
        -0.14956E-05
        -0.29983E-05
        -0.18582E-05
        -0.18685E-05
        -0.24859E-05
        -0.13488E-05
        -0.21095E-05
        -0.29896E-05
         0.19580E-05
         0.30343E-05
         0.19733E-05
        -0.11503E-05
        -0.35972E-05
        -0.15234E-05
        -0.32546E-05
        -0.28549E-05
         0.85777E-06
        -0.25060E-05
        -0.18583E-05
        -0.14445E-05
        -0.18677E-05
        -0.21818E-05
        -0.17493E-05
        -0.16037E-05
        -0.12206E-05
        -0.65918E-06
         0.24991E-05
         0.91107E-05
         0.19445E-04
         0.13368E-04
         0.71711E-05
         0.12980E-05
         0.72627E-06
         0.46946E-06
        -0.11058E-05
        -0.20740E-05
        -0.27120E-05
        -0.32537E-05
        -0.33008E-05
        -0.21683E-05
        -0.18361E-05
         0.97114E-07
        -0.11134E-05
         0.37629E-06
         0.37622E-06
         0.14746E-06
         0.18334E-05
         0.71210E-05
         0.17746E-04
         0.33495E-04
         0.49058E-04
         0.51349E-04
         0.37330E-04
         0.23150E-04
         0.15565E-04
         0.11597E-04
         0.87901E-05
         0.60642E-05
         0.29505E-05
         0.20937E-07
        -0.22805E-05
        -0.40201E-05
        -0.51150E-05
        -0.43148E-05
        -0.13113E-05
         0.98045E-06
        -0.29764E-05
        -0.32916E-05
        -0.38646E-05
        -0.29634E-05
        -0.64042E-05
        -0.64276E-05
        -0.37967E-05
        -0.40475E-05
        -0.29305E-05
        -0.42253E-05
        -0.40806E-05
        -0.29848E-05
        -0.29213E-05
        -0.43946E-05
        -0.25363E-05
        -0.33784E-05
        -0.41258E-05
        -0.23748E-05
        -0.40335E-05
        -0.50094E-05
         0.17365E-05
         0.29550E-05
         0.16552E-05
        -0.27280E-05
        -0.51876E-05
        -0.28910E-05
        -0.44941E-05
        -0.41865E-05
        -0.91779E-06
        -0.44136E-05
        -0.29317E-05
        -0.21058E-05
        -0.31792E-05
        -0.47248E-05
        -0.69615E-05
        -0.48300E-05
        -0.31933E-05
        -0.11814E-05
         0.14933E-05
         0.70081E-05
         0.16750E-04
         0.11856E-04
         0.67273E-05
         0.12071E-05
         0.13992E-05
         0.17251E-05
        -0.11629E-05
        -0.35354E-05
        -0.56118E-05
        -0.81408E-05
        -0.10681E-04
        -0.83242E-05
        -0.10441E-04
        -0.11235E-04
        -0.65135E-05
        -0.25006E-05
        -0.97561E-06
        -0.41918E-07
         0.25778E-05
         0.80054E-05
         0.16704E-04
         0.28989E-04
         0.44127E-04
         0.52901E-04
         0.45248E-04
         0.32050E-04
         0.22082E-04
         0.15563E-04
         0.12061E-04
         0.10024E-04
         0.64381E-05
         0.74215E-06
        -0.52515E-05
        -0.10417E-04
        -0.15056E-04
        -0.17049E-04
        -0.15008E-04
        -0.12104E-04
        -0.85068E-06
        -0.59836E-06
        -0.35386E-06
         0.34457E-06
        -0.38632E-05
        -0.47247E-05
        -0.18179E-05
        -0.26082E-05
        -0.19055E-05
        -0.39303E-05
        -0.25052E-05
        -0.14381E-05
        -0.95899E-06
        -0.34037E-05
        -0.15781E-05
        -0.27225E-05
        -0.50036E-05
        -0.32677E-06
        -0.36878E-05
        -0.62519E-05
         0.11401E-04
         0.13018E-04
         0.12542E-04
         0.71092E-06
        -0.65991E-05
         0.67122E-06
        -0.46379E-05
        -0.50953E-05
         0.33090E-06
        -0.51423E-05
         0.79220E-07
         0.35896E-05
         0.62175E-07
        -0.94804E-06
        -0.30817E-05
        -0.74739E-06
        -0.23388E-06
        -0.11447E-05
         0.16613E-05
         0.10598E-04
         0.28116E-04
         0.23890E-04
         0.18285E-04
         0.12534E-04
         0.13944E-04
         0.15363E-04
         0.72540E-05
         0.10747E-05
        -0.20019E-05
        -0.45789E-05
        -0.83909E-05
        -0.64483E-05
        -0.65701E-05
        -0.12821E-04
        -0.12613E-05
         0.76674E-06
         0.68665E-06
         0.14288E-05
         0.40129E-05
         0.90913E-05
         0.18705E-04
         0.37817E-04
         0.69064E-04
         0.97328E-04
         0.97990E-04
         0.79968E-04
         0.61218E-04
         0.47745E-04
         0.40653E-04
         0.36804E-04
         0.28356E-04
         0.13637E-04
        -0.76708E-07
        -0.79265E-05
        -0.13204E-04
        -0.17462E-04
        -0.19246E-04
        -0.17481E-04
         0.10276E-04
         0.12406E-04
         0.15963E-04
         0.14413E-04
         0.14853E-04
         0.11495E-04
         0.91071E-05
         0.69642E-05
         0.59425E-05
         0.22454E-05
         0.70470E-05
         0.73601E-05
         0.96376E-05
         0.45922E-05
         0.52233E-05
         0.45637E-05
        -0.19711E-05
         0.95765E-05
         0.36599E-05
        -0.37152E-05
         0.36892E-04
         0.38574E-04
         0.41542E-04
         0.15370E-04
        -0.51341E-05
         0.15485E-04
         0.86591E-07
        -0.22741E-05
         0.10108E-04
        -0.15514E-05
         0.12066E-04
         0.22021E-04
         0.12711E-04
         0.15038E-04
         0.18644E-04
         0.18259E-04
         0.13901E-04
         0.30193E-05
         0.73813E-05
         0.27844E-04
         0.64977E-04
         0.59541E-04
         0.48956E-04
         0.42681E-04
         0.45670E-04
         0.47996E-04
         0.29893E-04
         0.15963E-04
         0.12125E-04
         0.12508E-04
         0.97037E-05
         0.10459E-04
         0.19352E-04
         0.61200E-05
         0.22443E-04
         0.16269E-04
         0.10152E-04
         0.86523E-05
         0.10030E-04
         0.14155E-04
         0.29276E-04
         0.69991E-04
         0.13797E-03
         0.19874E-03
         0.20579E-03
         0.17342E-03
         0.13813E-03
         0.11387E-03
         0.10112E-03
         0.92717E-04
         0.74147E-04
         0.42718E-04
         0.15492E-04
         0.51609E-05
         0.36266E-05
         0.40178E-06
        -0.54740E-05
        -0.49380E-05
  
SCALARS                 displacement_z  double 1
LOOKUP_TABLE default
        -0.34337E-03
        -0.31008E-03
        -0.32551E-03
        -0.36326E-03
        -0.20692E-17
        -0.20849E-17
        -0.20903E-17
        -0.21404E-17
        -0.34580E-03
        -0.40718E-03
        -0.20500E-17
        -0.23376E-17
        -0.28965E-03
        -0.32573E-03
        -0.20845E-17
        -0.21731E-17
        -0.36045E-03
        -0.35159E-03
        -0.19391E-17
        -0.20569E-17
        -0.25931E-03
        -0.18695E-03
        -0.22899E-03
        -0.19014E-17
        -0.13663E-17
        -0.15920E-17
        -0.27502E-03
        -0.15662E-03
        -0.19053E-17
        -0.11388E-17
        -0.35194E-03
        -0.37305E-03
        -0.35797E-03
        -0.20644E-17
        -0.20350E-17
        -0.19080E-17
        -0.36781E-03
        -0.38613E-03
        -0.22802E-17
        -0.21776E-17
        -0.40106E-03
        -0.39549E-03
        -0.21020E-17
        -0.18778E-17
        -0.40415E-03
        -0.36697E-03
        -0.23115E-17
        -0.24195E-17
        -0.36726E-03
        -0.20838E-17
        -0.36868E-03
        -0.24965E-17
        -0.28681E-03
        -0.17498E-17
        -0.27943E-03
        -0.16103E-17
        -0.24465E-03
        -0.36091E-03
        -0.13813E-17
        -0.20610E-17
        -0.38089E-03
        -0.41143E-03
        -0.22424E-17
        -0.27538E-17
        -0.39083E-03
        -0.22424E-17
        -0.41977E-03
        -0.26472E-17
        -0.29629E-03
        -0.27397E-03
        -0.17991E-17
        -0.17772E-17
        -0.25334E-03
        -0.16859E-17
        -0.12123E-03
        -0.83391E-18
        -0.71653E-04
        -0.55264E-18
        -0.10448E-04
        -0.27746E-18
         0.39025E-04
        -0.15927E-03
        -0.11447E-18
        -0.84688E-18
        -0.32166E-03
        -0.15669E-17
        -0.42697E-03
        -0.25718E-17
        -0.48183E-03
        -0.29439E-17
        -0.54329E-03
        -0.50288E-03
        -0.31423E-17
        -0.30381E-17
        -0.47672E-03
        -0.26512E-17
        -0.48169E-03
        -0.26869E-17
        -0.50518E-03
        -0.30169E-17
        -0.53095E-03
        -0.47438E-03
        -0.30518E-17
        -0.28115E-17
        -0.26064E-03
        -0.35599E-03
        -0.12687E-17
        -0.14714E-17
        -0.19495E-03
        -0.10274E-17
        -0.16572E-03
        -0.88732E-18
        -0.12989E-03
        -0.77707E-18
        -0.45027E-04
        -0.53548E-18
         0.64150E-04
        -0.23548E-18
         0.17695E-03
         0.20474E-20
         0.33881E-03
         0.29843E-18
         0.48540E-03
         0.57123E-18
         0.42173E-03
         0.46417E-18
         0.11060E-03
        -0.15962E-18
        -0.21911E-03
        -0.81396E-18
        -0.41122E-03
        -0.11780E-17
        -0.47920E-03
        -0.14134E-17
        -0.50167E-03
        -0.16393E-17
        -0.54355E-03
        -0.18658E-17
        -0.62688E-03
        -0.22706E-17
        -0.67895E-03
        -0.26716E-17
        -0.66362E-03
        -0.25044E-17
        -0.64157E-03
        -0.22315E-17
        -0.64409E-03
        -0.22767E-17
        -0.65306E-03
        -0.24746E-17
        -0.64280E-03
        -0.25363E-17
        -0.57802E-03
        -0.21574E-17
        -0.46817E-03
        -0.17085E-17
        -0.49247E-03
        -0.45852E-03
        -0.47605E-03
        -0.51646E-03
        -0.50569E-03
        -0.56567E-03
        -0.44033E-03
        -0.48100E-03
        -0.51208E-03
        -0.51237E-03
        -0.40764E-03
        -0.31710E-03
        -0.37152E-03
        -0.42666E-03
        -0.26962E-03
        -0.50540E-03
        -0.52848E-03
        -0.51228E-03
        -0.52353E-03
        -0.54815E-03
        -0.57151E-03
        -0.56291E-03
        -0.57223E-03
        -0.52476E-03
        -0.53333E-03
        -0.52831E-03
        -0.44078E-03
        -0.43243E-03
        -0.38618E-03
        -0.52524E-03
        -0.54330E-03
        -0.57148E-03
        -0.54911E-03
        -0.57272E-03
        -0.45595E-03
        -0.42660E-03
        -0.40095E-03
        -0.21156E-03
        -0.14428E-03
        -0.67647E-04
         0.16144E-05
        -0.26363E-03
        -0.46848E-03
        -0.59039E-03
        -0.63495E-03
        -0.67509E-03
        -0.63162E-03
        -0.59884E-03
        -0.59632E-03
        -0.61916E-03
        -0.65022E-03
        -0.62140E-03
        -0.43206E-03
        -0.53426E-03
        -0.35578E-03
        -0.31547E-03
        -0.25918E-03
        -0.13303E-03
         0.44471E-04
         0.24579E-03
         0.48851E-03
         0.66913E-03
         0.55177E-03
         0.11680E-03
        -0.32839E-03
        -0.60027E-03
        -0.69291E-03
        -0.70298E-03
        -0.71955E-03
        -0.76267E-03
        -0.76896E-03
        -0.70400E-03
        -0.64040E-03
        -0.62452E-03
        -0.65483E-03
        -0.71171E-03
        -0.71577E-03
        -0.64172E-03
        -0.51269E-03
        -0.49884E-03
        -0.50742E-03
        -0.52605E-03
        -0.52485E-03
        -0.54102E-03
        -0.49518E-03
        -0.51609E-03
        -0.52374E-03
        -0.53555E-03
        -0.48133E-03
        -0.42604E-03
        -0.46143E-03
        -0.49360E-03
        -0.38878E-03
        -0.52573E-03
        -0.53665E-03
        -0.52728E-03
        -0.53712E-03
        -0.55504E-03
        -0.57593E-03
        -0.57176E-03
        -0.56662E-03
        -0.53836E-03
        -0.55219E-03
        -0.53794E-03
        -0.50299E-03
        -0.49797E-03
        -0.46466E-03
        -0.54909E-03
        -0.54354E-03
        -0.54699E-03
        -0.54000E-03
        -0.53784E-03
        -0.50912E-03
        -0.49343E-03
        -0.47893E-03
        -0.33981E-03
        -0.28723E-03
        -0.23422E-03
        -0.18451E-03
        -0.37305E-03
        -0.50955E-03
        -0.55635E-03
        -0.54996E-03
        -0.53195E-03
        -0.52271E-03
        -0.50589E-03
        -0.49196E-03
        -0.49171E-03
        -0.50054E-03
        -0.53634E-03
        -0.51313E-03
        -0.54459E-03
        -0.48326E-03
        -0.45515E-03
        -0.40509E-03
        -0.30381E-03
        -0.15236E-03
         0.28092E-04
         0.23059E-03
         0.34796E-03
         0.23026E-03
        -0.92922E-04
        -0.40948E-03
        -0.61075E-03
        -0.67098E-03
        -0.64359E-03
        -0.59203E-03
        -0.54498E-03
        -0.49633E-03
        -0.42492E-03
        -0.35000E-03
        -0.30962E-03
        -0.33678E-03
        -0.43592E-03
        -0.53089E-03
        -0.56242E-03
        -0.51096E-03
        -0.50855E-03
        -0.50913E-03
        -0.51251E-03
        -0.51291E-03
        -0.50751E-03
        -0.51252E-03
        -0.52025E-03
        -0.51603E-03
        -0.53018E-03
        -0.51085E-03
        -0.48611E-03
        -0.50227E-03
        -0.51748E-03
        -0.46387E-03
        -0.51702E-03
        -0.52463E-03
        -0.51542E-03
        -0.52609E-03
        -0.53855E-03
        -0.55018E-03
        -0.55237E-03
        -0.53795E-03
        -0.52470E-03
        -0.54100E-03
        -0.51976E-03
        -0.52271E-03
        -0.52017E-03
        -0.50254E-03
        -0.54231E-03
        -0.51719E-03
        -0.51260E-03
        -0.51289E-03
        -0.50409E-03
        -0.51585E-03
        -0.51253E-03
        -0.50838E-03
        -0.43122E-03
        -0.39680E-03
        -0.36790E-03
        -0.34375E-03
        -0.45299E-03
        -0.52399E-03
        -0.51929E-03
        -0.49894E-03
        -0.47388E-03
        -0.47770E-03
        -0.47162E-03
        -0.45913E-03
        -0.45097E-03
        -0.44743E-03
        -0.48619E-03
        -0.52616E-03
        -0.51737E-03
        -0.52648E-03
        -0.51394E-03
        -0.48480E-03
        -0.42613E-03
        -0.32669E-03
        -0.19865E-03
        -0.57992E-04
         0.41718E-05
        -0.96448E-04
        -0.29666E-03
        -0.47142E-03
        -0.57958E-03
        -0.60541E-03
        -0.57280E-03
        -0.51623E-03
        -0.46174E-03
        -0.42308E-03
        -0.38668E-03
        -0.33944E-03
        -0.30173E-03
        -0.31022E-03
        -0.37249E-03
        -0.44799E-03
        -0.49700E-03
        -0.50368E-03
        -0.50324E-03
        -0.50079E-03
        -0.50007E-03
        -0.50019E-03
        -0.49687E-03
        -0.50790E-03
        -0.51175E-03
        -0.50667E-03
        -0.51782E-03
        -0.50942E-03
        -0.49896E-03
        -0.50438E-03
        -0.51339E-03
        -0.48712E-03
        -0.50324E-03
        -0.51213E-03
        -0.50154E-03
        -0.51088E-03
        -0.52089E-03
        -0.52316E-03
        -0.52881E-03
        -0.51460E-03
        -0.50798E-03
        -0.52484E-03
        -0.50338E-03
        -0.51666E-03
        -0.51558E-03
        -0.50636E-03
        -0.52671E-03
        -0.50002E-03
        -0.49927E-03
        -0.49865E-03
        -0.49604E-03
        -0.50335E-03
        -0.50399E-03
        -0.50456E-03
        -0.46562E-03
        -0.44248E-03
        -0.42561E-03
        -0.41358E-03
        -0.47942E-03
        -0.51790E-03
        -0.50477E-03
        -0.49641E-03
        -0.48945E-03
        -0.49076E-03
        -0.48915E-03
        -0.48511E-03
        -0.48186E-03
        -0.47973E-03
        -0.49014E-03
        -0.50783E-03
        -0.50033E-03
        -0.51175E-03
        -0.50906E-03
        -0.49872E-03
        -0.47266E-03
        -0.41632E-03
        -0.32809E-03
        -0.22984E-03
        -0.19178E-03
        -0.26332E-03
        -0.39106E-03
        -0.49172E-03
        -0.54279E-03
        -0.54908E-03
        -0.53114E-03
        -0.50672E-03
        -0.48686E-03
        -0.47704E-03
        -0.47197E-03
        -0.46109E-03
        -0.44781E-03
        -0.44587E-03
        -0.45853E-03
        -0.47733E-03
        -0.49165E-03
        -0.49807E-03
        -0.49798E-03
        -0.49599E-03
        -0.49491E-03
        -0.49603E-03
        -0.49660E-03
        -0.50098E-03
        -0.50289E-03
        -0.49965E-03
        -0.50624E-03
        -0.50260E-03
        -0.49898E-03
        -0.49983E-03
        -0.50480E-03
        -0.49404E-03
        -0.49625E-03
        -0.50255E-03
        -0.49508E-03
        -0.50100E-03
        -0.50713E-03
        -0.50645E-03
        -0.51142E-03
        -0.50150E-03
        -0.49872E-03
        -0.51017E-03
        -0.49612E-03
        -0.50683E-03
        -0.50678E-03
        -0.50272E-03
        -0.51161E-03
        -0.49443E-03
        -0.49546E-03
        -0.49452E-03
        -0.49586E-03
        -0.49658E-03
        -0.49716E-03
        -0.49849E-03
        -0.48263E-03
        -0.46981E-03
        -0.46112E-03
        -0.45587E-03
        -0.49032E-03
        -0.50854E-03
        -0.49793E-03
        -0.49708E-03
        -0.49875E-03
        -0.49886E-03
        -0.49944E-03
        -0.50039E-03
        -0.50158E-03
        -0.50296E-03
        -0.49915E-03
        -0.49766E-03
        -0.49782E-03
        -0.49902E-03
        -0.49979E-03
        -0.49821E-03
        -0.48970E-03
        -0.46382E-03
        -0.41416E-03
        -0.35682E-03
        -0.33510E-03
        -0.37676E-03
        -0.44892E-03
        -0.50029E-03
        -0.51921E-03
        -0.51696E-03
        -0.50781E-03
        -0.50077E-03
        -0.49927E-03
        -0.50245E-03
        -0.50825E-03
        -0.51353E-03
        -0.51612E-03
        -0.51550E-03
        -0.51137E-03
        -0.50583E-03
        -0.50080E-03
        -0.49588E-03
        -0.49598E-03
        -0.49515E-03
        -0.49452E-03
        -0.49593E-03
        -0.49721E-03
        -0.49730E-03
        -0.49791E-03
        -0.49644E-03
        -0.49920E-03
        -0.49826E-03
        -0.49767E-03
        -0.49718E-03
        -0.49920E-03
        -0.49666E-03
        -0.49491E-03
        -0.49750E-03
        -0.49433E-03
        -0.49679E-03
        -0.49930E-03
        -0.49871E-03
        -0.50188E-03
        -0.49625E-03
        -0.49570E-03
        -0.50079E-03
        -0.49473E-03
        -0.50030E-03
        -0.50095E-03
        -0.50079E-03
        -0.50198E-03
        -0.49428E-03
        -0.49479E-03
        -0.49462E-03
        -0.49627E-03
        -0.49559E-03
        -0.49555E-03
        -0.49625E-03
        -0.49312E-03
        -0.48934E-03
        -0.48804E-03
        -0.48851E-03
        -0.49919E-03
        -0.50317E-03
        -0.49501E-03
        -0.49541E-03
        -0.49717E-03
        -0.49761E-03
        -0.49858E-03
        -0.50024E-03
        -0.50239E-03
        -0.50461E-03
        -0.50039E-03
        -0.49610E-03
        -0.49856E-03
        -0.49588E-03
        -0.49654E-03
        -0.49702E-03
        -0.49586E-03
        -0.48833E-03
        -0.47029E-03
        -0.44958E-03
        -0.44500E-03
        -0.46517E-03
        -0.49217E-03
        -0.50665E-03
        -0.50737E-03
        -0.50216E-03
        -0.49704E-03
        -0.49482E-03
        -0.49621E-03
        -0.49987E-03
        -0.50468E-03
        -0.50987E-03
        -0.51446E-03
        -0.51679E-03
        -0.51454E-03
        -0.50891E-03
        -0.50304E-03
        -0.49560E-03
        -0.49561E-03
        -0.49538E-03
        -0.49526E-03
        -0.49625E-03
        -0.49741E-03
        -0.49593E-03
        -0.49602E-03
        -0.49569E-03
        -0.49615E-03
        -0.49626E-03
        -0.49646E-03
        -0.49583E-03
        -0.49652E-03
        -0.49723E-03
        -0.49536E-03
        -0.49570E-03
        -0.49515E-03
        -0.49544E-03
        -0.49580E-03
        -0.49540E-03
        -0.49708E-03
        -0.49466E-03
        -0.49518E-03
        -0.49630E-03
        -0.49514E-03
        -0.49690E-03
        -0.49762E-03
        -0.49924E-03
        -0.49705E-03
        -0.49528E-03
        -0.49525E-03
        -0.49553E-03
        -0.49661E-03
        -0.49558E-03
        -0.49524E-03
        -0.49545E-03
        -0.49786E-03
        -0.49909E-03
        -0.50173E-03
        -0.50499E-03
        -0.50295E-03
        -0.49994E-03
        -0.49451E-03
        -0.49485E-03
        -0.49565E-03
        -0.49637E-03
        -0.49727E-03
        -0.49853E-03
        -0.50025E-03
        -0.50207E-03
        -0.49955E-03
        -0.49580E-03
        -0.49864E-03
        -0.49477E-03
        -0.49485E-03
        -0.49536E-03
        -0.49661E-03
        -0.49816E-03
        -0.49851E-03
        -0.49986E-03
        -0.50552E-03
        -0.51212E-03
        -0.51300E-03
        -0.50838E-03
        -0.50075E-03
        -0.49530E-03
        -0.49313E-03
        -0.49275E-03
        -0.49379E-03
        -0.49605E-03
        -0.49907E-03
        -0.50232E-03
        -0.50569E-03
        -0.50848E-03
        -0.50850E-03
        -0.50579E-03
        -0.50222E-03
        -0.49568E-03
        -0.49565E-03
        -0.49557E-03
        -0.49568E-03
        -0.49644E-03
        -0.49769E-03
        -0.49567E-03
        -0.49553E-03
        -0.49559E-03
        -0.49510E-03
        -0.49569E-03
        -0.49603E-03
        -0.49553E-03
        -0.49562E-03
        -0.49724E-03
        -0.49571E-03
        -0.49513E-03
        -0.49564E-03
        -0.49501E-03
        -0.49441E-03
        -0.49417E-03
        -0.49496E-03
        -0.49434E-03
        -0.49517E-03
        -0.49453E-03
        -0.49555E-03
        -0.49556E-03
        -0.49611E-03
        -0.49827E-03
        -0.49491E-03
        -0.49594E-03
        -0.49578E-03
        -0.49616E-03
        -0.49707E-03
        -0.49563E-03
        -0.49525E-03
        -0.49535E-03
        -0.49946E-03
        -0.50266E-03
        -0.50675E-03
        -0.51112E-03
        -0.50399E-03
        -0.49823E-03
        -0.49473E-03
        -0.49514E-03
        -0.49571E-03
        -0.49655E-03
        -0.49747E-03
        -0.49865E-03
        -0.50023E-03
        -0.50192E-03
        -0.49970E-03
        -0.49571E-03
        -0.49872E-03
        -0.49452E-03
        -0.49449E-03
        -0.49492E-03
        -0.49660E-03
        -0.50100E-03
        -0.50893E-03
        -0.51977E-03
        -0.52949E-03
        -0.53077E-03
        -0.52090E-03
        -0.50813E-03
        -0.49768E-03
        -0.49292E-03
        -0.49224E-03
        -0.49270E-03
        -0.49367E-03
        -0.49553E-03
        -0.49829E-03
        -0.50126E-03
        -0.50433E-03
        -0.50715E-03
        -0.50758E-03
        -0.50541E-03
        -0.50223E-03
        -0.49574E-03
        -0.49573E-03
        -0.49559E-03
        -0.49573E-03
        -0.49642E-03
        -0.49796E-03
        -0.49570E-03
        -0.49547E-03
        -0.49556E-03
        -0.49479E-03
        -0.49563E-03
        -0.49598E-03
        -0.49556E-03
        -0.49542E-03
        -0.49733E-03
        -0.49576E-03
        -0.49490E-03
        -0.49570E-03
        -0.49485E-03
        -0.49392E-03
        -0.49400E-03
        -0.49455E-03
        -0.49429E-03
        -0.49515E-03
        -0.49390E-03
        -0.49564E-03
        -0.49514E-03
        -0.49550E-03
        -0.49770E-03
        -0.49412E-03
        -0.49609E-03
        -0.49597E-03
        -0.49632E-03
        -0.49737E-03
        -0.49551E-03
        -0.49523E-03
        -0.49540E-03
        -0.50008E-03
        -0.50373E-03
        -0.50790E-03
        -0.51248E-03
        -0.50408E-03
        -0.49778E-03
        -0.49480E-03
        -0.49532E-03
        -0.49596E-03
        -0.49683E-03
        -0.49787E-03
        -0.49929E-03
        -0.50119E-03
        -0.50321E-03
        -0.50047E-03
        -0.49543E-03
        -0.49868E-03
        -0.49441E-03
        -0.49448E-03
        -0.49489E-03
        -0.49663E-03
        -0.50195E-03
        -0.51288E-03
        -0.52678E-03
        -0.53655E-03
        -0.53569E-03
        -0.52345E-03
        -0.50891E-03
        -0.49800E-03
        -0.49309E-03
        -0.49218E-03
        -0.49266E-03
        -0.49382E-03
        -0.49580E-03
        -0.49874E-03
        -0.50234E-03
        -0.50629E-03
        -0.50968E-03
        -0.51013E-03
        -0.50732E-03
        -0.50307E-03
        -0.49574E-03
        -0.49570E-03
        -0.49551E-03
        -0.49561E-03
        -0.49635E-03
        -0.49818E-03
        -0.49565E-03
        -0.49543E-03
        -0.49551E-03
        -0.49462E-03
        -0.49551E-03
        -0.49575E-03
        -0.49532E-03
        -0.49531E-03
        -0.49743E-03
        -0.49564E-03
        -0.49474E-03
        -0.49557E-03
        -0.49472E-03
        -0.49366E-03
        -0.49404E-03
        -0.49456E-03
        -0.49421E-03
        -0.49504E-03
        -0.49352E-03
        -0.49552E-03
        -0.49492E-03
        -0.49510E-03
        -0.49716E-03
        -0.49362E-03
        -0.49597E-03
        -0.49588E-03
        -0.49618E-03
        -0.49744E-03
        -0.49531E-03
        -0.49506E-03
        -0.49523E-03
        -0.50068E-03
        -0.50452E-03
        -0.50835E-03
        -0.51257E-03
        -0.50365E-03
        -0.49753E-03
        -0.49463E-03
        -0.49518E-03
        -0.49591E-03
        -0.49689E-03
        -0.49810E-03
        -0.49978E-03
        -0.50208E-03
        -0.50460E-03
        -0.50123E-03
        -0.49511E-03
        -0.49874E-03
        -0.49402E-03
        -0.49398E-03
        -0.49420E-03
        -0.49606E-03
        -0.50267E-03
        -0.51623E-03
        -0.53206E-03
        -0.54079E-03
        -0.53710E-03
        -0.52383E-03
        -0.50986E-03
        -0.49905E-03
        -0.49362E-03
        -0.49215E-03
        -0.49225E-03
        -0.49344E-03
        -0.49572E-03
        -0.49912E-03
        -0.50360E-03
        -0.50860E-03
        -0.51270E-03
        -0.51324E-03
        -0.50964E-03
        -0.50409E-03
        -0.49570E-03
        -0.49566E-03
        -0.49547E-03
        -0.49555E-03
        -0.49640E-03
        -0.49827E-03
        -0.49559E-03
        -0.49535E-03
        -0.49545E-03
        -0.49448E-03
        -0.49547E-03
        -0.49580E-03
        -0.49526E-03
        -0.49526E-03
        -0.49772E-03
        -0.49556E-03
        -0.49462E-03
        -0.49548E-03
        -0.49463E-03
        -0.49347E-03
        -0.49391E-03
        -0.49432E-03
        -0.49414E-03
        -0.49496E-03
        -0.49331E-03
        -0.49542E-03
        -0.49490E-03
        -0.49515E-03
        -0.49743E-03
        -0.49341E-03
        -0.49586E-03
        -0.49575E-03
        -0.49610E-03
        -0.49745E-03
        -0.49532E-03
        -0.49499E-03
        -0.49515E-03
        -0.50135E-03
        -0.50574E-03
        -0.51012E-03
        -0.51469E-03
        -0.50442E-03
        -0.49748E-03
        -0.49452E-03
        -0.49503E-03
        -0.49578E-03
        -0.49686E-03
        -0.49823E-03
        -0.50004E-03
        -0.50240E-03
        -0.50500E-03
        -0.50144E-03
        -0.49517E-03
        -0.49902E-03
        -0.49386E-03
        -0.49381E-03
        -0.49413E-03
        -0.49631E-03
        -0.50376E-03
        -0.51847E-03
        -0.53605E-03
        -0.54640E-03
        -0.54218E-03
        -0.52622E-03
        -0.51021E-03
        -0.49872E-03
        -0.49343E-03
        -0.49211E-03
        -0.49214E-03
        -0.49324E-03
        -0.49558E-03
        -0.49934E-03
        -0.50440E-03
        -0.50977E-03
        -0.51376E-03
        -0.51406E-03
        -0.51024E-03
        -0.50448E-03
        -0.49559E-03
        -0.49558E-03
        -0.49542E-03
        -0.49548E-03
        -0.49654E-03
        -0.49848E-03
        -0.49549E-03
        -0.49522E-03
        -0.49537E-03
        -0.49437E-03
        -0.49540E-03
        -0.49591E-03
        -0.49529E-03
        -0.49519E-03
        -0.49802E-03
        -0.49548E-03
        -0.49456E-03
        -0.49538E-03
        -0.49458E-03
        -0.49334E-03
        -0.49371E-03
        -0.49395E-03
        -0.49404E-03
        -0.49490E-03
        -0.49318E-03
        -0.49532E-03
        -0.49487E-03
        -0.49522E-03
        -0.49768E-03
        -0.49325E-03
        -0.49572E-03
        -0.49563E-03
        -0.49605E-03
        -0.49754E-03
        -0.49542E-03
        -0.49501E-03
        -0.49516E-03
        -0.50188E-03
        -0.50659E-03
        -0.51146E-03
        -0.51636E-03
        -0.50488E-03
        -0.49719E-03
        -0.49445E-03
        -0.49499E-03
        -0.49584E-03
        -0.49682E-03
        -0.49815E-03
        -0.50005E-03
        -0.50262E-03
        -0.50541E-03
        -0.50178E-03
        -0.49541E-03
        -0.49961E-03
        -0.49395E-03
        -0.49400E-03
        -0.49443E-03
        -0.49687E-03
        -0.50504E-03
        -0.52045E-03
        -0.53855E-03
        -0.55013E-03
        -0.54612E-03
        -0.52707E-03
        -0.50932E-03
        -0.49773E-03
        -0.49287E-03
        -0.49195E-03
        -0.49215E-03
        -0.49342E-03
        -0.49592E-03
        -0.49958E-03
        -0.50436E-03
        -0.50969E-03
        -0.51402E-03
        -0.51469E-03
        -0.51105E-03
        -0.50530E-03
        -0.49550E-03
        -0.49551E-03
        -0.49545E-03
        -0.49546E-03
        -0.49680E-03
        -0.49885E-03
        -0.49539E-03
        -0.49511E-03
        -0.49529E-03
        -0.49428E-03
        -0.49532E-03
        -0.49598E-03
        -0.49524E-03
        -0.49508E-03
        -0.49820E-03
        -0.49538E-03
        -0.49453E-03
        -0.49527E-03
        -0.49458E-03
        -0.49336E-03
        -0.49360E-03
        -0.49378E-03
        -0.49397E-03
        -0.49484E-03
        -0.49315E-03
        -0.49522E-03
        -0.49470E-03
        -0.49501E-03
        -0.49747E-03
        -0.49326E-03
        -0.49557E-03
        -0.49555E-03
        -0.49592E-03
        -0.49758E-03
        -0.49560E-03
        -0.49509E-03
        -0.49516E-03
        -0.50176E-03
        -0.50589E-03
        -0.51044E-03
        -0.51544E-03
        -0.50458E-03
        -0.49703E-03
        -0.49440E-03
        -0.49506E-03
        -0.49608E-03
        -0.49692E-03
        -0.49802E-03
        -0.49982E-03
        -0.50260E-03
        -0.50576E-03
        -0.50221E-03
        -0.49571E-03
        -0.50030E-03
        -0.49416E-03
        -0.49414E-03
        -0.49452E-03
        -0.49734E-03
        -0.50626E-03
        -0.52130E-03
        -0.53703E-03
        -0.54684E-03
        -0.54397E-03
        -0.52629E-03
        -0.50851E-03
        -0.49684E-03
        -0.49238E-03
        -0.49183E-03
        -0.49222E-03
        -0.49375E-03
        -0.49658E-03
        -0.50011E-03
        -0.50419E-03
        -0.50895E-03
        -0.51374E-03
        -0.51534E-03
        -0.51225E-03
        -0.50647E-03
        -0.49554E-03
        -0.49555E-03
        -0.49557E-03
        -0.49553E-03
        -0.49699E-03
        -0.49895E-03
        -0.49537E-03
        -0.49509E-03
        -0.49531E-03
        -0.49428E-03
        -0.49528E-03
        -0.49599E-03
        -0.49522E-03
        -0.49501E-03
        -0.49813E-03
        -0.49537E-03
        -0.49459E-03
        -0.49526E-03
        -0.49465E-03
        -0.49351E-03
        -0.49363E-03
        -0.49386E-03
        -0.49407E-03
        -0.49490E-03
        -0.49323E-03
        -0.49526E-03
        -0.49458E-03
        -0.49484E-03
        -0.49731E-03
        -0.49345E-03
        -0.49555E-03
        -0.49563E-03
        -0.49583E-03
        -0.49745E-03
        -0.49578E-03
        -0.49520E-03
        -0.49519E-03
        -0.50131E-03
        -0.50489E-03
        -0.50908E-03
        -0.51423E-03
        -0.50453E-03
        -0.49729E-03
        -0.49456E-03
        -0.49528E-03
        -0.49641E-03
        -0.49714E-03
        -0.49803E-03
        -0.49957E-03
        -0.50216E-03
        -0.50526E-03
        -0.50202E-03
        -0.49590E-03
        -0.50054E-03
        -0.49429E-03
        -0.49415E-03
        -0.49452E-03
        -0.49753E-03
        -0.50645E-03
        -0.52041E-03
        -0.53419E-03
        -0.54253E-03
        -0.54103E-03
        -0.52651E-03
        -0.50883E-03
        -0.49639E-03
        -0.49211E-03
        -0.49201E-03
        -0.49265E-03
        -0.49429E-03
        -0.49719E-03
        -0.50068E-03
        -0.50435E-03
        -0.50841E-03
        -0.51277E-03
        -0.51444E-03
        -0.51193E-03
        -0.50664E-03
        -0.49561E-03
        -0.49558E-03
        -0.49568E-03
        -0.49567E-03
        -0.49711E-03
        -0.49887E-03
        -0.49533E-03
        -0.49510E-03
        -0.49536E-03
        -0.49432E-03
        -0.49519E-03
        -0.49581E-03
        -0.49513E-03
        -0.49493E-03
        -0.49773E-03
        -0.49543E-03
        -0.49463E-03
        -0.49537E-03
        -0.49466E-03
        -0.49355E-03
        -0.49365E-03
        -0.49395E-03
        -0.49414E-03
        -0.49495E-03
        -0.49332E-03
        -0.49535E-03
        -0.49453E-03
        -0.49486E-03
        -0.49749E-03
        -0.49359E-03
        -0.49568E-03
        -0.49578E-03
        -0.49593E-03
        -0.49743E-03
        -0.49589E-03
        -0.49521E-03
        -0.49511E-03
        -0.50069E-03
        -0.50442E-03
        -0.50909E-03
        -0.51470E-03
        -0.50501E-03
        -0.49758E-03
        -0.49472E-03
        -0.49550E-03
        -0.49662E-03
        -0.49729E-03
        -0.49815E-03
        -0.49958E-03
        -0.50188E-03
        -0.50462E-03
        -0.50161E-03
        -0.49604E-03
        -0.50057E-03
        -0.49417E-03
        -0.49392E-03
        -0.49436E-03
        -0.49723E-03
        -0.50533E-03
        -0.51812E-03
        -0.53217E-03
        -0.54236E-03
        -0.54214E-03
        -0.52802E-03
        -0.50968E-03
        -0.49669E-03
        -0.49221E-03
        -0.49213E-03
        -0.49294E-03
        -0.49467E-03
        -0.49740E-03
        -0.50069E-03
        -0.50435E-03
        -0.50832E-03
        -0.51208E-03
        -0.51307E-03
        -0.51059E-03
        -0.50600E-03
        -0.49574E-03
        -0.49571E-03
        -0.49588E-03
        -0.49593E-03
        -0.49733E-03
        -0.49903E-03
        -0.49548E-03
        -0.49523E-03
        -0.49545E-03
        -0.49442E-03
        -0.49537E-03
        -0.49596E-03
        -0.49529E-03
        -0.49511E-03
        -0.49780E-03
        -0.49556E-03
        -0.49467E-03
        -0.49559E-03
        -0.49463E-03
        -0.49353E-03
        -0.49355E-03
        -0.49394E-03
        -0.49398E-03
        -0.49491E-03
        -0.49336E-03
        -0.49541E-03
        -0.49473E-03
        -0.49512E-03
        -0.49781E-03
        -0.49359E-03
        -0.49592E-03
        -0.49586E-03
        -0.49624E-03
        -0.49768E-03
        -0.49610E-03
        -0.49537E-03
        -0.49524E-03
        -0.50102E-03
        -0.50545E-03
        -0.51064E-03
        -0.51627E-03
        -0.50544E-03
        -0.49761E-03
        -0.49461E-03
        -0.49538E-03
        -0.49629E-03
        -0.49704E-03
        -0.49806E-03
        -0.49960E-03
        -0.50182E-03
        -0.50438E-03
        -0.50159E-03
        -0.49625E-03
        -0.50065E-03
        -0.49430E-03
        -0.49403E-03
        -0.49460E-03
        -0.49728E-03
        -0.50485E-03
        -0.51829E-03
        -0.53522E-03
        -0.54779E-03
        -0.54611E-03
        -0.52916E-03
        -0.50998E-03
        -0.49690E-03
        -0.49205E-03
        -0.49170E-03
        -0.49257E-03
        -0.49426E-03
        -0.49661E-03
        -0.49949E-03
        -0.50330E-03
        -0.50757E-03
        -0.51120E-03
        -0.51215E-03
        -0.50988E-03
        -0.50570E-03
        -0.49586E-03
        -0.49591E-03
        -0.49607E-03
        -0.49613E-03
        -0.49742E-03
        -0.49904E-03
        -0.49576E-03
        -0.49542E-03
        -0.49554E-03
        -0.49451E-03
        -0.49573E-03
        -0.49636E-03
        -0.49566E-03
        -0.49545E-03
        -0.49823E-03
        -0.49572E-03
        -0.49474E-03
        -0.49581E-03
        -0.49470E-03
        -0.49359E-03
        -0.49356E-03
        -0.49401E-03
        -0.49389E-03
        -0.49495E-03
        -0.49335E-03
        -0.49550E-03
        -0.49498E-03
        -0.49519E-03
        -0.49769E-03
        -0.49348E-03
        -0.49608E-03
        -0.49585E-03
        -0.49643E-03
        -0.49776E-03
        -0.49626E-03
        -0.49562E-03
        -0.49554E-03
        -0.50161E-03
        -0.50624E-03
        -0.51139E-03
        -0.51673E-03
        -0.50512E-03
        -0.49741E-03
        -0.49449E-03
        -0.49512E-03
        -0.49575E-03
        -0.49659E-03
        -0.49767E-03
        -0.49918E-03
        -0.50132E-03
        -0.50379E-03
        -0.50138E-03
        -0.49635E-03
        -0.50049E-03
        -0.49464E-03
        -0.49447E-03
        -0.49500E-03
        -0.49753E-03
        -0.50498E-03
        -0.51936E-03
        -0.53817E-03
        -0.55169E-03
        -0.54828E-03
        -0.52862E-03
        -0.50957E-03
        -0.49697E-03
        -0.49186E-03
        -0.49128E-03
        -0.49205E-03
        -0.49353E-03
        -0.49549E-03
        -0.49800E-03
        -0.50151E-03
        -0.50559E-03
        -0.50924E-03
        -0.51075E-03
        -0.50910E-03
        -0.50528E-03
        -0.49599E-03
        -0.49608E-03
        -0.49623E-03
        -0.49630E-03
        -0.49734E-03
        -0.49867E-03
        -0.49592E-03
        -0.49553E-03
        -0.49566E-03
        -0.49461E-03
        -0.49591E-03
        -0.49659E-03
        -0.49592E-03
        -0.49560E-03
        -0.49833E-03
        -0.49593E-03
        -0.49490E-03
        -0.49604E-03
        -0.49489E-03
        -0.49383E-03
        -0.49372E-03
        -0.49418E-03
        -0.49410E-03
        -0.49515E-03
        -0.49348E-03
        -0.49570E-03
        -0.49503E-03
        -0.49504E-03
        -0.49738E-03
        -0.49364E-03
        -0.49624E-03
        -0.49596E-03
        -0.49652E-03
        -0.49757E-03
        -0.49636E-03
        -0.49588E-03
        -0.49584E-03
        -0.50125E-03
        -0.50523E-03
        -0.51002E-03
        -0.51543E-03
        -0.50467E-03
        -0.49746E-03
        -0.49466E-03
        -0.49512E-03
        -0.49551E-03
        -0.49633E-03
        -0.49724E-03
        -0.49841E-03
        -0.50014E-03
        -0.50220E-03
        -0.50048E-03
        -0.49639E-03
        -0.49989E-03
        -0.49511E-03
        -0.49506E-03
        -0.49545E-03
        -0.49775E-03
        -0.50472E-03
        -0.51778E-03
        -0.53474E-03
        -0.54765E-03
        -0.54572E-03
        -0.52732E-03
        -0.50883E-03
        -0.49659E-03
        -0.49181E-03
        -0.49150E-03
        -0.49221E-03
        -0.49332E-03
        -0.49487E-03
        -0.49695E-03
        -0.49966E-03
        -0.50266E-03
        -0.50572E-03
        -0.50750E-03
        -0.50669E-03
        -0.50384E-03
        -0.49621E-03
        -0.49628E-03
        -0.49650E-03
        -0.49667E-03
        -0.49738E-03
        -0.49846E-03
        -0.49599E-03
        -0.49557E-03
        -0.49588E-03
        -0.49470E-03
        -0.49591E-03
        -0.49665E-03
        -0.49609E-03
        -0.49555E-03
        -0.49825E-03
        -0.49625E-03
        -0.49513E-03
        -0.49645E-03
        -0.49510E-03
        -0.49410E-03
        -0.49380E-03
        -0.49433E-03
        -0.49431E-03
        -0.49539E-03
        -0.49369E-03
        -0.49603E-03
        -0.49498E-03
        -0.49517E-03
        -0.49797E-03
        -0.49411E-03
        -0.49664E-03
        -0.49629E-03
        -0.49687E-03
        -0.49761E-03
        -0.49649E-03
        -0.49612E-03
        -0.49609E-03
        -0.50097E-03
        -0.50497E-03
        -0.51028E-03
        -0.51656E-03
        -0.50600E-03
        -0.49817E-03
        -0.49500E-03
        -0.49540E-03
        -0.49552E-03
        -0.49625E-03
        -0.49696E-03
        -0.49780E-03
        -0.49907E-03
        -0.50059E-03
        -0.49965E-03
        -0.49636E-03
        -0.49932E-03
        -0.49537E-03
        -0.49549E-03
        -0.49589E-03
        -0.49808E-03
        -0.50472E-03
        -0.51700E-03
        -0.53327E-03
        -0.54672E-03
        -0.54715E-03
        -0.53000E-03
        -0.50925E-03
        -0.49601E-03
        -0.49161E-03
        -0.49172E-03
        -0.49269E-03
        -0.49356E-03
        -0.49447E-03
        -0.49571E-03
        -0.49748E-03
        -0.49954E-03
        -0.50200E-03
        -0.50391E-03
        -0.50403E-03
        -0.50238E-03
        -0.49634E-03
        -0.49637E-03
        -0.49675E-03
        -0.49715E-03
        -0.49737E-03
        -0.49825E-03
        -0.49588E-03
        -0.49548E-03
        -0.49597E-03
        -0.49467E-03
        -0.49573E-03
        -0.49649E-03
        -0.49606E-03
        -0.49541E-03
        -0.49800E-03
        -0.49658E-03
        -0.49510E-03
        -0.49698E-03
        -0.49493E-03
        -0.49386E-03
        -0.49320E-03
        -0.49379E-03
        -0.49389E-03
        -0.49531E-03
        -0.49372E-03
        -0.49628E-03
        -0.49498E-03
        -0.49537E-03
        -0.49850E-03
        -0.49419E-03
        -0.49720E-03
        -0.49654E-03
        -0.49740E-03
        -0.49771E-03
        -0.49655E-03
        -0.49632E-03
        -0.49624E-03
        -0.50058E-03
        -0.50454E-03
        -0.51026E-03
        -0.51746E-03
        -0.50728E-03
        -0.49850E-03
        -0.49484E-03
        -0.49508E-03
        -0.49434E-03
        -0.49516E-03
        -0.49588E-03
        -0.49652E-03
        -0.49738E-03
        -0.49835E-03
        -0.49866E-03
        -0.49621E-03
        -0.49850E-03
        -0.49567E-03
        -0.49591E-03
        -0.49612E-03
        -0.49807E-03
        -0.50427E-03
        -0.51531E-03
        -0.52992E-03
        -0.54343E-03
        -0.54761E-03
        -0.53370E-03
        -0.51055E-03
        -0.49503E-03
        -0.49024E-03
        -0.49058E-03
        -0.49187E-03
        -0.49218E-03
        -0.49145E-03
        -0.49087E-03
        -0.49161E-03
        -0.49330E-03
        -0.49583E-03
        -0.49879E-03
        -0.50068E-03
        -0.50058E-03
        -0.49635E-03
        -0.49649E-03
        -0.49709E-03
        -0.49767E-03
        -0.49731E-03
        -0.49761E-03
        -0.49581E-03
        -0.49531E-03
        -0.49581E-03
        -0.49449E-03
        -0.49566E-03
        -0.49639E-03
        -0.49610E-03
        -0.49541E-03
        -0.49793E-03
        -0.49690E-03
        -0.49469E-03
        -0.49757E-03
        -0.49429E-03
        -0.49314E-03
        -0.49172E-03
        -0.49319E-03
        -0.49240E-03
        -0.49479E-03
        -0.49355E-03
        -0.49639E-03
        -0.49522E-03
        -0.49597E-03
        -0.49985E-03
        -0.49426E-03
        -0.49784E-03
        -0.49635E-03
        -0.49797E-03
        -0.49754E-03
        -0.49689E-03
        -0.49682E-03
        -0.49657E-03
        -0.50064E-03
        -0.50505E-03
        -0.51194E-03
        -0.52097E-03
        -0.51060E-03
        -0.49995E-03
        -0.49359E-03
        -0.49311E-03
        -0.49027E-03
        -0.49176E-03
        -0.49299E-03
        -0.49368E-03
        -0.49411E-03
        -0.49432E-03
        -0.49668E-03
        -0.49658E-03
        -0.49719E-03
        -0.49673E-03
        -0.49670E-03
        -0.49629E-03
        -0.49774E-03
        -0.50337E-03
        -0.51337E-03
        -0.52733E-03
        -0.54289E-03
        -0.55273E-03
        -0.54306E-03
        -0.51670E-03
        -0.49514E-03
        -0.48704E-03
        -0.48668E-03
        -0.48781E-03
        -0.48649E-03
        -0.48249E-03
        -0.47887E-03
        -0.47887E-03
        -0.48133E-03
        -0.48501E-03
        -0.49020E-03
        -0.49491E-03
        -0.49723E-03
        -0.49705E-03
        -0.49793E-03
        -0.49909E-03
        -0.49910E-03
        -0.49897E-03
        -0.49757E-03
        -0.49692E-03
        -0.49558E-03
        -0.49568E-03
        -0.49391E-03
        -0.49688E-03
        -0.49853E-03
        -0.49811E-03
        -0.49620E-03
        -0.50034E-03
        -0.49775E-03
        -0.49360E-03
        -0.49882E-03
        -0.49299E-03
        -0.49129E-03
        -0.48855E-03
        -0.49269E-03
        -0.48896E-03
        -0.49385E-03
        -0.49259E-03
        -0.49653E-03
        -0.49592E-03
        -0.49811E-03
        -0.50640E-03
        -0.49480E-03
        -0.49857E-03
        -0.49508E-03
        -0.49863E-03
        -0.49721E-03
        -0.49987E-03
        -0.49980E-03
        -0.49893E-03
        -0.50430E-03
        -0.51267E-03
        -0.52685E-03
        -0.54430E-03
        -0.52682E-03
        -0.50677E-03
        -0.49009E-03
        -0.48737E-03
        -0.47982E-03
        -0.48342E-03
        -0.48647E-03
        -0.48805E-03
        -0.48856E-03
        -0.48826E-03
        -0.49404E-03
        -0.50037E-03
        -0.49722E-03
        -0.50140E-03
        -0.50035E-03
        -0.49951E-03
        -0.50146E-03
        -0.50814E-03
        -0.52081E-03
        -0.54274E-03
        -0.57339E-03
        -0.59693E-03
        -0.58481E-03
        -0.54004E-03
        -0.49848E-03
        -0.47995E-03
        -0.47683E-03
        -0.47650E-03
        -0.47112E-03
        -0.46108E-03
        -0.45338E-03
        -0.45428E-03
        -0.46041E-03
        -0.46815E-03
        -0.47806E-03
        -0.48754E-03
        -0.49361E-03
        -0.49929E-03
        -0.50189E-03
        -0.50423E-03
        -0.50248E-03
        -0.50397E-03
        -0.49948E-03
        -0.50006E-03
        -0.49674E-03
        -0.49595E-03
        -0.49287E-03
        -0.50008E-03
        -0.50400E-03
        -0.50330E-03
        -0.49816E-03
        -0.50627E-03
        -0.49962E-03
        -0.49161E-03
        -0.50141E-03
        -0.49097E-03
        -0.48753E-03
        -0.48301E-03
        -0.49105E-03
        -0.48341E-03
        -0.49254E-03
        -0.49045E-03
        -0.49679E-03
        -0.49735E-03
        -0.50308E-03
        -0.52230E-03
        -0.49605E-03
        -0.49944E-03
        -0.49227E-03
        -0.49952E-03
        -0.49697E-03
        -0.50709E-03
        -0.50683E-03
        -0.50476E-03
        -0.51326E-03
        -0.53190E-03
        -0.56343E-03
        -0.59791E-03
        -0.56312E-03
        -0.52058E-03
        -0.48413E-03
        -0.47718E-03
        -0.46213E-03
        -0.46910E-03
        -0.47533E-03
        -0.47871E-03
        -0.48025E-03
        -0.48038E-03
        -0.49148E-03
        -0.50901E-03
        -0.50051E-03
        -0.51112E-03
        -0.50842E-03
        -0.50754E-03
        -0.51134E-03
        -0.52123E-03
        -0.54171E-03
        -0.58360E-03
        -0.64583E-03
        -0.69201E-03
        -0.66723E-03
        -0.58207E-03
        -0.50292E-03
        -0.46773E-03
        -0.46094E-03
        -0.45803E-03
        -0.44612E-03
        -0.42741E-03
        -0.41450E-03
        -0.41728E-03
        -0.42964E-03
        -0.44521E-03
        -0.46342E-03
        -0.48054E-03
        -0.49199E-03
  
SCALARS                     velocity_x  double 1
LOOKUP_TABLE default
         0.00000E+00
        -0.73897E+01
        -0.37373E+02
         0.14710E+02
        -0.13844E+02
        -0.21312E+04
        -0.13349E+04
        -0.11342E+04
        -0.12157E+04
         0.65795E+02
         0.14044E+03
        -0.14189E+04
        -0.14838E+04
        -0.76827E+02
        -0.10334E+03
        -0.12117E+04
        -0.67440E+03
         0.44436E+02
        -0.14580E+02
        -0.98939E+03
        -0.30430E+04
        -0.99545E+02
        -0.72144E+02
        -0.13560E+03
        -0.17773E+04
        -0.11172E+04
        -0.59852E+03
        -0.89529E+02
        -0.19712E+03
        -0.18909E+04
        -0.44106E+03
         0.13743E+02
         0.31341E+02
         0.71829E+01
        -0.14640E+03
        -0.40403E+03
        -0.18059E+03
        -0.64021E+01
         0.16919E+02
        -0.22596E+02
        -0.65649E+02
        -0.37130E+02
        -0.11506E+03
         0.21306E+01
        -0.16783E+02
        -0.80652E+01
        -0.23770E+02
        -0.61248E+02
        -0.16445E+02
         0.47640E+02
        -0.59212E+03
        -0.59278E+02
        -0.22623E+03
        -0.23904E+03
        -0.10857E+04
        -0.39302E+03
        -0.12490E+04
        -0.24311E+03
        -0.37135E+02
        -0.17216E+04
        -0.26094E+03
        -0.10140E+03
        -0.48427E+02
        -0.70863E+03
        -0.38312E+03
        -0.68061E+02
        -0.18794E+03
        -0.15458E+01
        -0.22678E+04
         0.77727E+02
         0.57905E+02
        -0.14166E+04
        -0.67965E+03
        -0.21247E+02
        -0.44478E+03
        -0.10292E+03
        -0.91901E+03
        -0.21573E+03
        -0.10322E+04
        -0.53531E+03
        -0.12353E+04
        -0.29269E+03
        -0.88741E+03
        -0.14781E+04
        -0.71834E+03
        -0.29423E+03
        -0.68609E+03
         0.12887E+03
        -0.76407E+03
         0.31339E+03
        -0.14140E+04
         0.17789E+03
         0.25277E+03
        -0.14466E+04
        -0.33789E+03
         0.11634E+03
        -0.28824E+03
         0.23562E+03
        -0.10341E+04
         0.50884E+03
        -0.16004E+04
         0.36604E+03
         0.59074E+03
        -0.12364E+04
        -0.19392E+04
         0.20154E+03
         0.61783E+03
        -0.28337E+04
        -0.14829E+04
         0.27957E+03
        -0.67901E+03
         0.38851E+01
        -0.20261E+03
        -0.38103E+03
         0.20968E+03
        -0.99057E+03
         0.57118E+03
        -0.14215E+04
         0.59323E+03
        -0.12719E+04
         0.75184E+03
        -0.16519E+04
         0.86753E+03
        -0.17418E+04
        -0.11130E+04
        -0.14154E+04
        -0.16360E+04
        -0.77877E+03
        -0.14889E+04
        -0.23924E+03
        -0.15512E+04
        -0.20882E+03
        -0.16570E+04
         0.24265E+03
        -0.16489E+04
         0.65724E+03
        -0.13891E+04
         0.97780E+03
        -0.11887E+04
         0.15718E+04
        -0.21086E+04
         0.19387E+04
        -0.16588E+04
         0.18528E+04
        -0.12714E+04
         0.19685E+04
        -0.14819E+04
         0.32106E+04
        -0.21444E+04
         0.39124E+04
        -0.19752E+04
         0.47784E+04
        -0.16949E+04
         0.22951E+04
        -0.17610E+04
         0.74884E+03
        -0.93117E+03
         0.59524E+03
         0.51943E+03
         0.35208E+03
         0.61800E+03
         0.57808E+03
         0.11643E+04
         0.45762E+03
         0.49021E+03
         0.96680E+03
         0.19521E+04
         0.57992E+03
         0.21489E+03
         0.35793E+03
         0.60832E+03
         0.17995E+03
         0.54305E+03
         0.40543E+03
         0.10143E+04
         0.31201E+03
         0.33663E+03
         0.19258E+03
         0.16663E+03
         0.72581E+03
         0.36480E+03
         0.77964E+03
         0.60164E+03
         0.69927E+03
         0.75694E+03
         0.47004E+03
         0.28093E+03
         0.69485E+03
         0.42755E+03
         0.54078E+03
         0.15018E+04
         0.70521E+03
         0.64190E+03
         0.40117E+03
         0.41138E+03
         0.50121E+03
         0.69613E+03
         0.31091E+03
         0.38236E+03
         0.27229E+03
         0.69413E+03
         0.12353E+04
         0.79731E+03
         0.58264E+03
         0.66694E+03
         0.11546E+04
         0.21030E+04
         0.12220E+04
         0.29134E+04
         0.14043E+04
         0.19903E+04
         0.86817E+03
         0.30428E+03
        -0.19919E+03
        -0.63377E+03
        -0.98048E+03
        -0.12913E+04
        -0.17142E+04
        -0.93490E+03
         0.17460E+03
         0.53299E+03
         0.51569E+03
         0.72960E+03
         0.10012E+04
         0.13234E+04
         0.17414E+04
         0.22807E+04
         0.16040E+04
         0.12894E+04
         0.19569E+04
         0.34214E+04
         0.49447E+04
         0.33644E+04
         0.23300E+04
         0.86911E+03
         0.34062E+03
         0.23248E+03
         0.14525E+03
         0.32717E+03
         0.16974E+03
         0.34615E+03
         0.21713E+03
         0.19964E+03
         0.32911E+03
         0.77985E+03
         0.29360E+03
         0.16266E+03
         0.17731E+03
         0.31902E+03
         0.12443E+03
         0.24047E+03
         0.18442E+03
         0.42088E+03
         0.16482E+03
         0.23380E+03
         0.16504E+03
         0.29713E+03
         0.29390E+03
         0.16503E+03
         0.37461E+03
         0.28363E+03
         0.35594E+03
         0.40063E+03
         0.15562E+03
         0.22458E+03
         0.41544E+03
         0.21087E+03
         0.34052E+03
         0.51309E+03
         0.24849E+03
         0.21520E+03
         0.16328E+03
         0.25904E+03
         0.30537E+03
         0.46138E+03
         0.25379E+03
         0.14494E+03
         0.36169E+03
         0.23820E+03
         0.36191E+03
         0.14061E+03
         0.14557E+03
         0.17263E+03
         0.27263E+03
         0.34424E+03
         0.72217E+02
         0.30533E+03
         0.32133E+03
         0.17801E+03
         0.19925E+03
         0.16176E+03
         0.87174E+02
         0.89474E+02
         0.88633E+02
        -0.62755E+02
         0.47859E+02
         0.44118E+02
         0.16054E+03
         0.21721E+03
         0.40474E+03
         0.56474E+03
         0.49203E+03
         0.34521E+03
         0.26246E+03
         0.16270E+03
         0.10078E+02
        -0.14394E+03
        -0.27542E+03
        -0.59320E+03
        -0.65311E+03
        -0.97625E+02
         0.55420E+02
         0.50715E+02
         0.30631E+02
         0.59280E+01
        -0.95134E+01
         0.13987E+02
        -0.11168E+03
        -0.25640E+03
         0.33189E+02
         0.25189E+02
         0.10059E+02
         0.14518E+03
         0.71317E+02
         0.71216E+02
         0.35148E+02
         0.78707E+02
         0.63915E+02
         0.13543E+02
         0.58938E+01
         0.15132E+01
         0.98321E+01
         0.35992E+02
         0.41234E+02
         0.11413E+03
        -0.45974E+00
         0.55115E+01
         0.47675E+02
         0.16863E+02
         0.12866E+03
         0.12564E+03
         0.86881E+02
         0.53776E+02
         0.27267E+02
         0.10740E+02
         0.13456E+01
        -0.88858E+02
        -0.13746E+03
        -0.34165E+02
        -0.77898E+01
         0.11126E+03
         0.11924E+03
         0.25373E+03
         0.14526E+03
         0.92676E+02
         0.19671E+03
        -0.54882E+02
        -0.17904E+03
        -0.17266E+03
        -0.11561E+03
        -0.16131E+03
        -0.18682E+03
        -0.63325E+03
        -0.65050E+03
        -0.76389E+03
        -0.35888E+03
        -0.52781E+03
        -0.25002E+03
        -0.57395E+02
         0.11230E+03
         0.25700E+03
         0.11194E+03
         0.19965E+03
         0.13041E+03
         0.14892E+03
         0.13090E+03
         0.15346E+03
         0.23935E+03
         0.32004E+03
         0.18177E+03
        -0.49634E+02
        -0.31262E+03
        -0.59572E+03
        -0.52871E+03
        -0.44236E+03
        -0.93009E+03
        -0.16504E+04
        -0.25685E+04
        -0.18689E+04
        -0.12747E+04
        -0.43779E+03
        -0.82549E+01
        -0.90262E+01
        -0.11606E+02
        -0.15289E+02
        -0.39245E+02
        -0.10331E+03
        -0.32277E+00
         0.88035E+01
        -0.12193E+01
         0.43148E+02
         0.36868E+02
         0.49733E+02
         0.20152E+02
         0.47388E+02
         0.53406E+02
        -0.11916E+02
         0.11482E+01
        -0.21509E+02
        -0.31520E+01
         0.14059E+02
         0.26906E+02
         0.78661E+02
         0.15881E+02
        -0.31721E+01
         0.39939E+02
        -0.43527E+01
         0.74127E+02
         0.13450E+03
         0.16094E+03
         0.53126E+02
        -0.19139E+02
        -0.54610E+01
        -0.32952E+02
        -0.10267E+03
        -0.47044E+02
        -0.26744E+02
        -0.18274E+01
         0.15042E+03
         0.25342E+03
         0.40956E+03
         0.20748E+03
         0.16025E+03
         0.17394E+03
        -0.73860E+01
        -0.44406E+02
        -0.34841E+02
        -0.30313E+02
        -0.43950E+02
        -0.60542E+02
        -0.19344E+03
        -0.14704E+03
        -0.28928E+03
        -0.17395E+03
        -0.23438E+03
        -0.37868E+02
         0.15772E+02
         0.91978E+02
         0.18502E+03
         0.16403E+03
         0.23624E+03
         0.22133E+03
         0.79267E+02
        -0.14202E+02
         0.12895E+03
         0.25810E+03
         0.23732E+03
         0.15457E+03
         0.31413E+02
        -0.63790E+02
        -0.14696E+03
        -0.11243E+03
        -0.96054E+02
        -0.18811E+03
        -0.35279E+03
        -0.41233E+03
        -0.52054E+03
        -0.36481E+03
        -0.13296E+03
        -0.12093E+02
        -0.13322E+01
         0.15238E+01
        -0.27848E+01
         0.44614E-01
         0.57093E+01
        -0.46922E+01
        -0.14617E+01
        -0.13455E+02
         0.32325E+01
         0.86110E+01
         0.19098E+02
         0.90101E+01
         0.16837E+02
         0.29400E+02
        -0.15469E+02
        -0.90146E+01
        -0.14182E+02
        -0.69157E+01
         0.24404E+01
         0.18173E+02
         0.53196E+02
         0.16284E+02
        -0.35068E+01
         0.16864E+02
        -0.82869E+01
         0.25842E+02
         0.75986E+02
         0.83567E+02
         0.25418E+02
         0.58162E+01
         0.29736E+01
         0.86800E+01
         0.21584E+02
        -0.21905E+01
         0.23173E+01
         0.35028E+01
         0.88697E+02
         0.12753E+03
         0.21522E+03
         0.11266E+03
         0.66516E+02
         0.94448E+02
         0.10951E+02
         0.26699E+02
         0.23301E+02
         0.22784E+02
         0.32204E+02
         0.29152E+02
         0.68315E+02
         0.48293E+02
         0.74626E+02
        -0.20409E+02
        -0.19495E+02
        -0.17893E+02
         0.24765E+00
         0.32570E+02
         0.56983E+02
         0.93979E+02
         0.14512E+03
         0.20316E+03
         0.20436E+03
         0.20485E+03
         0.14756E+03
         0.18151E+03
         0.16265E+03
         0.99888E+02
         0.37560E+02
         0.21262E+02
         0.42143E+02
         0.45613E+02
         0.77188E+02
         0.11799E+03
         0.17581E+03
         0.18710E+03
         0.67147E+02
         0.21176E+02
        -0.27239E+01
        -0.80984E+01
        -0.21316E+01
         0.16969E+01
        -0.83499E+00
         0.49183E+01
         0.18588E+02
        -0.50608E+01
        -0.39973E+01
        -0.14130E+02
        -0.17200E+02
        -0.29081E+01
         0.70600E+01
         0.38454E+01
         0.15455E+00
         0.14707E+02
        -0.93509E+01
        -0.85399E+01
        -0.11481E+02
        -0.51338E+01
        -0.35136E+01
         0.92499E+01
         0.24566E+02
         0.86484E+01
        -0.12429E+01
        -0.40718E+01
        -0.36685E+01
         0.70035E+01
         0.27275E+02
         0.43102E+02
         0.34109E+01
         0.20580E+01
         0.14006E+01
         0.49015E+01
         0.19019E+02
         0.29170E+01
         0.33027E+01
         0.18846E+01
         0.49791E+02
         0.86780E+02
         0.15213E+03
         0.87913E+02
         0.47808E+02
         0.41007E+02
         0.44169E+01
         0.11223E+02
         0.11001E+02
         0.12991E+02
         0.18920E+02
         0.26439E+02
         0.60184E+02
         0.37438E+02
         0.76848E+02
        -0.15483E+02
        -0.31223E+01
        -0.16239E+02
        -0.13140E+02
         0.25724E+01
         0.82872E+01
         0.82857E+02
         0.14972E+03
         0.25503E+03
         0.29356E+03
         0.20145E+03
         0.15989E+03
         0.13017E+03
         0.86422E+02
         0.27782E+02
        -0.76473E+01
        -0.15685E+02
        -0.80783E+01
         0.13664E+02
         0.30271E+02
         0.58194E+02
         0.81412E+02
         0.13584E+03
         0.81118E+02
         0.43255E+02
         0.47224E+01
        -0.27498E+01
         0.10240E+01
         0.17799E+01
        -0.39640E+00
         0.15572E+01
         0.29272E+01
        -0.10803E+00
        -0.18460E+01
        -0.60853E+01
        -0.93808E+01
         0.61551E-01
         0.50490E+01
         0.35744E+01
        -0.34054E+00
         0.62895E+01
        -0.11789E+01
        -0.24268E+01
        -0.43684E+01
        -0.12570E+00
        -0.11001E+01
         0.34277E+01
         0.12406E+02
         0.67138E+01
         0.14216E+01
        -0.48210E+01
         0.21975E+01
         0.29628E+01
         0.79526E+01
         0.13443E+02
         0.10335E+01
         0.92816E+00
         0.20104E+01
        -0.26952E+00
        -0.11985E-01
         0.38062E+00
         0.26539E+01
         0.30876E+01
         0.26337E+02
         0.41463E+02
         0.77390E+02
         0.48837E+02
         0.24928E+02
         0.22700E+02
         0.25594E+01
         0.17005E+01
        -0.10058E+01
         0.67430E+00
         0.11856E+01
         0.48365E+01
         0.10184E+02
         0.48873E+01
         0.13412E+02
        -0.16938E+02
        -0.18341E+02
        -0.22374E+02
        -0.17080E+02
        -0.80562E+01
        -0.41295E+00
         0.30477E+02
         0.62713E+02
         0.11671E+03
         0.19299E+03
         0.14374E+03
         0.84457E+02
         0.70243E+02
         0.23819E+02
        -0.13108E+02
        -0.29349E+02
        -0.36630E+02
        -0.33424E+02
        -0.18516E+02
        -0.14079E+02
        -0.95420E+01
         0.29010E+01
         0.17881E+01
         0.81066E+01
         0.54071E+01
        -0.18470E+01
         0.62600E+00
         0.31601E+01
         0.26213E+01
         0.45777E+00
         0.11658E+01
        -0.54572E-01
         0.23459E+01
        -0.74103E+00
        -0.28316E+01
        -0.85180E+01
         0.27687E+01
         0.40587E+01
         0.45164E+01
        -0.19024E-02
         0.34469E+01
         0.36071E-01
        -0.16349E+01
        -0.24460E+01
         0.58854E+00
        -0.20194E+01
         0.25279E+01
         0.40867E+01
         0.39061E+01
         0.23917E+01
        -0.47103E+01
         0.31393E+01
        -0.13455E+01
        -0.15668E+01
         0.14443E+01
        -0.15212E+01
         0.13825E+01
         0.22947E+01
        -0.58106E+00
        -0.30835E+01
         0.30756E+01
         0.37073E+01
         0.36093E+01
         0.77556E+01
         0.13942E+02
         0.28041E+02
         0.23506E+02
         0.94152E+01
         0.79916E+01
         0.15867E+01
         0.47845E+01
         0.93756E+00
         0.19368E+01
         0.11651E+01
         0.50057E+00
         0.10406E+00
         0.11924E+01
         0.37057E+01
        -0.18492E+02
        -0.14527E+02
        -0.16141E+02
        -0.19296E+02
        -0.13949E+02
        -0.12716E+02
         0.10351E+01
         0.32912E+02
         0.94081E+02
         0.13759E+03
         0.89084E+02
         0.28439E+02
         0.25957E+02
        -0.55823E+01
        -0.15927E+02
        -0.25882E+02
        -0.25218E+02
        -0.29954E+02
        -0.18205E+02
        -0.13054E+02
        -0.18275E+02
        -0.13900E+02
        -0.76933E+01
        -0.63404E+01
        -0.54950E+01
        -0.40998E+01
         0.13256E+01
         0.33809E+01
         0.32687E+01
         0.84091E+00
         0.11271E+01
        -0.22341E+00
         0.30917E+01
        -0.15496E+00
        -0.20572E+01
        -0.61615E+01
         0.36432E+01
         0.48554E+01
         0.70403E+01
         0.83633E+00
         0.27363E+01
         0.59040E+00
        -0.12337E+01
        -0.18518E+01
         0.94715E+00
        -0.26804E+01
         0.31661E+01
         0.42645E+00
         0.82075E+01
         0.30565E+01
        -0.50895E+01
         0.47142E+01
        -0.27286E+01
        -0.61538E+01
        -0.34770E+01
        -0.43808E+01
         0.20156E+01
         0.26298E+01
         0.13933E+00
        -0.10560E+01
         0.21500E+01
         0.36050E+01
         0.38744E+01
         0.34675E+01
         0.57345E+01
         0.14712E+02
         0.12185E+02
         0.23256E+01
         0.54649E+00
         0.55873E+01
         0.69630E+01
         0.32585E+01
         0.31094E+01
         0.21734E+01
         0.11904E+01
         0.70006E+00
         0.12133E+01
        -0.38236E+00
        -0.11917E+02
        -0.19975E+02
        -0.15892E+02
        -0.14924E+02
        -0.12201E+02
        -0.15582E+02
        -0.84428E+01
         0.14263E+02
         0.53285E+02
         0.85604E+02
         0.48435E+02
         0.30595E+01
         0.16481E+01
        -0.95727E+01
        -0.14782E+02
        -0.13277E+02
        -0.19143E+02
        -0.22889E+02
        -0.89027E+01
        -0.82543E+01
        -0.89149E+01
        -0.79530E+01
        -0.53432E+01
        -0.29044E+01
        -0.62511E+01
        -0.61337E+01
         0.14127E+01
         0.39873E+01
         0.27755E+01
         0.21798E+00
         0.10414E+01
        -0.28261E+01
         0.34574E+01
         0.28774E+00
        -0.26436E+01
        -0.47406E+01
         0.34870E+01
         0.48280E+01
         0.71442E+01
         0.16121E+01
         0.25409E+01
         0.56921E+00
        -0.17620E+01
        -0.31947E+01
         0.99754E+00
        -0.26607E+01
         0.24412E+01
        -0.23601E+01
         0.57336E+01
         0.26108E+01
        -0.54704E+01
         0.45219E+01
        -0.17808E+01
        -0.50060E+01
        -0.27246E+01
        -0.57592E+01
         0.33412E+01
         0.36051E+01
         0.34868E+00
         0.85059E-01
         0.20992E+01
         0.33326E+01
         0.38919E+01
         0.62691E+00
        -0.32390E+01
        -0.26721E+01
         0.18799E+01
        -0.14473E+01
        -0.47239E+01
         0.56216E+01
         0.63318E+01
         0.28889E+01
         0.37470E+01
         0.34742E+01
         0.27959E+01
         0.70426E+01
         0.48483E+01
         0.58708E+01
        -0.22377E+02
        -0.27560E+02
        -0.22048E+02
        -0.25847E+02
        -0.24282E+02
        -0.22798E+02
        -0.11940E+02
         0.75410E+01
         0.43148E+02
         0.47059E+02
         0.26202E+02
        -0.83503E+01
         0.12616E+01
        -0.17197E+02
        -0.31347E+02
        -0.30447E+02
        -0.37854E+02
        -0.38083E+02
        -0.15526E+02
        -0.72372E+01
        -0.65862E+01
         0.44270E+01
         0.18292E+02
         0.15573E+02
         0.14328E+01
        -0.34627E+01
         0.93396E+00
         0.35431E+01
         0.18744E+01
        -0.10544E+01
         0.47172E+00
        -0.31916E+00
         0.37664E+01
         0.10801E+00
        -0.23364E+01
        -0.73574E+01
         0.46011E+01
         0.59428E+01
         0.89832E+01
         0.98116E+00
         0.25131E+01
         0.34161E+00
        -0.18545E+01
        -0.25832E+01
         0.80303E+00
        -0.34525E+01
         0.23165E+01
        -0.21451E+00
         0.57950E+01
         0.29201E+01
        -0.67618E+01
         0.49663E+01
        -0.29695E+01
        -0.72959E+01
        -0.35712E+01
        -0.44379E+01
         0.19632E+01
         0.28579E+01
        -0.52779E+00
        -0.32199E+01
        -0.86371E+00
         0.30833E+01
         0.50668E+01
         0.48494E+01
         0.51108E+01
         0.84253E+01
         0.12381E+02
         0.24775E+00
        -0.44636E+00
         0.36760E+01
         0.36351E+01
         0.93224E+00
         0.34102E+01
         0.33278E+01
         0.20224E+01
         0.38454E+01
         0.15218E+01
         0.10682E+01
        -0.22696E+02
        -0.21609E+02
        -0.27777E+02
        -0.28712E+02
        -0.24370E+02
        -0.13208E+02
        -0.11592E+02
         0.98271E+01
         0.42281E+02
         0.83374E+02
         0.63403E+02
         0.17408E+02
         0.47938E+01
        -0.10524E+02
        -0.26331E+02
        -0.32688E+02
        -0.37742E+02
        -0.41280E+02
        -0.21681E+02
        -0.13124E+02
        -0.86426E+01
         0.14007E+01
         0.10417E+02
         0.74310E+01
         0.11883E+01
        -0.80367E+01
         0.10062E+01
         0.44656E+01
         0.19064E+01
        -0.16076E+01
        -0.10394E+01
        -0.39415E+01
         0.37978E+01
         0.42020E+00
        -0.27734E+01
        -0.42684E+01
         0.50859E+01
         0.68952E+01
         0.91645E+01
         0.24378E+01
         0.35041E+01
         0.60026E-01
        -0.21936E+01
        -0.32820E+01
         0.63038E+00
        -0.32326E+01
         0.33164E+01
         0.13422E+01
         0.73132E+01
         0.25635E+01
        -0.48872E+01
         0.46776E+01
        -0.43979E+00
        -0.54509E+01
        -0.50731E+01
        -0.54905E+01
         0.31411E+01
         0.31127E+01
        -0.21204E+00
        -0.37515E+01
         0.39959E+00
         0.43358E+01
         0.40397E+01
         0.32477E+01
         0.61326E+01
         0.13515E+02
         0.11990E+02
        -0.49384E-01
        -0.29943E+01
         0.46700E+01
         0.46870E+01
         0.10408E+01
         0.30430E+01
         0.32689E+01
         0.19641E+01
         0.40794E+01
         0.47516E+01
         0.33756E+01
        -0.20427E+02
        -0.22608E+02
        -0.26340E+02
        -0.21665E+02
        -0.14585E+02
        -0.16748E+02
        -0.10594E+00
         0.23011E+02
         0.52679E+02
         0.63831E+02
         0.45655E+02
         0.30571E+02
         0.76079E+01
        -0.89170E+01
        -0.23466E+02
        -0.28604E+02
        -0.34573E+02
        -0.41929E+02
        -0.24448E+02
        -0.17095E+02
        -0.12629E+02
         0.93860E+00
         0.14095E+02
         0.12798E+02
         0.17792E+00
        -0.60813E+01
         0.23316E+01
         0.44995E+01
         0.31069E+01
        -0.16486E+00
         0.61467E+00
         0.65335E+00
         0.32853E+01
         0.54775E+00
        -0.30131E+01
        -0.48477E+01
         0.51941E+01
         0.53779E+01
         0.84673E+01
         0.25618E+01
         0.38613E+01
        -0.30600E+00
        -0.22480E+01
        -0.36948E+01
         0.10243E+01
        -0.23357E+01
         0.32320E+01
         0.15502E+01
         0.58314E+01
         0.22987E+01
        -0.56772E+01
         0.42512E+01
        -0.15494E+01
        -0.64141E+01
        -0.36144E+01
        -0.44324E+01
         0.23691E+01
         0.31393E+01
        -0.15093E+01
        -0.17138E+01
         0.25267E+01
         0.56295E+01
         0.59743E+01
         0.12020E+01
         0.54426E+01
         0.80255E+01
         0.69637E+01
        -0.30290E+01
        -0.33999E+01
         0.37808E+01
         0.38220E+01
         0.80707E+00
         0.21469E+01
         0.16601E+01
         0.30257E+01
         0.54057E+01
         0.48792E+01
         0.91009E+01
        -0.20298E+02
        -0.16534E+02
        -0.22259E+02
        -0.18145E+02
        -0.14336E+02
        -0.14995E+02
        -0.24702E+01
         0.21548E+02
         0.46804E+02
         0.17880E+02
         0.57251E+01
        -0.13715E+02
        -0.16471E+01
        -0.12383E+02
        -0.23641E+02
        -0.30126E+02
        -0.35227E+02
        -0.40094E+02
        -0.19247E+02
        -0.15116E+02
        -0.11562E+02
         0.22023E+01
         0.13627E+02
         0.13521E+02
         0.58089E+01
        -0.34178E+01
         0.67939E+00
         0.21316E+01
         0.28681E+01
         0.54129E+00
         0.24321E+01
         0.43345E+01
         0.28795E+01
         0.50738E+00
        -0.32639E+01
        -0.70873E+01
         0.48228E+01
         0.32543E+01
         0.55676E+01
         0.92127E+00
         0.23852E+01
        -0.18520E+00
        -0.19409E+01
        -0.42655E+01
         0.12270E+01
        -0.14855E+01
         0.27316E+01
         0.16459E+01
         0.60586E+01
         0.24024E+01
        -0.68458E+01
         0.45093E+01
        -0.40064E+01
        -0.67005E+01
        -0.32959E+01
        -0.39438E+01
         0.21992E+01
         0.29867E+01
        -0.10058E+01
        -0.75539E+00
         0.35990E+01
         0.31078E+01
         0.32984E+01
        -0.53200E+00
        -0.32231E+01
        -0.15731E+01
        -0.58473E+01
        -0.39609E+01
        -0.18131E+01
         0.46224E+01
         0.55019E+01
         0.20658E+01
         0.41989E+01
         0.36671E+01
         0.23750E+01
         0.58370E+01
         0.60783E+01
         0.15038E+02
        -0.16584E+02
        -0.85780E+01
        -0.14127E+02
        -0.13848E+02
        -0.13178E+02
        -0.14825E+02
        -0.87776E+01
         0.26112E+01
        -0.12216E+02
        -0.52961E+01
        -0.13453E+02
        -0.14369E+02
        -0.68205E+01
        -0.15965E+02
        -0.24604E+02
        -0.24647E+02
        -0.27714E+02
        -0.31608E+02
        -0.17305E+02
        -0.12383E+02
        -0.92927E+01
        -0.70148E+01
         0.69515E+00
         0.68312E+01
         0.33880E+01
        -0.57608E+01
         0.52581E+00
         0.22138E+01
         0.24352E+01
        -0.89158E-01
         0.15854E+01
         0.52562E+01
         0.29455E+01
         0.38498E+00
        -0.29176E+01
        -0.68172E+01
         0.35365E+01
         0.22169E+01
         0.37706E+01
         0.11925E+00
         0.16025E+01
         0.54847E-01
        -0.19291E+01
        -0.37061E+01
         0.10076E+01
        -0.26840E+01
         0.24015E+01
         0.68956E+00
         0.75210E+01
         0.29256E+01
        -0.58294E+01
         0.45090E+01
        -0.36682E+01
        -0.75083E+01
        -0.41530E+01
        -0.41882E+01
         0.34005E+01
         0.44109E+01
        -0.17672E+00
        -0.74732E+00
         0.22814E+01
         0.25353E+01
         0.33905E+01
        -0.88379E+00
        -0.56633E+01
        -0.14747E+01
         0.72344E+01
         0.21756E+01
        -0.14810E+00
         0.62789E+01
         0.75902E+01
         0.36232E+01
         0.45035E+01
         0.41121E+01
         0.26713E+01
         0.69718E+01
         0.61407E+01
         0.11465E+02
        -0.17902E+02
        -0.92316E+01
        -0.22341E+02
        -0.20750E+02
        -0.18460E+02
        -0.17708E+02
        -0.12585E+02
        -0.34028E+01
         0.39226E+01
         0.43441E+02
         0.46457E+02
         0.13004E+02
         0.16083E+02
        -0.21984E+01
        -0.21395E+02
        -0.20042E+02
        -0.24254E+02
        -0.28907E+02
        -0.15075E+02
        -0.10267E+02
        -0.87239E+01
         0.39099E+01
         0.12640E+02
         0.11336E+02
         0.62978E+01
        -0.20364E+01
        -0.10813E+00
         0.35277E+01
         0.19332E+01
        -0.33664E+00
         0.18209E+01
         0.42581E+01
         0.38846E+01
         0.51807E+00
        -0.26856E+01
        -0.67220E+01
         0.45845E+01
         0.33823E+01
         0.58696E+01
         0.99156E+00
         0.18530E+01
         0.14942E+01
        -0.15400E+01
        -0.27443E+01
         0.22210E+01
        -0.16264E+01
         0.46857E+01
         0.28417E+01
         0.80954E+01
         0.39809E+01
        -0.55989E+01
         0.69151E+01
        -0.29677E+01
        -0.76545E+01
        -0.41156E+01
        -0.38357E+01
         0.42071E+01
         0.45008E+01
         0.80214E+00
         0.68467E+00
         0.98247E+00
         0.24835E+01
         0.36159E+01
         0.31024E+01
         0.33954E+01
         0.22953E+01
         0.74450E+01
        -0.38619E+01
        -0.92194E+00
         0.70145E+01
         0.89494E+01
         0.40450E+01
         0.51452E+01
         0.48771E+01
         0.60060E+01
         0.93350E+01
         0.54763E+01
         0.12962E+02
        -0.20976E+02
        -0.14251E+02
        -0.19775E+02
        -0.21863E+02
        -0.15954E+02
        -0.18162E+02
        -0.16259E+02
        -0.26290E+01
         0.50027E+02
         0.91372E+02
         0.66776E+02
         0.21517E+02
         0.15223E+02
         0.18837E+01
        -0.64028E+01
        -0.22533E+02
        -0.27386E+02
        -0.30457E+02
        -0.15221E+02
        -0.91965E+01
        -0.68012E+01
         0.79009E+01
         0.14951E+02
         0.10202E+02
        -0.84054E-02
        -0.17479E+01
         0.18292E+01
         0.49292E+01
         0.42784E+01
         0.23722E+01
         0.50278E+01
         0.91294E+01
         0.38478E+01
         0.58439E+00
        -0.23821E+01
        -0.61217E+01
         0.51927E+01
         0.51524E+01
         0.85578E+01
         0.17759E+01
         0.22075E+01
         0.54222E+00
        -0.12080E+01
        -0.15596E+01
         0.10068E+01
        -0.16502E+01
         0.27577E+01
         0.29165E+01
         0.58744E+01
         0.21600E+01
        -0.39514E+01
         0.37650E+01
        -0.28374E+01
        -0.48350E+01
        -0.41566E+01
        -0.32601E+01
         0.37673E+01
         0.34104E+01
         0.10695E+01
         0.41114E+01
         0.39130E+01
         0.61324E+01
         0.62351E+01
        -0.28129E+01
        -0.81326E+01
        -0.10449E+02
         0.18200E+01
        -0.83631E+01
        -0.24783E+00
         0.52329E+01
         0.63746E+01
         0.21986E+01
         0.41516E+01
         0.48672E+01
         0.46912E+01
         0.11240E+02
         0.10131E+02
         0.23461E+02
        -0.17044E+02
        -0.76616E+01
        -0.21200E+02
        -0.18101E+02
        -0.13544E+02
        -0.15517E+02
        -0.97592E+01
         0.69722E+01
         0.36783E+02
         0.79572E+02
         0.56794E+02
         0.21305E+02
         0.11288E+02
        -0.11430E+02
        -0.26160E+02
        -0.30569E+02
        -0.30988E+02
        -0.30923E+02
        -0.16302E+02
        -0.11146E+02
        -0.78826E+01
         0.17980E+01
         0.19228E+02
         0.18892E+02
         0.71711E+01
        -0.21914E+01
         0.87053E+00
         0.41069E+01
         0.36736E+01
         0.26708E+01
         0.44188E+01
         0.73928E+01
         0.44779E+01
         0.52678E+00
        -0.20710E+01
        -0.73968E+01
         0.50532E+01
         0.47968E+01
         0.72206E+01
         0.92384E+00
         0.20954E+01
         0.86988E-01
        -0.17837E+01
        -0.20704E+01
         0.12127E+00
        -0.33442E+01
         0.10304E+01
        -0.49989E+01
         0.27015E+01
         0.17465E+01
        -0.49691E+01
         0.32841E+01
        -0.97502E+00
        -0.52961E+01
        -0.36527E+01
        -0.42180E+01
         0.41923E+01
         0.27886E+01
         0.18934E+01
         0.45806E+01
         0.48758E+01
         0.56518E+01
         0.53369E+01
        -0.28495E+01
        -0.63939E+01
        -0.93473E+01
        -0.75532E+00
        -0.46258E+01
        -0.91125E+01
         0.44798E+01
         0.66730E+01
         0.29489E+01
         0.46391E+01
         0.47572E+01
         0.63966E+01
         0.11550E+02
         0.80667E+01
         0.19214E+02
        -0.16461E+02
        -0.64750E+01
        -0.86339E+01
        -0.71335E+01
        -0.88693E+01
        -0.13412E+02
        -0.85229E+01
        -0.11693E+02
        -0.18317E+02
        -0.14348E+02
        -0.73074E+01
        -0.34511E+02
        -0.14371E+02
        -0.20666E+02
        -0.31199E+02
        -0.27947E+02
        -0.29814E+02
        -0.35255E+02
        -0.19367E+02
        -0.12853E+02
        -0.96101E+01
        -0.13069E+01
         0.83452E+01
         0.76396E+01
         0.41356E+01
         0.51291E+00
         0.20690E+01
         0.52545E+01
         0.40581E+01
         0.50305E+01
         0.48613E+01
         0.10703E+02
         0.44490E+01
         0.58603E+00
        -0.16427E+01
        -0.41410E+01
         0.48337E+01
         0.68994E+01
         0.97068E+01
         0.21550E+01
         0.21011E+01
         0.93915E+00
        -0.82044E+00
         0.32909E+00
         0.12881E+01
        -0.98639E+00
         0.84918E+00
        -0.13593E+01
         0.47060E+01
         0.19747E+01
        -0.27677E+01
         0.36263E+01
        -0.29816E+01
        -0.69825E+01
        -0.48996E+01
        -0.23992E+01
         0.72910E+01
         0.42414E+01
         0.47204E+01
         0.10024E+02
         0.76390E+01
         0.75086E+01
         0.73277E+01
        -0.91179E+00
        -0.73728E+01
        -0.81226E+01
        -0.46541E+01
        -0.22837E+01
        -0.45034E+01
         0.47222E+01
         0.92471E+01
         0.55973E+01
         0.61109E+01
         0.79739E+01
         0.61771E+01
         0.12559E+02
         0.92960E+01
         0.26993E+02
        -0.11255E+02
        -0.12407E+02
        -0.11287E+02
        -0.64421E+01
        -0.92058E+01
        -0.97995E+01
        -0.24937E+00
        -0.22288E+01
         0.23989E+02
         0.54617E+01
         0.25272E+02
        -0.13420E+02
        -0.20573E+02
        -0.19508E+02
        -0.34007E+02
        -0.29108E+02
        -0.30045E+02
        -0.27408E+02
        -0.11965E+02
        -0.57796E+01
        -0.55425E+01
         0.11038E+01
         0.84739E+01
         0.50979E+01
         0.75030E+00
        -0.16181E+01
         0.36487E+01
         0.49012E+01
         0.57825E+01
         0.89136E+01
         0.94935E+01
         0.22090E+02
         0.31681E+01
         0.93999E+00
        -0.99130E+00
        -0.42816E+01
         0.36717E+01
         0.43621E+01
         0.72548E+01
         0.12114E+01
         0.14080E+01
         0.15500E+01
        -0.10811E+01
         0.20163E+01
         0.12982E+01
        -0.13602E+01
         0.13886E+01
        -0.19614E+01
         0.66512E+01
         0.28458E+01
        -0.56908E+01
         0.65924E+01
        -0.25355E+01
        -0.76220E+01
        -0.52841E+01
        -0.31446E+01
         0.12792E+02
         0.63443E+01
         0.97358E+01
         0.23321E+02
         0.81179E+01
         0.73809E+01
         0.67912E+01
        -0.13601E+01
        -0.77205E+01
        -0.18962E+02
        -0.15882E+02
        -0.63449E+01
        -0.71490E+01
         0.82260E+01
         0.17837E+02
         0.13731E+02
         0.14076E+02
         0.14920E+02
         0.17379E+02
         0.32374E+02
         0.21132E+02
         0.53858E+02
        -0.66525E+01
        -0.11090E+01
        -0.52794E+01
        -0.70143E+01
        -0.11380E+02
        -0.18410E+02
        -0.23845E+02
        -0.32947E+02
        -0.42619E+02
        -0.53618E+02
        -0.31233E+02
        -0.25153E+02
        -0.22149E+02
        -0.22302E+02
        -0.19292E+02
        -0.13249E+02
        -0.94910E+01
         0.60187E+00
         0.15222E+02
         0.18376E+02
         0.30662E+02
         0.23817E+02
         0.40446E+02
         0.32676E+02
         0.20341E+02
         0.34933E+01
         0.29247E+01
         0.48076E+01
         0.54791E+01
         0.10730E+02
         0.11483E+02
         0.33921E+02
         0.16385E+01
         0.65706E+00
        -0.61160E+00
        -0.42710E+01
         0.18496E+01
        -0.39901E+01
         0.19225E+01
        -0.12583E+01
        -0.37471E+01
         0.72162E+00
        -0.20452E+01
         0.36542E+01
        -0.10983E+01
        -0.41163E+01
         0.82271E+01
         0.11167E+02
         0.13399E+02
         0.17296E+01
        -0.52623E+01
         0.51587E+01
        -0.57553E+01
        -0.92947E+01
        -0.83384E+01
        -0.33961E+01
         0.18620E+02
         0.99053E+01
         0.14583E+02
         0.36941E+02
         0.76699E+01
         0.62199E+01
         0.33473E+01
        -0.15930E+02
        -0.24585E+02
        -0.48359E+02
        -0.27605E+02
        -0.14294E+01
         0.48602E+01
         0.12420E+02
         0.26962E+02
         0.21309E+02
         0.20910E+02
         0.24460E+02
         0.33747E+02
         0.57643E+02
         0.31497E+02
         0.81849E+02
         0.38980E+01
         0.28493E+02
        -0.12644E+02
        -0.20704E+02
        -0.29633E+02
        -0.48073E+02
        -0.54489E+02
        -0.82588E+02
        -0.12814E+03
        -0.15483E+03
        -0.96408E+02
         0.21894E+00
         0.35941E+02
         0.60428E+02
         0.54547E+02
         0.28531E+02
         0.71839E+01
         0.17472E+02
         0.33720E+02
         0.40546E+02
         0.47048E+02
         0.57295E+02
         0.64556E+02
         0.52097E+02
         0.47267E+02
         0.18726E+02
         0.99072E+01
         0.26179E+01
         0.43230E+00
         0.83200E+01
         0.10975E+02
         0.30420E+02
         0.62093E+01
         0.50093E+01
         0.13906E+02
         0.42011E+02
         0.23198E+01
         0.14151E+01
         0.37601E+01
         0.33957E+01
        -0.17024E+01
         0.18639E+02
         0.10412E+02
         0.11425E+02
         0.20732E+02
         0.21532E+02
         0.51859E+02
         0.92771E+02
         0.74208E+02
         0.21456E+02
         0.76462E+01
         0.30917E+02
         0.91045E+01
         0.26199E+02
         0.41891E+02
         0.19332E+02
         0.29816E+02
         0.18881E+02
         0.14164E+02
         0.27537E+02
         0.46794E+01
        -0.21429E+01
        -0.16085E+01
        -0.43812E+01
         0.81492E+01
         0.59123E+02
         0.56219E+02
         0.78506E+02
         0.10671E+03
         0.44121E+02
         0.52421E+02
         0.22174E+02
         0.22086E+02
         0.23947E+02
         0.30733E+02
         0.35487E+02
         0.17211E+02
         0.63449E+02
         0.20180E+02
         0.64580E+02
        -0.12594E+02
        -0.23366E+02
        -0.22203E+02
        -0.28009E+02
        -0.44995E+02
        -0.51084E+02
        -0.45695E+02
         0.77944E+01
         0.75029E+02
         0.15956E+03
         0.21342E+03
         0.21178E+03
         0.15235E+03
         0.77887E+02
         0.25229E+02
         0.31246E+02
         0.29324E+02
         0.19826E+02
         0.78923E+01
        -0.23053E+02
         0.13283E+01
         0.28506E+02
         0.53223E+02
         0.58497E+02
        -0.40845E+02
        -0.71802E+00
        -0.23357E+01
        -0.42206E+02
        -0.12396E+02
        -0.76132E+02
         0.57168E+00
        -0.19767E+02
        -0.56891E+02
        -0.17394E+03
         0.10752E+02
         0.19115E+02
         0.24453E+02
        -0.14117E+02
         0.98407E+01
        -0.32748E+02
        -0.46573E+02
        -0.38155E+02
        -0.58221E+02
        -0.80751E+02
        -0.14272E+03
        -0.25009E+03
        -0.21210E+03
        -0.56920E+02
        -0.91456E+02
        -0.66780E+02
        -0.54707E+02
        -0.10046E+03
        -0.11355E+03
        -0.74419E+02
        -0.67502E+02
        -0.51619E+02
        -0.44686E+02
        -0.10697E+03
         0.17159E+02
         0.16179E+02
         0.16572E+02
        -0.23920E+01
        -0.31461E+02
        -0.12888E+03
        -0.11681E+03
        -0.21279E+03
        -0.29247E+03
        -0.12893E+03
        -0.20564E+03
        -0.13750E+03
        -0.11109E+03
        -0.11227E+03
        -0.13042E+03
        -0.18021E+03
        -0.93254E+02
        -0.19331E+03
         0.46621E+02
         0.50501E+01
         0.54313E+02
         0.39326E+02
         0.32067E+02
         0.39498E+02
         0.74802E+02
         0.13806E+03
         0.21329E+03
         0.14378E+03
        -0.11506E+03
        -0.43951E+03
        -0.70107E+03
        -0.80390E+03
        -0.71016E+03
        -0.53133E+03
        -0.44764E+03
        -0.46877E+03
        -0.35980E+03
        -0.36328E+03
        -0.40715E+03
        -0.44437E+03
        -0.36534E+03
        -0.19066E+03
        -0.10409E+03
  
SCALARS                     velocity_y  double 1
LOOKUP_TABLE default
        -0.12076E+03
         0.11595E+03
        -0.99150E+01
        -0.84040E+02
        -0.26595E+03
         0.22427E+02
        -0.20922E+03
        -0.29173E+03
         0.30565E+03
         0.21990E+03
         0.10355E+03
         0.20310E+03
         0.17889E+03
         0.16626E+03
         0.16534E+03
         0.26204E+03
         0.44004E+02
         0.19622E+02
         0.10532E+03
         0.32378E+02
         0.39341E+03
         0.26606E+03
         0.19839E+03
         0.50332E+03
         0.46472E+03
         0.34998E+03
         0.89965E+02
         0.14206E+03
         0.71320E+02
         0.19740E+03
        -0.14504E+02
        -0.53859E+02
         0.30844E+02
        -0.22691E+02
        -0.14879E+03
         0.73189E+02
        -0.15348E+02
        -0.43873E+02
        -0.30712E+02
        -0.10259E+03
         0.15551E+03
         0.28916E+03
         0.19701E+03
         0.42363E+03
         0.10724E+02
        -0.48721E+02
         0.77502E+00
        -0.42601E+02
        -0.62049E+02
        -0.95014E+02
        -0.39983E+01
         0.78198E+02
        -0.44903E+02
        -0.75222E+02
        -0.62047E+02
        -0.15089E+03
        -0.74762E+01
         0.11504E+03
        -0.27033E+02
         0.14689E+03
        -0.36313E+02
         0.13487E+03
         0.49171E+02
         0.39397E+03
        -0.13460E+03
        -0.34096E+03
         0.17613E+03
         0.61065E+02
         0.42364E+03
         0.22347E+03
         0.62949E+03
         0.25430E+03
         0.12536E+03
         0.16146E+03
        -0.28532E+03
        -0.52802E+03
        -0.48250E+03
        -0.11461E+04
        -0.42487E+03
        -0.83072E+03
        -0.71320E+03
        -0.92508E+02
        -0.83749E+03
        -0.49473E+02
         0.29125E+03
         0.41934E+03
        -0.12909E+03
        -0.20874E+03
        -0.65082E+02
        -0.49233E+01
         0.15602E+03
         0.14307E+03
         0.43515E+03
         0.35619E+03
         0.45330E+02
        -0.13639E+03
         0.18461E+03
        -0.84963E+02
         0.29579E+03
         0.17577E+03
         0.45535E+03
         0.35197E+03
         0.80963E+03
         0.42576E+03
         0.12904E+04
         0.13140E+04
         0.26171E+04
         0.24400E+04
         0.54945E+03
         0.89240E+03
         0.86765E+02
         0.39512E+02
        -0.56892E+02
        -0.25463E+03
         0.91882E+02
         0.93716E+02
         0.17000E+03
         0.64944E+03
         0.16397E+03
         0.12660E+04
         0.10320E+04
         0.46414E+04
         0.70761E+02
         0.23543E+04
        -0.29926E+04
        -0.48368E+04
        -0.28941E+04
        -0.42377E+04
        -0.15592E+04
        -0.24704E+04
        -0.10732E+04
        -0.14963E+04
        -0.79421E+03
        -0.11696E+04
        -0.69374E+03
        -0.11550E+04
        -0.75807E+03
        -0.15028E+04
        -0.85903E+03
        -0.20220E+04
        -0.29988E+03
        -0.69277E+03
         0.24263E+03
        -0.38799E+02
         0.23662E+03
         0.21790E+03
         0.67209E+03
         0.11842E+04
         0.65847E+03
         0.16138E+04
         0.65795E+03
         0.27636E+04
         0.10742E+04
         0.28787E+04
         0.12984E+04
         0.26541E+04
         0.54263E+01
         0.29189E+02
         0.16994E+03
         0.10970E+03
         0.28104E+03
         0.29408E+03
         0.13253E+03
         0.63498E+02
        -0.30624E+02
         0.47150E+01
         0.19994E+03
         0.23927E+03
         0.20023E+03
         0.73009E+02
         0.71379E+02
        -0.64724E+02
        -0.66076E+02
        -0.19325E+02
        -0.31469E+02
         0.65796E+02
         0.19884E+03
         0.38329E+03
        -0.92042E+02
        -0.21228E+03
        -0.51157E+02
        -0.19345E+03
         0.28191E+02
         0.11527E+03
         0.22057E+03
         0.15416E+03
         0.13231E+03
        -0.98285E+02
         0.32869E+03
         0.45330E+03
         0.27908E+03
         0.19096E+03
         0.15505E+03
        -0.73466E+02
        -0.14710E+03
        -0.20041E+03
        -0.76286E+03
        -0.38078E+02
         0.33854E+03
        -0.17552E+03
        -0.16806E+03
        -0.12039E+03
         0.13272E+03
         0.39249E+03
         0.59280E+03
         0.63795E+03
         0.23197E+03
         0.32342E+03
         0.40892E+03
         0.40484E+03
         0.12706E+03
         0.51766E+02
         0.18648E+03
         0.33998E+03
         0.17342E+03
        -0.28612E+03
        -0.59691E+03
        -0.15984E+04
        -0.37815E+04
        -0.34883E+04
        -0.20880E+04
        -0.14175E+04
        -0.92376E+03
        -0.65682E+03
        -0.44102E+03
        -0.66158E+02
         0.20751E+03
         0.71003E+03
         0.84599E+03
         0.43361E+03
        -0.12902E+04
        -0.24303E+04
        -0.13551E+04
        -0.89163E+02
         0.69745E+02
         0.95749E+02
         0.24106E+03
         0.23747E+03
         0.99234E+02
         0.16316E+03
         0.10870E+02
         0.23118E+02
         0.35433E+02
         0.36273E+02
         0.50247E+02
         0.12854E+03
         0.99546E+02
         0.84318E+02
         0.13544E+03
         0.99044E+00
         0.39227E+02
         0.95829E+02
         0.39698E+02
         0.13425E+03
         0.20513E+03
         0.34168E+03
         0.51357E+02
        -0.57423E+02
         0.97609E+02
        -0.11656E+03
         0.12768E+03
         0.26122E+03
         0.20909E+03
         0.19727E+03
         0.15962E+03
        -0.57944E+02
         0.43870E+03
         0.27553E+03
        -0.41556E+02
         0.11969E+03
         0.11521E+03
         0.14222E+03
         0.13917E+03
         0.23501E+02
        -0.41776E+03
         0.10847E+03
         0.38934E+03
        -0.27662E+02
        -0.32632E+00
         0.14262E+02
         0.13201E+03
         0.34104E+03
         0.29977E+03
         0.31205E+03
        -0.13382E+03
         0.10239E+03
        -0.60939E+03
        -0.82116E+03
        -0.33548E+03
         0.31252E+02
         0.27876E+03
         0.42982E+03
         0.10121E+03
        -0.32709E+02
        -0.52993E+03
        -0.16431E+04
        -0.27097E+04
        -0.21321E+04
        -0.15726E+04
        -0.11079E+04
        -0.55937E+03
        -0.53665E+00
         0.42641E+03
         0.60834E+03
         0.36461E+03
         0.64854E+03
         0.70346E+03
        -0.40080E+02
        -0.14608E+04
        -0.23024E+04
        -0.22682E+04
        -0.13121E+04
         0.37688E+02
         0.34294E+02
         0.64637E+02
         0.90570E+02
         0.29708E+02
         0.76684E+02
         0.15126E+01
         0.36137E+02
         0.47998E+02
         0.84342E+02
         0.38816E+02
         0.73496E+02
         0.36361E+02
         0.99838E+02
         0.14126E+03
         0.26523E+02
         0.59792E+02
         0.55164E+02
         0.68115E+02
         0.12602E+03
         0.20485E+03
         0.30308E+03
         0.89109E+02
         0.46863E+02
         0.13221E+03
         0.62576E+01
         0.18451E+03
         0.23161E+03
         0.17816E+03
         0.20868E+03
         0.59335E+02
         0.35950E+01
         0.14598E+03
         0.19120E+03
         0.44497E+01
         0.24011E+02
         0.31337E+02
         0.19169E+03
         0.22809E+03
         0.10793E+03
        -0.28722E+03
         0.31575E+02
         0.39082E+03
         0.30732E+02
         0.19577E+02
         0.18193E+02
         0.64851E+02
         0.12189E+03
         0.12390E+03
         0.21981E+03
         0.62162E+02
         0.55463E+02
        -0.45237E+03
        -0.53159E+03
        -0.18980E+03
         0.18597E+02
         0.17873E+03
         0.18938E+03
         0.24002E+03
         0.10715E+02
        -0.47316E+03
        -0.13831E+04
        -0.16576E+04
        -0.12480E+04
        -0.13249E+04
        -0.74028E+03
        -0.36788E+03
        -0.69738E+02
         0.18128E+03
         0.24113E+03
         0.10091E+03
         0.89788E+02
         0.29114E+03
         0.68228E+02
        -0.42485E+03
        -0.12223E+04
        -0.11042E+04
        -0.77334E+03
         0.17354E+02
         0.30196E+01
         0.56059E+01
         0.59193E+01
         0.17196E+02
         0.93565E+01
         0.17737E+01
         0.40230E+02
         0.27194E+02
         0.80269E+02
         0.57249E+02
         0.57200E+02
         0.15681E+02
         0.97845E+02
         0.13198E+03
         0.17956E+02
         0.42622E+02
        -0.31369E+00
         0.45453E+02
         0.73216E+02
         0.11205E+03
         0.17957E+03
         0.56645E+02
         0.50002E+02
         0.10415E+03
         0.24563E+02
         0.13846E+03
         0.22436E+03
         0.23439E+03
         0.13244E+03
        -0.47358E+01
         0.11341E+02
        -0.23750E+02
        -0.13234E+02
         0.25829E+02
         0.11473E+02
         0.63739E+01
         0.20914E+03
         0.24150E+03
         0.21103E+03
        -0.10284E+03
         0.15658E+03
         0.23836E+03
         0.31215E+02
         0.14406E+02
         0.58771E+01
        -0.85395E+01
        -0.14574E+02
        -0.30153E+01
         0.23582E+02
         0.90629E+02
         0.34069E+02
         0.77226E+00
         0.76951E+01
         0.31898E+02
         0.48709E+02
         0.95923E+02
         0.18914E+03
         0.19667E+03
         0.19429E+03
        -0.25035E+03
        -0.10704E+04
        -0.16519E+04
        -0.14223E+04
        -0.80218E+03
        -0.43202E+03
        -0.19506E+03
        -0.70854E+02
        -0.79471E+01
         0.11313E+02
        -0.18025E+02
        -0.27601E+02
        -0.14916E+02
         0.12992E+03
         0.28769E+03
         0.26674E+03
         0.14646E+03
         0.69044E+02
        -0.20186E+01
        -0.82419E+01
        -0.19872E+02
        -0.21153E+02
        -0.12658E-02
        -0.83214E+01
         0.12695E+01
         0.17905E+02
         0.10275E+02
         0.37829E+02
         0.24083E+02
         0.24263E+02
         0.98080E+00
         0.49840E+02
         0.72393E+02
         0.32665E+01
         0.22851E+02
        -0.13385E+02
         0.22240E+02
         0.34167E+02
         0.47817E+02
         0.88855E+02
         0.20386E+02
         0.18325E+02
         0.54373E+02
         0.50174E+01
         0.58052E+02
         0.10633E+03
         0.13504E+03
         0.59782E+02
        -0.29849E+02
        -0.11693E+02
        -0.42605E+02
        -0.43710E+02
         0.16409E+02
        -0.22267E+01
        -0.58584E+01
         0.12373E+03
         0.15334E+03
         0.15318E+03
         0.23462E+02
         0.87347E+02
         0.12553E+03
         0.67104E+01
        -0.15974E+01
        -0.37925E+01
        -0.22456E+02
        -0.36126E+02
        -0.27049E+02
        -0.25635E+02
         0.34591E+02
        -0.80007E+00
         0.94469E+02
         0.13302E+03
         0.52374E+02
         0.28302E+02
         0.34351E+02
         0.95198E+02
         0.18768E+03
         0.16987E+03
        -0.14799E+03
        -0.68217E+03
        -0.10936E+04
        -0.82160E+03
        -0.39468E+03
        -0.18973E+03
        -0.68279E+02
        -0.12756E+02
         0.99312E+00
         0.64248E+00
        -0.27306E+00
        -0.39585E+02
        -0.34511E+02
         0.57337E+02
         0.18389E+03
         0.29679E+03
         0.26624E+03
         0.16376E+03
        -0.54434E+01
        -0.91744E+01
        -0.17349E+02
        -0.16469E+02
        -0.10327E+02
        -0.14962E+02
        -0.30253E+01
         0.43567E+01
         0.14713E+01
         0.13202E+02
         0.24514E+01
         0.96071E+01
        -0.39926E+01
         0.13769E+02
         0.31582E+02
        -0.28381E+01
         0.64088E+01
        -0.83429E+01
         0.24046E+01
         0.86198E+01
         0.56757E+01
         0.18791E+02
        -0.35241E+01
        -0.54309E+01
         0.17523E+02
        -0.73077E+01
         0.24365E+02
         0.48419E+02
         0.49979E+02
         0.19902E+02
        -0.18174E+02
        -0.14848E+02
        -0.23789E+02
        -0.17099E+02
        -0.66236E+01
        -0.82270E+01
        -0.54153E+01
         0.60427E+02
         0.75210E+02
         0.65419E+02
        -0.94402E+01
         0.54862E+02
         0.39549E+02
        -0.81827E+01
        -0.91403E+01
        -0.12505E+02
        -0.17208E+02
        -0.21296E+02
        -0.20052E+02
        -0.18469E+02
         0.29778E-01
        -0.13780E+02
         0.31098E+02
         0.71401E+02
         0.17418E+02
         0.14110E+02
         0.13189E+02
         0.32535E+02
         0.10947E+03
         0.10575E+03
        -0.47039E+02
        -0.29045E+03
        -0.40357E+03
        -0.25672E+03
        -0.13271E+03
        -0.30212E+02
         0.19152E+02
         0.28851E+02
         0.26496E+02
         0.27322E+02
         0.14120E+02
        -0.11810E+02
        -0.17163E+02
         0.12327E+02
         0.57193E+02
         0.98074E+02
         0.88528E+02
         0.70034E+02
        -0.60999E+01
        -0.73992E+01
        -0.12163E+02
        -0.90440E+01
        -0.56212E+01
        -0.67414E+01
        -0.48273E+01
        -0.11293E+01
        -0.67189E+00
         0.28173E+01
        -0.62378E+01
        -0.50862E+00
        -0.42334E+01
        -0.18279E+01
         0.25183E+01
        -0.32510E+01
         0.45484E+00
        -0.43741E+01
        -0.30616E+01
        -0.22170E+01
        -0.69553E+01
        -0.19554E+02
        -0.98972E+01
        -0.10837E+02
         0.30705E+01
        -0.92702E+01
         0.35961E+01
         0.70911E+01
         0.41606E+01
        -0.17145E+00
        -0.11261E+02
        -0.12504E+02
        -0.12110E+02
        -0.12552E+02
        -0.50946E+01
        -0.83309E+01
        -0.70787E+01
         0.14900E+02
         0.12491E+02
        -0.57115E+01
        -0.15811E+02
        -0.87460E+01
        -0.11251E+02
        -0.84072E+01
        -0.77485E+01
        -0.96683E+01
        -0.11352E+02
        -0.10523E+02
        -0.92069E+01
        -0.96326E+01
        -0.23757E+01
        -0.63819E+01
         0.21840E+02
         0.46743E+02
         0.14994E+02
         0.12120E+02
         0.70181E+01
         0.16003E+02
         0.33875E+02
         0.47362E+02
         0.41240E+02
        -0.11119E+02
        -0.44131E+02
        -0.17237E+02
         0.35883E+02
         0.49361E+02
         0.37267E+02
         0.34897E+02
         0.34985E+02
         0.26943E+02
         0.12088E+02
        -0.27051E+01
        -0.48123E+01
         0.50518E+01
         0.17201E+02
         0.45306E+02
         0.51353E+02
         0.59352E+02
        -0.73630E+01
        -0.66125E+01
        -0.15586E+02
        -0.96557E+01
        -0.52122E+01
        -0.79904E+01
        -0.47340E+01
        -0.27244E+01
        -0.21022E+01
        -0.17700E+01
        -0.10740E+02
        -0.77868E+01
        -0.55122E+01
        -0.58990E+01
        -0.98003E+01
        -0.30968E+01
        -0.24269E+01
        -0.35303E+01
        -0.66990E+01
        -0.91838E+01
        -0.17703E+02
        -0.31618E+02
        -0.78842E+01
        -0.89359E+01
        -0.46144E+01
        -0.75229E+01
        -0.50374E+01
        -0.96125E+01
        -0.17976E+02
        -0.13565E+02
        -0.88578E+01
        -0.91947E+01
        -0.10014E+02
        -0.10102E+02
        -0.51327E+01
        -0.72547E+01
        -0.56473E+01
        -0.99630E+01
        -0.13130E+02
        -0.17373E+02
        -0.81836E+01
        -0.22202E+02
        -0.37884E+02
        -0.30139E+01
        -0.38347E+01
        -0.93731E+01
        -0.99178E+01
        -0.96215E+01
        -0.43625E+01
        -0.34824E+01
         0.47727E+01
        -0.30546E+01
         0.32510E+02
         0.55189E+02
         0.18205E+02
         0.15721E+02
         0.58804E+01
         0.27395E+01
         0.10848E+02
         0.29308E+02
         0.35245E+02
         0.53921E+02
         0.11019E+03
         0.10240E+03
         0.11001E+03
         0.63340E+02
         0.30334E+02
         0.36738E+02
         0.29947E+02
         0.25004E+02
         0.14367E+02
        -0.29205E+01
         0.33507E+00
         0.74415E+01
         0.35113E+02
         0.55282E+02
         0.55168E+02
         0.58853E+02
        -0.74852E+01
        -0.61876E+01
        -0.12742E+02
        -0.10309E+02
        -0.53635E+01
        -0.68530E+01
        -0.50931E+01
        -0.44898E+01
        -0.26616E+01
        -0.41229E+01
        -0.12572E+02
        -0.97126E+01
        -0.70348E+01
        -0.94216E+01
        -0.13687E+02
        -0.30566E+01
        -0.31328E+01
        -0.29739E+01
        -0.54790E+01
        -0.97950E+01
        -0.24370E+02
        -0.40716E+02
        -0.11959E+02
        -0.12138E+02
        -0.86885E+01
        -0.90454E+01
        -0.95551E+01
        -0.16360E+02
        -0.28348E+02
        -0.20421E+02
        -0.10363E+02
        -0.63965E+01
        -0.99317E+01
        -0.99767E+01
        -0.43164E+01
        -0.55803E+01
        -0.44005E+01
        -0.14516E+02
        -0.17284E+02
        -0.19419E+02
        -0.87707E+01
        -0.25415E+02
        -0.33574E+02
        -0.66040E+01
        -0.68121E+01
        -0.92161E+01
        -0.10965E+02
        -0.91852E+01
        -0.73062E+01
        -0.43925E+01
         0.70391E+01
        -0.25867E+01
         0.26809E+02
         0.49674E+02
         0.19674E+02
         0.12401E+02
         0.38182E+01
        -0.80898E+00
         0.39682E+01
         0.76738E+01
         0.42317E+02
         0.96344E+02
         0.18080E+03
         0.18098E+03
         0.13755E+03
         0.85395E+02
         0.55119E+02
         0.39474E+02
         0.26084E+02
         0.21962E+02
         0.66671E+01
        -0.52907E+01
        -0.29040E+01
         0.14881E+02
         0.37211E+02
         0.64471E+02
         0.67225E+02
         0.56496E+02
        -0.74112E+01
        -0.67924E+01
        -0.15311E+02
        -0.12185E+02
        -0.85101E+01
        -0.11399E+02
        -0.53032E+01
        -0.37981E+01
        -0.23867E+01
        -0.42737E+01
        -0.10828E+02
        -0.96475E+01
        -0.75403E+01
        -0.10534E+02
        -0.18197E+02
        -0.53404E+01
        -0.45501E+01
        -0.49330E+01
        -0.10545E+02
        -0.13861E+02
        -0.28140E+02
        -0.42394E+02
        -0.14158E+02
        -0.14754E+02
        -0.96297E+01
        -0.11380E+02
        -0.99482E+01
        -0.16476E+02
        -0.29928E+02
        -0.23050E+02
        -0.11880E+02
        -0.12348E+02
        -0.14229E+02
        -0.17795E+02
        -0.63643E+01
        -0.74815E+01
        -0.59510E+01
        -0.24325E+02
        -0.35888E+02
        -0.38035E+02
        -0.15013E+02
        -0.29199E+02
        -0.54704E+02
        -0.11286E+02
        -0.89110E+01
        -0.12230E+02
        -0.13626E+02
        -0.13234E+02
        -0.12842E+02
        -0.12932E+02
        -0.15452E+01
        -0.96073E+01
         0.35318E+02
         0.63242E+02
         0.25919E+02
         0.22168E+02
         0.11620E+02
         0.14173E+01
        -0.72282E+01
         0.11034E+02
         0.61260E+02
         0.13328E+03
         0.19303E+03
         0.13784E+03
         0.17503E+03
         0.11817E+03
         0.87161E+02
         0.68573E+02
         0.49187E+02
         0.38255E+02
         0.13474E+02
        -0.53378E+01
        -0.22243E+01
         0.18406E+02
         0.57124E+02
         0.96768E+02
         0.90347E+02
         0.83692E+02
        -0.60683E+01
        -0.85875E+01
        -0.13950E+02
        -0.10314E+02
        -0.76714E+01
        -0.10161E+02
        -0.46052E+01
        -0.43499E+01
        -0.14928E+01
        -0.57339E+01
        -0.17573E+02
        -0.10564E+02
        -0.87375E+01
        -0.13164E+02
        -0.18700E+02
        -0.44786E+01
        -0.42577E+01
        -0.38139E+01
        -0.93171E+01
        -0.12770E+02
        -0.23432E+02
        -0.40892E+02
        -0.11200E+02
        -0.13780E+02
        -0.10733E+02
        -0.12122E+02
        -0.12167E+02
        -0.19934E+02
        -0.31126E+02
        -0.18032E+02
        -0.13896E+02
        -0.11644E+02
        -0.13758E+02
        -0.15418E+02
        -0.21303E+01
        -0.76329E+01
        -0.68568E+01
        -0.20025E+02
        -0.23415E+02
        -0.26172E+02
        -0.61861E+01
        -0.31934E+02
        -0.50179E+02
        -0.85678E+01
        -0.68977E+01
        -0.11788E+02
        -0.14832E+02
        -0.13167E+02
        -0.14273E+02
        -0.12537E+02
        -0.75801E+00
        -0.10713E+02
         0.37505E+02
         0.69981E+02
         0.31135E+02
         0.27430E+02
         0.14551E+02
         0.73819E-01
        -0.25270E+01
         0.59465E+01
         0.46868E+02
         0.15844E+03
         0.21581E+03
         0.20000E+03
         0.15693E+03
         0.10147E+03
         0.71067E+02
         0.59276E+02
         0.41918E+02
         0.33876E+02
         0.17644E+02
         0.10368E+01
        -0.54083E+00
         0.24351E+02
         0.54786E+02
         0.83442E+02
         0.86937E+02
         0.67553E+02
        -0.88358E+01
        -0.91280E+01
        -0.17865E+02
        -0.13148E+02
        -0.82564E+01
        -0.12655E+02
        -0.59257E+01
        -0.61444E+01
        -0.18688E+01
        -0.50902E+01
        -0.17448E+02
        -0.13124E+02
        -0.10344E+02
        -0.11130E+02
        -0.19665E+02
        -0.39938E+01
        -0.40435E+01
        -0.41141E+01
        -0.88104E+01
        -0.12881E+02
        -0.26786E+02
        -0.46058E+02
        -0.14862E+02
        -0.11879E+02
        -0.94591E+01
        -0.10227E+02
        -0.12755E+02
        -0.22956E+02
        -0.38956E+02
        -0.23301E+02
        -0.11336E+02
        -0.11786E+02
        -0.13499E+02
        -0.16416E+02
        -0.48024E+01
        -0.10089E+02
        -0.82995E+01
        -0.25529E+02
        -0.37710E+02
        -0.42342E+02
         0.25199E+01
        -0.25000E+02
        -0.62490E+02
        -0.11694E+02
        -0.89307E+01
        -0.10172E+02
        -0.11998E+02
        -0.13256E+02
        -0.12687E+02
        -0.10295E+02
         0.20242E+01
        -0.96137E+01
         0.39517E+02
         0.63406E+02
         0.33540E+02
         0.20652E+02
         0.44291E+01
        -0.47840E+01
        -0.16425E+02
        -0.13668E+01
         0.57414E+02
         0.14580E+03
         0.27018E+03
         0.18930E+03
         0.18392E+03
         0.11166E+03
         0.76688E+02
         0.54990E+02
         0.37593E+02
         0.31567E+02
         0.17791E+02
         0.30131E+01
         0.52291E+01
         0.26761E+02
         0.58534E+02
         0.83347E+02
         0.84699E+02
         0.75880E+02
        -0.95669E+01
        -0.10908E+02
        -0.19460E+02
        -0.13884E+02
        -0.91154E+01
        -0.11969E+02
        -0.67991E+01
        -0.33383E+01
        -0.27385E+01
        -0.40714E+01
        -0.14433E+02
        -0.11259E+02
        -0.10555E+02
        -0.13506E+02
        -0.21628E+02
        -0.39551E+01
        -0.40809E+01
        -0.47227E+01
        -0.85141E+01
        -0.11788E+02
        -0.29421E+02
        -0.45657E+02
        -0.14579E+02
        -0.11893E+02
        -0.10860E+02
        -0.98307E+01
        -0.13293E+02
        -0.20787E+02
        -0.37533E+02
        -0.21572E+02
        -0.13657E+02
        -0.13315E+02
        -0.16573E+02
        -0.16934E+02
        -0.57552E+01
        -0.85339E+01
        -0.87437E+01
        -0.30176E+02
        -0.31827E+02
        -0.43508E+02
        -0.18712E+02
        -0.45353E+02
        -0.59990E+02
        -0.10616E+02
        -0.71024E+01
        -0.92384E+01
        -0.11545E+02
        -0.11422E+02
        -0.96804E+01
        -0.10222E+02
         0.31163E+01
        -0.92355E+01
         0.45551E+02
         0.76635E+02
         0.25476E+02
         0.13059E+02
         0.13950E+01
        -0.49063E+01
        -0.15479E+02
         0.20480E+02
         0.65479E+02
         0.12356E+03
         0.27732E+03
         0.23074E+03
         0.17953E+03
         0.10276E+03
         0.66004E+02
         0.48692E+02
         0.34520E+02
         0.33052E+02
         0.15623E+02
         0.67024E+00
         0.69379E+01
         0.23349E+02
         0.55611E+02
         0.92246E+02
         0.99334E+02
         0.91406E+02
        -0.57923E+01
        -0.66813E+01
        -0.15630E+02
        -0.11844E+02
        -0.90295E+01
        -0.10666E+02
        -0.48666E+01
        -0.49253E+01
        -0.28739E+01
        -0.41789E+01
        -0.18342E+02
        -0.12399E+02
        -0.74302E+01
        -0.11651E+02
        -0.21175E+02
        -0.45513E+01
        -0.42760E+01
        -0.55064E+01
        -0.73737E+01
        -0.10755E+02
        -0.20237E+02
        -0.35067E+02
        -0.12339E+02
        -0.11125E+02
        -0.10353E+02
        -0.11298E+02
        -0.13838E+02
        -0.20320E+02
        -0.27286E+02
        -0.22809E+02
        -0.13249E+02
        -0.11454E+02
        -0.15260E+02
        -0.12713E+02
        -0.66305E+01
        -0.79290E+01
        -0.48447E+01
        -0.27856E+02
        -0.31310E+02
        -0.33300E+02
         0.44065E+01
        -0.32952E+02
        -0.54356E+02
        -0.11318E+02
        -0.82688E+01
        -0.85934E+01
        -0.13372E+02
        -0.13413E+02
        -0.83761E+01
        -0.10344E+02
        -0.16416E+01
        -0.10183E+02
         0.34820E+02
         0.63398E+02
         0.14790E+02
         0.94195E+01
         0.77541E+00
        -0.62376E+01
        -0.19808E+02
         0.10175E+02
         0.61772E+02
         0.15483E+03
         0.22033E+03
         0.20549E+03
         0.17500E+03
         0.93707E+02
         0.59974E+02
         0.42008E+02
         0.24258E+02
         0.24587E+02
         0.16101E+02
         0.30331E+01
         0.11861E+02
         0.18261E+02
         0.43591E+02
         0.78335E+02
         0.92379E+02
         0.90231E+02
        -0.64123E+01
        -0.74131E+01
        -0.13906E+02
        -0.10124E+02
        -0.75482E+01
        -0.10555E+02
        -0.61333E+01
        -0.53319E+01
        -0.25780E+01
        -0.53962E+01
        -0.19192E+02
        -0.10471E+02
        -0.44985E+01
        -0.14315E+02
        -0.22303E+02
        -0.45863E+01
        -0.35917E+01
        -0.50033E+01
        -0.64387E+01
        -0.10567E+02
        -0.21112E+02
        -0.36035E+02
        -0.10842E+02
        -0.12823E+02
        -0.10223E+02
        -0.10843E+02
        -0.13795E+02
        -0.18961E+02
        -0.31948E+02
        -0.25056E+02
        -0.14507E+02
        -0.14245E+02
        -0.16726E+02
        -0.15052E+02
        -0.52154E+01
        -0.81623E+01
        -0.59272E+01
        -0.21442E+02
        -0.29086E+02
        -0.29931E+02
        -0.94912E+01
        -0.27593E+02
        -0.52952E+02
        -0.11380E+02
        -0.94078E+01
        -0.10633E+02
        -0.13200E+02
        -0.12377E+02
        -0.11295E+02
        -0.11503E+02
        -0.62513E+00
        -0.11152E+02
         0.36478E+02
         0.67488E+02
         0.24002E+02
         0.17478E+02
         0.71907E+01
        -0.60816E+01
        -0.15176E+02
         0.17484E+02
         0.56244E+02
         0.12520E+03
         0.19314E+03
         0.18485E+03
         0.18104E+03
         0.10885E+03
         0.62760E+02
         0.43631E+02
         0.29798E+02
         0.25520E+02
         0.15804E+02
         0.27802E+01
         0.11909E+02
         0.23353E+02
         0.53710E+02
         0.85463E+02
         0.81002E+02
         0.75211E+02
        -0.66674E+01
        -0.81283E+01
        -0.99682E+01
        -0.76440E+01
        -0.48229E+01
        -0.66781E+01
        -0.57786E+01
        -0.55458E+01
        -0.31367E+01
        -0.53656E+01
        -0.18428E+02
        -0.13039E+02
        -0.63960E+01
        -0.13444E+02
        -0.21801E+02
        -0.61956E+01
        -0.53122E+01
        -0.54510E+01
        -0.98254E+01
        -0.12894E+02
        -0.28641E+02
        -0.47055E+02
        -0.14425E+02
        -0.15884E+02
        -0.10533E+02
        -0.13723E+02
        -0.13409E+02
        -0.21421E+02
        -0.31682E+02
        -0.20657E+02
        -0.12947E+02
        -0.13762E+02
        -0.13760E+02
        -0.11252E+02
        -0.40817E+00
        -0.51981E+01
        -0.39630E+01
        -0.21013E+02
        -0.30297E+02
        -0.42701E+02
        -0.14660E+02
        -0.32842E+02
        -0.57965E+02
        -0.11750E+02
        -0.94141E+01
        -0.10306E+02
        -0.12608E+02
        -0.98466E+01
        -0.73070E+01
        -0.49000E+01
         0.35999E+01
        -0.37004E+01
         0.38860E+02
         0.62994E+02
         0.20465E+02
         0.17823E+02
         0.56306E+01
        -0.62465E+01
        -0.77302E+01
        -0.75820E+00
         0.50964E+02
         0.14073E+03
         0.25082E+03
         0.21627E+03
         0.16033E+03
         0.10343E+03
         0.67315E+02
         0.51860E+02
         0.35686E+02
         0.27408E+02
         0.16533E+02
         0.39150E+01
         0.63891E+01
         0.28282E+02
         0.51768E+02
         0.77382E+02
         0.74015E+02
         0.80134E+02
        -0.73829E+01
        -0.79085E+01
        -0.15322E+02
        -0.10737E+02
        -0.54374E+01
        -0.74294E+01
        -0.48112E+01
        -0.34523E+01
        -0.27969E+01
        -0.51665E+01
        -0.16910E+02
        -0.96118E+01
        -0.81995E+01
        -0.12556E+02
        -0.19934E+02
        -0.39318E+01
        -0.45378E+01
        -0.33550E+01
        -0.85537E+01
        -0.14390E+02
        -0.24353E+02
        -0.37372E+02
        -0.11831E+02
        -0.15605E+02
        -0.10625E+02
        -0.88077E+01
        -0.11392E+02
        -0.22086E+02
        -0.34116E+02
        -0.24519E+02
        -0.95666E+01
        -0.10455E+02
        -0.11589E+02
        -0.12605E+02
        -0.46013E+01
        -0.70091E+01
        -0.67140E+01
        -0.27749E+02
        -0.38806E+02
        -0.54525E+02
        -0.33766E+02
        -0.46437E+02
        -0.59364E+02
        -0.10423E+02
        -0.87966E+01
        -0.90712E+01
        -0.96918E+01
        -0.99093E+01
        -0.71173E+01
        -0.71271E+01
         0.44298E+01
        -0.62265E+01
         0.36287E+02
         0.57970E+02
         0.23649E+02
         0.15176E+02
         0.26086E+01
        -0.80012E+01
        -0.15434E+02
        -0.23754E+01
         0.56603E+02
         0.18707E+03
         0.32594E+03
         0.27939E+03
         0.20286E+03
         0.13527E+03
         0.83018E+02
         0.56025E+02
         0.35603E+02
         0.26811E+02
         0.17620E+02
         0.39600E+01
         0.81129E+01
         0.26486E+02
         0.50991E+02
         0.77373E+02
         0.81388E+02
         0.77933E+02
        -0.52323E+01
        -0.60433E+01
        -0.10647E+02
        -0.73471E+01
        -0.53965E+01
        -0.63365E+01
        -0.48010E+01
        -0.52549E+01
        -0.18439E+01
        -0.61691E+01
        -0.14534E+02
        -0.10914E+02
        -0.61392E+01
        -0.98537E+01
        -0.17444E+02
        -0.35068E+01
        -0.52177E+01
        -0.27866E+01
        -0.93561E+01
        -0.15369E+02
        -0.27252E+02
        -0.46577E+02
        -0.94788E+01
        -0.93949E+01
        -0.10050E+02
        -0.87134E+01
        -0.12322E+02
        -0.20800E+02
        -0.33784E+02
        -0.22787E+02
        -0.79106E+01
        -0.77745E+01
        -0.93646E+01
        -0.80303E+01
        -0.43695E+01
        -0.65209E+01
        -0.52368E+01
        -0.21817E+02
        -0.37869E+02
        -0.56579E+02
        -0.29655E+02
        -0.54108E+02
        -0.57104E+02
        -0.88108E+01
        -0.57658E+01
        -0.62366E+01
        -0.87655E+01
        -0.64726E+01
        -0.34668E+01
        -0.49256E+01
         0.15226E+01
        -0.53043E+01
         0.31667E+02
         0.57857E+02
         0.12989E+02
         0.76429E+01
         0.86690E+00
        -0.63477E+01
        -0.14585E+02
        -0.13490E+02
         0.32921E+02
         0.13318E+03
         0.28669E+03
         0.20386E+03
         0.16666E+03
         0.12051E+03
         0.82669E+02
         0.52640E+02
         0.34343E+02
         0.31033E+02
         0.19495E+02
         0.74447E+01
         0.79746E+01
         0.17822E+02
         0.34296E+02
         0.51966E+02
         0.57313E+02
         0.55171E+02
        -0.26408E+01
        -0.36934E+01
        -0.56985E+01
        -0.41941E+01
        -0.32618E+01
        -0.42220E+01
        -0.32332E+01
        -0.31188E+01
        -0.83323E+00
        -0.48011E+01
        -0.13844E+02
        -0.97726E+01
        -0.52890E+01
        -0.11565E+02
        -0.14738E+02
        -0.20505E+01
        -0.27423E+01
        -0.10365E+01
        -0.50297E+01
        -0.10912E+02
        -0.18718E+02
        -0.34786E+02
        -0.63750E+01
        -0.10123E+02
        -0.76364E+01
        -0.64209E+01
        -0.12096E+02
        -0.22130E+02
        -0.34589E+02
        -0.18225E+02
        -0.52885E+01
        -0.74448E+01
        -0.52176E+01
        -0.42152E+01
        -0.27780E+01
        -0.43814E+01
        -0.41725E+01
        -0.22133E+02
        -0.36945E+02
        -0.50097E+02
        -0.15991E+01
        -0.19107E+02
        -0.28464E+02
        -0.42859E+01
        -0.30888E+01
        -0.37742E+01
        -0.47136E+01
        -0.30001E+01
        -0.22780E+01
        -0.17372E+01
         0.12128E+01
        -0.28796E+01
         0.20995E+02
         0.37221E+02
         0.13280E+02
         0.13769E+02
         0.42766E+01
        -0.62630E+01
        -0.18900E+02
        -0.45888E+01
         0.50099E+02
         0.16909E+03
         0.28146E+03
         0.26673E+03
         0.15945E+03
         0.91632E+02
         0.58652E+02
         0.52345E+02
         0.38311E+02
         0.29764E+02
         0.16215E+02
         0.34873E+01
         0.79127E+01
         0.12167E+02
         0.21361E+02
         0.37734E+02
         0.39444E+02
         0.48858E+02
        -0.22228E+01
        -0.39756E+00
        -0.35444E+01
        -0.90165E+00
        -0.50314E+01
        -0.35529E+01
        -0.41828E+01
        -0.54329E+01
         0.62234E+00
        -0.58142E+01
        -0.18275E+02
        -0.12140E+02
        -0.47073E+01
        -0.13235E+02
        -0.15606E+02
        -0.86591E+00
        -0.15478E+01
         0.21963E+01
        -0.52916E+01
        -0.10067E+02
        -0.17737E+02
        -0.32782E+02
        -0.88769E+01
        -0.90812E+01
        -0.98329E+01
        -0.73341E+01
        -0.10812E+02
        -0.20480E+02
        -0.28413E+02
        -0.18002E+02
        -0.24265E+01
        -0.80490E+01
         0.40940E+00
        -0.81790E+00
        -0.67053E+01
        -0.30836E+01
        -0.24982E+01
        -0.19590E+02
        -0.33880E+02
        -0.39875E+02
        -0.14788E+02
        -0.42306E+02
        -0.50301E+02
        -0.93005E+01
        -0.63198E+01
        -0.69581E+01
        -0.63958E+01
        -0.19902E+01
        -0.24337E+01
        -0.46119E+01
        -0.11657E+02
        -0.53888E+01
        -0.20637E+02
         0.75690E+01
        -0.36679E+01
         0.52889E+01
         0.17993E+00
        -0.49525E+01
         0.19667E+01
        -0.24208E+01
         0.51943E+02
         0.16280E+03
         0.31958E+03
         0.30291E+03
         0.12195E+03
         0.83442E+02
         0.52644E+02
         0.39304E+02
         0.27402E+02
         0.20608E+02
         0.13122E+02
         0.19339E+01
        -0.36493E+01
        -0.11279E+02
        -0.20517E+02
        -0.31128E+02
        -0.72465E+01
         0.13437E+02
        -0.81411E+01
        -0.52662E+01
        -0.51541E+01
         0.26942E+00
        -0.13218E+02
        -0.94939E+01
        -0.13257E+02
        -0.13491E+02
        -0.41392E+01
        -0.15354E+02
        -0.29552E+02
        -0.17880E+02
        -0.91472E+01
        -0.21082E+02
        -0.15305E+02
        -0.60301E+01
        -0.73018E+01
        -0.13473E+01
        -0.12074E+02
        -0.11183E+02
        -0.30736E+02
        -0.44810E+02
        -0.19200E+02
        -0.21057E+02
        -0.13118E+02
        -0.15559E+02
        -0.16438E+02
        -0.16685E+02
        -0.24444E+02
        -0.19795E+02
        -0.49271E+01
        -0.12713E+02
         0.17388E+01
        -0.14778E+00
        -0.26257E+02
        -0.87418E+01
        -0.36872E+01
        -0.20061E+02
        -0.20688E+02
        -0.12431E+02
        -0.59859E+00
        -0.31032E+02
        -0.60746E+02
        -0.16608E+02
        -0.10245E+02
        -0.67111E+01
        -0.81679E+01
        -0.55654E+01
        -0.96517E+01
        -0.15565E+02
        -0.40232E+02
        -0.15696E+02
        -0.80442E+02
        -0.60910E+02
        -0.40021E+02
        -0.64742E+01
        -0.43414E+01
        -0.53371E+01
         0.37720E+01
         0.29995E+02
         0.60933E+02
         0.10054E+03
         0.14498E+03
         0.20014E+03
         0.13529E+03
         0.92119E+02
         0.57244E+02
         0.31925E+02
         0.17504E+02
         0.36763E+02
         0.36448E+02
         0.10921E+02
        -0.24711E+02
        -0.56202E+02
        -0.11114E+03
        -0.13635E+03
        -0.10637E+03
        -0.69490E+02
        -0.17601E+02
        -0.14060E+02
        -0.91620E+01
        -0.29649E+01
        -0.14639E+02
        -0.78622E+01
        -0.19489E+02
        -0.22216E+02
        -0.10830E+02
        -0.23268E+02
        -0.32000E+02
        -0.18645E+02
        -0.15146E+02
        -0.24352E+02
        -0.18888E+02
        -0.13533E+02
        -0.85761E+01
        -0.57926E+01
        -0.25244E+02
        -0.17124E+02
        -0.79516E+02
        -0.10466E+03
        -0.49186E+02
        -0.43697E+02
        -0.13768E+02
        -0.31295E+02
        -0.22830E+02
        -0.24220E+02
        -0.33338E+02
        -0.26358E+02
        -0.88312E+01
        -0.19185E+02
         0.56544E+00
         0.55016E+00
        -0.28059E+02
        -0.11759E+02
        -0.99100E+01
        -0.15720E+02
        -0.12776E+02
        -0.23299E+02
        -0.30842E+02
        -0.69569E+02
        -0.10523E+03
        -0.33678E+02
        -0.14615E+02
        -0.18063E+01
        -0.48673E+01
        -0.18101E+01
        -0.32554E+01
        -0.73600E+01
        -0.33728E+02
        -0.12033E+02
        -0.77777E+02
        -0.10145E+03
        -0.35650E+02
        -0.13023E+02
        -0.98003E+01
         0.33461E+00
         0.64589E+01
         0.25169E+02
         0.38678E+02
         0.38365E+02
         0.83685E+02
         0.20350E+03
         0.24071E+03
         0.22544E+03
         0.17225E+03
         0.10710E+03
         0.63334E+02
         0.82574E+02
         0.87714E+02
         0.36882E+02
        -0.22209E+02
        -0.35025E+02
        -0.88177E+02
        -0.14161E+03
        -0.13683E+03
        -0.11333E+03
         0.21560E+02
         0.26372E+02
         0.68212E+02
         0.46118E+02
         0.74563E+02
         0.70592E+02
         0.23417E+02
         0.18009E+02
         0.13293E+02
         0.25279E+01
         0.37913E+02
         0.14122E+02
         0.11645E+02
         0.10403E+02
         0.22827E+01
        -0.97037E+01
         0.45390E+01
         0.16291E+02
        -0.43964E+02
        -0.52695E+02
        -0.15200E+03
        -0.23280E+03
        -0.40780E+02
        -0.33390E+02
        -0.11321E+02
        -0.15485E+02
        -0.75341E+01
        -0.33389E+02
        -0.81359E+02
        -0.93835E+02
         0.23580E+02
         0.16923E+02
         0.47293E+02
         0.77130E+02
         0.11778E+03
         0.58796E+02
         0.20356E+02
        -0.22607E+02
        -0.37833E+02
        -0.57635E+02
        -0.37981E+02
        -0.10285E+03
        -0.22762E+03
        -0.11026E+01
         0.56204E+02
         0.11540E+03
         0.43490E+02
         0.33627E+02
         0.41864E+02
         0.81336E+02
         0.10779E+03
         0.80844E+02
         0.12921E+03
         0.11042E+02
         0.13218E+03
         0.49478E+02
         0.12943E+02
         0.15012E+02
         0.21396E+02
         0.97503E+00
        -0.25299E+02
        -0.10942E+02
         0.28920E+03
         0.79649E+03
         0.96744E+03
         0.89500E+03
         0.68611E+03
         0.49160E+03
         0.35064E+03
         0.36060E+03
         0.33996E+03
         0.14418E+03
        -0.53316E+00
        -0.38679E+02
        -0.26622E+02
        -0.43894E+02
        -0.72745E+02
        -0.47615E+02
  
SCALARS                     velocity_z  double 1
LOOKUP_TABLE default
        -0.46140E+03
        -0.15619E+03
        -0.32217E+03
        -0.40262E+03
         0.00000E+00
         0.00000E+00
         0.00000E+00
         0.00000E+00
        -0.42592E+03
        -0.52383E+03
         0.00000E+00
         0.00000E+00
        -0.15020E+03
        -0.33974E+03
         0.00000E+00
         0.00000E+00
        -0.41640E+03
        -0.39790E+03
         0.00000E+00
         0.00000E+00
         0.12426E+03
         0.22515E+03
         0.57767E+02
         0.00000E+00
         0.00000E+00
         0.00000E+00
        -0.17478E+03
         0.17248E+03
         0.00000E+00
         0.00000E+00
        -0.44133E+03
        -0.46090E+03
        -0.43235E+03
         0.00000E+00
         0.00000E+00
         0.00000E+00
        -0.41744E+03
        -0.44473E+03
         0.00000E+00
         0.00000E+00
        -0.44711E+03
        -0.49221E+03
         0.00000E+00
         0.00000E+00
        -0.38674E+03
        -0.34071E+03
         0.00000E+00
         0.00000E+00
        -0.53843E+03
         0.00000E+00
        -0.23870E+03
         0.00000E+00
        -0.26335E+03
         0.00000E+00
        -0.24804E+03
         0.00000E+00
        -0.22638E+03
        -0.69571E+03
         0.00000E+00
         0.00000E+00
        -0.29718E+03
        -0.29772E+03
         0.00000E+00
         0.00000E+00
        -0.31726E+03
         0.00000E+00
        -0.53721E+03
         0.00000E+00
        -0.36299E+03
        -0.99520E+02
         0.00000E+00
         0.00000E+00
        -0.66166E+02
         0.00000E+00
         0.41820E+03
         0.00000E+00
         0.53297E+03
         0.00000E+00
         0.62304E+03
         0.00000E+00
         0.71818E+03
        -0.36324E+03
         0.00000E+00
         0.00000E+00
        -0.78218E+03
         0.00000E+00
        -0.25921E+03
         0.00000E+00
        -0.56533E+03
         0.00000E+00
        -0.93840E+03
        -0.55818E+03
         0.00000E+00
         0.00000E+00
        -0.48098E+03
         0.00000E+00
        -0.73415E+03
         0.00000E+00
        -0.82174E+03
         0.00000E+00
        -0.91117E+03
        -0.67571E+03
         0.00000E+00
         0.00000E+00
        -0.51438E+02
        -0.46613E+03
         0.00000E+00
         0.00000E+00
         0.28178E+03
         0.00000E+00
         0.14186E+03
         0.00000E+00
        -0.92443E+02
         0.00000E+00
        -0.16574E+03
         0.00000E+00
        -0.72772E+02
         0.00000E+00
        -0.54000E+03
         0.00000E+00
        -0.12422E+03
         0.00000E+00
         0.20348E+04
         0.00000E+00
         0.29114E+04
         0.00000E+00
         0.11127E+04
         0.00000E+00
        -0.16100E+03
         0.00000E+00
        -0.64213E+03
         0.00000E+00
        -0.89135E+03
         0.00000E+00
        -0.95086E+03
         0.00000E+00
        -0.93153E+03
         0.00000E+00
        -0.13734E+04
         0.00000E+00
        -0.18441E+04
         0.00000E+00
        -0.13601E+04
         0.00000E+00
        -0.13100E+04
         0.00000E+00
        -0.10594E+04
         0.00000E+00
        -0.89431E+03
         0.00000E+00
        -0.13806E+04
         0.00000E+00
        -0.12915E+04
         0.00000E+00
        -0.81232E+03
         0.00000E+00
        -0.43602E+03
        -0.26555E+03
        -0.41483E+03
        -0.51298E+03
        -0.54453E+03
        -0.69530E+03
        -0.27901E+03
        -0.42026E+03
        -0.45474E+03
        -0.50819E+03
        -0.90662E+02
        -0.82891E+02
        -0.14856E+03
        -0.32520E+03
         0.88310E+02
        -0.34397E+03
        -0.52429E+03
        -0.36116E+03
        -0.34759E+03
        -0.61586E+03
        -0.47270E+03
        -0.66120E+03
        -0.44613E+03
        -0.22533E+03
        -0.67554E+03
        -0.37908E+03
        -0.43420E+03
        -0.56859E+03
        -0.69538E+03
        -0.80645E+03
        -0.75497E+03
        -0.71881E+03
        -0.84271E+03
        -0.92740E+03
        -0.50655E+03
        -0.21948E+03
        -0.16684E+03
         0.12276E+03
         0.15726E+03
         0.20026E+03
         0.40184E+03
        -0.58966E+03
        -0.75713E+03
        -0.55904E+03
        -0.71824E+03
        -0.96941E+03
        -0.85842E+03
        -0.94126E+03
        -0.94879E+03
        -0.11791E+04
        -0.13263E+04
        -0.92601E+03
        -0.60074E+03
        -0.79461E+03
        -0.20952E+03
        -0.21598E+03
        -0.13498E+03
         0.16868E+03
         0.62804E+03
         0.11651E+04
         0.16406E+04
         0.31105E+04
         0.33562E+04
         0.12425E+04
        -0.23208E+02
        -0.88338E+03
        -0.11368E+04
        -0.10382E+04
        -0.96684E+03
        -0.84126E+03
        -0.56833E+03
         0.16038E+02
         0.10179E+04
         0.14332E+04
         0.21974E+04
         0.55898E+03
        -0.11045E+04
        -0.10924E+04
        -0.41451E+03
        -0.39548E+03
        -0.44624E+03
        -0.54271E+03
        -0.51796E+03
        -0.63494E+03
        -0.38769E+03
        -0.45943E+03
        -0.44042E+03
        -0.47715E+03
        -0.52964E+03
        -0.47040E+03
        -0.41566E+03
        -0.53077E+03
        -0.46532E+03
        -0.38866E+03
        -0.45253E+03
        -0.42481E+03
        -0.39749E+03
        -0.52041E+03
        -0.50858E+03
        -0.60263E+03
        -0.52928E+03
        -0.42692E+03
        -0.59916E+03
        -0.53926E+03
        -0.58924E+03
        -0.74510E+03
        -0.80767E+03
        -0.67469E+03
        -0.81836E+03
        -0.74317E+03
        -0.82453E+03
        -0.72889E+03
        -0.49853E+03
        -0.44468E+03
        -0.40832E+03
        -0.44982E+03
        -0.47053E+03
        -0.45555E+03
        -0.15929E+03
        -0.62596E+03
        -0.73003E+03
        -0.54659E+03
        -0.59723E+03
        -0.50613E+03
        -0.65486E+03
        -0.74864E+03
        -0.65367E+03
        -0.56038E+03
        -0.46841E+03
        -0.82634E+03
        -0.61000E+03
        -0.68802E+03
        -0.71775E+03
        -0.55157E+03
        -0.34115E+03
         0.64642E+01
         0.47217E+03
         0.74243E+03
         0.14207E+04
         0.18876E+04
         0.18549E+04
         0.65166E+03
        -0.14454E+03
        -0.84987E+03
        -0.10810E+04
        -0.89830E+03
        -0.44293E+03
         0.21021E+03
         0.56514E+03
         0.68601E+03
         0.15363E+04
         0.15395E+04
         0.23502E+04
         0.12565E+04
        -0.64397E+02
        -0.64962E+03
        -0.40913E+03
        -0.40163E+03
        -0.40551E+03
        -0.41308E+03
        -0.44268E+03
        -0.44246E+03
        -0.41077E+03
        -0.43369E+03
        -0.41621E+03
        -0.47682E+03
        -0.55305E+03
        -0.50706E+03
        -0.44502E+03
        -0.54283E+03
        -0.53587E+03
        -0.38141E+03
        -0.43277E+03
        -0.39845E+03
        -0.39730E+03
        -0.48122E+03
        -0.46554E+03
        -0.55162E+03
        -0.43764E+03
        -0.38731E+03
        -0.54312E+03
        -0.41337E+03
        -0.59875E+03
        -0.69346E+03
        -0.68055E+03
        -0.62225E+03
        -0.47368E+03
        -0.43510E+03
        -0.49219E+03
        -0.50718E+03
        -0.44130E+03
        -0.39782E+03
        -0.40124E+03
        -0.57450E+03
        -0.58060E+03
        -0.55117E+03
        -0.48282E+03
        -0.58164E+03
        -0.71310E+03
        -0.43891E+03
        -0.42534E+03
        -0.37463E+03
        -0.41956E+03
        -0.44185E+03
        -0.51510E+03
        -0.49700E+03
        -0.50970E+03
        -0.48746E+03
        -0.56821E+03
        -0.42598E+03
        -0.65042E+03
        -0.53904E+03
        -0.39824E+03
        -0.25722E+03
         0.21047E+03
         0.49445E+03
         0.88249E+03
         0.12584E+04
         0.88745E+03
         0.30069E+02
        -0.26736E+03
        -0.72406E+03
        -0.80322E+03
        -0.70567E+03
        -0.46902E+03
        -0.20045E+03
        -0.87085E+02
        -0.16256E+03
         0.20399E+03
         0.71668E+03
         0.83603E+03
         0.60059E+03
        -0.18468E+02
        -0.38171E+03
        -0.39310E+03
        -0.37555E+03
        -0.37041E+03
        -0.36940E+03
        -0.36068E+03
        -0.35356E+03
        -0.39512E+03
        -0.41274E+03
        -0.39827E+03
        -0.44444E+03
        -0.46678E+03
        -0.45552E+03
        -0.41372E+03
        -0.47631E+03
        -0.51512E+03
        -0.36927E+03
        -0.41692E+03
        -0.36761E+03
        -0.38105E+03
        -0.43759E+03
        -0.41413E+03
        -0.47976E+03
        -0.38152E+03
        -0.35703E+03
        -0.49673E+03
        -0.34677E+03
        -0.51726E+03
        -0.58860E+03
        -0.62138E+03
        -0.54357E+03
        -0.32306E+03
        -0.32743E+03
        -0.32526E+03
        -0.33201E+03
        -0.36543E+03
        -0.37145E+03
        -0.38276E+03
        -0.58125E+03
        -0.61376E+03
        -0.59475E+03
        -0.44288E+03
        -0.64590E+03
        -0.58531E+03
        -0.36465E+03
        -0.35687E+03
        -0.37349E+03
        -0.34447E+03
        -0.32426E+03
        -0.32617E+03
        -0.33545E+03
        -0.33990E+03
        -0.34755E+03
        -0.39361E+03
        -0.33477E+03
        -0.39201E+03
        -0.40100E+03
        -0.38491E+03
        -0.30253E+03
        -0.90338E+02
         0.25896E+03
         0.78203E+03
         0.11374E+04
         0.94077E+03
         0.18750E+03
        -0.35308E+03
        -0.57562E+03
        -0.55860E+03
        -0.49385E+03
        -0.45234E+03
        -0.45524E+03
        -0.48059E+03
        -0.50144E+03
        -0.56274E+03
        -0.56468E+03
        -0.51441E+03
        -0.41632E+03
        -0.36250E+03
        -0.35809E+03
        -0.36833E+03
        -0.36637E+03
        -0.35210E+03
        -0.35078E+03
        -0.35292E+03
        -0.34963E+03
        -0.37518E+03
        -0.38371E+03
        -0.37333E+03
        -0.39980E+03
        -0.41000E+03
        -0.40963E+03
        -0.38713E+03
        -0.42199E+03
        -0.46036E+03
        -0.36068E+03
        -0.38506E+03
        -0.35287E+03
        -0.37205E+03
        -0.39761E+03
        -0.38996E+03
        -0.42066E+03
        -0.36972E+03
        -0.35567E+03
        -0.43392E+03
        -0.34407E+03
        -0.43763E+03
        -0.47340E+03
        -0.53175E+03
        -0.45238E+03
        -0.31968E+03
        -0.33343E+03
        -0.31636E+03
        -0.32243E+03
        -0.35485E+03
        -0.36266E+03
        -0.37161E+03
        -0.51804E+03
        -0.56624E+03
        -0.56545E+03
        -0.50725E+03
        -0.49668E+03
        -0.48177E+03
        -0.35903E+03
        -0.35651E+03
        -0.37248E+03
        -0.35666E+03
        -0.34259E+03
        -0.34001E+03
        -0.35131E+03
        -0.37304E+03
        -0.34592E+03
        -0.35157E+03
        -0.35994E+03
        -0.36356E+03
        -0.38269E+03
        -0.39443E+03
        -0.38025E+03
        -0.25617E+03
         0.47336E+02
         0.35275E+03
         0.62846E+03
         0.46335E+03
        -0.16248E+03
        -0.40723E+03
        -0.48533E+03
        -0.47361E+03
        -0.41167E+03
        -0.38622E+03
        -0.41673E+03
        -0.45416E+03
        -0.47140E+03
        -0.53370E+03
        -0.58111E+03
        -0.63432E+03
        -0.59322E+03
        -0.46659E+03
        -0.38835E+03
        -0.36488E+03
        -0.36491E+03
        -0.35949E+03
        -0.35700E+03
        -0.35720E+03
        -0.35682E+03
        -0.37032E+03
        -0.37051E+03
        -0.36748E+03
        -0.37860E+03
        -0.37510E+03
        -0.38297E+03
        -0.37380E+03
        -0.38298E+03
        -0.41090E+03
        -0.36467E+03
        -0.37167E+03
        -0.35984E+03
        -0.36822E+03
        -0.37683E+03
        -0.37470E+03
        -0.38664E+03
        -0.36811E+03
        -0.36259E+03
        -0.38297E+03
        -0.36128E+03
        -0.39512E+03
        -0.42270E+03
        -0.44215E+03
        -0.39313E+03
        -0.35147E+03
        -0.35763E+03
        -0.34588E+03
        -0.35500E+03
        -0.35703E+03
        -0.36531E+03
        -0.36976E+03
        -0.44214E+03
        -0.46765E+03
        -0.48295E+03
        -0.44213E+03
        -0.44235E+03
        -0.41113E+03
        -0.36520E+03
        -0.36463E+03
        -0.37043E+03
        -0.36568E+03
        -0.36013E+03
        -0.36067E+03
        -0.36497E+03
        -0.37807E+03
        -0.35926E+03
        -0.36113E+03
        -0.37035E+03
        -0.36969E+03
        -0.37393E+03
        -0.37697E+03
        -0.38289E+03
        -0.35214E+03
        -0.23044E+03
        -0.55972E+02
        -0.14767E+01
        -0.16540E+03
        -0.34974E+03
        -0.43012E+03
        -0.43515E+03
        -0.40368E+03
        -0.37313E+03
        -0.36268E+03
        -0.37155E+03
        -0.38786E+03
        -0.39678E+03
        -0.42455E+03
        -0.43893E+03
        -0.47712E+03
        -0.46989E+03
        -0.42645E+03
        -0.39888E+03
        -0.36801E+03
        -0.36732E+03
        -0.36420E+03
        -0.36485E+03
        -0.36514E+03
        -0.36584E+03
        -0.36848E+03
        -0.36994E+03
        -0.36797E+03
        -0.37018E+03
        -0.36247E+03
        -0.37171E+03
        -0.36930E+03
        -0.36781E+03
        -0.37538E+03
        -0.36901E+03
        -0.37059E+03
        -0.36684E+03
        -0.36952E+03
        -0.36971E+03
        -0.36727E+03
        -0.36395E+03
        -0.36762E+03
        -0.36749E+03
        -0.37085E+03
        -0.36816E+03
        -0.37259E+03
        -0.37668E+03
        -0.37584E+03
        -0.36945E+03
        -0.36414E+03
        -0.36741E+03
        -0.36124E+03
        -0.35941E+03
        -0.35916E+03
        -0.36544E+03
        -0.36867E+03
        -0.38566E+03
        -0.38200E+03
        -0.37988E+03
        -0.39025E+03
        -0.37798E+03
        -0.36897E+03
        -0.36842E+03
        -0.36916E+03
        -0.37008E+03
        -0.36986E+03
        -0.36878E+03
        -0.36946E+03
        -0.36977E+03
        -0.37706E+03
        -0.36764E+03
        -0.36468E+03
        -0.37990E+03
        -0.36348E+03
        -0.36734E+03
        -0.36844E+03
        -0.37583E+03
        -0.39345E+03
        -0.38474E+03
        -0.36901E+03
        -0.36769E+03
        -0.37486E+03
        -0.42850E+03
        -0.43379E+03
        -0.38928E+03
        -0.36265E+03
        -0.35970E+03
        -0.35993E+03
        -0.36601E+03
        -0.37174E+03
        -0.37485E+03
        -0.38116E+03
        -0.39659E+03
        -0.42318E+03
        -0.43218E+03
        -0.41744E+03
        -0.39789E+03
        -0.36723E+03
        -0.36886E+03
        -0.36338E+03
        -0.36523E+03
        -0.36430E+03
        -0.36470E+03
        -0.37010E+03
        -0.36863E+03
        -0.36889E+03
        -0.36687E+03
        -0.36454E+03
        -0.36640E+03
        -0.36903E+03
        -0.36453E+03
        -0.36269E+03
        -0.37097E+03
        -0.36920E+03
        -0.36926E+03
        -0.36930E+03
        -0.36365E+03
        -0.36076E+03
        -0.35243E+03
        -0.36666E+03
        -0.36854E+03
        -0.36250E+03
        -0.36981E+03
        -0.36434E+03
        -0.35858E+03
        -0.35206E+03
        -0.35688E+03
        -0.36631E+03
        -0.36945E+03
        -0.36300E+03
        -0.36389E+03
        -0.36030E+03
        -0.36592E+03
        -0.36982E+03
        -0.36100E+03
        -0.35967E+03
        -0.36392E+03
        -0.37918E+03
        -0.35571E+03
        -0.34849E+03
        -0.37004E+03
        -0.37031E+03
        -0.37209E+03
        -0.37118E+03
        -0.36915E+03
        -0.37201E+03
        -0.37426E+03
        -0.38113E+03
        -0.36939E+03
        -0.36458E+03
        -0.38593E+03
        -0.36616E+03
        -0.36536E+03
        -0.36569E+03
        -0.37277E+03
        -0.39700E+03
        -0.42928E+03
        -0.45313E+03
        -0.51359E+03
        -0.53481E+03
        -0.45327E+03
        -0.41649E+03
        -0.35819E+03
        -0.34955E+03
        -0.35766E+03
        -0.36346E+03
        -0.36505E+03
        -0.37014E+03
        -0.38092E+03
        -0.39294E+03
        -0.39497E+03
        -0.42694E+03
        -0.43021E+03
        -0.41095E+03
        -0.40089E+03
        -0.36795E+03
        -0.37070E+03
        -0.36433E+03
        -0.36543E+03
        -0.36536E+03
        -0.36492E+03
        -0.37102E+03
        -0.36831E+03
        -0.36876E+03
        -0.36632E+03
        -0.36488E+03
        -0.36621E+03
        -0.36941E+03
        -0.36339E+03
        -0.36225E+03
        -0.37179E+03
        -0.36887E+03
        -0.37022E+03
        -0.36967E+03
        -0.36410E+03
        -0.35958E+03
        -0.34753E+03
        -0.36617E+03
        -0.36881E+03
        -0.35961E+03
        -0.37036E+03
        -0.35716E+03
        -0.34894E+03
        -0.34110E+03
        -0.35031E+03
        -0.36787E+03
        -0.37049E+03
        -0.36423E+03
        -0.36398E+03
        -0.36384E+03
        -0.36815E+03
        -0.37102E+03
        -0.36147E+03
        -0.35569E+03
        -0.35647E+03
        -0.37458E+03
        -0.35441E+03
        -0.34402E+03
        -0.37065E+03
        -0.37065E+03
        -0.37154E+03
        -0.36991E+03
        -0.36820E+03
        -0.36967E+03
        -0.37205E+03
        -0.38187E+03
        -0.36837E+03
        -0.36217E+03
        -0.37772E+03
        -0.36567E+03
        -0.36913E+03
        -0.36902E+03
        -0.37871E+03
        -0.39749E+03
        -0.43186E+03
        -0.48708E+03
        -0.55133E+03
        -0.57863E+03
        -0.50057E+03
        -0.40569E+03
        -0.36497E+03
        -0.35343E+03
        -0.35622E+03
        -0.36097E+03
        -0.36673E+03
        -0.37106E+03
        -0.37789E+03
        -0.39516E+03
        -0.41337E+03
        -0.43952E+03
        -0.43596E+03
        -0.42035E+03
        -0.39706E+03
        -0.36884E+03
        -0.37076E+03
        -0.36444E+03
        -0.36368E+03
        -0.36175E+03
        -0.36196E+03
        -0.37145E+03
        -0.37060E+03
        -0.36940E+03
        -0.36768E+03
        -0.36873E+03
        -0.36602E+03
        -0.37079E+03
        -0.36437E+03
        -0.35886E+03
        -0.37054E+03
        -0.36729E+03
        -0.36839E+03
        -0.36755E+03
        -0.36044E+03
        -0.35785E+03
        -0.34700E+03
        -0.36472E+03
        -0.36730E+03
        -0.35981E+03
        -0.36976E+03
        -0.36047E+03
        -0.35044E+03
        -0.33958E+03
        -0.35019E+03
        -0.36423E+03
        -0.36890E+03
        -0.36019E+03
        -0.35732E+03
        -0.35843E+03
        -0.36664E+03
        -0.37117E+03
        -0.34645E+03
        -0.32703E+03
        -0.32860E+03
        -0.35011E+03
        -0.34517E+03
        -0.33217E+03
        -0.36863E+03
        -0.37062E+03
        -0.37317E+03
        -0.37021E+03
        -0.36672E+03
        -0.36313E+03
        -0.36520E+03
        -0.37908E+03
        -0.36572E+03
        -0.35815E+03
        -0.37383E+03
        -0.36534E+03
        -0.36709E+03
        -0.36259E+03
        -0.36876E+03
        -0.40096E+03
        -0.47458E+03
        -0.54995E+03
        -0.59404E+03
        -0.56866E+03
        -0.45286E+03
        -0.42654E+03
        -0.37334E+03
        -0.35212E+03
        -0.35472E+03
        -0.35880E+03
        -0.36400E+03
        -0.37228E+03
        -0.38095E+03
        -0.40003E+03
        -0.42513E+03
        -0.47023E+03
        -0.48106E+03
        -0.44352E+03
        -0.40796E+03
        -0.36954E+03
        -0.37038E+03
        -0.36524E+03
        -0.36480E+03
        -0.36413E+03
        -0.36469E+03
        -0.37175E+03
        -0.37023E+03
        -0.37083E+03
        -0.36578E+03
        -0.36585E+03
        -0.36673E+03
        -0.36993E+03
        -0.36231E+03
        -0.36081E+03
        -0.37137E+03
        -0.36793E+03
        -0.36880E+03
        -0.36766E+03
        -0.35999E+03
        -0.35979E+03
        -0.34854E+03
        -0.36509E+03
        -0.36790E+03
        -0.35754E+03
        -0.36908E+03
        -0.35640E+03
        -0.34446E+03
        -0.33290E+03
        -0.35167E+03
        -0.36192E+03
        -0.36777E+03
        -0.35948E+03
        -0.35957E+03
        -0.35971E+03
        -0.36561E+03
        -0.37068E+03
        -0.35579E+03
        -0.34549E+03
        -0.34741E+03
        -0.35241E+03
        -0.33719E+03
        -0.33531E+03
        -0.36920E+03
        -0.37015E+03
        -0.37239E+03
        -0.36982E+03
        -0.36745E+03
        -0.36439E+03
        -0.36632E+03
        -0.37718E+03
        -0.36658E+03
        -0.35960E+03
        -0.38111E+03
        -0.36312E+03
        -0.36569E+03
        -0.36279E+03
        -0.37196E+03
        -0.40703E+03
        -0.45990E+03
        -0.53700E+03
        -0.62344E+03
        -0.61494E+03
        -0.49748E+03
        -0.41220E+03
        -0.36616E+03
        -0.35392E+03
        -0.35717E+03
        -0.36200E+03
        -0.36540E+03
        -0.37109E+03
        -0.38360E+03
        -0.40482E+03
        -0.43402E+03
        -0.45869E+03
        -0.46326E+03
        -0.43590E+03
        -0.39829E+03
        -0.36795E+03
        -0.37024E+03
        -0.36290E+03
        -0.36251E+03
        -0.36091E+03
        -0.36018E+03
        -0.37033E+03
        -0.36954E+03
        -0.37027E+03
        -0.36645E+03
        -0.36582E+03
        -0.36369E+03
        -0.37035E+03
        -0.36373E+03
        -0.35810E+03
        -0.37145E+03
        -0.36839E+03
        -0.36880E+03
        -0.36859E+03
        -0.36202E+03
        -0.35756E+03
        -0.34552E+03
        -0.36446E+03
        -0.36909E+03
        -0.35926E+03
        -0.36966E+03
        -0.35698E+03
        -0.34145E+03
        -0.32808E+03
        -0.34613E+03
        -0.36320E+03
        -0.36682E+03
        -0.35946E+03
        -0.35865E+03
        -0.35824E+03
        -0.36629E+03
        -0.37124E+03
        -0.35017E+03
        -0.33825E+03
        -0.33257E+03
        -0.35996E+03
        -0.33054E+03
        -0.32956E+03
        -0.36818E+03
        -0.36830E+03
        -0.36960E+03
        -0.36745E+03
        -0.36548E+03
        -0.36601E+03
        -0.36921E+03
        -0.38422E+03
        -0.36648E+03
        -0.36070E+03
        -0.38445E+03
        -0.36162E+03
        -0.36534E+03
        -0.36454E+03
        -0.37196E+03
        -0.40784E+03
        -0.47961E+03
        -0.57483E+03
        -0.65004E+03
        -0.66554E+03
        -0.45598E+03
        -0.41810E+03
        -0.35830E+03
        -0.34829E+03
        -0.35559E+03
        -0.36109E+03
        -0.36627E+03
        -0.37850E+03
        -0.38865E+03
        -0.40717E+03
        -0.43611E+03
        -0.46467E+03
        -0.47030E+03
        -0.44138E+03
        -0.40531E+03
        -0.36726E+03
        -0.36838E+03
        -0.36221E+03
        -0.36264E+03
        -0.36183E+03
        -0.36177E+03
        -0.36921E+03
        -0.36999E+03
        -0.36867E+03
        -0.36815E+03
        -0.36587E+03
        -0.36279E+03
        -0.36679E+03
        -0.36211E+03
        -0.35766E+03
        -0.37105E+03
        -0.36734E+03
        -0.36770E+03
        -0.36930E+03
        -0.36192E+03
        -0.35831E+03
        -0.34604E+03
        -0.36411E+03
        -0.36790E+03
        -0.35742E+03
        -0.36754E+03
        -0.35462E+03
        -0.34430E+03
        -0.33152E+03
        -0.34594E+03
        -0.36019E+03
        -0.36483E+03
        -0.35604E+03
        -0.35874E+03
        -0.35770E+03
        -0.36766E+03
        -0.37047E+03
        -0.33832E+03
        -0.32841E+03
        -0.33133E+03
        -0.36684E+03
        -0.32964E+03
        -0.32519E+03
        -0.36693E+03
        -0.36816E+03
        -0.37197E+03
        -0.36900E+03
        -0.36627E+03
        -0.36703E+03
        -0.37187E+03
        -0.38857E+03
        -0.36659E+03
        -0.36095E+03
        -0.38793E+03
        -0.35991E+03
        -0.36326E+03
        -0.36162E+03
        -0.37351E+03
        -0.42510E+03
        -0.49114E+03
        -0.55759E+03
        -0.61798E+03
        -0.65996E+03
        -0.48327E+03
        -0.41136E+03
        -0.35683E+03
        -0.34591E+03
        -0.35344E+03
        -0.35888E+03
        -0.36732E+03
        -0.38402E+03
        -0.39116E+03
        -0.40464E+03
        -0.42399E+03
        -0.46416E+03
        -0.48000E+03
        -0.45284E+03
        -0.41331E+03
        -0.36885E+03
        -0.36988E+03
        -0.36467E+03
        -0.36424E+03
        -0.36326E+03
        -0.36358E+03
        -0.37013E+03
        -0.36884E+03
        -0.36871E+03
        -0.36821E+03
        -0.36414E+03
        -0.35981E+03
        -0.36778E+03
        -0.36162E+03
        -0.35474E+03
        -0.37023E+03
        -0.36757E+03
        -0.36727E+03
        -0.36936E+03
        -0.36337E+03
        -0.35980E+03
        -0.35060E+03
        -0.36511E+03
        -0.36829E+03
        -0.35723E+03
        -0.36681E+03
        -0.35302E+03
        -0.34376E+03
        -0.33804E+03
        -0.34667E+03
        -0.36083E+03
        -0.36575E+03
        -0.35684E+03
        -0.36166E+03
        -0.36190E+03
        -0.36808E+03
        -0.37157E+03
        -0.34113E+03
        -0.33184E+03
        -0.33114E+03
        -0.35609E+03
        -0.34079E+03
        -0.33070E+03
        -0.36643E+03
        -0.36686E+03
        -0.37215E+03
        -0.36798E+03
        -0.36411E+03
        -0.36593E+03
        -0.36735E+03
        -0.38106E+03
        -0.36594E+03
        -0.36045E+03
        -0.38295E+03
        -0.36247E+03
        -0.36505E+03
        -0.36367E+03
        -0.37533E+03
        -0.42992E+03
        -0.50787E+03
        -0.57406E+03
        -0.58613E+03
        -0.59873E+03
        -0.49396E+03
        -0.41433E+03
        -0.34410E+03
        -0.34410E+03
        -0.35589E+03
        -0.36100E+03
        -0.36919E+03
        -0.38588E+03
        -0.39535E+03
        -0.41334E+03
        -0.41320E+03
        -0.44432E+03
        -0.46676E+03
        -0.45100E+03
        -0.42008E+03
        -0.36865E+03
        -0.36937E+03
        -0.36485E+03
        -0.36542E+03
        -0.36399E+03
        -0.36430E+03
        -0.36949E+03
        -0.36915E+03
        -0.36926E+03
        -0.36602E+03
        -0.35953E+03
        -0.36266E+03
        -0.36715E+03
        -0.35824E+03
        -0.35342E+03
        -0.37013E+03
        -0.36852E+03
        -0.36778E+03
        -0.36977E+03
        -0.36375E+03
        -0.36079E+03
        -0.34752E+03
        -0.36531E+03
        -0.36747E+03
        -0.35729E+03
        -0.36707E+03
        -0.35376E+03
        -0.34682E+03
        -0.33768E+03
        -0.34813E+03
        -0.35884E+03
        -0.36484E+03
        -0.35673E+03
        -0.35886E+03
        -0.35808E+03
        -0.36646E+03
        -0.36975E+03
        -0.34763E+03
        -0.33394E+03
        -0.33646E+03
        -0.35823E+03
        -0.34735E+03
        -0.32967E+03
        -0.36799E+03
        -0.36910E+03
        -0.37537E+03
        -0.37061E+03
        -0.36640E+03
        -0.36470E+03
        -0.36580E+03
        -0.37904E+03
        -0.36557E+03
        -0.36198E+03
        -0.39124E+03
        -0.35858E+03
        -0.36299E+03
        -0.36255E+03
        -0.37353E+03
        -0.42136E+03
        -0.47634E+03
        -0.51318E+03
        -0.58011E+03
        -0.62617E+03
        -0.50273E+03
        -0.42259E+03
        -0.35763E+03
        -0.34642E+03
        -0.35536E+03
        -0.36184E+03
        -0.37353E+03
        -0.39185E+03
        -0.39915E+03
        -0.41562E+03
        -0.42166E+03
        -0.46603E+03
        -0.46274E+03
        -0.43736E+03
        -0.41161E+03
        -0.36749E+03
        -0.36814E+03
        -0.36763E+03
        -0.36733E+03
        -0.36708E+03
        -0.36834E+03
        -0.37013E+03
        -0.37014E+03
        -0.36912E+03
        -0.36721E+03
        -0.36414E+03
        -0.36009E+03
        -0.36665E+03
        -0.36126E+03
        -0.35331E+03
        -0.37045E+03
        -0.36715E+03
        -0.36812E+03
        -0.36834E+03
        -0.36205E+03
        -0.35758E+03
        -0.34585E+03
        -0.36421E+03
        -0.36732E+03
        -0.35764E+03
        -0.36795E+03
        -0.35636E+03
        -0.34345E+03
        -0.33902E+03
        -0.35234E+03
        -0.36280E+03
        -0.36668E+03
        -0.36015E+03
        -0.36261E+03
        -0.36371E+03
        -0.36665E+03
        -0.37065E+03
        -0.35204E+03
        -0.33826E+03
        -0.33071E+03
        -0.35454E+03
        -0.33754E+03
        -0.33219E+03
        -0.36793E+03
        -0.36923E+03
        -0.37370E+03
        -0.37074E+03
        -0.36970E+03
        -0.36910E+03
        -0.37218E+03
        -0.38181E+03
        -0.37229E+03
        -0.36457E+03
        -0.39059E+03
        -0.36497E+03
        -0.36346E+03
        -0.36467E+03
        -0.37433E+03
        -0.41413E+03
        -0.46765E+03
        -0.54762E+03
        -0.62968E+03
        -0.63597E+03
        -0.51711E+03
        -0.41134E+03
        -0.35308E+03
        -0.34664E+03
        -0.35277E+03
        -0.36246E+03
        -0.36936E+03
        -0.38368E+03
        -0.38750E+03
        -0.40529E+03
        -0.42914E+03
        -0.45057E+03
        -0.46002E+03
        -0.43336E+03
        -0.41767E+03
        -0.36863E+03
        -0.37043E+03
        -0.36580E+03
        -0.36585E+03
        -0.36854E+03
        -0.36810E+03
        -0.37137E+03
        -0.36994E+03
        -0.36928E+03
        -0.36555E+03
        -0.36630E+03
        -0.36706E+03
        -0.36975E+03
        -0.36360E+03
        -0.36111E+03
        -0.37162E+03
        -0.36806E+03
        -0.37005E+03
        -0.36857E+03
        -0.36159E+03
        -0.35980E+03
        -0.34948E+03
        -0.36432E+03
        -0.36748E+03
        -0.35853E+03
        -0.37023E+03
        -0.35542E+03
        -0.34513E+03
        -0.33007E+03
        -0.35045E+03
        -0.36573E+03
        -0.36866E+03
        -0.36232E+03
        -0.36316E+03
        -0.36281E+03
        -0.36983E+03
        -0.37141E+03
        -0.34455E+03
        -0.32736E+03
        -0.31943E+03
        -0.33932E+03
        -0.32297E+03
        -0.32754E+03
        -0.36827E+03
        -0.36927E+03
        -0.37237E+03
        -0.37084E+03
        -0.36877E+03
        -0.36939E+03
        -0.37156E+03
        -0.38681E+03
        -0.37090E+03
        -0.36675E+03
        -0.38944E+03
        -0.36145E+03
        -0.36292E+03
        -0.36308E+03
        -0.37459E+03
        -0.40967E+03
        -0.48871E+03
        -0.59794E+03
        -0.72206E+03
        -0.71619E+03
        -0.49649E+03
        -0.41932E+03
        -0.35833E+03
        -0.34306E+03
        -0.34818E+03
        -0.35570E+03
        -0.36512E+03
        -0.37605E+03
        -0.38259E+03
        -0.39691E+03
        -0.42219E+03
        -0.44950E+03
        -0.46696E+03
        -0.44137E+03
        -0.41507E+03
        -0.36831E+03
        -0.37089E+03
        -0.36724E+03
        -0.36817E+03
        -0.36830E+03
        -0.36911E+03
        -0.37074E+03
        -0.36811E+03
        -0.36967E+03
        -0.36435E+03
        -0.36672E+03
        -0.36523E+03
        -0.36931E+03
        -0.36444E+03
        -0.36284E+03
        -0.37192E+03
        -0.36679E+03
        -0.37035E+03
        -0.36831E+03
        -0.36071E+03
        -0.35804E+03
        -0.34610E+03
        -0.36698E+03
        -0.36951E+03
        -0.35905E+03
        -0.37004E+03
        -0.35942E+03
        -0.34514E+03
        -0.33919E+03
        -0.34997E+03
        -0.36729E+03
        -0.36937E+03
        -0.36448E+03
        -0.36630E+03
        -0.36404E+03
        -0.36967E+03
        -0.37089E+03
        -0.35663E+03
        -0.33539E+03
        -0.31921E+03
        -0.34203E+03
        -0.31993E+03
        -0.33150E+03
        -0.36919E+03
        -0.37022E+03
        -0.37178E+03
        -0.37081E+03
        -0.37027E+03
        -0.37027E+03
        -0.37195E+03
        -0.38267E+03
        -0.37240E+03
        -0.36644E+03
        -0.39035E+03
        -0.36627E+03
        -0.36616E+03
        -0.36471E+03
        -0.37302E+03
        -0.40372E+03
        -0.45465E+03
        -0.52888E+03
        -0.60759E+03
        -0.65873E+03
        -0.47795E+03
        -0.42181E+03
        -0.34840E+03
        -0.33942E+03
        -0.35068E+03
        -0.35696E+03
        -0.36298E+03
        -0.36948E+03
        -0.37573E+03
        -0.38689E+03
        -0.39821E+03
        -0.41867E+03
        -0.43029E+03
        -0.42034E+03
        -0.40457E+03
        -0.37059E+03
        -0.37202E+03
        -0.37098E+03
        -0.37067E+03
        -0.37099E+03
        -0.37148E+03
        -0.37221E+03
        -0.36915E+03
        -0.37082E+03
        -0.36601E+03
        -0.36410E+03
        -0.36635E+03
        -0.37072E+03
        -0.36311E+03
        -0.36346E+03
        -0.37266E+03
        -0.36911E+03
        -0.37213E+03
        -0.36951E+03
        -0.36383E+03
        -0.36112E+03
        -0.35044E+03
        -0.36705E+03
        -0.37040E+03
        -0.36207E+03
        -0.37200E+03
        -0.35409E+03
        -0.34241E+03
        -0.33206E+03
        -0.35579E+03
        -0.37097E+03
        -0.37223E+03
        -0.37012E+03
        -0.37045E+03
        -0.36763E+03
        -0.37130E+03
        -0.37233E+03
        -0.34614E+03
        -0.32952E+03
        -0.31963E+03
        -0.34952E+03
        -0.34750E+03
        -0.35023E+03
        -0.37162E+03
        -0.37271E+03
        -0.37409E+03
        -0.37379E+03
        -0.37310E+03
        -0.37343E+03
        -0.37508E+03
        -0.38285E+03
        -0.37419E+03
        -0.36866E+03
        -0.38750E+03
        -0.36565E+03
        -0.36877E+03
        -0.36825E+03
        -0.37525E+03
        -0.41530E+03
        -0.48249E+03
        -0.58455E+03
        -0.66522E+03
        -0.70046E+03
        -0.50320E+03
        -0.40828E+03
        -0.35400E+03
        -0.34101E+03
        -0.35518E+03
        -0.36305E+03
        -0.36695E+03
        -0.37140E+03
        -0.37268E+03
        -0.37824E+03
        -0.38793E+03
        -0.40110E+03
        -0.41821E+03
        -0.40794E+03
        -0.40278E+03
        -0.37124E+03
        -0.37258E+03
        -0.37340E+03
        -0.37378E+03
        -0.37381E+03
        -0.37657E+03
        -0.36918E+03
        -0.36854E+03
        -0.37169E+03
        -0.36629E+03
        -0.36029E+03
        -0.36258E+03
        -0.36881E+03
        -0.36093E+03
        -0.35924E+03
        -0.37348E+03
        -0.36926E+03
        -0.37480E+03
        -0.37020E+03
        -0.36363E+03
        -0.36009E+03
        -0.34979E+03
        -0.36773E+03
        -0.37037E+03
        -0.35769E+03
        -0.37384E+03
        -0.35728E+03
        -0.34497E+03
        -0.33972E+03
        -0.35140E+03
        -0.37816E+03
        -0.37723E+03
        -0.37809E+03
        -0.37731E+03
        -0.36897E+03
        -0.37185E+03
        -0.37338E+03
        -0.34737E+03
        -0.32758E+03
        -0.32896E+03
        -0.36488E+03
        -0.33747E+03
        -0.33237E+03
        -0.37169E+03
        -0.37595E+03
        -0.37652E+03
        -0.37802E+03
        -0.37816E+03
        -0.37830E+03
        -0.37763E+03
        -0.38231E+03
        -0.37933E+03
        -0.36253E+03
        -0.38288E+03
        -0.37027E+03
        -0.37304E+03
        -0.37281E+03
        -0.38337E+03
        -0.41878E+03
        -0.46905E+03
        -0.54845E+03
        -0.61585E+03
        -0.65987E+03
        -0.54860E+03
        -0.39761E+03
        -0.34970E+03
        -0.34359E+03
        -0.35227E+03
        -0.36564E+03
        -0.36611E+03
        -0.35694E+03
        -0.34993E+03
        -0.35311E+03
        -0.35352E+03
        -0.35904E+03
        -0.37107E+03
        -0.39284E+03
        -0.39546E+03
        -0.36769E+03
        -0.37056E+03
        -0.37405E+03
        -0.37738E+03
        -0.37366E+03
        -0.38050E+03
        -0.36456E+03
        -0.36451E+03
        -0.36964E+03
        -0.36060E+03
        -0.35442E+03
        -0.35978E+03
        -0.36586E+03
        -0.36011E+03
        -0.36882E+03
        -0.37192E+03
        -0.36556E+03
        -0.37508E+03
        -0.36796E+03
        -0.36299E+03
        -0.36048E+03
        -0.34981E+03
        -0.36643E+03
        -0.36797E+03
        -0.35826E+03
        -0.37453E+03
        -0.35817E+03
        -0.35465E+03
        -0.34531E+03
        -0.35245E+03
        -0.39075E+03
        -0.38916E+03
        -0.38913E+03
        -0.38777E+03
        -0.36178E+03
        -0.37107E+03
        -0.37121E+03
        -0.35297E+03
        -0.36384E+03
        -0.36132E+03
        -0.38485E+03
        -0.35649E+03
        -0.33270E+03
        -0.37276E+03
        -0.38010E+03
        -0.37826E+03
        -0.38481E+03
        -0.38934E+03
        -0.38793E+03
        -0.38474E+03
        -0.37681E+03
        -0.38250E+03
        -0.36166E+03
        -0.37198E+03
        -0.37369E+03
        -0.37470E+03
        -0.36888E+03
        -0.38069E+03
        -0.41353E+03
        -0.44688E+03
        -0.47476E+03
        -0.52064E+03
        -0.58856E+03
        -0.56157E+03
        -0.42125E+03
        -0.34540E+03
        -0.32770E+03
        -0.33498E+03
        -0.35030E+03
        -0.34621E+03
        -0.31017E+03
        -0.27810E+03
        -0.27405E+03
        -0.27747E+03
        -0.26843E+03
        -0.30006E+03
        -0.34961E+03
        -0.37142E+03
        -0.36655E+03
        -0.36837E+03
        -0.37331E+03
        -0.37821E+03
        -0.37482E+03
        -0.38149E+03
        -0.36498E+03
        -0.36294E+03
        -0.36675E+03
        -0.35963E+03
        -0.36057E+03
        -0.36720E+03
        -0.36760E+03
        -0.36222E+03
        -0.37156E+03
        -0.37268E+03
        -0.36303E+03
        -0.37323E+03
        -0.36900E+03
        -0.36111E+03
        -0.35548E+03
        -0.33973E+03
        -0.36672E+03
        -0.37242E+03
        -0.35794E+03
        -0.38326E+03
        -0.36062E+03
        -0.35682E+03
        -0.34980E+03
        -0.34762E+03
        -0.40209E+03
        -0.40419E+03
        -0.39588E+03
        -0.39266E+03
        -0.37464E+03
        -0.37278E+03
        -0.37090E+03
        -0.37311E+03
        -0.37145E+03
        -0.37286E+03
        -0.40047E+03
        -0.35914E+03
        -0.32760E+03
        -0.37664E+03
        -0.38626E+03
        -0.37729E+03
        -0.38889E+03
        -0.39636E+03
        -0.39173E+03
        -0.38676E+03
        -0.37173E+03
        -0.38498E+03
        -0.38102E+03
        -0.37074E+03
        -0.38106E+03
        -0.37439E+03
        -0.36901E+03
        -0.37293E+03
        -0.39703E+03
        -0.41619E+03
        -0.42901E+03
        -0.47760E+03
        -0.59925E+03
        -0.64427E+03
        -0.50358E+03
        -0.36240E+03
        -0.28750E+03
        -0.28303E+03
        -0.31332E+03
        -0.30795E+03
        -0.24671E+03
        -0.20810E+03
        -0.22327E+03
        -0.25789E+03
        -0.23934E+03
        -0.26436E+03
        -0.32041E+03
        -0.35291E+03
        -0.38894E+03
        -0.38952E+03
        -0.41817E+03
        -0.40316E+03
        -0.42703E+03
        -0.41451E+03
        -0.38077E+03
        -0.37685E+03
        -0.37103E+03
        -0.36243E+03
        -0.38223E+03
        -0.38555E+03
        -0.38249E+03
        -0.36921E+03
        -0.38438E+03
        -0.38079E+03
        -0.35524E+03
        -0.38155E+03
        -0.36497E+03
        -0.32766E+03
        -0.31643E+03
        -0.28393E+03
        -0.34640E+03
        -0.39166E+03
        -0.33855E+03
        -0.41883E+03
        -0.35849E+03
        -0.35054E+03
        -0.37965E+03
        -0.29479E+03
        -0.43748E+03
        -0.44612E+03
        -0.42840E+03
        -0.42689E+03
        -0.45680E+03
        -0.40750E+03
        -0.38384E+03
        -0.39267E+03
        -0.41653E+03
        -0.46743E+03
        -0.64513E+03
        -0.44380E+03
        -0.29083E+03
        -0.37648E+03
        -0.39975E+03
        -0.37544E+03
        -0.40701E+03
        -0.42383E+03
        -0.42143E+03
        -0.40659E+03
        -0.37724E+03
        -0.40257E+03
        -0.49178E+03
        -0.39605E+03
        -0.42940E+03
        -0.37853E+03
        -0.38304E+03
        -0.39882E+03
        -0.39336E+03
        -0.38894E+03
        -0.44680E+03
        -0.70648E+03
        -0.11843E+04
        -0.12771E+04
        -0.84839E+03
        -0.35140E+03
        -0.10430E+03
        -0.91049E+02
        -0.15514E+03
        -0.14009E+03
        -0.35573E+02
         0.26871E+02
        -0.48452E+02
        -0.12965E+03
        -0.17970E+03
        -0.23460E+03
        -0.34176E+03
        -0.37767E+03
  
SCALARS                 acceleration_x  double 1
LOOKUP_TABLE default
         0.00000E+00
         0.17689E+09
         0.14083E+09
         0.10497E+09
        -0.31833E+09
        -0.22406E+10
        -0.23643E+10
        -0.12462E+10
        -0.12146E+10
         0.24791E+09
         0.59088E+09
        -0.14517E+10
        -0.14235E+10
        -0.42743E+06
        -0.22333E+09
        -0.18032E+10
        -0.81008E+09
         0.41999E+08
        -0.88032E+08
        -0.11102E+10
        -0.31820E+10
        -0.15543E+09
         0.22930E+08
         0.36742E+09
        -0.18766E+10
         0.48115E+08
        -0.29438E+09
        -0.10040E+09
        -0.42923E+09
        -0.20086E+10
        -0.31549E+09
         0.17676E+08
         0.42922E+08
        -0.93020E+07
        -0.16896E+09
        -0.45790E+09
        -0.22267E+09
         0.58202E+07
         0.61176E+08
        -0.19532E+08
        -0.68987E+08
        -0.42372E+08
        -0.17393E+09
        -0.36446E+07
        -0.40276E+08
         0.33976E+08
        -0.93138E+07
        -0.56425E+08
        -0.18546E+08
         0.90065E+08
        -0.68000E+09
        -0.93533E+08
        -0.28214E+09
        -0.41151E+09
        -0.11569E+10
        -0.42814E+09
        -0.14475E+10
        -0.37009E+08
        -0.87431E+08
        -0.24104E+10
        -0.29721E+09
        -0.37140E+09
        -0.11030E+09
        -0.98570E+09
        -0.46626E+09
        -0.27511E+09
        -0.27693E+09
        -0.15263E+08
        -0.22246E+10
         0.34110E+09
         0.59857E+09
        -0.15541E+10
        -0.73315E+09
         0.24302E+09
        -0.45280E+09
         0.12059E+10
        -0.57996E+09
         0.19655E+10
        -0.33687E+09
         0.12617E+10
        -0.56344E+09
        -0.23777E+08
        -0.40866E+09
        -0.81097E+09
        -0.70442E+09
        -0.53758E+09
        -0.72561E+09
         0.28747E+09
        -0.94221E+09
         0.61492E+09
        -0.16568E+10
         0.36963E+09
         0.50646E+09
        -0.15808E+10
        -0.37655E+09
         0.27171E+09
        -0.26940E+09
         0.75955E+09
        -0.86347E+09
         0.21668E+10
        -0.96185E+09
         0.18517E+10
         0.33980E+10
         0.16214E+09
        -0.11333E+10
         0.10216E+10
         0.30946E+10
        -0.28327E+10
        -0.14032E+10
         0.14655E+10
        -0.44751E+09
         0.28293E+09
         0.91727E+09
        -0.13647E+10
         0.42550E+10
        -0.31368E+10
         0.74714E+10
        -0.50662E+10
         0.95416E+10
        -0.80833E+10
         0.16625E+11
        -0.13809E+11
         0.29945E+11
        -0.11724E+11
         0.15289E+11
        -0.28878E+10
         0.65648E+09
        -0.13429E+09
        -0.59749E+09
        -0.59320E+09
        -0.86173E+09
        -0.70928E+09
        -0.16679E+10
        -0.74826E+08
        -0.21960E+10
         0.89999E+09
        -0.18870E+10
         0.16719E+10
        -0.13674E+10
         0.27797E+10
        -0.21925E+10
         0.37022E+10
        -0.15687E+10
         0.44008E+10
        -0.10503E+10
         0.58445E+10
        -0.59906E+09
         0.18692E+11
         0.17526E+09
         0.31460E+11
         0.13815E+10
         0.34070E+11
         0.12622E+10
         0.15939E+11
        -0.80727E+09
         0.56972E+10
        -0.63053E+09
         0.74706E+09
         0.37817E+09
         0.43715E+09
         0.35486E+09
         0.94350E+09
         0.18669E+10
         0.31008E+09
         0.65539E+09
         0.88198E+09
         0.20098E+10
         0.49958E+09
        -0.42596E+09
         0.72121E+08
         0.76879E+09
        -0.18333E+09
         0.48846E+09
         0.38940E+09
         0.98943E+09
         0.38500E+09
         0.35277E+09
         0.15970E+09
        -0.30795E+08
         0.90972E+09
         0.45125E+09
         0.86100E+09
         0.75904E+09
         0.11059E+10
         0.12353E+10
         0.52838E+09
         0.23921E+09
         0.67142E+09
         0.47267E+09
         0.25625E+09
         0.10974E+10
         0.12466E+10
         0.84309E+09
         0.49180E+09
         0.17942E+09
         0.56804E+09
         0.47850E+09
         0.23041E+09
         0.31135E+09
         0.45874E+08
         0.90427E+09
         0.15900E+10
         0.98416E+09
         0.71511E+09
         0.79444E+09
         0.16819E+10
         0.30579E+10
         0.20527E+10
         0.46625E+10
         0.24378E+10
         0.34048E+10
         0.12161E+10
        -0.10583E+09
        -0.22960E+10
        -0.48208E+10
        -0.73509E+10
        -0.12820E+11
        -0.20754E+11
        -0.16179E+11
        -0.26262E+10
         0.36266E+09
         0.20638E+09
         0.83876E+09
         0.10939E+10
         0.16522E+10
         0.21467E+10
         0.26217E+10
         0.17040E+10
         0.13923E+10
         0.20484E+10
         0.60527E+10
         0.12185E+11
         0.85755E+10
         0.52189E+10
         0.15567E+10
         0.73617E+09
         0.41601E+09
         0.22342E+09
         0.38186E+09
        -0.18514E+09
         0.10710E+08
         0.24673E+09
         0.23790E+09
         0.24499E+09
         0.89018E+09
         0.29434E+09
        -0.13719E+09
         0.55704E+08
         0.37701E+09
        -0.39717E+08
         0.32780E+09
         0.28216E+09
         0.59890E+09
         0.23391E+09
         0.33765E+09
         0.19468E+09
         0.37101E+09
         0.29338E+09
         0.16995E+09
         0.52234E+09
         0.38237E+09
         0.48009E+09
         0.51536E+09
         0.82283E+08
         0.30205E+09
         0.50317E+09
         0.26222E+09
         0.22768E+09
        -0.11645E+10
        -0.25227E+09
         0.20887E+09
         0.18809E+09
        -0.19676E+09
        -0.42748E+09
        -0.41469E+09
        -0.18522E+09
        -0.50563E+07
         0.48479E+09
         0.29721E+09
         0.25729E+09
        -0.17025E+09
        -0.18011E+08
        -0.24547E+09
        -0.77099E+09
        -0.18034E+10
        -0.20783E+10
        -0.43555E+10
        -0.68197E+09
        -0.27803E+10
        -0.52347E+09
        -0.22854E+09
        -0.54358E+09
        -0.10963E+10
        -0.20551E+10
        -0.38570E+10
        -0.66669E+10
        -0.60605E+10
        -0.12089E+10
         0.55355E+08
        -0.77539E+08
         0.41528E+09
         0.62751E+09
         0.39566E+09
        -0.58337E+08
        -0.91336E+09
        -0.11524E+10
        -0.14255E+10
        -0.20478E+10
        -0.76716E+10
        -0.91275E+10
        -0.46089E+10
         0.51796E+09
        -0.63325E+09
         0.10656E+09
        -0.14607E+08
        -0.21255E+08
         0.71741E+08
        -0.44149E+09
        -0.59194E+09
         0.62729E+08
         0.83544E+08
        -0.38864E+08
         0.48333E+09
         0.16790E+09
         0.10737E+09
         0.53758E+08
         0.13400E+09
         0.88587E+08
         0.19554E+08
         0.43033E+07
        -0.98392E+08
         0.47982E+08
         0.91909E+08
         0.98803E+08
         0.23331E+09
         0.59837E+08
         0.27157E+08
         0.64914E+08
         0.69705E+08
         0.22123E+09
         0.10520E+09
        -0.66076E+08
         0.21471E+08
         0.11257E+09
         0.33734E+08
         0.55284E+08
        -0.34994E+09
        -0.84868E+09
        -0.67397E+08
         0.10412E+08
         0.30706E+08
        -0.26913E+09
        -0.27373E+09
        -0.28200E+09
        -0.20816E+09
         0.28315E+09
        -0.10209E+09
        -0.42633E+09
        -0.29096E+09
        -0.18562E+09
        -0.26992E+09
        -0.56091E+09
        -0.27869E+10
        -0.34322E+10
        -0.40523E+10
        -0.15776E+10
        -0.14012E+10
        -0.12172E+10
        -0.35487E+09
         0.21140E+09
         0.53210E+09
        -0.19359E+09
        -0.62475E+09
        -0.12548E+10
        -0.16096E+10
        -0.79022E+09
         0.29307E+07
        -0.24889E+09
         0.24021E+09
         0.42804E+09
         0.10969E+09
        -0.47037E+09
        -0.12745E+10
        -0.12009E+10
        -0.90082E+09
        -0.23972E+10
        -0.65787E+10
        -0.10465E+11
        -0.12152E+11
        -0.72682E+10
        -0.17026E+10
         0.19184E+08
         0.25552E+07
        -0.20500E+08
        -0.18134E+07
        -0.10231E+09
        -0.61640E+09
         0.17257E+08
         0.43987E+08
        -0.12615E+08
         0.18267E+09
         0.12566E+09
         0.10787E+09
         0.66086E+08
         0.15246E+09
         0.12744E+09
        -0.40398E+08
        -0.47051E+07
        -0.70207E+08
        -0.11833E+08
         0.15164E+08
         0.85470E+08
         0.99940E+08
         0.10351E+09
        -0.82538E+07
         0.45116E+08
        -0.26698E+08
         0.21405E+09
         0.28428E+09
         0.28585E+09
         0.11666E+09
        -0.66591E+07
         0.11601E+08
        -0.51593E+08
        -0.22259E+09
        -0.12977E+09
        -0.59489E+08
         0.16430E+08
         0.37103E+09
         0.47652E+09
         0.45251E+09
         0.10887E+09
         0.22693E+09
         0.21293E+09
         0.59532E+08
         0.66645E+08
         0.56193E+08
         0.11482E+06
        -0.91728E+08
        -0.12016E+08
        -0.32501E+09
        -0.28629E+09
        -0.76475E+09
        -0.65911E+09
        -0.11833E+10
        -0.59537E+08
         0.64201E+08
         0.20517E+09
         0.45429E+09
         0.46125E+09
         0.12468E+09
        -0.57799E+09
        -0.13948E+10
        -0.96519E+09
        -0.51342E+09
         0.12059E+09
         0.50120E+09
         0.33674E+09
         0.89720E+08
         0.24852E+09
         0.17462E+09
         0.20836E+09
         0.26306E+09
        -0.11296E+09
        -0.29342E+09
         0.73936E+08
        -0.15202E+10
        -0.10349E+10
        -0.42536E+09
        -0.43429E+08
         0.16273E+07
         0.23393E+07
        -0.35607E+08
         0.10947E+08
         0.27161E+08
        -0.32920E+08
        -0.25419E+08
        -0.40968E+08
        -0.58862E+08
         0.18386E+08
         0.27261E+08
         0.23086E+07
         0.42046E+08
         0.67198E+08
        -0.54747E+08
        -0.31818E+08
        -0.36491E+08
        -0.24305E+08
         0.62747E+07
         0.49949E+08
         0.94680E+08
         0.40194E+08
        -0.18870E+08
         0.44345E+08
        -0.58096E+08
         0.60092E+07
         0.23320E+09
         0.27980E+09
         0.67263E+08
         0.22060E+08
         0.42524E+07
         0.56559E+08
         0.94575E+08
        -0.25386E+08
         0.16331E+08
         0.67501E+07
         0.19981E+09
         0.23428E+09
         0.41150E+09
         0.18526E+09
         0.18604E+09
         0.23681E+09
         0.55568E+08
         0.13402E+09
         0.10764E+09
         0.93189E+08
         0.15139E+09
         0.16167E+09
         0.40542E+09
         0.29782E+09
         0.44480E+09
         0.20443E+07
         0.43993E+08
        -0.85191E+07
         0.19770E+08
         0.74410E+08
         0.12156E+09
         0.40597E+09
        -0.73240E+08
        -0.37822E+09
        -0.60199E+09
        -0.30676E+09
         0.29124E+09
         0.44968E+09
         0.46998E+09
         0.44265E+09
         0.29263E+09
         0.29038E+09
         0.38686E+09
         0.35963E+09
         0.55201E+09
         0.86436E+09
         0.85766E+09
         0.10974E+10
         0.28902E+09
         0.56075E+08
        -0.39335E+07
        -0.36792E+08
        -0.19541E+08
        -0.42088E+07
        -0.14295E+08
         0.66230E+07
         0.48308E+08
        -0.35154E+08
        -0.26590E+08
        -0.53463E+08
        -0.62611E+08
        -0.53656E+08
        -0.99898E+07
        -0.12852E+08
        -0.26898E+08
         0.36398E+08
        -0.32058E+08
        -0.29214E+08
        -0.43846E+08
        -0.20922E+08
        -0.18082E+08
         0.25687E+08
         0.76207E+08
         0.16495E+08
        -0.12108E+08
        -0.25243E+08
        -0.29922E+08
         0.10811E+08
         0.71284E+08
         0.13241E+09
         0.15277E+08
        -0.72008E+07
        -0.58913E+07
         0.17867E+08
         0.10530E+09
         0.14622E+08
         0.51574E+07
        -0.78924E+07
         0.92688E+08
         0.15414E+09
         0.27744E+09
         0.22081E+09
         0.73665E+08
         0.14038E+09
         0.63163E+07
         0.31277E+08
         0.43852E+08
         0.44709E+08
         0.73195E+08
         0.72515E+08
         0.24260E+09
         0.17386E+09
         0.12669E+09
         0.59140E+07
         0.86823E+08
        -0.90561E+06
        -0.61721E+07
         0.26754E+08
         0.49673E+08
         0.33398E+09
         0.61530E+09
         0.69048E+09
         0.97653E+09
         0.75799E+09
         0.71870E+09
         0.58998E+09
         0.50705E+09
         0.28356E+09
         0.10731E+09
         0.47095E+08
         0.94696E+08
         0.13126E+09
         0.18709E+09
         0.31859E+09
         0.39034E+09
         0.52708E+09
         0.40633E+09
         0.26803E+09
         0.83232E+08
        -0.21022E+08
        -0.10514E+08
        -0.36451E+07
        -0.11923E+08
         0.34762E+07
        -0.98622E+07
        -0.19582E+08
        -0.10841E+08
        -0.16293E+08
        -0.25726E+08
        -0.18701E+08
        -0.50014E+06
        -0.14125E+08
        -0.98438E+07
         0.14987E+08
        -0.55828E+07
        -0.61175E+07
        -0.16999E+08
        -0.40853E+07
        -0.15336E+06
         0.66521E+07
         0.56115E+08
         0.11980E+08
        -0.57168E+06
        -0.30673E+07
        -0.43549E+07
         0.76329E+07
         0.38213E+08
         0.75918E+08
         0.29870E+08
        -0.19369E+08
        -0.59943E+07
        -0.16325E+08
        -0.16428E+08
        -0.65343E+07
        -0.92060E+07
        -0.59408E+07
         0.94946E+08
         0.15425E+09
         0.24252E+09
         0.15002E+09
         0.10802E+09
         0.12828E+09
        -0.25825E+07
        -0.20043E+08
        -0.19216E+08
        -0.14873E+08
        -0.18326E+08
         0.91314E+07
         0.29831E+08
         0.16156E+08
         0.41551E+08
        -0.17075E+08
        -0.11889E+08
        -0.41495E+08
        -0.34248E+08
        -0.69674E+07
         0.46926E+08
         0.91376E+08
         0.21721E+09
         0.31752E+09
         0.66417E+09
         0.62733E+09
         0.47809E+09
         0.48249E+09
         0.24475E+09
         0.51207E+08
        -0.18167E+08
        -0.53118E+08
        -0.73076E+08
        -0.52425E+08
        -0.53230E+08
        -0.45323E+08
        -0.17317E+08
         0.45340E+08
         0.65074E+08
         0.74286E+08
         0.27537E+08
        -0.15617E+08
        -0.34569E+07
        -0.31597E+07
        -0.14135E+08
        -0.32232E+07
        -0.18554E+08
        -0.18161E+07
        -0.68967E+07
        -0.13419E+08
        -0.32182E+08
        -0.71143E+07
        -0.55882E+07
        -0.86693E+07
        -0.17373E+08
         0.39830E+07
        -0.34689E+07
        -0.79518E+07
        -0.13348E+08
        -0.71349E+06
        -0.43727E+07
         0.59215E+07
         0.22112E+08
        -0.85920E+06
         0.13046E+07
        -0.15597E+08
         0.21685E+07
        -0.57636E+07
        -0.13992E+07
         0.20221E+08
         0.78991E+06
        -0.83687E+07
         0.11674E+07
        -0.15924E+08
        -0.21201E+08
         0.69488E+07
        -0.27217E+07
         0.83641E+06
         0.22058E+08
         0.53906E+08
         0.14218E+09
         0.11858E+09
         0.35572E+08
         0.26200E+08
         0.79958E+06
        -0.93333E+07
        -0.98844E+07
        -0.62132E+07
        -0.10368E+08
        -0.54786E+07
        -0.36535E+08
        -0.12644E+08
        -0.20529E+08
        -0.70099E+07
         0.52309E+08
        -0.26501E+08
        -0.28123E+08
        -0.18632E+08
         0.14065E+07
         0.82702E+08
         0.20216E+09
         0.59772E+09
         0.78980E+09
         0.44071E+09
         0.13532E+09
         0.23211E+09
         0.13646E+09
         0.11229E+08
        -0.58758E+08
        -0.56658E+08
        -0.68460E+08
        -0.54141E+08
        -0.33159E+08
        -0.45122E+08
        -0.58501E+08
         0.50652E+08
         0.42040E+08
         0.50962E+07
         0.15482E+08
        -0.36827E+07
         0.52806E+05
        -0.73618E+06
        -0.59804E+07
        -0.68114E+07
        -0.26808E+08
         0.47743E+04
        -0.28533E+07
        -0.55364E+07
        -0.30489E+08
        -0.23812E+07
        -0.45304E+07
         0.11892E+07
        -0.82147E+07
        -0.32965E+04
        -0.62101E+05
        -0.39793E+07
        -0.36470E+07
        -0.24826E+07
        -0.10928E+08
        -0.45012E+06
        -0.95409E+07
         0.32372E+07
         0.92621E+06
        -0.22126E+08
         0.47023E+07
        -0.14755E+08
        -0.21384E+08
        -0.48984E+07
        -0.11767E+08
        -0.36681E+07
         0.20629E+07
        -0.19754E+06
        -0.83505E+06
        -0.96479E+06
         0.48470E+06
         0.16700E+07
        -0.29032E+07
         0.24514E+08
         0.68931E+08
         0.57454E+08
         0.17946E+08
         0.69104E+07
         0.32674E+07
         0.65941E+07
         0.35626E+07
         0.23247E+07
        -0.95786E+06
         0.16195E+07
        -0.49086E+07
         0.15977E+08
        -0.34787E+08
        -0.15628E+08
        -0.56726E+08
        -0.20666E+08
        -0.15168E+08
        -0.10173E+08
        -0.14192E+08
         0.40244E+08
         0.12270E+09
         0.23586E+09
         0.41988E+09
         0.32447E+09
         0.16092E+09
         0.92540E+08
         0.48088E+08
         0.36301E+08
         0.10620E+08
        -0.12927E+08
        -0.24378E+08
        -0.16335E+08
        -0.11555E+08
        -0.13084E+08
         0.19433E+08
         0.28914E+08
         0.17222E+08
         0.64760E+08
         0.25262E+08
        -0.14205E+07
         0.41333E+06
         0.15815E+07
        -0.10738E+08
        -0.16218E+07
        -0.26858E+08
         0.43032E+07
        -0.14322E+07
        -0.85717E+07
        -0.21484E+08
         0.17942E+07
        -0.30711E+07
         0.31053E+07
        -0.42259E+07
        -0.38333E+07
        -0.19612E+07
        -0.40549E+07
        -0.64895E+07
        -0.23467E+07
        -0.98470E+07
        -0.31925E+07
        -0.24549E+08
        -0.24806E+07
        -0.45381E+06
        -0.23991E+08
         0.22851E+07
        -0.97207E+07
        -0.20548E+08
        -0.85457E+07
        -0.22510E+08
        -0.76664E+07
         0.17023E+07
        -0.46401E+07
        -0.38119E+07
         0.54945E+07
        -0.16467E+07
         0.50382E+07
        -0.10364E+08
        -0.72539E+07
         0.68655E+07
         0.59607E+07
        -0.11546E+07
        -0.20758E+08
         0.26295E+05
         0.46054E+05
         0.11926E+07
         0.14353E+07
        -0.11406E+07
        -0.18530E+07
         0.34790E+07
         0.45651E+07
        -0.16342E+08
        -0.35189E+08
        -0.34626E+08
        -0.30732E+08
        -0.39549E+08
        -0.33879E+08
        -0.16872E+08
         0.22615E+08
         0.95931E+08
         0.18527E+09
         0.22418E+09
         0.81610E+08
         0.10165E+08
         0.27615E+08
        -0.11317E+08
        -0.53665E+08
        -0.19464E+08
        -0.45868E+08
        -0.45630E+08
        -0.18718E+08
        -0.69577E+07
         0.82783E+07
         0.63031E+08
         0.11071E+09
         0.40333E+08
         0.13605E+08
         0.13929E+08
         0.71254E+06
         0.12135E+05
        -0.39222E+07
        -0.18063E+08
        -0.11033E+08
        -0.27556E+08
         0.39611E+07
        -0.31036E+07
        -0.59555E+07
        -0.23909E+08
         0.13094E+07
        -0.74332E+06
         0.27587E+07
        -0.45108E+06
         0.60970E+06
        -0.35559E+07
        -0.77792E+07
        -0.10243E+08
        -0.27852E+07
        -0.13650E+08
        -0.51692E+07
        -0.17667E+08
        -0.47741E+07
         0.84803E+06
        -0.27662E+08
         0.10580E+07
        -0.58974E+07
        -0.22526E+08
        -0.30602E+07
        -0.12104E+08
        -0.11900E+08
        -0.15944E+07
        -0.11454E+08
        -0.24043E+08
        -0.13846E+08
        -0.55133E+07
         0.76382E+06
         0.37060E+07
         0.25335E+08
         0.25908E+08
         0.53327E+08
         0.63474E+07
        -0.24962E+08
        -0.23555E+07
        -0.53925E+07
        -0.57234E+07
        -0.17805E+07
        -0.27521E+07
        -0.13866E+08
        -0.38313E+06
        -0.10185E+08
        -0.52996E+08
        -0.38694E+08
        -0.23523E+08
        -0.47651E+08
        -0.39907E+08
        -0.36887E+08
        -0.30385E+08
         0.28325E+08
         0.90163E+08
         0.22334E+09
         0.34366E+09
         0.26691E+09
         0.94580E+08
         0.20411E+08
        -0.99539E+07
        -0.30493E+08
        -0.42244E+08
        -0.55180E+08
        -0.47749E+08
        -0.21965E+08
        -0.73303E+07
         0.16540E+08
         0.46268E+08
         0.80025E+08
         0.68094E+08
         0.40416E+08
        -0.31764E+08
        -0.60699E+07
         0.22969E+07
        -0.57925E+07
        -0.23605E+08
        -0.95099E+07
        -0.37735E+08
        -0.17580E+07
         0.31584E+06
        -0.63273E+07
        -0.25383E+08
         0.19071E+07
        -0.28110E+06
         0.46723E+07
        -0.38412E+07
         0.12825E+07
        -0.39676E+07
        -0.70348E+07
        -0.13158E+08
        -0.16858E+07
        -0.12862E+08
        -0.14577E+07
        -0.62709E+07
        -0.19846E+07
         0.51161E+06
        -0.35362E+07
         0.19382E+07
        -0.74686E+07
        -0.13026E+08
         0.46931E+07
        -0.95323E+07
        -0.64352E+07
        -0.12005E+07
        -0.67273E+07
        -0.26259E+08
        -0.10416E+08
        -0.31168E+06
        -0.70601E+05
         0.11854E+08
         0.19790E+08
         0.20926E+08
         0.66973E+07
         0.11354E+08
         0.60149E+07
        -0.17976E+07
        -0.10700E+08
        -0.39808E+07
        -0.29178E+07
         0.10654E+07
        -0.58274E+07
         0.16210E+07
         0.13567E+08
        -0.66012E+07
         0.29900E+07
        -0.34645E+08
        -0.38924E+08
        -0.24614E+08
        -0.17701E+08
        -0.50109E+07
         0.52194E+08
         0.14239E+09
         0.27059E+09
         0.30484E+09
         0.20173E+09
         0.20382E+09
         0.77914E+08
        -0.59781E+08
        -0.80737E+08
        -0.58709E+08
        -0.26303E+08
        -0.45050E+08
        -0.24635E+08
        -0.11554E+08
         0.17655E+08
         0.55048E+08
         0.78720E+08
         0.21492E+08
        -0.17404E+08
        -0.39699E+07
        -0.18892E+07
         0.98960E+06
        -0.15071E+07
        -0.13177E+08
        -0.72567E+07
        -0.21637E+08
         0.16610E+07
        -0.30448E+07
        -0.51543E+07
        -0.12431E+08
         0.13677E+07
        -0.18559E+07
         0.44506E+07
        -0.62555E+06
         0.35591E+06
        -0.35547E+07
        -0.71665E+07
        -0.88463E+07
        -0.60319E+06
        -0.10525E+08
         0.13000E+07
        -0.14636E+07
        -0.11575E+07
         0.33396E+05
        -0.10960E+08
        -0.18254E+07
        -0.12659E+08
        -0.25117E+08
        -0.19831E+08
        -0.11928E+08
        -0.88793E+07
        -0.11650E+07
        -0.11792E+08
        -0.21842E+08
         0.12128E+07
         0.79284E+07
         0.63005E+07
        -0.23171E+08
         0.29572E+08
         0.60042E+08
         0.56774E+08
         0.28840E+04
        -0.48369E+07
        -0.40388E+07
        -0.62223E+07
        -0.34997E+07
        -0.33186E+07
        -0.71740E+07
         0.27169E+07
         0.10965E+08
         0.55850E+07
        -0.47317E+07
        -0.26800E+08
        -0.12658E+08
        -0.31481E+08
        -0.26596E+08
        -0.19104E+08
         0.10010E+08
         0.71321E+08
         0.14104E+09
         0.14817E+09
         0.14451E+09
         0.59075E+08
         0.11516E+08
         0.92205E+08
        -0.27534E+08
        -0.39139E+08
        -0.41334E+08
        -0.42117E+08
        -0.43208E+08
        -0.14769E+08
        -0.10063E+08
         0.11263E+08
         0.26214E+08
         0.66487E+08
         0.10445E+09
         0.74528E+08
         0.18695E+08
        -0.92091E+06
        -0.25374E+07
         0.26309E+07
        -0.90944E+07
         0.75924E+06
        -0.10024E+08
         0.47208E+06
         0.56230E+06
        -0.89539E+07
        -0.26396E+08
         0.37920E+06
        -0.44558E+07
         0.23866E+07
        -0.58598E+07
        -0.37337E+07
        -0.36323E+07
        -0.67097E+07
        -0.12580E+08
         0.67130E+06
        -0.75218E+07
        -0.18248E+07
        -0.68008E+07
        -0.36159E+06
         0.12872E+07
        -0.24491E+08
        -0.16357E+06
        -0.15776E+08
        -0.21613E+08
        -0.28188E+08
        -0.13471E+08
        -0.14385E+08
        -0.39963E+05
        -0.17807E+08
        -0.30830E+08
        -0.25700E+07
        -0.12226E+07
        -0.10140E+07
        -0.13422E+08
        -0.15508E+08
        -0.28878E+08
         0.82302E+07
         0.99622E+07
        -0.13966E+08
        -0.34755E+07
        -0.44774E+07
         0.18660E+07
         0.17120E+07
        -0.27957E+07
        -0.14609E+08
         0.14612E+07
         0.12718E+08
         0.24500E+07
        -0.96804E+07
         0.33838E+08
        -0.16693E+08
        -0.29430E+08
        -0.82248E+07
        -0.60898E+07
         0.65631E+08
         0.94609E+08
        -0.15163E+09
         0.12835E+09
         0.56437E+08
        -0.98780E+07
         0.90877E+07
        -0.42007E+08
        -0.41978E+08
        -0.34777E+08
        -0.29756E+08
        -0.26165E+08
        -0.29047E+07
         0.69959E+07
         0.17115E+08
         0.40683E+08
         0.58768E+08
         0.50214E+08
         0.51346E+08
        -0.53627E+06
        -0.89963E+07
        -0.69740E+06
        -0.35095E+07
        -0.17397E+08
        -0.34843E+07
         0.14304E+08
         0.15848E+07
         0.11443E+07
        -0.95520E+07
        -0.14681E+08
        -0.48667E+06
        -0.10387E+08
        -0.42420E+07
        -0.49244E+07
        -0.97828E+07
        -0.25959E+07
        -0.68608E+07
        -0.11535E+08
        -0.14815E+07
        -0.10448E+08
        -0.31568E+07
        -0.20000E+08
         0.61322E+06
         0.14754E+07
        -0.23430E+08
         0.23899E+07
        -0.10329E+08
        -0.11128E+08
         0.40972E+06
        -0.17708E+08
        -0.93935E+07
         0.10523E+07
        -0.16214E+08
        -0.30385E+08
        -0.36478E+07
         0.22112E+07
         0.80490E+06
        -0.14858E+08
        -0.35943E+08
        -0.44386E+08
         0.82533E+07
         0.37498E+07
        -0.96397E+07
         0.23491E+07
         0.47271E+07
         0.77067E+07
         0.38753E+07
        -0.57370E+05
        -0.19814E+08
        -0.36569E+08
        -0.98225E+07
        -0.42385E+08
        -0.38873E+08
        -0.75127E+07
        -0.32663E+08
        -0.46169E+08
        -0.36560E+08
        -0.29241E+08
         0.40330E+08
         0.69972E+08
        -0.76877E+07
        -0.15272E+09
         0.15548E+09
         0.85263E+08
         0.13525E+08
        -0.21949E+07
        -0.50023E+08
        -0.27379E+08
        -0.25130E+08
        -0.12729E+08
         0.15007E+08
         0.22570E+08
         0.34528E+08
         0.65016E+08
         0.92201E+08
         0.65740E+08
         0.44540E+08
         0.16971E+08
        -0.47766E+07
        -0.42291E+06
        -0.31111E+07
        -0.12076E+08
        -0.66267E+07
        -0.13681E+08
        -0.10569E+06
        -0.10529E+07
        -0.78393E+07
        -0.24037E+08
        -0.33501E+06
        -0.61752E+07
         0.66698E+06
        -0.71520E+07
        -0.46760E+07
         0.21692E+07
        -0.33541E+07
        -0.91130E+07
         0.31314E+07
        -0.56517E+07
         0.54806E+07
         0.40409E+07
         0.35595E+07
         0.54450E+07
        -0.19003E+08
         0.49755E+07
        -0.18200E+08
        -0.23071E+08
        -0.26827E+07
        -0.18146E+08
        -0.35426E+07
         0.47806E+07
        -0.97621E+07
        -0.19790E+08
        -0.62120E+07
         0.38552E+07
         0.24522E+07
         0.21142E+08
         0.40074E+08
        -0.41239E+08
        -0.12887E+08
        -0.29781E+08
         0.44541E+07
         0.88056E+07
         0.14731E+08
         0.98455E+07
         0.82202E+07
         0.61090E+07
         0.97514E+07
         0.32017E+08
         0.26304E+08
         0.61201E+08
        -0.14802E+08
        -0.50697E+07
        -0.30003E+08
        -0.39767E+08
        -0.31321E+08
        -0.25894E+08
         0.20989E+07
         0.28227E+08
         0.27670E+09
         0.35135E+09
         0.24885E+09
         0.14745E+09
         0.19124E+09
         0.12948E+09
         0.59838E+08
        -0.21017E+08
        -0.18559E+08
        -0.41232E+07
         0.83731E+07
         0.17364E+08
         0.19020E+08
         0.78534E+08
         0.93151E+08
         0.51170E+08
         0.23919E+08
         0.20317E+08
        -0.34225E+07
         0.62927E+07
         0.18365E+07
         0.22783E+07
         0.15832E+08
         0.31275E+08
         0.25986E+07
        -0.28987E+07
        -0.65164E+07
        -0.27306E+08
         0.25805E+07
        -0.13577E+06
         0.40873E+07
        -0.50343E+07
        -0.53481E+07
        -0.13106E+07
        -0.60925E+07
        -0.68288E+07
        -0.27450E+07
        -0.10981E+08
         0.30000E+07
         0.44906E+07
         0.48864E+07
         0.26005E+07
        -0.19209E+08
         0.49498E+07
        -0.14141E+08
        -0.15795E+08
        -0.13927E+08
        -0.12535E+08
         0.11521E+07
         0.34173E+07
        -0.46506E+07
         0.62090E+07
         0.38826E+07
         0.11163E+07
         0.34040E+07
        -0.25438E+08
        -0.48709E+08
        -0.91371E+08
         0.11569E+08
        -0.48107E+07
        -0.33500E+08
         0.40402E+07
         0.58051E+07
         0.38156E+07
         0.56820E+07
         0.82581E+07
         0.96771E+07
         0.37509E+08
         0.37705E+08
         0.73081E+08
        -0.42889E+08
         0.55489E+08
        -0.44436E+08
        -0.40609E+08
        -0.19654E+08
        -0.19832E+08
        -0.18158E+07
        -0.12475E+08
         0.59413E+08
         0.31880E+09
         0.14784E+09
         0.11533E+09
         0.19749E+09
         0.39452E+07
        -0.10521E+08
        -0.32914E+08
        -0.43953E+08
        -0.39805E+08
        -0.13631E+08
        -0.16384E+06
         0.28765E+08
         0.70417E+08
         0.12847E+09
         0.97942E+08
         0.42783E+08
         0.88078E+07
        -0.50304E+06
         0.43882E+07
         0.56564E+07
         0.28890E+07
         0.11891E+08
         0.12432E+08
         0.55830E+07
        -0.20832E+07
        -0.40875E+07
        -0.32029E+08
         0.27967E+07
        -0.76147E+06
         0.52076E+07
        -0.73689E+07
        -0.57196E+07
        -0.13015E+07
        -0.21850E+07
        -0.13028E+07
        -0.13057E+07
        -0.12094E+08
        -0.21092E+07
        -0.30260E+08
        -0.57064E+07
         0.14116E+07
        -0.14500E+08
         0.49800E+07
        -0.32468E+07
        -0.26269E+08
        -0.30030E+08
        -0.10789E+08
         0.14253E+07
         0.25770E+07
        -0.27990E+07
         0.32849E+07
         0.13276E+08
         0.67601E+07
         0.65346E+07
        -0.30719E+08
        -0.39317E+08
        -0.38082E+07
         0.20827E+08
        -0.10170E+08
        -0.37300E+08
         0.25414E+07
         0.71303E+07
         0.80551E+07
         0.10089E+08
         0.10029E+08
         0.97492E+07
         0.29572E+08
         0.26488E+08
         0.56899E+08
        -0.82407E+07
         0.34847E+08
        -0.56545E+06
        -0.14376E+08
        -0.12278E+08
        -0.20645E+08
         0.16042E+08
        -0.75539E+08
        -0.11095E+09
        -0.11362E+09
         0.90908E+08
        -0.18485E+09
         0.14681E+08
        -0.12936E+08
        -0.34305E+08
        -0.31108E+08
        -0.35256E+08
        -0.13574E+08
         0.40836E+07
         0.13419E+08
         0.56744E+07
         0.48738E+08
         0.10270E+09
         0.77404E+08
         0.73994E+08
         0.36072E+08
         0.14120E+07
         0.83401E+07
         0.64908E+07
         0.11740E+08
         0.12594E+08
         0.31054E+08
         0.65711E+07
        -0.16658E+07
        -0.15974E+07
        -0.30595E+08
         0.77572E+06
         0.44458E+07
         0.13123E+08
        -0.73602E+06
         0.22850E+07
         0.20153E+07
        -0.22065E+07
         0.34234E+07
         0.16979E+07
        -0.25630E+07
        -0.10516E+08
        -0.24522E+08
        -0.45394E+07
         0.99543E+04
        -0.54778E+07
         0.49827E+07
        -0.11247E+08
        -0.24514E+08
        -0.24807E+08
        -0.11333E+08
         0.45585E+07
         0.39736E+07
         0.28367E+07
         0.12090E+08
         0.20092E+08
         0.14331E+08
         0.10654E+08
        -0.12631E+08
        -0.57853E+08
        -0.70304E+08
        -0.63244E+08
        -0.15688E+08
        -0.54021E+08
         0.76505E+07
         0.10737E+08
         0.95250E+07
         0.53961E+07
         0.80821E+07
         0.15555E+08
         0.45402E+08
         0.45040E+08
         0.10261E+09
         0.19066E+08
         0.55971E+08
         0.36089E+07
         0.25189E+06
        -0.81607E+07
         0.38252E+06
         0.64970E+08
         0.14120E+09
         0.16977E+09
        -0.21525E+09
         0.87106E+08
        -0.66403E+08
        -0.18799E+09
        -0.39395E+08
        -0.11053E+09
        -0.67472E+08
        -0.50042E+08
        -0.29363E+08
        -0.20927E+07
         0.93383E+07
        -0.47532E+07
         0.62250E+08
         0.11411E+09
         0.95184E+08
         0.57180E+08
         0.28545E+08
         0.14305E+07
         0.52316E+07
         0.69892E+07
         0.18391E+08
         0.27574E+08
         0.51914E+08
         0.53482E+06
         0.97434E+05
        -0.10194E+07
        -0.15775E+08
        -0.92117E+06
         0.10002E+08
         0.11514E+08
        -0.75026E+07
        -0.50504E+07
         0.72641E+07
        -0.16742E+07
         0.13063E+08
         0.57726E+06
        -0.29550E+07
        -0.63460E+07
        -0.27019E+08
        -0.46979E+07
         0.30028E+07
        -0.12417E+08
         0.12397E+08
        -0.18157E+08
        -0.33881E+08
        -0.40537E+08
        -0.11349E+08
         0.27636E+08
         0.50288E+07
         0.13856E+08
         0.56677E+08
         0.30037E+08
         0.14357E+08
         0.65022E+07
         0.73513E+06
        -0.18102E+08
        -0.97231E+08
        -0.82550E+08
        -0.68273E+08
        -0.44533E+08
         0.35234E+07
         0.21977E+08
         0.24962E+08
         0.26551E+08
         0.27643E+08
         0.21517E+08
         0.45173E+08
         0.66749E+08
         0.16539E+09
         0.39561E+08
         0.88902E+08
         0.21122E+08
         0.19321E+08
         0.59154E+07
         0.11210E+08
        -0.18885E+08
        -0.66118E+08
        -0.11453E+09
        -0.15428E+09
        -0.13906E+09
        -0.22692E+09
        -0.51618E+08
        -0.95707E+08
        -0.48158E+08
        -0.23628E+08
        -0.20651E+08
         0.17271E+08
         0.22977E+08
         0.60870E+08
         0.17065E+09
         0.94492E+08
         0.20579E+09
         0.20423E+09
         0.14178E+09
         0.45051E+08
        -0.17342E+08
        -0.11761E+08
        -0.22827E+07
        -0.16271E+07
         0.10591E+08
         0.50803E+08
        -0.14195E+08
        -0.74122E+07
        -0.60898E+07
        -0.46711E+08
        -0.13054E+08
        -0.25812E+08
        -0.22070E+08
        -0.11923E+08
        -0.15438E+08
        -0.10025E+08
        -0.87084E+07
        -0.42732E+07
        -0.10991E+08
        -0.11344E+08
         0.22747E+08
         0.24984E+08
         0.34679E+08
        -0.33903E+07
        -0.73590E+07
        -0.59318E+07
        -0.99992E+07
        -0.30036E+08
        -0.32956E+08
        -0.38580E+07
         0.18904E+08
         0.11344E+08
         0.18804E+08
         0.53171E+08
        -0.21198E+07
        -0.82231E+07
        -0.69228E+07
        -0.49159E+08
        -0.10929E+09
        -0.26538E+09
        -0.18888E+09
        -0.58639E+08
        -0.80553E+07
         0.23898E+08
         0.48100E+08
         0.42112E+08
         0.38403E+08
         0.40053E+08
         0.74360E+08
         0.10081E+09
         0.57042E+08
         0.15425E+09
         0.10662E+08
         0.89968E+08
        -0.40455E+08
        -0.47474E+08
        -0.52432E+08
        -0.58609E+08
        -0.40575E+08
        -0.69984E+08
        -0.19554E+09
        -0.35360E+09
        -0.57606E+09
        -0.38283E+07
         0.27460E+09
         0.37906E+09
         0.40431E+09
         0.24230E+09
         0.10045E+09
         0.11119E+09
         0.13766E+09
         0.13396E+09
         0.14029E+09
         0.16885E+09
         0.18980E+09
         0.19031E+09
         0.13904E+09
         0.52192E+08
        -0.40891E+08
        -0.53796E+08
        -0.45046E+08
        -0.64390E+08
        -0.37478E+08
        -0.28246E+08
        -0.25433E+08
        -0.13696E+08
         0.75843E+07
         0.28292E+08
        -0.30382E+08
        -0.42488E+08
        -0.53982E+08
        -0.27675E+08
        -0.34483E+08
         0.47318E+08
         0.28480E+08
        -0.17780E+08
         0.79023E+08
         0.80569E+08
         0.22551E+09
         0.37347E+09
         0.31209E+09
         0.78802E+08
        -0.75499E+07
         0.87722E+08
        -0.11293E+08
         0.27158E+08
         0.79813E+08
         0.57913E+08
         0.43262E+08
         0.41657E+08
        -0.12009E+08
        -0.69932E+08
        -0.75139E+08
        -0.74396E+08
        -0.57568E+08
        -0.80601E+08
        -0.89330E+08
        -0.29427E+08
         0.71512E+08
         0.22847E+09
         0.37693E+09
         0.15549E+09
         0.13886E+09
         0.46333E+08
         0.37380E+08
         0.21783E+08
         0.31934E+07
        -0.58045E+08
        -0.41035E+08
        -0.49045E+08
        -0.74119E+08
         0.36686E+08
        -0.15438E+09
        -0.14059E+09
        -0.10734E+09
        -0.94588E+08
        -0.16736E+09
        -0.30200E+09
        -0.49494E+09
        -0.47000E+09
        -0.83490E+08
         0.51848E+09
         0.10450E+10
         0.12624E+10
         0.10188E+10
         0.57013E+09
         0.23155E+09
         0.14539E+09
         0.86129E+08
         0.40501E+08
        -0.11114E+08
        -0.19421E+09
        -0.20122E+09
        -0.88572E+08
         0.49243E+07
         0.43896E+08
         0.10549E+09
         0.11686E+09
         0.10660E+09
         0.16299E+09
         0.78183E+08
         0.43862E+07
         0.78926E+08
         0.11549E+08
        -0.12403E+08
        -0.24195E+09
         0.51054E+08
         0.56871E+08
         0.12030E+09
         0.96182E+07
         0.29722E+08
        -0.42490E+08
        -0.82568E+08
         0.63256E+08
        -0.20384E+09
        -0.25595E+09
        -0.73553E+09
        -0.12482E+10
        -0.83003E+09
        -0.20923E+09
        -0.18070E+09
        -0.16607E+09
        -0.73167E+08
        -0.18664E+09
        -0.24173E+09
        -0.22377E+09
        -0.21967E+08
        -0.95969E+08
         0.45921E+08
         0.65928E+08
         0.15207E+09
         0.16168E+09
         0.12460E+09
         0.45697E+08
         0.84337E+08
         0.62545E+08
        -0.53015E+08
        -0.58315E+09
        -0.11797E+10
        -0.47467E+09
        -0.52971E+09
        -0.33481E+09
        -0.26472E+09
        -0.23189E+09
        -0.22982E+09
        -0.31603E+09
        -0.19789E+09
        -0.26323E+09
         0.20576E+09
         0.66584E+08
         0.25691E+09
         0.18361E+09
         0.93507E+08
         0.69067E+08
         0.12646E+09
         0.36431E+09
         0.88821E+09
         0.11909E+10
         0.18132E+09
        -0.10425E+10
        -0.24527E+10
        -0.33644E+10
        -0.31445E+10
        -0.21968E+10
        -0.15265E+10
        -0.12425E+10
        -0.90504E+09
        -0.10024E+10
        -0.11295E+10
        -0.89985E+09
        -0.90698E+09
        -0.59399E+09
        -0.33367E+09
  
SCALARS                 acceleration_y  double 1
LOOKUP_TABLE default
        -0.30472E+08
         0.52061E+09
         0.24859E+09
         0.21018E+09
        -0.35308E+09
         0.58215E+09
         0.54003E+07
        -0.24812E+09
         0.47207E+09
         0.54115E+09
         0.23794E+09
         0.35134E+09
         0.53077E+09
         0.24580E+09
         0.61742E+09
         0.32495E+09
         0.43377E+08
         0.10396E+08
         0.11505E+09
        -0.94165E+07
         0.65047E+09
        -0.22734E+09
         0.18721E+08
         0.81770E+09
         0.25164E+09
         0.33190E+09
         0.13069E+09
         0.41886E+09
         0.55692E+08
         0.56163E+09
        -0.19983E+08
        -0.61086E+08
         0.31840E+08
        -0.25663E+08
        -0.14409E+09
         0.78881E+08
        -0.25273E+08
        -0.62951E+08
        -0.42427E+08
        -0.11633E+09
         0.15385E+09
         0.21625E+09
         0.13738E+09
         0.24563E+09
         0.43311E+07
        -0.90755E+08
        -0.20525E+08
        -0.68915E+08
        -0.12313E+09
        -0.15204E+09
        -0.77632E+08
         0.65209E+08
        -0.18832E+09
        -0.38232E+09
        -0.95720E+09
        -0.14266E+10
        -0.17078E+10
         0.15022E+09
        -0.25789E+10
         0.13593E+09
         0.23281E+09
         0.10595E+09
         0.10702E+09
         0.37877E+09
         0.32957E+09
        -0.11725E+09
         0.69101E+09
         0.18554E+09
         0.50234E+09
         0.30276E+09
         0.68103E+09
         0.26720E+09
         0.13430E+09
         0.17442E+09
        -0.38377E+10
        -0.66414E+10
        -0.66101E+10
        -0.14791E+11
        -0.59844E+10
        -0.14173E+11
        -0.45913E+10
        -0.11107E+10
        -0.82508E+10
        -0.15270E+10
         0.16314E+09
         0.92921E+08
        -0.15622E+09
        -0.24170E+09
        -0.73930E+08
         0.22420E+08
         0.16815E+09
         0.11738E+09
         0.50314E+09
         0.37333E+09
         0.60685E+09
        -0.21248E+08
         0.91651E+09
         0.23098E+09
         0.57078E+09
         0.36150E+09
        -0.36331E+09
         0.85700E+09
         0.76074E+09
         0.46478E+09
         0.53420E+09
         0.14284E+09
         0.22374E+10
         0.21071E+10
        -0.18529E+09
         0.15875E+08
        -0.14464E+10
        -0.25874E+10
        -0.29835E+10
        -0.55787E+10
        -0.33422E+10
        -0.46876E+10
        -0.30963E+10
        -0.11243E+10
         0.10093E+10
         0.12414E+11
         0.21077E+11
         0.76714E+11
         0.27153E+11
         0.83965E+11
         0.32177E+10
         0.48154E+10
        -0.24827E+10
        -0.33977E+10
        -0.11724E+10
        -0.17304E+10
        -0.90434E+09
        -0.11644E+10
        -0.68847E+09
        -0.79861E+09
        -0.52075E+09
        -0.82662E+09
        -0.35785E+09
        -0.12198E+10
        -0.19901E+09
        -0.14904E+10
         0.35261E+09
        -0.10909E+09
         0.14967E+10
         0.43864E+09
         0.10347E+10
         0.70769E+09
         0.96754E+09
         0.11652E+10
        -0.15511E+10
         0.72448E+09
        -0.70540E+10
         0.14056E+10
        -0.36037E+10
         0.14923E+10
        -0.99797E+09
         0.12926E+10
         0.35433E+09
         0.35377E+09
         0.11375E+10
         0.13101E+10
         0.89834E+09
         0.10423E+10
         0.33844E+09
         0.27985E+09
         0.10534E+09
         0.71289E+08
         0.26775E+09
        -0.16474E+09
         0.83123E+08
        -0.43452E+08
        -0.92272E+09
        -0.25727E+08
        -0.56058E+08
         0.37701E+09
         0.28239E+08
         0.19356E+09
         0.36600E+09
         0.52849E+09
         0.15144E+08
        -0.27214E+09
        -0.85636E+06
        -0.30847E+09
        -0.20327E+09
        -0.64348E+09
        -0.78051E+09
         0.32630E+09
         0.10131E+10
        -0.83240E+08
         0.19850E+10
         0.22149E+10
         0.30649E+09
         0.50150E+09
         0.31026E+09
        -0.28582E+10
        -0.43819E+10
        -0.41732E+10
        -0.38414E+10
        -0.96741E+09
         0.22323E+09
        -0.10063E+09
        -0.75943E+08
         0.27452E+08
         0.87788E+09
         0.21390E+10
         0.29507E+10
         0.26736E+10
        -0.15658E+10
         0.37959E+09
        -0.16541E+10
        -0.27606E+10
        -0.95284E+09
        -0.89952E+09
        -0.17139E+10
        -0.23431E+10
        -0.29379E+10
        -0.31864E+10
         0.54466E+10
         0.91423E+10
        -0.16603E+10
        -0.32734E+10
        -0.18479E+10
        -0.13068E+10
        -0.10547E+10
        -0.47384E+09
         0.16712E+09
         0.11962E+10
         0.12423E+10
         0.34927E+10
         0.54055E+10
         0.42955E+10
        -0.57400E+10
        -0.13085E+11
        -0.11719E+11
        -0.67932E+10
         0.19743E+09
         0.49752E+09
         0.11015E+10
         0.10686E+10
         0.52384E+09
         0.73093E+09
         0.91204E+08
         0.98688E+08
         0.13399E+09
         0.12693E+09
         0.62939E+08
         0.12032E+09
         0.24918E+09
         0.31790E+08
         0.22395E+08
         0.65129E+08
         0.10677E+09
         0.49338E+09
         0.88106E+08
         0.31678E+09
         0.44632E+09
         0.55088E+09
         0.19067E+09
        -0.19000E+08
         0.21044E+09
        -0.23243E+09
         0.12612E+09
         0.44439E+09
         0.91571E+07
         0.42887E+09
         0.80771E+09
        -0.83279E+08
         0.20117E+10
         0.11605E+10
        -0.28545E+09
         0.41062E+09
         0.30891E+09
        -0.45755E+09
        -0.79930E+09
        -0.13476E+10
        -0.19339E+10
        -0.38033E+09
         0.39370E+09
         0.71554E+08
         0.12949E+09
         0.78022E+08
         0.50462E+09
         0.15606E+10
         0.13672E+10
         0.16942E+10
        -0.10239E+10
         0.17021E+09
        -0.10897E+10
        -0.43972E+10
        -0.98063E+09
        -0.12107E+09
         0.16002E+09
         0.12919E+09
        -0.74523E+09
        -0.14311E+10
        -0.17497E+10
        -0.31272E+10
        -0.35068E+10
        -0.26476E+10
        -0.19366E+10
        -0.12361E+10
        -0.10767E+10
        -0.50969E+08
         0.10241E+10
         0.12630E+10
         0.99080E+09
         0.29220E+10
         0.50438E+10
        -0.11485E+10
        -0.51588E+10
        -0.80144E+10
        -0.58355E+10
        -0.41631E+10
         0.95813E+08
         0.88289E+08
         0.43983E+07
         0.25283E+09
         0.20169E+09
         0.33021E+09
        -0.19538E+08
         0.83467E+08
         0.11177E+09
         0.21835E+09
         0.13874E+09
         0.24098E+09
         0.46444E+08
         0.20020E+09
         0.36790E+09
         0.67662E+08
         0.14615E+09
         0.20216E+09
         0.25366E+09
         0.38043E+09
         0.60351E+09
         0.79101E+09
         0.29707E+09
         0.18770E+09
         0.35022E+09
         0.95848E+08
         0.45226E+09
         0.51175E+09
         0.18980E+09
         0.44077E+09
        -0.42988E+08
         0.12038E+08
         0.14016E+09
         0.69354E+09
        -0.49963E+08
         0.99980E+07
        -0.23032E+08
         0.47187E+09
         0.22820E+09
        -0.20416E+09
        -0.92811E+09
        -0.87082E+08
         0.67093E+09
         0.14818E+09
         0.36925E+08
        -0.15690E+09
        -0.21145E+08
         0.27299E+09
         0.13134E+09
         0.10115E+10
         0.53187E+09
         0.23962E+09
        -0.10761E+10
        -0.13420E+10
        -0.36187E+09
         0.90519E+08
         0.68450E+09
         0.85411E+09
         0.58967E+09
        -0.91839E+08
        -0.13770E+10
        -0.30868E+10
        -0.22687E+10
        -0.15693E+10
        -0.26108E+10
        -0.16311E+10
        -0.11217E+10
        -0.50853E+09
         0.93557E+07
        -0.41182E+08
        -0.51525E+09
        -0.22678E+08
         0.17347E+09
         0.14278E+10
        -0.18959E+10
        -0.31143E+10
        -0.46764E+10
        -0.21204E+10
        -0.12971E+08
        -0.63880E+08
        -0.68612E+08
        -0.83083E+08
         0.11945E+08
        -0.10172E+08
        -0.37029E+08
         0.97061E+08
         0.58898E+08
         0.26172E+09
         0.10546E+09
         0.15554E+09
        -0.22870E+07
         0.29222E+09
         0.42047E+09
         0.30788E+08
         0.94054E+08
        -0.33563E+08
         0.14338E+09
         0.21438E+09
         0.35646E+09
         0.54394E+09
         0.21733E+09
         0.20682E+09
         0.29205E+09
         0.91753E+08
         0.32850E+09
         0.53990E+09
         0.51055E+09
         0.41461E+09
        -0.98094E+08
        -0.48370E+07
        -0.15868E+09
        -0.18619E+09
         0.59098E+08
        -0.32056E+08
         0.13232E+07
         0.60186E+09
         0.61192E+09
         0.40512E+09
        -0.55383E+09
         0.34831E+09
         0.56119E+09
         0.97033E+08
         0.52372E+07
        -0.34402E+08
        -0.14220E+09
        -0.15143E+09
        -0.15606E+09
        -0.13262E+08
         0.29516E+09
         0.82052E+08
         0.10172E+09
         0.24396E+09
         0.12314E+09
         0.93040E+08
         0.20214E+09
         0.47552E+09
         0.73896E+09
         0.17206E+09
        -0.75082E+09
        -0.20818E+10
        -0.34301E+10
        -0.38009E+10
        -0.23507E+10
        -0.15241E+10
        -0.69310E+09
        -0.32019E+09
        -0.33099E+09
        -0.34665E+09
        -0.56089E+09
        -0.48707E+09
        -0.22986E+08
         0.40812E+09
         0.13214E+10
         0.17636E+10
         0.12526E+10
         0.67390E+09
        -0.36544E+08
        -0.44305E+08
        -0.11356E+09
        -0.11398E+09
        -0.42607E+08
        -0.61095E+08
        -0.18402E+08
         0.62376E+08
         0.12207E+08
         0.14814E+09
         0.51104E+08
         0.75061E+08
        -0.29601E+08
         0.14917E+09
         0.26885E+09
         0.61979E+07
         0.67616E+08
        -0.78233E+08
         0.81015E+08
         0.11462E+09
         0.23832E+09
         0.32694E+09
         0.77882E+08
         0.88657E+08
         0.22136E+09
         0.33457E+08
         0.27198E+09
         0.44647E+09
         0.56835E+09
         0.23201E+09
        -0.11862E+09
        -0.49527E+08
        -0.17740E+09
        -0.20169E+09
        -0.18848E+08
        -0.55337E+08
        -0.53622E+08
         0.49231E+09
         0.57684E+09
         0.43441E+09
         0.67655E+08
         0.37682E+09
         0.46049E+09
         0.32892E+08
        -0.14207E+08
        -0.22725E+08
        -0.90071E+08
        -0.16418E+09
        -0.12809E+09
        -0.15903E+09
         0.50795E+08
        -0.43931E+08
         0.26104E+09
         0.51708E+09
         0.11192E+09
         0.98758E+07
         0.62266E+08
         0.33724E+09
         0.68824E+09
         0.48643E+09
        -0.74667E+09
        -0.24086E+10
        -0.34282E+10
        -0.32136E+10
        -0.15659E+10
        -0.80103E+09
        -0.46134E+09
        -0.23488E+09
        -0.15956E+09
        -0.13450E+09
        -0.13795E+09
        -0.30136E+09
        -0.22291E+09
        -0.16418E+08
         0.43104E+09
         0.93826E+09
         0.80392E+09
         0.50598E+09
        -0.14362E+08
        -0.29791E+08
        -0.77471E+08
        -0.54227E+08
        -0.35806E+08
        -0.39188E+08
        -0.24782E+08
         0.91055E+07
         0.69396E+07
         0.61637E+08
         0.31950E+08
         0.28054E+08
        -0.16251E+08
         0.69206E+08
         0.18433E+09
        -0.41098E+07
         0.28060E+08
        -0.29863E+08
         0.21572E+08
         0.52310E+08
         0.60857E+08
         0.13208E+09
         0.16934E+08
         0.11573E+07
         0.79004E+08
        -0.91260E+07
         0.13928E+09
         0.22106E+09
         0.27609E+09
         0.14063E+09
        -0.47647E+08
        -0.30400E+08
        -0.70799E+08
        -0.56436E+08
        -0.51046E+08
        -0.35328E+08
        -0.23869E+08
         0.26539E+09
         0.36650E+09
         0.28508E+09
        -0.19937E+08
         0.21918E+09
         0.33764E+09
        -0.63983E+07
        -0.19921E+08
        -0.34145E+08
        -0.44774E+08
        -0.60530E+08
        -0.65522E+08
        -0.62338E+08
        -0.25212E+08
        -0.48019E+08
         0.52319E+08
         0.26662E+09
        -0.17909E+08
        -0.66468E+07
         0.27678E+08
         0.14863E+09
         0.33030E+09
         0.34185E+09
        -0.12973E+09
        -0.15665E+10
        -0.19550E+10
        -0.14077E+10
        -0.84215E+09
        -0.29537E+09
        -0.11332E+09
        -0.41361E+08
        -0.19533E+08
         0.86056E+07
         0.28160E+08
        -0.20060E+08
        -0.82705E+08
         0.93992E+07
         0.10285E+09
         0.26344E+09
         0.33875E+09
         0.27234E+09
        -0.17446E+08
        -0.17284E+08
        -0.44666E+08
        -0.29090E+08
        -0.25050E+08
        -0.27726E+08
        -0.17563E+08
        -0.70141E+06
         0.59134E+07
         0.24459E+08
        -0.73109E+05
         0.16651E+08
        -0.12381E+08
         0.15019E+08
         0.54426E+08
        -0.18369E+07
         0.12063E+08
        -0.69941E+07
        -0.49879E+06
         0.99528E+07
        -0.52599E+07
         0.28221E+08
        -0.11960E+08
        -0.19184E+08
         0.50470E+08
        -0.17375E+08
         0.50563E+08
         0.93615E+08
         0.14113E+09
         0.75080E+08
        -0.25375E+08
        -0.23356E+08
        -0.26714E+08
        -0.19906E+08
        -0.37778E+08
        -0.19217E+08
        -0.19440E+08
         0.98182E+08
         0.85827E+08
        -0.11805E+08
        -0.16692E+09
        -0.35666E+08
         0.57068E+08
        -0.73879E+07
        -0.10716E+08
        -0.91794E+07
        -0.19955E+08
        -0.20826E+08
        -0.18338E+08
        -0.16878E+08
         0.52833E+07
        -0.15063E+08
         0.22891E+08
         0.13339E+09
        -0.71491E+07
        -0.61033E+07
         0.14419E+08
         0.75038E+08
         0.10989E+09
         0.80209E+08
        -0.41050E+08
        -0.35977E+09
        -0.41570E+09
        -0.90684E+09
        -0.32299E+09
        -0.57444E+08
         0.49735E+07
         0.69268E+08
         0.72966E+08
         0.65008E+08
         0.50338E+08
         0.10960E+08
        -0.12812E+08
        -0.80155E+07
         0.25988E+08
         0.11794E+09
         0.21242E+09
         0.21999E+09
        -0.25510E+08
        -0.17746E+08
        -0.47510E+08
        -0.34374E+08
        -0.18744E+08
        -0.27864E+08
        -0.11790E+08
        -0.42899E+07
        -0.10510E+07
         0.39975E+07
        -0.20570E+08
        -0.90369E+07
        -0.13153E+08
        -0.87554E+07
        -0.69803E+07
        -0.56550E+07
         0.85596E+05
        -0.82333E+07
        -0.17471E+08
        -0.19877E+08
        -0.32736E+08
        -0.65834E+08
        -0.14086E+08
        -0.12725E+08
         0.86959E+07
        -0.12122E+08
         0.33392E+07
         0.10130E+08
         0.14178E+08
        -0.13621E+08
        -0.25162E+08
        -0.20481E+08
        -0.31802E+08
        -0.30945E+08
        -0.10979E+08
        -0.21175E+08
        -0.12978E+08
         0.17332E+08
         0.37360E+08
         0.41772E+08
        -0.16022E+07
        -0.28488E+07
        -0.44414E+08
        -0.34053E+07
        -0.95586E+07
        -0.32298E+07
        -0.20275E+08
        -0.18732E+08
        -0.13733E+08
        -0.20107E+08
         0.25956E+08
         0.48300E+07
         0.81848E+08
         0.16384E+09
         0.29529E+08
         0.10966E+08
         0.34358E+07
         0.23881E+08
         0.56962E+08
         0.83049E+08
         0.41625E+08
        -0.23949E+09
        -0.28261E+09
         0.47201E+08
         0.28856E+09
         0.17075E+09
         0.43497E+08
         0.62619E+08
         0.65052E+08
         0.74996E+08
         0.53648E+08
        -0.37923E+07
        -0.14285E+07
         0.11903E+08
         0.12140E+09
         0.13183E+09
         0.15185E+09
         0.15996E+09
        -0.19932E+08
        -0.14021E+08
        -0.26825E+08
        -0.29047E+08
        -0.73861E+07
        -0.20480E+08
        -0.11613E+08
        -0.14327E+08
        -0.34320E+07
        -0.52093E+07
        -0.28382E+08
        -0.16870E+08
        -0.17519E+08
        -0.29809E+08
        -0.22653E+08
        -0.55684E+07
        -0.81002E+07
        -0.10111E+08
        -0.68364E+07
        -0.20079E+08
        -0.38191E+08
        -0.89416E+08
        -0.96605E+07
        -0.10071E+08
        -0.17639E+08
        -0.81834E+07
        -0.20684E+08
        -0.36819E+08
        -0.53443E+08
        -0.29095E+08
        -0.19668E+08
        -0.19520E+08
        -0.18819E+08
        -0.16989E+08
        -0.11414E+08
        -0.21023E+08
        -0.75872E+07
        -0.30664E+08
        -0.25576E+08
        -0.36202E+08
        -0.31030E+08
        -0.77018E+08
        -0.72703E+08
        -0.40995E+07
        -0.12826E+08
        -0.26059E+08
        -0.26413E+08
        -0.17272E+08
        -0.12597E+08
        -0.50846E+07
         0.31429E+08
         0.51806E+07
         0.10809E+09
         0.18869E+09
         0.21000E+08
         0.12372E+08
         0.26559E+07
        -0.32213E+07
         0.16227E+08
         0.10343E+08
         0.64609E+08
         0.15749E+09
         0.45536E+09
         0.37316E+09
         0.24315E+09
         0.15428E+09
         0.75943E+08
         0.37144E+08
         0.43549E+08
         0.51003E+08
         0.17948E+08
        -0.22270E+08
        -0.24488E+08
         0.19308E+08
         0.64833E+08
         0.13765E+09
         0.14288E+09
         0.99052E+08
        -0.18063E+08
        -0.21091E+08
        -0.25787E+08
        -0.19992E+08
        -0.19205E+08
        -0.12473E+08
        -0.17333E+08
        -0.86474E+07
        -0.42850E+07
        -0.10399E+08
        -0.21289E+08
        -0.17841E+08
        -0.18254E+08
        -0.34212E+08
        -0.46542E+08
        -0.10080E+08
        -0.87379E+07
        -0.16265E+08
        -0.23261E+08
        -0.37758E+08
        -0.75335E+08
        -0.13265E+09
        -0.36010E+08
        -0.28748E+08
        -0.24787E+08
        -0.18567E+08
        -0.16164E+08
        -0.33765E+08
        -0.75393E+08
        -0.65652E+08
        -0.31966E+08
        -0.27925E+08
        -0.43028E+08
        -0.51604E+08
        -0.55981E+07
        -0.26215E+08
        -0.17079E+08
        -0.54716E+08
        -0.69685E+08
        -0.56333E+08
         0.25145E+08
        -0.68426E+07
        -0.14792E+09
        -0.21547E+08
        -0.20300E+08
        -0.31381E+08
        -0.30902E+08
        -0.32830E+08
        -0.33658E+08
        -0.31123E+08
        -0.12791E+08
        -0.28835E+08
         0.12381E+09
         0.18997E+09
         0.68292E+08
         0.35646E+08
         0.88690E+07
        -0.10359E+08
        -0.47249E+08
        -0.18383E+08
         0.92175E+08
         0.25380E+09
         0.29281E+09
         0.36533E+09
         0.59806E+09
         0.35739E+09
         0.19629E+09
         0.12005E+09
         0.79101E+08
         0.49731E+08
         0.18171E+08
        -0.28170E+08
        -0.15404E+08
         0.39241E+08
         0.13234E+09
         0.25865E+09
         0.28140E+09
         0.26245E+09
        -0.17487E+08
        -0.16608E+08
        -0.56454E+08
        -0.32735E+08
        -0.21356E+08
        -0.29937E+08
        -0.11680E+08
        -0.12351E+08
        -0.36160E+07
        -0.13797E+08
        -0.42704E+08
        -0.26178E+08
        -0.19610E+08
        -0.33879E+08
        -0.44976E+08
        -0.11263E+08
        -0.12543E+08
        -0.12910E+08
        -0.23740E+08
        -0.31383E+08
        -0.39801E+08
        -0.81127E+08
        -0.11017E+08
        -0.23515E+08
        -0.26732E+08
        -0.21587E+08
        -0.28039E+08
        -0.45563E+08
        -0.63922E+08
        -0.46118E+08
        -0.34491E+08
        -0.26353E+08
        -0.38748E+08
        -0.43625E+08
        -0.20173E+07
        -0.14048E+08
        -0.10880E+08
        -0.66680E+08
        -0.60065E+08
        -0.43193E+08
         0.10877E+07
        -0.89737E+08
        -0.19537E+09
        -0.19602E+08
        -0.15653E+08
        -0.26986E+08
        -0.37009E+08
        -0.34351E+08
        -0.34276E+08
        -0.34169E+08
        -0.20301E+07
        -0.35460E+08
         0.14140E+09
         0.18855E+09
         0.60969E+08
         0.43007E+08
         0.16628E+08
        -0.13638E+08
        -0.32537E+08
        -0.46139E+08
         0.41144E+08
         0.44354E+09
         0.75625E+09
         0.64826E+09
         0.44406E+09
         0.21517E+09
         0.15481E+09
         0.12964E+09
         0.63716E+08
         0.47769E+08
         0.13978E+08
        -0.22394E+08
        -0.24011E+08
         0.18530E+08
         0.11542E+09
         0.25096E+09
         0.29511E+09
         0.20549E+09
        -0.28210E+08
        -0.19479E+08
        -0.55312E+08
        -0.30656E+08
        -0.20289E+08
        -0.22831E+08
        -0.13000E+08
        -0.16860E+08
        -0.50966E+07
        -0.13975E+08
        -0.56329E+08
        -0.34708E+08
        -0.23308E+08
        -0.40734E+08
        -0.52809E+08
        -0.82281E+07
        -0.13579E+08
        -0.14432E+08
        -0.15181E+08
        -0.34858E+08
        -0.41949E+08
        -0.15536E+09
        -0.37022E+08
        -0.23174E+08
        -0.15020E+08
        -0.18040E+08
        -0.35908E+08
        -0.56443E+08
        -0.12438E+09
        -0.77464E+08
        -0.25653E+08
        -0.21154E+08
        -0.21905E+08
        -0.42810E+08
        -0.66201E+07
        -0.22216E+08
        -0.15489E+08
        -0.77388E+08
        -0.13875E+09
        -0.15477E+09
         0.23776E+08
        -0.74062E+08
        -0.22171E+09
        -0.12994E+08
        -0.15947E+08
        -0.20664E+08
        -0.28885E+08
        -0.28260E+08
        -0.30182E+08
        -0.34144E+08
         0.92976E+07
        -0.24728E+08
         0.14797E+09
         0.17509E+09
         0.76060E+08
         0.41698E+08
         0.86827E+07
        -0.22993E+08
        -0.92427E+08
        -0.11907E+09
         0.53001E+08
         0.49132E+09
         0.95269E+09
         0.95492E+09
         0.65210E+09
         0.37134E+09
         0.16701E+09
         0.88214E+08
         0.52901E+08
         0.39730E+08
         0.12673E+08
        -0.14228E+08
        -0.31419E+07
         0.52094E+08
         0.15961E+09
         0.25574E+09
         0.28002E+09
         0.28405E+09
        -0.28324E+08
        -0.18667E+08
        -0.51260E+08
        -0.36724E+08
        -0.19790E+08
        -0.33960E+08
        -0.12913E+08
        -0.62287E+07
        -0.49803E+07
        -0.12733E+08
        -0.24143E+08
        -0.23592E+08
        -0.22053E+08
        -0.46512E+08
        -0.70588E+08
        -0.63656E+07
        -0.11916E+08
        -0.12881E+08
        -0.22954E+08
        -0.40585E+08
        -0.75991E+08
        -0.14101E+09
        -0.33696E+08
        -0.18059E+08
        -0.23354E+08
        -0.13958E+08
        -0.30108E+08
        -0.62582E+08
        -0.10837E+09
        -0.62606E+08
        -0.25751E+08
        -0.21576E+08
        -0.36608E+08
        -0.46555E+08
        -0.56911E+07
        -0.13288E+08
        -0.21156E+08
        -0.95723E+08
        -0.14398E+09
        -0.18940E+09
        -0.10502E+09
        -0.20663E+09
        -0.19548E+09
        -0.26329E+08
        -0.14090E+08
        -0.21335E+08
        -0.27366E+08
        -0.27735E+08
        -0.20554E+08
        -0.26411E+08
         0.10574E+08
        -0.21519E+08
         0.14338E+09
         0.24375E+09
         0.43249E+08
         0.33461E+08
         0.52280E+07
        -0.25629E+08
        -0.12136E+09
        -0.85150E+08
         0.15364E+09
         0.46829E+09
         0.96181E+09
         0.10520E+10
         0.65616E+09
         0.39870E+09
         0.17167E+09
         0.87934E+08
         0.38311E+08
         0.38700E+08
         0.13768E+08
        -0.18375E+08
         0.58049E+07
         0.47859E+08
         0.14417E+09
         0.17177E+09
         0.31864E+09
         0.30641E+09
        -0.20740E+08
        -0.22155E+08
        -0.52417E+08
        -0.33351E+08
        -0.23613E+08
        -0.32234E+08
        -0.10325E+08
        -0.10504E+08
        -0.23815E+07
        -0.75537E+07
        -0.35721E+08
        -0.37106E+08
        -0.19905E+08
        -0.36513E+08
        -0.58262E+08
        -0.11529E+08
        -0.16342E+08
        -0.16010E+08
        -0.20067E+08
        -0.41277E+08
        -0.83739E+08
        -0.15447E+09
        -0.40723E+08
        -0.29327E+08
        -0.35024E+08
        -0.23188E+08
        -0.31604E+08
        -0.47084E+08
        -0.13183E+09
        -0.82602E+08
        -0.30983E+08
        -0.20237E+08
        -0.37271E+08
        -0.41357E+08
        -0.45658E+07
        -0.23982E+08
        -0.69456E+07
        -0.66317E+08
        -0.86744E+08
        -0.10230E+09
         0.27919E+08
        -0.96177E+08
        -0.18160E+09
        -0.18080E+08
        -0.15230E+08
        -0.23467E+08
        -0.32179E+08
        -0.30921E+08
        -0.22220E+08
        -0.33618E+08
        -0.61788E+07
        -0.33883E+08
         0.13609E+09
         0.26445E+09
         0.15721E+08
         0.15198E+07
        -0.22315E+07
        -0.27014E+08
        -0.14817E+09
        -0.10565E+09
         0.84286E+08
         0.62266E+09
         0.95716E+09
         0.90492E+09
         0.73083E+09
         0.39206E+09
         0.20519E+09
         0.75145E+08
         0.26463E+08
         0.24439E+08
         0.69363E+07
        -0.13479E+08
         0.11127E+08
         0.73399E+08
         0.14436E+09
         0.21343E+09
         0.24227E+09
         0.25825E+09
        -0.14415E+08
        -0.18515E+08
        -0.39493E+08
        -0.32216E+08
        -0.18150E+08
        -0.28407E+08
        -0.13750E+08
        -0.10533E+08
        -0.82558E+07
        -0.10377E+08
        -0.36487E+08
        -0.39775E+08
        -0.15239E+08
        -0.28538E+08
        -0.51298E+08
        -0.78477E+07
        -0.88295E+07
        -0.11988E+08
        -0.16475E+08
        -0.34634E+08
        -0.91118E+08
        -0.90451E+08
        -0.18062E+08
        -0.22006E+08
        -0.26671E+08
        -0.21534E+08
        -0.31340E+08
        -0.42795E+08
        -0.11486E+09
        -0.77416E+08
        -0.29303E+08
        -0.27437E+08
        -0.40492E+08
        -0.34762E+08
        -0.84429E+07
        -0.21528E+08
        -0.18774E+08
        -0.70140E+08
        -0.98024E+08
        -0.10303E+09
        -0.46086E+08
        -0.76346E+08
        -0.14341E+09
        -0.27663E+08
        -0.22640E+08
        -0.35844E+08
        -0.34520E+08
        -0.34116E+08
        -0.30137E+08
        -0.30391E+08
        -0.57186E+07
        -0.32629E+08
         0.10937E+09
         0.25100E+09
         0.50970E+08
         0.31050E+08
         0.24764E+07
        -0.62022E+08
        -0.86265E+08
        -0.46183E+08
         0.15649E+09
         0.43213E+09
         0.90030E+09
         0.92206E+09
         0.57914E+09
         0.38437E+09
         0.17423E+09
         0.89232E+08
         0.44308E+08
         0.22762E+08
        -0.32577E+06
        -0.18286E+08
         0.74913E+07
         0.58838E+08
         0.15368E+09
         0.27127E+09
         0.25466E+09
         0.24159E+09
        -0.14671E+08
        -0.15447E+08
        -0.30208E+08
        -0.22611E+08
        -0.69335E+07
        -0.11762E+08
        -0.90349E+07
        -0.90397E+07
        -0.63478E+07
        -0.18366E+08
        -0.40481E+08
        -0.31037E+08
        -0.18078E+08
        -0.39603E+08
        -0.61828E+08
        -0.12468E+08
        -0.90912E+07
        -0.11675E+08
        -0.23197E+08
        -0.34482E+08
        -0.66446E+08
        -0.12316E+09
        -0.37122E+08
        -0.35958E+08
        -0.28195E+08
        -0.28603E+08
        -0.48317E+08
        -0.66453E+08
        -0.12651E+09
        -0.78486E+08
        -0.32693E+08
        -0.33887E+08
        -0.36265E+08
        -0.40416E+08
         0.11314E+08
        -0.19722E+08
        -0.11939E+08
        -0.34895E+08
        -0.49826E+08
        -0.15698E+09
        -0.90829E+08
        -0.14490E+09
        -0.16846E+09
        -0.23290E+08
        -0.22922E+08
        -0.34790E+08
        -0.31378E+08
        -0.18657E+08
        -0.20147E+08
        -0.13622E+08
         0.19170E+08
        -0.82433E+07
         0.13143E+09
         0.22457E+09
         0.42528E+08
         0.27575E+08
        -0.32799E+07
        -0.51146E+08
        -0.84513E+08
        -0.92615E+08
         0.81638E+08
         0.43493E+09
         0.75347E+09
         0.51074E+09
         0.35116E+09
         0.24861E+09
         0.16582E+09
         0.11955E+09
         0.67492E+08
         0.38446E+08
         0.17689E+08
        -0.85217E+07
        -0.14028E+07
         0.62555E+08
         0.14729E+09
         0.20977E+09
         0.21897E+09
         0.23197E+09
        -0.20752E+08
        -0.15169E+08
        -0.40437E+08
        -0.30847E+08
        -0.10552E+08
        -0.14361E+08
        -0.12011E+08
        -0.90368E+07
        -0.67277E+07
        -0.13638E+08
        -0.39925E+08
        -0.19969E+08
        -0.14176E+08
        -0.31788E+08
        -0.48341E+08
        -0.12544E+08
        -0.16860E+08
        -0.75770E+07
        -0.27938E+08
        -0.48092E+08
        -0.84269E+08
        -0.13285E+09
        -0.33989E+08
        -0.27935E+08
        -0.33246E+08
        -0.23914E+08
        -0.25482E+08
        -0.46309E+08
        -0.15422E+09
        -0.86827E+08
        -0.24538E+08
        -0.24838E+08
        -0.29572E+08
        -0.31882E+08
         0.58629E+07
        -0.13888E+08
        -0.15273E+08
        -0.75088E+08
        -0.11241E+09
        -0.20873E+09
        -0.15969E+09
        -0.23809E+09
        -0.23426E+09
        -0.25544E+08
        -0.23615E+08
        -0.24956E+08
        -0.23143E+08
        -0.23926E+08
        -0.17872E+08
        -0.20388E+08
         0.70995E+07
        -0.16907E+08
         0.91957E+08
         0.16984E+09
         0.67807E+08
         0.35444E+08
        -0.74379E+07
        -0.48151E+08
        -0.10173E+09
        -0.10478E+09
         0.30038E+08
         0.48817E+09
         0.12461E+10
         0.11620E+10
         0.71652E+09
         0.45183E+09
         0.22223E+09
         0.12040E+09
         0.69834E+08
         0.56051E+08
         0.27501E+08
         0.28551E+07
         0.22281E+08
         0.61204E+08
         0.13008E+09
         0.22168E+09
         0.20659E+09
         0.21113E+09
        -0.18889E+08
        -0.23402E+08
        -0.28692E+08
        -0.16742E+08
        -0.13212E+08
        -0.15887E+08
        -0.15040E+08
        -0.11794E+08
        -0.39182E+07
        -0.22246E+08
        -0.26525E+08
        -0.28253E+08
        -0.11138E+08
        -0.22006E+08
        -0.59416E+08
        -0.47727E+07
        -0.12697E+08
        -0.46253E+07
        -0.27459E+08
        -0.51718E+08
        -0.99230E+08
        -0.17813E+09
        -0.27566E+08
        -0.20129E+08
        -0.28199E+08
        -0.17530E+08
        -0.37094E+08
        -0.69053E+08
        -0.11452E+09
        -0.73895E+08
        -0.13650E+08
        -0.13586E+08
        -0.19414E+08
        -0.28895E+08
        -0.10607E+08
        -0.20303E+08
        -0.12974E+08
        -0.69102E+08
        -0.13297E+09
        -0.24134E+09
        -0.14190E+09
        -0.26032E+09
        -0.24715E+09
        -0.15500E+08
        -0.11805E+08
        -0.14761E+08
        -0.20110E+08
        -0.16195E+08
        -0.83217E+07
        -0.10263E+08
         0.74102E+07
        -0.14573E+08
         0.89721E+08
         0.16963E+09
         0.11210E+08
         0.18371E+08
        -0.10353E+08
        -0.50885E+08
        -0.84975E+08
        -0.17274E+09
        -0.61607E+08
         0.54425E+09
         0.13367E+10
         0.99775E+09
         0.60816E+09
         0.46242E+09
         0.24051E+09
         0.13181E+09
         0.73125E+08
         0.56957E+08
         0.35703E+08
         0.15495E+08
         0.31925E+08
         0.56705E+08
         0.88459E+08
         0.87593E+08
         0.11334E+09
         0.15672E+09
        -0.40444E+07
        -0.12063E+08
        -0.64128E+07
        -0.36397E+07
        -0.30480E+07
        -0.81997E+07
        -0.54760E+07
        -0.11686E+08
        -0.23982E+07
        -0.17487E+08
        -0.42129E+08
        -0.29604E+08
        -0.13805E+08
        -0.27524E+08
        -0.49821E+08
        -0.56474E+07
        -0.96895E+07
        -0.25849E+06
        -0.29230E+08
        -0.44061E+08
        -0.81738E+08
        -0.12846E+09
        -0.21295E+08
        -0.21314E+08
        -0.23443E+08
        -0.83655E+07
        -0.31862E+08
        -0.59579E+08
        -0.14601E+09
        -0.61815E+08
        -0.71173E+07
        -0.11410E+08
        -0.88911E+07
        -0.72894E+07
        -0.72840E+07
        -0.13978E+08
        -0.11838E+08
        -0.49656E+08
        -0.13552E+09
        -0.21148E+09
        -0.73615E+08
        -0.22068E+08
        -0.21932E+09
        -0.12822E+08
        -0.12639E+08
        -0.44090E+07
        -0.49313E+07
         0.30330E+07
         0.46726E+06
         0.31676E+07
         0.65494E+07
        -0.23044E+07
         0.25016E+08
         0.86013E+08
         0.15280E+08
         0.10243E+08
        -0.50943E+07
        -0.75178E+08
        -0.85284E+08
        -0.19337E+09
         0.98187E+08
         0.65652E+09
         0.10809E+10
         0.12921E+10
         0.63794E+09
         0.31105E+09
         0.12791E+09
         0.11688E+09
         0.69948E+08
         0.47771E+08
         0.14597E+08
         0.90074E+07
         0.30410E+08
         0.48070E+08
         0.43582E+08
         0.43315E+08
         0.64650E+08
         0.88803E+08
        -0.17497E+07
        -0.98500E+06
        -0.43480E+06
         0.11651E+08
        -0.70513E+07
        -0.57296E+07
        -0.14768E+08
        -0.21560E+08
         0.22504E+07
        -0.26432E+08
        -0.48939E+08
        -0.35658E+08
        -0.10589E+08
        -0.47063E+08
        -0.68576E+08
         0.18419E+07
        -0.47294E+07
         0.10336E+08
        -0.16155E+08
        -0.30482E+08
        -0.70735E+08
        -0.53925E+08
        -0.85054E+07
        -0.92770E+07
        -0.30870E+08
        -0.10583E+08
        -0.32245E+08
        -0.49330E+08
        -0.76504E+08
        -0.47565E+08
         0.12515E+08
        -0.10723E+08
         0.10774E+08
         0.17305E+08
        -0.10081E+08
        -0.71080E+07
         0.21248E+07
        -0.31357E+08
        -0.99017E+08
        -0.18036E+09
        -0.14287E+09
        -0.17121E+09
        -0.22852E+09
        -0.14439E+08
        -0.20359E+07
         0.12301E+08
        -0.40833E+07
         0.98436E+06
        -0.39963E+07
        -0.19473E+07
        -0.34582E+08
        -0.57683E+07
        -0.81911E+08
        -0.34392E+08
        -0.34182E+08
        -0.53714E+07
        -0.15716E+08
        -0.37130E+08
        -0.61208E+08
        -0.17966E+09
         0.52834E+08
         0.71971E+09
         0.14388E+10
         0.95172E+09
         0.28818E+09
         0.16394E+09
         0.88484E+08
         0.62807E+08
         0.45027E+08
         0.28712E+08
         0.47938E+08
         0.41456E+08
         0.11863E+07
        -0.20416E+08
        -0.67282E+08
        -0.20373E+09
        -0.11022E+09
        -0.46418E+08
        -0.84393E+07
         0.12646E+08
         0.24708E+08
         0.32728E+08
        -0.55410E+07
         0.45871E+07
        -0.15807E+08
        -0.19888E+08
        -0.58656E+07
        -0.39638E+08
        -0.78487E+08
        -0.35864E+08
        -0.14474E+08
        -0.27104E+08
        -0.41730E+08
        -0.88268E+07
        -0.12598E+08
         0.12137E+08
        -0.32700E+08
        -0.25853E+08
        -0.10223E+09
        -0.13594E+09
        -0.59812E+08
        -0.48634E+08
        -0.21633E+08
        -0.29008E+08
        -0.10119E+08
        -0.46799E+07
         0.76225E+07
        -0.13539E+08
         0.97952E+07
        -0.98736E+07
         0.40050E+08
         0.41466E+08
        -0.29266E+08
        -0.31958E+07
        -0.35516E+07
        -0.58362E+08
        -0.70209E+08
        -0.40201E+08
        -0.86413E+06
        -0.13077E+09
        -0.14707E+09
        -0.40328E+08
        -0.16611E+08
         0.93281E+06
         0.20282E+07
         0.22701E+08
         0.20020E+08
        -0.15955E+08
        -0.10049E+09
        -0.55680E+07
        -0.22273E+09
        -0.23045E+09
        -0.99321E+08
        -0.21650E+08
        -0.10965E+08
        -0.34047E+08
        -0.56244E+08
         0.75899E+08
         0.85118E+08
         0.11070E+09
         0.89660E+08
         0.61322E+09
         0.21011E+09
         0.32814E+09
         0.19213E+09
         0.92123E+08
         0.36474E+08
         0.12359E+09
         0.17657E+09
         0.12634E+09
        -0.36258E+08
        -0.16573E+09
        -0.39028E+09
        -0.47514E+09
        -0.46570E+09
        -0.31792E+09
        -0.17980E+08
        -0.71005E+07
         0.16993E+08
         0.27339E+08
        -0.24621E+06
         0.19073E+08
        -0.26838E+08
        -0.37786E+08
        -0.10295E+08
        -0.41042E+08
        -0.54181E+08
        -0.33050E+08
        -0.20708E+08
        -0.40302E+08
        -0.28142E+08
        -0.26603E+08
        -0.99288E+06
         0.35828E+07
        -0.74330E+08
        -0.31703E+08
        -0.31234E+09
        -0.38920E+09
        -0.18211E+09
        -0.12852E+09
        -0.87187E+07
        -0.69181E+08
        -0.34645E+08
        -0.17963E+08
        -0.13625E+08
        -0.30592E+08
         0.13633E+08
        -0.27071E+08
         0.45288E+08
         0.55559E+08
        -0.15508E+08
         0.50685E+07
        -0.32074E+07
         0.22150E+07
         0.42109E+08
         0.15300E+08
        -0.87320E+08
        -0.19777E+09
        -0.33665E+09
        -0.10877E+09
        -0.30433E+08
         0.27022E+08
         0.21536E+08
         0.30035E+08
         0.37143E+08
         0.32128E+08
        -0.52663E+08
         0.13571E+08
        -0.11593E+09
        -0.25177E+09
        -0.45936E+08
        -0.12248E+08
        -0.16204E+08
        -0.48078E+07
        -0.61428E+07
         0.72967E+08
         0.14351E+09
         0.57719E+08
        -0.13212E+09
         0.24009E+09
         0.66055E+09
         0.88453E+09
         0.76367E+09
         0.43984E+09
         0.18836E+09
         0.23790E+09
         0.32610E+09
         0.17772E+09
        -0.29728E+08
        -0.11421E+09
        -0.32580E+09
        -0.51928E+09
        -0.48072E+09
        -0.37594E+09
        -0.52972E+08
        -0.10358E+07
         0.11153E+09
         0.76528E+08
         0.18579E+09
         0.18409E+09
        -0.14913E+08
        -0.47885E+08
        -0.27758E+08
        -0.70141E+08
         0.24862E+08
         0.12550E+08
        -0.19484E+08
        -0.12218E+08
         0.35264E+07
        -0.11312E+09
        -0.42181E+08
        -0.16761E+08
        -0.30252E+09
        -0.23621E+09
        -0.81022E+09
        -0.10819E+10
        -0.36858E+09
        -0.31118E+09
        -0.37842E+08
        -0.15340E+09
        -0.51167E+08
        -0.62466E+08
        -0.15359E+09
        -0.26182E+09
        -0.51131E+07
        -0.52509E+08
         0.79328E+08
         0.17485E+09
         0.30887E+09
         0.10869E+09
        -0.59899E+07
        -0.22331E+08
        -0.41959E+07
        -0.11131E+09
        -0.44158E+09
        -0.48356E+09
        -0.92643E+09
        -0.19664E+09
         0.27944E+08
         0.23243E+09
         0.69001E+08
         0.42474E+08
         0.65382E+08
         0.17883E+09
         0.24740E+09
         0.20981E+09
         0.46337E+09
         0.57889E+08
         0.39623E+09
         0.10070E+09
        -0.24202E+08
        -0.19747E+08
         0.30368E+08
        -0.16177E+08
        -0.25067E+09
        -0.85504E+09
        -0.74656E+09
         0.12508E+10
         0.31040E+10
         0.38116E+10
         0.31384E+10
         0.19464E+10
         0.10048E+10
         0.81178E+09
         0.85680E+09
         0.38989E+09
        -0.10451E+09
        -0.32164E+09
        -0.19518E+09
        -0.30990E+09
        -0.30101E+09
        -0.15857E+09
  
SCALARS                 acceleration_z  double 1
LOOKUP_TABLE default
         0.14900E+09
         0.64654E+09
         0.14027E+08
        -0.29861E+09
         0.00000E+00
         0.00000E+00
         0.00000E+00
         0.00000E+00
        -0.30104E+09
        -0.57137E+09
         0.00000E+00
         0.00000E+00
         0.95146E+09
         0.16729E+09
         0.00000E+00
         0.00000E+00
        -0.44784E+08
        -0.43933E+07
         0.00000E+00
         0.00000E+00
         0.12984E+10
         0.25268E+10
         0.15075E+10
         0.00000E+00
         0.00000E+00
         0.00000E+00
         0.53180E+09
         0.87668E+09
         0.00000E+00
         0.00000E+00
        -0.70509E+08
        -0.87242E+08
        -0.64123E+08
         0.00000E+00
         0.00000E+00
         0.00000E+00
        -0.48014E+08
        -0.76359E+08
         0.00000E+00
         0.00000E+00
        -0.70243E+08
        -0.70720E+08
         0.00000E+00
         0.00000E+00
        -0.58461E+08
         0.42189E+07
         0.00000E+00
         0.00000E+00
        -0.12565E+09
         0.00000E+00
         0.50000E+08
         0.00000E+00
         0.48864E+09
         0.00000E+00
         0.94259E+09
         0.00000E+00
         0.12788E+10
        -0.37541E+09
         0.00000E+00
         0.00000E+00
        -0.54214E+09
        -0.17585E+09
         0.00000E+00
         0.00000E+00
        -0.48618E+09
         0.00000E+00
        -0.99976E+09
         0.00000E+00
        -0.24656E+09
         0.24902E+09
         0.00000E+00
         0.00000E+00
         0.68181E+09
         0.00000E+00
         0.52433E+10
         0.00000E+00
         0.83473E+10
         0.00000E+00
         0.87626E+10
         0.00000E+00
         0.67036E+10
         0.84194E+09
         0.00000E+00
         0.00000E+00
        -0.35943E+09
         0.00000E+00
        -0.17187E+08
         0.00000E+00
        -0.33045E+09
         0.00000E+00
        -0.64465E+09
        -0.25099E+09
         0.00000E+00
         0.00000E+00
        -0.55285E+09
         0.00000E+00
        -0.13132E+10
         0.00000E+00
        -0.17653E+10
         0.00000E+00
        -0.18257E+10
        -0.15841E+10
         0.00000E+00
         0.00000E+00
        -0.65008E+09
        -0.15194E+10
         0.00000E+00
         0.00000E+00
         0.32993E+09
         0.00000E+00
         0.37622E+09
         0.00000E+00
        -0.10013E+10
         0.00000E+00
        -0.39776E+10
         0.00000E+00
        -0.73158E+10
         0.00000E+00
        -0.16894E+11
         0.00000E+00
        -0.23512E+11
         0.00000E+00
        -0.89998E+10
         0.00000E+00
         0.64503E+10
         0.00000E+00
         0.22420E+10
         0.00000E+00
         0.35811E+09
         0.00000E+00
        -0.72798E+08
         0.00000E+00
        -0.66092E+09
         0.00000E+00
        -0.87248E+09
         0.00000E+00
        -0.70416E+09
         0.00000E+00
        -0.69837E+09
         0.00000E+00
        -0.70346E+09
         0.00000E+00
         0.48435E+09
         0.00000E+00
         0.13159E+10
         0.00000E+00
         0.67476E+10
         0.00000E+00
         0.87198E+10
         0.00000E+00
         0.44868E+10
         0.00000E+00
        -0.67114E+09
         0.00000E+00
        -0.17113E+10
         0.00000E+00
        -0.76200E+07
         0.24117E+09
        -0.52948E+09
        -0.99654E+09
        -0.11349E+10
        -0.20104E+10
         0.36687E+09
        -0.92413E+07
        -0.22494E+09
        -0.31264E+09
         0.10450E+10
         0.14973E+10
         0.86433E+09
         0.61307E+09
         0.21383E+10
        -0.67165E+08
        -0.27450E+09
        -0.26740E+09
        -0.98469E+07
        -0.37689E+09
        -0.10621E+09
        -0.24487E+09
        -0.24770E+09
         0.10893E+09
        -0.47301E+09
        -0.28250E+09
         0.73150E+09
         0.70504E+09
         0.49318E+09
        -0.66215E+09
        -0.20717E+10
        -0.12193E+10
        -0.26871E+10
        -0.30584E+10
        -0.11418E+10
        -0.93922E+08
         0.29534E+09
         0.42185E+10
         0.58365E+10
         0.61899E+10
         0.55134E+10
         0.72790E+09
        -0.42876E+09
        -0.45030E+09
        -0.72547E+09
        -0.81681E+09
        -0.10628E+10
        -0.18687E+10
        -0.10972E+10
        -0.31828E+10
        -0.31558E+10
        -0.30123E+10
        -0.21889E+10
        -0.27076E+10
        -0.14002E+10
        -0.33380E+09
        -0.43081E+09
        -0.14278E+10
        -0.23051E+10
        -0.57361E+10
        -0.79211E+10
         0.79485E+09
         0.79767E+10
         0.24918E+10
         0.16978E+09
        -0.59066E+09
        -0.13203E+10
        -0.14015E+10
        -0.83551E+09
         0.35899E+09
         0.15190E+10
         0.36479E+10
         0.10228E+11
         0.11482E+11
         0.20291E+11
         0.98579E+10
        -0.58905E+09
        -0.25833E+10
        -0.80243E+08
        -0.25783E+09
        -0.35201E+09
        -0.59024E+09
        -0.40528E+09
        -0.90542E+09
         0.36201E+08
        -0.22218E+09
        -0.18060E+09
        -0.24656E+09
        -0.26060E+09
        -0.19576E+08
         0.53867E+08
        -0.14285E+09
         0.31316E+09
        -0.66946E+08
        -0.17403E+09
        -0.30554E+09
        -0.66882E+06
        -0.31442E+09
        -0.21501E+09
        -0.33610E+09
        -0.28103E+09
         0.48959E+07
        -0.58665E+09
        -0.26434E+09
        -0.24150E+09
        -0.55917E+09
        -0.35902E+09
        -0.60659E+09
        -0.15017E+10
        -0.78670E+09
        -0.14481E+10
        -0.12379E+10
        -0.73872E+09
        -0.34062E+09
        -0.11038E+09
         0.75477E+09
         0.11956E+10
         0.13963E+10
         0.20581E+10
         0.26706E+09
        -0.47930E+09
        -0.37214E+09
        -0.38621E+09
        -0.10875E+09
        -0.36129E+09
        -0.68233E+09
        -0.95561E+09
        -0.71676E+09
         0.10530E+10
        -0.13876E+10
        -0.12115E+10
        -0.24696E+10
        -0.98281E+09
        -0.53587E+09
        -0.88304E+08
         0.36825E+09
         0.85960E+09
         0.86546E+09
         0.24437E+10
         0.38736E+10
         0.40299E+10
         0.18824E+10
         0.58897E+09
        -0.56660E+09
        -0.13833E+10
        -0.13485E+10
        -0.35065E+09
         0.12042E+10
         0.21109E+10
         0.33248E+10
         0.88281E+10
         0.50382E+10
         0.94014E+10
         0.55101E+10
         0.27467E+10
         0.53200E+08
        -0.11866E+09
        -0.10856E+09
        -0.78454E+08
        -0.23972E+08
        -0.26712E+09
        -0.95775E+08
        -0.11188E+09
        -0.17152E+09
        -0.12113E+09
        -0.36473E+09
        -0.38792E+09
        -0.38449E+09
        -0.16621E+09
        -0.39005E+09
        -0.48093E+09
         0.16694E+08
        -0.15602E+09
        -0.12699E+09
        -0.36533E+08
        -0.31753E+09
        -0.18354E+09
        -0.42387E+09
        -0.45317E+08
         0.11831E+09
        -0.43624E+09
         0.11269E+09
        -0.58974E+09
        -0.77440E+09
        -0.60546E+09
        -0.55060E+09
         0.19080E+09
         0.29272E+09
         0.49459E+08
        -0.30811E+09
        -0.47040E+09
        -0.84059E+07
        -0.71208E+07
        -0.38135E+09
        -0.12572E+09
         0.21210E+09
         0.21714E+09
        -0.23658E+09
        -0.60714E+09
        -0.31688E+08
         0.35525E+08
        -0.21295E+07
         0.45464E+08
        -0.75758E+08
        -0.26293E+09
        -0.21632E+09
        -0.75968E+09
         0.18892E+08
        -0.81551E+09
        -0.38947E+09
        -0.86363E+09
        -0.17592E+09
         0.55133E+08
         0.63880E+09
         0.96714E+09
         0.19249E+10
         0.26124E+10
         0.27198E+10
         0.20993E+10
         0.48195E+09
         0.22408E+09
        -0.54748E+09
        -0.10708E+10
        -0.94892E+09
        -0.52601E+09
        -0.22138E+09
        -0.26420E+09
        -0.50653E+09
         0.93000E+09
         0.23467E+10
         0.22332E+10
         0.16846E+10
         0.15117E+10
        -0.14994E+09
        -0.35002E+08
         0.16515E+08
         0.40510E+08
         0.65190E+08
         0.68569E+08
         0.11243E+09
        -0.47159E+08
        -0.10022E+09
        -0.78936E+08
        -0.22702E+09
        -0.33452E+09
        -0.26868E+09
        -0.12085E+09
        -0.33414E+09
        -0.42090E+09
         0.22668E+08
        -0.14346E+09
         0.36542E+08
        -0.11111E+08
        -0.21224E+09
        -0.14181E+09
        -0.29200E+09
         0.26708E+08
         0.13405E+09
        -0.38408E+09
         0.20207E+09
        -0.38158E+09
        -0.50944E+09
        -0.45587E+09
        -0.56626E+09
         0.33648E+09
         0.28072E+09
         0.25661E+09
         0.25433E+09
         0.62944E+08
         0.36314E+08
        -0.89491E+07
        -0.51291E+09
        -0.49117E+09
        -0.36584E+09
         0.23924E+09
        -0.38606E+09
        -0.47247E+09
         0.99101E+08
         0.87329E+08
        -0.25171E+08
         0.19178E+09
         0.17215E+09
         0.31944E+09
         0.19763E+09
         0.13639E+09
         0.20924E+09
        -0.35687E+08
         0.16284E+09
         0.31564E+08
        -0.23982E+08
        -0.55843E+08
         0.56568E+08
         0.95418E+09
         0.16378E+10
         0.19055E+10
         0.29684E+10
         0.34976E+10
         0.22221E+10
         0.46873E+09
        -0.58553E+09
        -0.76113E+09
        -0.36288E+09
        -0.38251E+09
        -0.55952E+09
        -0.63816E+09
        -0.73233E+09
        -0.11703E+10
        -0.13683E+10
        -0.15933E+10
        -0.90153E+09
        -0.25678E+09
         0.55902E+08
         0.12006E+08
         0.31127E+08
         0.97443E+08
         0.96503E+08
         0.11456E+09
         0.10612E+09
        -0.16456E+08
        -0.48271E+08
         0.30277E+07
        -0.97928E+08
        -0.17671E+09
        -0.20165E+09
        -0.71552E+08
        -0.19637E+09
        -0.31630E+09
         0.48782E+08
        -0.32374E+08
         0.85114E+08
         0.28058E+07
        -0.10188E+09
        -0.70140E+08
        -0.13587E+09
         0.80030E+07
         0.70622E+08
        -0.24581E+09
         0.12294E+09
        -0.21817E+09
        -0.41414E+09
        -0.59333E+09
        -0.33360E+09
         0.20654E+09
         0.13650E+09
         0.22545E+09
         0.23678E+09
         0.94309E+08
         0.62721E+08
         0.89107E+07
        -0.50721E+09
        -0.62210E+09
        -0.63585E+09
        -0.32610E+09
        -0.45446E+09
        -0.35344E+09
         0.47811E+08
         0.46149E+08
        -0.18989E+08
         0.23328E+08
         0.76001E+08
         0.80236E+08
         0.22568E+08
        -0.21878E+08
         0.13105E+09
         0.15704E+09
         0.18433E+09
         0.87572E+08
        -0.10895E+08
        -0.72925E+08
        -0.25822E+08
         0.36110E+09
         0.12750E+10
         0.25904E+10
         0.30489E+10
         0.32994E+10
         0.13685E+10
         0.57741E+08
        -0.25175E+09
        -0.43763E+09
        -0.23281E+09
        -0.11608E+09
        -0.19841E+09
        -0.28107E+09
        -0.39082E+09
        -0.65332E+09
        -0.50079E+09
        -0.93430E+09
        -0.71222E+09
        -0.31711E+09
        -0.20811E+08
         0.34911E+08
         0.33567E+08
         0.68945E+08
         0.56745E+08
         0.65507E+08
         0.58995E+08
         0.23743E+08
         0.18331E+08
         0.15564E+08
        -0.46797E+08
        -0.31501E+08
        -0.44969E+08
        -0.63763E+07
        -0.65265E+08
        -0.19525E+09
         0.23987E+08
        -0.14906E+08
         0.43882E+08
         0.70096E+07
        -0.38595E+08
        -0.17840E+08
        -0.80458E+08
         0.25499E+07
         0.25321E+08
        -0.84923E+08
         0.36890E+08
        -0.14617E+09
        -0.27095E+09
        -0.34633E+09
        -0.14616E+09
         0.56683E+08
         0.31678E+08
         0.77273E+08
         0.65693E+08
         0.87285E+08
         0.31175E+08
         0.13917E+08
        -0.30877E+09
        -0.49258E+09
        -0.47058E+09
        -0.24982E+09
        -0.26085E+09
        -0.25332E+09
         0.13868E+08
         0.10633E+08
        -0.80035E+07
         0.61792E+07
         0.18398E+08
         0.30889E+08
         0.21277E+08
        -0.48340E+08
         0.34930E+08
         0.90378E+08
         0.61312E+08
         0.29248E+08
        -0.16339E+08
        -0.33957E+08
        -0.47280E+08
         0.74148E+08
         0.57479E+09
         0.17328E+10
         0.15318E+10
         0.12895E+10
         0.30456E+09
        -0.26020E+09
        -0.24285E+09
        -0.14528E+09
        -0.57074E+08
        -0.18452E+08
        -0.34708E+08
        -0.53817E+08
        -0.23840E+08
        -0.10309E+09
        -0.19631E+09
        -0.30606E+09
        -0.40512E+09
        -0.26658E+09
        -0.83888E+08
         0.23260E+08
         0.14626E+08
         0.47118E+08
         0.32770E+08
         0.40651E+08
         0.22918E+08
         0.20938E+08
        -0.44395E+07
         0.15379E+08
        -0.11473E+08
         0.16913E+08
        -0.23388E+08
         0.68753E+07
        -0.47429E+07
        -0.56825E+08
         0.14579E+08
        -0.51453E+07
         0.16294E+08
         0.40590E+07
        -0.14006E+08
         0.15196E+06
        -0.30925E+08
         0.98236E+07
         0.18597E+08
        -0.35956E+08
         0.10043E+08
        -0.61450E+08
        -0.10468E+09
        -0.14948E+09
        -0.69098E+08
         0.21022E+08
         0.51002E+07
         0.26484E+08
         0.25429E+08
         0.70266E+08
         0.21451E+08
         0.13249E+08
        -0.78753E+08
        -0.12237E+09
         0.17760E+08
         0.28498E+08
        -0.89245E+08
        -0.97868E+08
         0.12255E+07
        -0.59982E+07
        -0.17813E+08
        -0.91637E+07
        -0.61392E+07
        -0.77148E+06
        -0.33051E+07
        -0.22735E+08
         0.13105E+08
         0.42340E+08
         0.19923E+08
         0.27960E+08
        -0.28588E+07
        -0.26547E+08
        -0.59783E+08
        -0.76345E+08
         0.53354E+07
         0.15004E+09
         0.27424E+09
         0.78591E+09
         0.85557E+08
        -0.19517E+09
        -0.10742E+09
        -0.27199E+08
         0.11114E+07
        -0.69215E+07
        -0.20937E+08
        -0.20494E+08
         0.53032E+07
        -0.93222E+07
        -0.65036E+08
        -0.18403E+09
        -0.25497E+09
        -0.20741E+09
        -0.96664E+08
         0.27794E+08
         0.19521E+08
         0.34373E+08
         0.33300E+08
         0.35647E+08
         0.28452E+08
         0.12978E+08
         0.12605E+08
         0.11782E+08
         0.95170E+07
         0.33623E+08
         0.99247E+07
         0.14546E+08
         0.20769E+08
         0.93341E+07
         0.75479E+07
         0.14732E+08
         0.13622E+08
         0.11471E+08
         0.20841E+08
         0.30805E+08
         0.36357E+08
         0.17601E+08
         0.19843E+08
         0.19459E+08
         0.15943E+08
         0.11119E+08
        -0.58040E+07
         0.13244E+08
         0.18268E+08
         0.25158E+08
         0.14068E+08
         0.36675E+08
         0.32408E+08
         0.37347E+08
         0.23416E+08
         0.78067E+07
        -0.16443E+08
        -0.54887E+08
        -0.69963E+08
        -0.75183E+08
        -0.10004E+08
         0.17046E+08
         0.90513E+07
         0.66716E+06
        -0.82971E+07
         0.13296E+07
         0.29265E+07
        -0.15448E+07
        -0.68176E+07
        -0.21794E+08
         0.16769E+08
         0.30970E+08
        -0.14265E+08
         0.39375E+07
         0.57745E+07
         0.15019E+07
        -0.25349E+08
        -0.11129E+09
        -0.13484E+09
         0.11450E+09
        -0.11993E+09
        -0.69813E+08
        -0.18470E+09
        -0.12333E+09
         0.71376E+08
         0.72728E+08
         0.23595E+08
         0.44911E+07
        -0.87286E+07
        -0.15549E+08
        -0.32293E+08
        -0.74958E+08
        -0.57042E+08
        -0.20061E+09
        -0.16156E+09
        -0.69876E+08
        -0.84304E+08
         0.19300E+08
         0.11549E+08
         0.24457E+08
         0.20719E+08
         0.31467E+08
         0.25749E+08
         0.93633E+07
         0.15647E+08
         0.12935E+08
         0.19420E+08
         0.26078E+08
         0.10919E+08
         0.12856E+08
         0.32948E+08
         0.15367E+08
         0.50782E+07
         0.15091E+08
         0.11738E+08
         0.72348E+07
         0.24716E+08
         0.25442E+08
         0.62498E+08
         0.13977E+08
         0.71656E+07
         0.41160E+08
         0.75528E+07
         0.39325E+08
         0.62944E+08
         0.66390E+08
         0.42598E+08
         0.27479E+08
         0.15209E+08
         0.17063E+08
         0.20290E+08
         0.21190E+08
         0.19352E+08
         0.62860E+07
         0.13144E+08
         0.22789E+08
         0.22096E+08
        -0.26682E+08
         0.26559E+08
         0.57638E+08
         0.40040E+07
         0.65811E+07
        -0.74667E+06
         0.52820E+07
         0.55414E+07
         0.53154E+07
         0.23520E+07
        -0.35610E+08
         0.11114E+08
         0.60034E+08
         0.14409E+08
         0.14815E+08
        -0.23335E+07
        -0.26866E+07
        -0.21259E+08
        -0.85239E+08
        -0.12810E+09
        -0.28368E+09
        -0.53991E+09
        -0.41823E+09
        -0.40249E+09
        -0.81873E+08
         0.37955E+08
         0.61652E+08
         0.25784E+08
         0.19821E+08
        -0.55190E+07
        -0.15736E+08
        -0.37030E+08
        -0.11220E+09
        -0.71532E+08
        -0.14025E+09
        -0.14790E+09
        -0.12837E+09
        -0.35819E+08
         0.83076E+07
         0.89348E+07
         0.20543E+08
         0.25938E+08
         0.15863E+08
         0.30879E+08
         0.62843E+07
         0.84195E+07
         0.12676E+08
         0.18861E+08
         0.83876E+07
         0.74249E+07
         0.36729E+07
         0.24148E+08
         0.36284E+08
         0.65194E+07
         0.14686E+08
         0.15481E+08
         0.17251E+08
         0.36435E+08
         0.44831E+08
         0.81100E+08
         0.25398E+08
         0.15647E+08
         0.44179E+08
         0.10392E+08
         0.26274E+08
         0.69086E+08
         0.89851E+08
         0.75635E+08
         0.35966E+08
         0.19309E+08
         0.40195E+08
         0.50739E+08
         0.34164E+08
         0.25098E+08
         0.61702E+07
         0.61976E+08
         0.10925E+09
         0.10218E+09
         0.50413E+08
         0.26939E+08
         0.10771E+09
         0.12625E+08
         0.55372E+07
        -0.39938E+07
         0.56780E+07
         0.18183E+08
         0.31057E+08
         0.22897E+08
        -0.98337E+07
         0.21441E+08
         0.69358E+08
         0.12414E+08
         0.77944E+07
        -0.19218E+07
         0.40656E+07
        -0.12273E+08
        -0.11552E+09
        -0.24645E+09
        -0.36988E+09
        -0.38154E+09
        -0.35324E+09
        -0.29815E+09
        -0.12405E+09
         0.82191E+08
         0.11676E+09
         0.65372E+08
         0.21146E+08
        -0.21089E+07
        -0.17753E+08
        -0.45390E+08
        -0.12441E+09
        -0.19037E+09
        -0.29524E+09
        -0.31436E+09
        -0.21228E+09
        -0.10792E+09
         0.12067E+08
         0.73121E+07
         0.33904E+08
         0.24869E+08
         0.34045E+08
         0.26654E+08
         0.42321E+07
         0.11041E+08
         0.40630E+07
         0.15420E+08
         0.21553E+08
         0.18536E+08
         0.90184E+07
         0.20417E+08
         0.34078E+08
         0.63006E+07
         0.18368E+08
         0.13234E+08
         0.14565E+08
         0.37779E+08
         0.30301E+08
         0.62518E+08
         0.26144E+08
         0.18455E+08
         0.45411E+08
         0.15342E+08
         0.33388E+08
         0.92510E+08
         0.13131E+09
         0.47717E+08
         0.43709E+08
         0.23597E+08
         0.49583E+08
         0.45278E+08
         0.59658E+08
         0.20350E+08
         0.45219E+07
         0.65023E+08
         0.79870E+08
         0.64573E+08
         0.87873E+08
         0.11848E+09
         0.10877E+09
         0.12786E+08
         0.84488E+07
         0.16658E+07
         0.12322E+08
         0.21743E+08
         0.22207E+08
         0.21641E+08
        -0.10392E+07
         0.23477E+08
         0.72437E+08
         0.28785E+08
         0.25479E+08
         0.80424E+07
         0.13852E+08
        -0.10135E+08
        -0.11507E+09
        -0.24236E+09
        -0.45036E+09
        -0.82823E+09
        -0.90311E+09
        -0.31826E+09
         0.25245E+08
         0.66313E+08
         0.83452E+08
         0.61798E+08
         0.21584E+07
        -0.12916E+08
        -0.31075E+08
        -0.62481E+08
        -0.12103E+09
        -0.16982E+09
        -0.28228E+09
        -0.29882E+09
        -0.22447E+09
        -0.73243E+08
         0.21548E+08
         0.10477E+08
         0.39149E+08
         0.38575E+08
         0.31140E+08
         0.34644E+08
         0.10942E+08
         0.75464E+07
         0.85539E+07
         0.18549E+08
         0.21530E+08
         0.19405E+08
         0.95988E+07
         0.26433E+08
         0.22686E+08
         0.95351E+07
         0.19029E+08
         0.14622E+08
         0.19136E+08
         0.44195E+08
         0.46378E+08
         0.75893E+08
         0.29621E+08
         0.14271E+08
         0.29201E+08
         0.14053E+08
         0.48815E+08
         0.10807E+09
         0.95604E+08
         0.92490E+08
         0.37501E+08
         0.22692E+08
         0.33248E+08
         0.35614E+08
         0.62071E+08
         0.19906E+08
         0.10299E+08
         0.57199E+08
         0.10732E+09
         0.16533E+09
         0.80462E+08
         0.14498E+09
         0.13296E+09
         0.10328E+08
         0.13641E+08
        -0.28542E+07
         0.13490E+08
         0.15122E+08
         0.20886E+08
         0.19223E+08
        -0.31852E+08
         0.18461E+08
         0.41878E+08
        -0.86269E+07
         0.26015E+08
         0.96860E+07
         0.16179E+08
        -0.12627E+08
        -0.10591E+09
        -0.34952E+09
        -0.66228E+09
        -0.93874E+09
        -0.10240E+10
        -0.22696E+09
        -0.12047E+09
         0.12013E+09
         0.11949E+09
         0.56266E+08
         0.53719E+07
        -0.25484E+08
        -0.59984E+08
        -0.82120E+08
        -0.13181E+09
        -0.25030E+09
        -0.32462E+09
        -0.35207E+09
        -0.20987E+09
        -0.10278E+09
         0.19067E+08
         0.12385E+08
         0.32967E+08
         0.26923E+08
         0.26366E+08
         0.30980E+08
         0.11611E+08
         0.10083E+08
         0.11098E+08
         0.13657E+08
         0.19870E+08
         0.29768E+08
         0.13740E+08
         0.29775E+08
         0.37913E+08
         0.36317E+07
         0.16077E+08
         0.14310E+08
         0.10495E+08
         0.40524E+08
         0.42293E+08
         0.86353E+08
         0.22085E+08
         0.15325E+08
         0.35331E+08
         0.19109E+08
         0.52973E+08
         0.82078E+08
         0.13208E+09
         0.76802E+08
         0.35633E+08
         0.21629E+08
         0.43672E+08
         0.39009E+08
         0.52230E+08
         0.89660E+07
         0.98505E+07
         0.12206E+09
         0.16808E+09
         0.18993E+09
         0.11633E+09
         0.19092E+09
         0.15795E+09
         0.19671E+08
         0.99995E+07
        -0.62969E+07
         0.11578E+08
         0.20013E+08
         0.16778E+08
        -0.15034E+07
        -0.37133E+08
         0.19254E+08
         0.59440E+08
        -0.28837E+08
         0.45119E+08
         0.26764E+08
         0.24872E+08
        -0.25418E+08
        -0.16169E+09
        -0.37878E+09
        -0.72652E+09
        -0.92702E+09
        -0.11398E+10
        -0.28717E+09
        -0.48413E+08
         0.12486E+09
         0.14387E+09
         0.55274E+08
         0.21075E+08
        -0.21757E+08
        -0.55749E+08
        -0.63342E+08
        -0.13639E+09
        -0.15480E+09
        -0.24575E+09
        -0.18678E+09
        -0.25633E+09
        -0.12264E+09
         0.14906E+08
         0.17606E+08
         0.31284E+08
         0.25270E+08
         0.32081E+08
         0.27168E+08
         0.13831E+08
         0.73632E+07
         0.13996E+08
         0.95637E+07
         0.26681E+08
         0.47346E+08
         0.16539E+08
         0.48812E+08
         0.50734E+08
         0.10458E+08
         0.19266E+08
         0.18465E+08
         0.68731E+07
         0.36678E+08
         0.47706E+08
         0.90109E+08
         0.31653E+08
         0.12822E+08
         0.53937E+08
         0.27827E+08
         0.61736E+08
         0.96319E+08
         0.17521E+09
         0.95874E+08
         0.44449E+08
         0.28994E+08
         0.51351E+08
         0.49505E+08
         0.40010E+08
         0.27317E+08
         0.73766E+07
         0.10927E+09
         0.16672E+09
         0.18263E+09
         0.54853E+08
         0.88168E+08
         0.16693E+09
         0.21867E+08
         0.17748E+08
        -0.78771E+07
         0.12417E+08
         0.27747E+08
         0.19742E+08
         0.21787E+08
        -0.32450E+08
         0.28622E+08
         0.49451E+08
        -0.25476E+08
         0.64105E+08
         0.28689E+08
         0.13307E+08
        -0.10676E+08
        -0.19401E+09
        -0.53803E+09
        -0.77423E+09
        -0.97869E+09
        -0.92550E+09
        -0.32323E+09
        -0.92685E+08
         0.12168E+09
         0.14650E+09
         0.91066E+08
         0.31208E+08
        -0.19642E+08
        -0.83173E+08
        -0.10621E+09
        -0.16233E+09
        -0.22038E+09
        -0.24927E+09
        -0.26244E+09
        -0.21140E+09
        -0.15141E+09
         0.18066E+08
         0.15557E+08
         0.29869E+08
         0.27956E+08
         0.21599E+08
         0.26275E+08
         0.13071E+08
         0.31035E+07
         0.14963E+08
         0.11090E+08
         0.37860E+08
         0.42067E+08
         0.23562E+08
         0.44385E+08
         0.69762E+08
         0.97158E+07
         0.13505E+08
         0.15438E+08
         0.63376E+07
         0.25936E+08
         0.49050E+08
         0.62943E+08
         0.25053E+08
         0.19157E+08
         0.45833E+08
         0.26181E+08
         0.56691E+08
         0.10111E+09
         0.13650E+09
         0.84304E+08
         0.48657E+08
         0.27522E+08
         0.54428E+08
         0.45245E+08
         0.65062E+08
         0.18166E+08
         0.13785E+08
         0.11691E+09
         0.13971E+09
         0.14075E+09
         0.98769E+08
         0.11876E+09
         0.10131E+09
         0.20571E+08
         0.13963E+08
        -0.86108E+07
         0.10256E+08
         0.25045E+08
         0.26859E+08
         0.23217E+08
        -0.19407E+08
         0.28685E+08
         0.53804E+08
        -0.17836E+08
         0.45277E+08
         0.20483E+08
         0.14383E+08
        -0.35600E+08
        -0.20444E+09
        -0.42799E+09
        -0.48657E+09
        -0.89256E+09
        -0.89747E+09
        -0.35135E+09
        -0.18381E+09
         0.93897E+08
         0.12546E+09
         0.79962E+08
         0.24144E+08
        -0.38943E+08
        -0.99106E+08
        -0.11873E+09
        -0.15909E+09
        -0.18874E+09
        -0.31891E+09
        -0.29841E+09
        -0.19396E+09
        -0.11812E+09
         0.20907E+08
         0.18848E+08
         0.24889E+08
         0.20658E+08
         0.17572E+08
         0.17172E+08
         0.96428E+07
         0.58158E+07
         0.12225E+08
         0.29259E+08
         0.24808E+08
         0.35226E+08
         0.18440E+08
         0.44276E+08
         0.58316E+08
         0.86208E+07
         0.17291E+08
         0.14367E+08
         0.17744E+08
         0.34696E+08
         0.39794E+08
         0.77053E+08
         0.25306E+08
         0.23593E+08
         0.48956E+08
         0.22721E+08
         0.58720E+08
         0.10007E+09
         0.13970E+09
         0.86104E+08
         0.40730E+08
         0.28279E+08
         0.47941E+08
         0.44464E+08
         0.29928E+08
         0.18584E+08
         0.91940E+07
         0.21906E+08
         0.46449E+08
         0.17862E+09
         0.94700E+08
         0.13317E+09
         0.12497E+09
         0.12481E+08
         0.95402E+07
        -0.12147E+08
         0.10230E+07
         0.71777E+06
         0.87239E+07
        -0.36915E+07
        -0.41919E+08
         0.31042E+07
         0.40769E+08
        -0.19801E+08
         0.10816E+08
         0.16135E+08
         0.16294E+08
        -0.21769E+08
        -0.15368E+09
        -0.33578E+09
        -0.57970E+09
        -0.83540E+09
        -0.76288E+09
        -0.49569E+09
         0.15356E+08
         0.11673E+09
         0.11003E+09
         0.77093E+08
         0.19541E+08
        -0.23317E+08
        -0.66550E+08
        -0.80022E+08
        -0.11722E+09
        -0.19805E+09
        -0.28474E+09
        -0.28080E+09
        -0.17825E+09
        -0.15434E+09
         0.17624E+08
         0.10335E+08
         0.25004E+08
         0.21491E+08
         0.14171E+08
         0.14136E+08
         0.67983E+07
         0.10326E+08
         0.13105E+08
         0.30396E+08
         0.17742E+08
         0.22114E+08
         0.14512E+08
         0.30300E+08
         0.50251E+08
         0.70111E+07
         0.20433E+08
         0.95356E+07
         0.19481E+08
         0.42790E+08
         0.46679E+08
         0.84387E+08
         0.22690E+08
         0.66978E+07
         0.49857E+08
         0.11856E+08
         0.52056E+08
         0.88264E+08
         0.18808E+09
         0.81162E+08
         0.27330E+08
         0.20724E+08
         0.37044E+08
         0.27881E+08
         0.21276E+08
         0.10057E+08
         0.10415E+08
         0.73514E+08
         0.13971E+09
         0.16656E+09
         0.72305E+08
         0.22308E+09
         0.16599E+09
         0.12913E+08
         0.10852E+08
         0.95361E+06
         0.62625E+07
         0.11841E+08
         0.76066E+07
         0.21932E+07
        -0.48239E+08
         0.31514E+07
         0.27016E+08
        -0.10189E+08
         0.38131E+08
         0.28272E+08
         0.16386E+08
        -0.19628E+08
        -0.12949E+09
        -0.32931E+09
        -0.70704E+09
        -0.12446E+10
        -0.12344E+10
        -0.53608E+09
        -0.47358E+08
         0.11929E+09
         0.15122E+09
         0.91801E+08
         0.45035E+08
         0.67035E+07
        -0.44186E+08
        -0.64411E+08
        -0.11678E+09
        -0.17397E+09
        -0.26761E+09
        -0.31656E+09
        -0.19996E+09
        -0.11962E+09
         0.12800E+08
         0.15179E+08
         0.17620E+08
         0.10226E+08
         0.12314E+08
         0.55435E+07
         0.88141E+07
         0.15336E+08
         0.12555E+08
         0.29219E+08
         0.20474E+08
         0.26571E+08
         0.11473E+08
         0.29259E+08
         0.45977E+08
        -0.73645E+06
         0.18473E+08
         0.39763E+07
         0.93020E+07
         0.42026E+08
         0.49504E+08
         0.99008E+08
         0.20542E+08
         0.94932E+07
         0.43851E+08
         0.11736E+08
         0.38152E+08
         0.10125E+09
         0.13949E+09
         0.62133E+08
         0.17336E+08
         0.14226E+08
         0.23823E+08
         0.26888E+08
         0.35245E+08
         0.15104E+08
         0.10714E+08
         0.53201E+08
         0.83655E+08
         0.16394E+09
         0.93673E+08
         0.23073E+09
         0.17661E+09
         0.11618E+08
         0.47534E+07
        -0.56822E+07
         0.32062E+06
         0.60750E+07
         0.54520E+07
         0.26822E+07
        -0.34805E+08
        -0.41122E+07
         0.17845E+08
        -0.56779E+08
         0.20478E+08
         0.21951E+08
         0.15075E+08
        -0.14106E+08
        -0.10864E+09
        -0.25922E+09
        -0.71064E+09
        -0.12941E+10
        -0.12979E+10
        -0.45019E+09
        -0.12419E+09
         0.15565E+09
         0.15864E+09
         0.94291E+08
         0.38378E+08
        -0.22854E+07
        -0.25833E+08
        -0.33634E+08
        -0.52170E+08
        -0.11004E+09
        -0.15954E+09
        -0.10937E+09
        -0.88793E+08
        -0.93396E+08
         0.80007E+07
         0.10894E+08
         0.27170E+07
         0.71161E+07
        -0.34204E+06
        -0.42075E+07
         0.65269E+07
         0.14096E+08
         0.79835E+07
         0.32396E+08
         0.29427E+08
         0.24377E+08
         0.11270E+08
         0.31579E+08
         0.58344E+08
         0.17313E+07
         0.13069E+08
         0.22946E+07
         0.13755E+08
         0.36886E+08
         0.52348E+08
         0.83836E+08
         0.23424E+08
         0.10898E+08
         0.36433E+08
         0.33575E+07
         0.38404E+08
         0.85836E+08
         0.12581E+09
         0.57555E+08
         0.45291E+07
         0.37672E+07
         0.90473E+07
         0.36956E+07
         0.16138E+08
         0.95142E+07
         0.61168E+07
         0.65101E+08
         0.21059E+09
         0.20427E+09
         0.14798E+09
         0.41003E+08
         0.49670E+08
         0.39262E+07
        -0.24648E+07
        -0.49624E+07
        -0.60542E+06
        -0.35098E+07
        -0.29663E+07
        -0.18660E+08
        -0.44371E+08
        -0.15408E+08
         0.14568E+08
        -0.53946E+08
         0.22162E+08
         0.13949E+08
         0.68563E+07
        -0.30357E+08
        -0.15358E+09
        -0.44124E+09
        -0.97864E+09
        -0.11365E+10
        -0.13749E+10
        -0.34551E+09
        -0.96835E+08
         0.19694E+09
         0.13932E+09
         0.70166E+08
         0.24814E+08
         0.33384E+07
        -0.17404E+08
         0.23344E+07
        -0.66923E+07
        -0.37913E+08
        -0.71539E+08
        -0.98627E+08
        -0.94459E+08
        -0.76192E+08
         0.73435E+07
         0.56520E+07
        -0.30324E+07
        -0.11755E+08
        -0.91324E+07
        -0.18716E+08
         0.21836E+08
         0.18105E+08
         0.80105E+07
         0.28828E+08
         0.34122E+08
         0.36241E+08
         0.16321E+08
         0.42905E+08
         0.58432E+08
        -0.43512E+07
         0.13147E+08
        -0.11113E+08
         0.37186E+07
         0.23415E+08
         0.29963E+08
         0.51793E+08
         0.95454E+07
         0.86565E+07
         0.30814E+08
        -0.31660E+07
         0.63574E+08
         0.70997E+08
         0.86059E+08
         0.87985E+08
        -0.39371E+08
        -0.12370E+08
        -0.22714E+08
        -0.26414E+08
        -0.34133E+06
         0.79011E+07
        -0.11568E+07
         0.44268E+08
         0.18720E+09
         0.12987E+09
        -0.10015E+08
         0.14956E+09
         0.13553E+09
         0.43899E+06
        -0.18994E+08
        -0.22069E+08
        -0.14693E+08
        -0.18800E+08
        -0.23019E+08
        -0.56245E+07
        -0.22316E+08
        -0.25865E+08
         0.28231E+08
        -0.23930E+08
        -0.21355E+07
        -0.21073E+08
        -0.11301E+08
        -0.52622E+08
        -0.10617E+09
        -0.37539E+09
        -0.83582E+09
        -0.99689E+09
        -0.12849E+10
        -0.43375E+09
         0.92229E+08
         0.85419E+08
         0.55798E+08
         0.22005E+08
         0.11341E+08
         0.80514E+07
         0.37872E+08
         0.86944E+08
         0.96421E+08
         0.15039E+09
         0.13932E+09
         0.11448E+09
        -0.19285E+08
        -0.52767E+08
         0.17810E+08
         0.14422E+08
        -0.18291E+08
        -0.28954E+08
        -0.22698E+08
        -0.43733E+08
         0.37312E+08
         0.15986E+08
         0.60759E+07
         0.50110E+08
         0.78643E+08
         0.42300E+08
         0.29762E+08
         0.28963E+08
         0.41549E+08
         0.16497E+07
         0.15734E+08
        -0.17552E+08
         0.75524E+07
         0.24487E+08
         0.19896E+08
         0.39569E+08
         0.71052E+07
         0.11646E+07
         0.27892E+08
        -0.94993E+07
         0.10129E+08
         0.10529E+08
         0.32630E+08
         0.14780E+08
        -0.75762E+08
        -0.69045E+08
        -0.83085E+08
        -0.71122E+08
         0.24488E+08
         0.64094E+07
         0.11655E+08
         0.85493E+08
         0.57793E+08
         0.91500E+08
         0.31103E+08
         0.85165E+08
         0.76616E+08
        -0.48225E+07
        -0.21946E+08
        -0.20859E+08
        -0.34707E+08
        -0.52968E+08
        -0.78992E+08
        -0.47018E+08
        -0.87604E+07
        -0.44371E+08
         0.95593E+07
        -0.63701E+07
        -0.88692E+07
        -0.17662E+08
        -0.12137E+08
        -0.59474E+08
        -0.17738E+09
        -0.14534E+09
        -0.83510E+08
        -0.93383E+08
        -0.44735E+09
        -0.53828E+09
        -0.82737E+08
         0.87379E+08
         0.17109E+09
         0.14385E+09
         0.70949E+08
         0.54833E+08
         0.21215E+09
         0.36451E+09
         0.42938E+09
         0.43407E+09
         0.50791E+09
         0.32711E+09
         0.16343E+09
         0.23033E+08
         0.14441E+08
         0.16171E+08
        -0.45016E+07
        -0.24855E+08
        -0.14835E+08
        -0.44760E+08
         0.31343E+08
         0.27366E+08
         0.12712E+08
         0.33760E+08
         0.53503E+08
         0.27762E+08
         0.26550E+08
         0.40088E+08
         0.16601E+08
        -0.81086E+07
         0.19667E+08
        -0.57112E+07
        -0.65568E+07
         0.23378E+08
         0.30833E+08
         0.68259E+08
         0.89490E+07
        -0.30288E+08
         0.27596E+08
        -0.48612E+08
         0.36914E+08
         0.18449E+08
         0.15431E+08
         0.46205E+08
        -0.11445E+09
        -0.12182E+09
        -0.93016E+08
        -0.82833E+08
        -0.17066E+08
         0.52025E+07
         0.11611E+08
         0.30172E+07
        -0.15662E+08
        -0.23234E+08
        -0.69827E+08
        -0.70537E+06
         0.91951E+08
        -0.20615E+08
        -0.49872E+08
        -0.34242E+08
        -0.66656E+08
        -0.65361E+08
        -0.74272E+08
        -0.62030E+08
        -0.64570E+06
        -0.57889E+08
        -0.49492E+08
        -0.42358E+08
        -0.86817E+07
         0.14070E+08
         0.14676E+08
        -0.15479E+08
        -0.95325E+08
        -0.12671E+09
        -0.35943E+08
         0.37807E+08
        -0.23444E+09
        -0.69511E+09
        -0.52398E+09
        -0.10031E+08
         0.39279E+09
         0.47022E+09
         0.30071E+09
         0.22821E+09
         0.40359E+09
         0.59045E+09
         0.42333E+09
         0.43605E+09
         0.52965E+09
         0.44811E+09
         0.21914E+09
         0.62811E+08
        -0.50619E+08
        -0.43832E+08
        -0.13470E+09
        -0.97031E+08
        -0.20296E+09
        -0.16002E+09
        -0.68476E+07
        -0.31052E+08
        -0.49273E+07
        -0.18001E+08
        -0.29190E+08
        -0.20353E+08
         0.66285E+07
        -0.37738E+08
        -0.37967E+08
        -0.23901E+08
         0.33072E+08
        -0.19382E+08
        -0.32363E+07
         0.91264E+08
         0.19012E+09
         0.16736E+09
         0.18219E+09
        -0.37146E+08
         0.20347E+08
        -0.13426E+09
        -0.59293E+08
        -0.12846E+09
        -0.34580E+09
         0.10921E+09
        -0.20244E+09
        -0.22403E+09
        -0.18576E+09
        -0.18971E+09
        -0.28610E+09
        -0.69698E+08
         0.14187E+08
        -0.10396E+09
        -0.23187E+09
        -0.39541E+09
        -0.93831E+09
        -0.63746E+09
        -0.35717E+07
         0.83662E+08
        -0.47428E+08
        -0.56138E+08
        -0.16532E+09
        -0.22850E+09
        -0.22620E+09
        -0.16115E+09
        -0.82289E+08
        -0.12713E+09
        -0.41219E+09
        -0.20102E+09
        -0.20435E+08
         0.15182E+09
         0.85927E+08
         0.22572E+08
         0.14963E+09
         0.37275E+09
         0.64911E+09
         0.45623E+09
        -0.13688E+10
        -0.31248E+10
        -0.24741E+10
        -0.27129E+09
         0.14071E+10
         0.17297E+10
         0.12869E+10
         0.97560E+09
         0.99072E+09
         0.11831E+10
         0.94775E+09
         0.62024E+09
         0.49883E+09
         0.39060E+09
         0.61857E+08
        -0.77489E+08
  
SCALARS                         fint_x  double 1
LOOKUP_TABLE default
         0.00000E+00
        -0.34584E+03
        -0.29496E+03
        -0.37740E+03
         0.39167E+03
         0.21907E+04
         0.24760E+04
         0.22398E+04
         0.23460E+04
        -0.61053E+03
        -0.57061E+03
         0.17873E+04
         0.19677E+04
         0.71011E+00
         0.15439E+03
         0.14984E+04
         0.22094E+04
        -0.84522E+02
         0.12003E+03
         0.11175E+04
         0.26009E+04
         0.23925E+03
        -0.38817E+02
        -0.15023E+03
         0.14445E+04
        -0.40729E+02
         0.40797E+03
         0.17602E+03
         0.29765E+03
         0.17610E+04
         0.10244E+04
        -0.44819E+02
        -0.13832E+03
         0.15100E+02
         0.21416E+03
         0.73762E+03
         0.42262E+03
        -0.12614E+02
        -0.58057E+02
         0.21165E+02
         0.14130E+03
         0.96115E+02
         0.17814E+03
         0.41337E+01
         0.70187E+02
        -0.36773E+02
         0.81160E+01
         0.30538E+02
         0.38201E+02
        -0.92780E+02
         0.11630E+04
         0.79992E+02
         0.50722E+03
         0.37019E+03
         0.21244E+04
         0.39329E+03
         0.23031E+04
         0.71683E+02
         0.69573E+02
         0.23347E+04
         0.72976E+03
         0.64480E+03
         0.13541E+03
         0.85574E+03
         0.12780E+04
         0.37694E+03
         0.65888E+03
         0.18149E+02
         0.24072E+04
        -0.56982E+03
        -0.32386E+03
         0.12982E+04
         0.13897E+04
        -0.23036E+03
         0.90680E+03
        -0.12076E+04
         0.11202E+04
        -0.18982E+04
         0.51140E+03
        -0.95771E+03
         0.53777E+03
         0.37525E+02
         0.19503E+03
         0.64000E+03
         0.14712E+04
         0.56142E+03
         0.12239E+04
        -0.24246E+03
         0.13981E+04
        -0.45629E+03
         0.16108E+04
        -0.61242E+03
        -0.24624E+03
         0.13097E+04
         0.84656E+03
        -0.30544E+03
         0.63490E+03
        -0.89500E+03
         0.16422E+04
        -0.20603E+04
         0.11262E+04
        -0.37202E+04
        -0.19893E+04
        -0.16284E+03
         0.84633E+03
        -0.96937E+03
        -0.11558E+04
         0.13440E+04
         0.12473E+04
        -0.65149E+03
         0.46837E+03
        -0.14806E+03
        -0.93608E+03
         0.69631E+03
        -0.42171E+04
         0.15543E+04
        -0.78899E+04
         0.26745E+04
        -0.10632E+05
         0.45019E+04
        -0.17450E+05
         0.72454E+04
        -0.24580E+05
         0.48114E+04
        -0.10236E+05
         0.96668E+03
        -0.56718E+03
         0.58014E+02
         0.68736E+03
         0.34120E+03
         0.10890E+04
         0.44814E+03
         0.20234E+04
         0.45388E+02
         0.24043E+04
        -0.49270E+03
         0.18762E+04
        -0.83126E+03
         0.11043E+04
        -0.11225E+04
         0.14905E+04
        -0.12586E+04
         0.13930E+04
        -0.19540E+04
         0.12344E+04
        -0.34346E+04
         0.72727E+03
        -0.11346E+05
        -0.17217E+03
        -0.15455E+05
        -0.11020E+04
        -0.13590E+05
        -0.12311E+04
        -0.77731E+04
         0.93223E+03
        -0.32897E+04
         0.15517E+04
        -0.14603E+04
        -0.79213E+03
        -0.15724E+04
        -0.68552E+03
        -0.23242E+04
        -0.25791E+04
        -0.51485E+03
        -0.17881E+04
        -0.17738E+04
        -0.16411E+04
        -0.76886E+03
         0.72103E+03
        -0.99812E+02
        -0.13475E+04
         0.59542E+03
        -0.12390E+04
        -0.12554E+04
        -0.18780E+04
        -0.83450E+03
        -0.72251E+03
        -0.36227E+03
         0.53658E+02
        -0.98449E+03
        -0.92906E+03
        -0.14724E+04
        -0.13625E+04
        -0.20286E+04
        -0.19646E+04
        -0.10232E+04
        -0.58739E+03
        -0.11655E+04
        -0.12962E+04
        -0.61024E+03
        -0.11874E+04
        -0.20820E+04
        -0.15979E+04
        -0.98482E+03
        -0.34658E+03
        -0.86237E+03
        -0.45669E+03
        -0.36358E+03
        -0.65023E+03
        -0.77361E+02
        -0.13414E+04
        -0.15454E+04
        -0.16304E+04
        -0.16077E+04
        -0.18726E+04
        -0.31992E+04
        -0.35804E+04
        -0.41261E+04
        -0.34809E+04
        -0.23131E+04
        -0.30249E+04
        -0.12728E+04
         0.10803E+03
         0.22760E+04
         0.50930E+04
         0.81965E+04
         0.13465E+05
         0.17039E+05
         0.10833E+05
         0.22690E+04
        -0.41726E+03
        -0.26086E+03
        -0.10177E+04
        -0.11976E+04
        -0.16427E+04
        -0.17335E+04
        -0.17819E+04
        -0.15130E+04
        -0.16363E+04
        -0.24867E+04
        -0.59446E+04
        -0.97170E+04
        -0.83655E+04
        -0.60266E+04
        -0.38312E+04
        -0.14387E+04
        -0.87148E+03
        -0.80403E+03
        -0.73781E+03
         0.45623E+03
        -0.14789E+02
        -0.40942E+03
        -0.64932E+03
        -0.49239E+03
        -0.72623E+03
        -0.45293E+03
         0.23222E+03
        -0.76986E+02
        -0.66070E+03
         0.12904E+03
        -0.83191E+03
        -0.91019E+03
        -0.11368E+04
        -0.50708E+03
        -0.69152E+03
        -0.44164E+03
        -0.64642E+03
        -0.31747E+03
        -0.34976E+03
        -0.89322E+03
        -0.68535E+03
        -0.87983E+03
        -0.81931E+03
        -0.15931E+03
        -0.74179E+03
        -0.87337E+03
        -0.71949E+03
        -0.54270E+03
         0.12600E+04
         0.42127E+03
        -0.39582E+03
        -0.37663E+03
         0.38012E+03
         0.64903E+03
         0.39580E+03
         0.29223E+03
         0.10559E+02
        -0.81745E+03
        -0.44080E+03
        -0.25001E+03
         0.28202E+03
         0.40494E+02
         0.57870E+03
         0.14669E+04
         0.21116E+04
         0.41797E+04
         0.32508E+04
         0.64709E+03
         0.24689E+04
         0.54793E+03
         0.23333E+03
         0.53897E+03
         0.11588E+04
         0.22932E+04
         0.40533E+04
         0.54750E+04
         0.40582E+04
         0.10445E+04
        -0.63698E+02
         0.98034E+02
        -0.50393E+03
        -0.68699E+03
        -0.39335E+03
         0.47105E+02
         0.62073E+03
         0.10231E+04
         0.16753E+04
         0.24860E+04
         0.75333E+04
         0.72774E+04
         0.44966E+04
        -0.59812E+03
         0.15586E+04
        -0.20821E+03
         0.30601E+02
         0.76526E+02
        -0.13863E+03
         0.10882E+04
         0.81694E+03
        -0.10403E+03
        -0.22810E+03
         0.78060E+02
        -0.39393E+03
        -0.25831E+03
        -0.18172E+03
        -0.74193E+02
        -0.23477E+03
        -0.28789E+03
        -0.49648E+02
        -0.13888E+02
         0.18677E+03
        -0.10403E+03
        -0.18823E+03
        -0.22415E+03
        -0.40645E+03
        -0.64743E+02
        -0.55866E+02
        -0.11100E+03
        -0.12475E+03
        -0.40503E+03
        -0.16718E+03
         0.12790E+03
        -0.52734E+02
        -0.19536E+03
        -0.92610E+02
        -0.13189E+03
         0.37865E+03
         0.14169E+04
         0.12771E+03
        -0.20848E+02
        -0.59322E+02
         0.40863E+03
         0.26127E+03
         0.44487E+03
         0.43470E+03
        -0.47738E+03
         0.15137E+03
         0.41418E+03
         0.48195E+03
         0.41733E+03
         0.63643E+03
         0.10674E+04
         0.32634E+04
         0.69062E+04
         0.30235E+04
         0.14969E+04
         0.12436E+04
         0.12740E+04
         0.36240E+03
        -0.20965E+03
        -0.56265E+03
         0.21617E+03
         0.65694E+03
         0.10307E+04
         0.10779E+04
         0.68278E+03
        -0.33729E+01
         0.31475E+03
        -0.29153E+03
        -0.46860E+03
        -0.10905E+03
         0.37978E+03
         0.86605E+03
         0.10661E+04
         0.10587E+04
         0.29102E+04
         0.64588E+04
         0.83420E+04
         0.11857E+05
         0.83928E+04
         0.41907E+04
        -0.37477E+02
        -0.53537E+01
         0.73846E+02
         0.35048E+01
         0.25227E+03
         0.85025E+03
        -0.28602E+02
        -0.12014E+03
         0.25320E+02
        -0.14874E+03
        -0.19330E+03
        -0.18256E+03
        -0.91081E+02
        -0.26706E+03
        -0.41427E+03
         0.10262E+03
         0.15193E+02
         0.13327E+03
         0.25659E+02
        -0.31053E+02
        -0.19391E+03
        -0.17409E+03
        -0.11199E+03
         0.16972E+02
        -0.77137E+02
         0.47710E+02
        -0.39150E+03
        -0.45156E+03
        -0.55316E+03
        -0.28654E+03
         0.11555E+02
        -0.31864E+02
         0.12320E+03
         0.24085E+03
         0.21662E+03
         0.11271E+03
        -0.32894E+02
        -0.71686E+03
        -0.72355E+03
        -0.43190E+03
        -0.17172E+03
        -0.47386E+03
        -0.35894E+03
        -0.88252E+02
        -0.64728E+02
        -0.93071E+02
        -0.25816E+00
         0.21631E+03
         0.22871E+02
         0.38059E+03
         0.57635E+03
         0.57043E+03
         0.62538E+03
         0.10497E+04
         0.62322E+02
        -0.65579E+02
        -0.20352E+03
        -0.48058E+03
        -0.51543E+03
        -0.13118E+03
         0.47487E+03
         0.93410E+03
         0.83398E+03
         0.59096E+03
        -0.15253E+03
        -0.60834E+03
        -0.36864E+03
        -0.89186E+02
        -0.20064E+03
        -0.11863E+03
        -0.18496E+03
        -0.30915E+03
         0.13714E+03
         0.28802E+03
        -0.58924E+02
         0.14836E+04
         0.11950E+04
         0.10470E+04
         0.84822E+02
        -0.34098E+01
        -0.84306E+01
         0.68830E+02
        -0.26999E+02
        -0.37445E+02
         0.54529E+02
         0.69452E+02
         0.82178E+02
         0.47884E+02
        -0.28278E+02
        -0.46135E+02
        -0.31773E+01
        -0.73639E+02
        -0.21851E+03
         0.13913E+03
         0.10279E+03
         0.69274E+02
         0.52708E+02
        -0.12849E+02
        -0.11333E+03
        -0.16491E+03
        -0.43480E+02
         0.38785E+02
        -0.75814E+02
         0.10366E+03
        -0.10980E+02
        -0.37027E+03
        -0.54134E+03
        -0.16524E+03
        -0.38277E+02
        -0.11686E+02
        -0.13518E+03
        -0.10233E+03
         0.42368E+02
        -0.30937E+02
        -0.13513E+02
        -0.38608E+03
        -0.35575E+03
        -0.39276E+03
        -0.29219E+03
        -0.38846E+03
        -0.39913E+03
        -0.82357E+02
        -0.13014E+03
        -0.17828E+03
        -0.20953E+03
        -0.35708E+03
        -0.30778E+03
        -0.47476E+03
        -0.59986E+03
        -0.33168E+03
        -0.19397E+01
        -0.39009E+02
         0.89180E+01
        -0.20199E+02
        -0.73827E+02
        -0.12865E+03
        -0.45398E+03
         0.77105E+02
         0.31081E+03
         0.40320E+03
         0.26507E+03
        -0.33527E+03
        -0.56893E+03
        -0.57051E+03
        -0.48457E+03
        -0.29087E+03
        -0.23442E+03
        -0.26279E+03
        -0.31922E+03
        -0.64870E+03
        -0.10493E+04
        -0.84169E+03
        -0.87440E+03
        -0.28209E+03
        -0.64748E+02
         0.96829E+01
         0.71844E+02
         0.40949E+02
         0.15175E+02
         0.27638E+02
        -0.16341E+02
        -0.66565E+02
         0.58195E+02
         0.72676E+02
         0.10717E+03
         0.50885E+02
         0.82506E+02
         0.16905E+02
         0.17664E+02
         0.47099E+02
        -0.11839E+03
         0.81508E+02
         0.94428E+02
         0.83238E+02
         0.45378E+02
         0.37027E+02
        -0.58282E+02
        -0.13272E+03
        -0.17841E+02
         0.24875E+02
         0.43153E+02
         0.53311E+02
        -0.19735E+02
        -0.11313E+03
        -0.25612E+03
        -0.37532E+02
         0.12493E+02
         0.16199E+02
        -0.42743E+02
        -0.11393E+03
        -0.24399E+02
        -0.97684E+01
         0.15799E+02
        -0.17911E+03
        -0.23407E+03
        -0.26481E+03
        -0.34819E+03
        -0.15381E+03
        -0.23657E+03
        -0.93590E+01
        -0.30362E+02
        -0.72620E+02
        -0.10052E+03
        -0.17266E+03
        -0.13808E+03
        -0.28410E+03
        -0.35035E+03
        -0.94440E+02
        -0.56112E+01
        -0.76948E+02
         0.94804E+00
         0.63074E+01
        -0.26550E+02
        -0.52594E+02
        -0.37375E+03
        -0.64815E+03
        -0.56755E+03
        -0.65410E+03
        -0.65498E+03
        -0.82747E+03
        -0.74659E+03
        -0.61558E+03
        -0.31040E+03
        -0.10666E+03
        -0.38016E+02
        -0.64317E+02
        -0.11651E+03
        -0.21985E+03
        -0.38677E+03
        -0.38299E+03
        -0.41988E+03
        -0.39663E+03
        -0.30948E+03
        -0.20490E+03
         0.41041E+02
         0.22036E+02
         0.13149E+02
         0.23055E+02
        -0.85791E+01
         0.13582E+02
         0.32398E+02
         0.29641E+02
         0.32639E+02
         0.20888E+02
         0.28752E+02
         0.84628E+00
         0.19387E+02
         0.17233E+02
        -0.48764E+02
         0.14201E+02
         0.19783E+02
         0.32272E+02
         0.88619E+01
         0.31402E+00
        -0.15094E+02
        -0.97720E+02
        -0.12956E+02
         0.11740E+01
         0.52430E+01
         0.77473E+01
        -0.13920E+02
        -0.60621E+02
        -0.14682E+03
        -0.73393E+02
         0.33598E+02
         0.16491E+02
         0.39087E+02
         0.17775E+02
         0.10901E+02
         0.17434E+02
         0.11891E+02
        -0.18348E+03
        -0.23425E+03
        -0.23148E+03
        -0.23654E+03
        -0.22552E+03
        -0.21616E+03
         0.38257E+01
         0.19452E+02
         0.31819E+02
         0.33440E+02
         0.43236E+02
        -0.17391E+02
        -0.34934E+02
        -0.32574E+02
        -0.30965E+02
         0.16201E+02
         0.10531E+02
         0.43441E+02
         0.35007E+02
         0.69158E+01
        -0.49707E+02
        -0.10233E+03
        -0.22894E+03
        -0.26104E+03
        -0.44491E+03
        -0.54209E+03
        -0.55052E+03
        -0.61070E+03
        -0.29718E+03
        -0.56052E+02
         0.18055E+02
         0.42874E+02
         0.49625E+02
         0.46528E+02
         0.62552E+02
         0.55022E+02
         0.16988E+02
        -0.36110E+02
        -0.63528E+02
        -0.85772E+02
        -0.67794E+02
         0.30483E+02
         0.72455E+01
         0.11404E+02
         0.27336E+02
         0.79574E+01
         0.25540E+02
         0.30029E+01
         0.18863E+02
         0.26864E+02
         0.26105E+02
         0.10936E+02
         0.94551E+01
         0.11882E+02
         0.30408E+02
        -0.12963E+02
         0.88279E+01
         0.25728E+02
         0.25342E+02
         0.15479E+01
         0.89531E+01
        -0.13437E+02
        -0.38503E+02
         0.92916E+00
        -0.26780E+01
         0.26659E+02
        -0.38519E+01
         0.10501E+02
         0.22187E+01
        -0.39096E+02
        -0.19410E+01
         0.14515E+02
        -0.32132E+01
         0.38163E+02
         0.22940E+02
        -0.11591E+02
         0.51539E+01
        -0.16741E+01
        -0.42631E+02
        -0.81868E+02
        -0.13571E+03
        -0.18694E+03
        -0.74266E+02
        -0.44140E+02
        -0.11842E+01
         0.90557E+01
         0.16366E+02
         0.13970E+02
         0.24464E+02
         0.10436E+02
         0.42786E+02
         0.25506E+02
         0.15294E+02
         0.66508E+01
        -0.46315E+02
         0.27745E+02
         0.28754E+02
         0.18498E+02
        -0.14906E+01
        -0.92682E+02
        -0.21321E+03
        -0.49152E+03
        -0.52911E+03
        -0.38084E+03
        -0.15584E+03
        -0.29386E+03
        -0.16571E+03
        -0.12291E+02
         0.58393E+02
         0.45728E+02
         0.46484E+02
         0.48049E+02
         0.38965E+02
         0.54778E+02
         0.57377E+02
        -0.40332E+02
        -0.41047E+02
        -0.58839E+01
        -0.38118E+02
         0.71869E+01
        -0.11069E+00
         0.26582E+01
         0.11568E+02
         0.16821E+02
         0.36882E+02
        -0.78895E-02
         0.78068E+01
         0.11076E+02
         0.24708E+02
         0.36596E+01
         0.76648E+01
        -0.16276E+01
         0.14375E+02
         0.10732E-01
         0.15811E+00
         0.12882E+02
         0.69242E+01
         0.53865E+01
         0.22374E+02
         0.10214E+01
         0.16612E+02
        -0.35004E+01
        -0.19004E+01
         0.37814E+02
        -0.83401E+01
         0.26854E+02
         0.33895E+02
         0.94685E+01
         0.28918E+02
         0.63614E+01
        -0.56813E+01
         0.47384E+00
         0.90352E+00
         0.16090E+01
        -0.91771E+00
        -0.33423E+01
         0.56113E+01
        -0.37231E+02
        -0.65793E+02
        -0.90562E+02
        -0.37465E+02
        -0.11641E+02
        -0.48380E+01
        -0.63963E+01
        -0.58982E+01
        -0.52270E+01
         0.22606E+01
        -0.30856E+01
         0.57486E+01
        -0.32244E+02
         0.25908E+02
         0.14827E+02
         0.50201E+02
         0.21637E+02
         0.15511E+02
         0.10102E+02
         0.15046E+02
        -0.45133E+02
        -0.12949E+03
        -0.19400E+03
        -0.28131E+03
        -0.28040E+03
        -0.18535E+03
        -0.11718E+03
        -0.58402E+02
        -0.39734E+02
        -0.10553E+02
         0.10432E+02
         0.16549E+02
         0.14496E+02
         0.13578E+02
         0.15884E+02
        -0.19055E+02
        -0.23018E+02
        -0.16817E+02
        -0.74769E+02
        -0.62201E+02
         0.27715E+01
        -0.86646E+00
        -0.57132E+01
         0.20774E+02
         0.40063E+01
         0.36932E+02
        -0.71068E+01
         0.39198E+01
         0.17138E+02
         0.17394E+02
        -0.27571E+01
         0.51955E+01
        -0.42441E+01
         0.73933E+01
         0.12483E+02
         0.49954E+01
         0.13133E+02
         0.12322E+02
         0.50925E+01
         0.20160E+02
         0.72446E+01
         0.42737E+02
         0.26820E+01
         0.93075E+00
         0.40998E+02
        -0.40468E+01
         0.17675E+02
         0.32556E+02
         0.16515E+02
         0.55325E+02
         0.13294E+02
        -0.46905E+01
         0.11141E+02
         0.41244E+01
        -0.91613E+01
         0.31174E+01
        -0.10082E+02
         0.20032E+02
         0.11018E+02
        -0.65529E+01
        -0.93943E+01
         0.24104E+01
         0.34962E+02
        -0.38926E-01
        -0.44661E-01
        -0.19742E+01
        -0.32273E+01
         0.26923E+01
         0.35313E+01
        -0.40745E+01
        -0.92178E+01
         0.12167E+02
         0.33385E+02
         0.30628E+02
         0.32176E+02
         0.40454E+02
         0.33649E+02
         0.17895E+02
        -0.25380E+02
        -0.10129E+03
        -0.15243E+03
        -0.15021E+03
        -0.70527E+02
        -0.11710E+02
        -0.34977E+02
         0.13746E+02
         0.58738E+02
         0.19341E+02
         0.37014E+02
         0.30972E+02
         0.16609E+02
         0.81757E+01
        -0.10050E+02
        -0.61794E+02
        -0.88116E+02
        -0.39389E+02
        -0.15707E+02
        -0.34297E+02
        -0.13900E+01
        -0.25441E-01
         0.14176E+02
         0.34950E+02
         0.27263E+02
         0.37872E+02
        -0.65379E+01
         0.84975E+01
         0.11899E+02
         0.19339E+02
        -0.20117E+01
         0.12574E+01
        -0.37652E+01
         0.78901E+00
        -0.19861E+01
         0.90616E+01
         0.25208E+02
         0.19448E+02
         0.60447E+01
         0.27944E+02
         0.11731E+02
         0.30753E+02
         0.51611E+01
        -0.17385E+01
         0.47267E+02
        -0.18708E+01
         0.10712E+02
         0.35676E+02
         0.59127E+01
         0.29752E+02
         0.20632E+02
         0.43957E+01
         0.27524E+02
         0.26014E+02
         0.23082E+02
         0.10436E+02
        -0.15285E+01
        -0.71637E+01
        -0.38482E+02
        -0.24728E+02
        -0.84034E+02
        -0.13250E+02
         0.42037E+02
         0.34860E+01
         0.52280E+01
         0.94740E+01
         0.40034E+01
         0.64970E+01
         0.26431E+02
         0.44872E+00
         0.20575E+02
         0.39445E+02
         0.36710E+02
         0.20797E+02
         0.49893E+02
         0.40829E+02
         0.36645E+02
         0.32242E+02
        -0.31812E+02
        -0.95257E+02
        -0.18378E+03
        -0.23028E+03
        -0.23067E+03
        -0.10897E+03
        -0.25858E+02
         0.12091E+02
         0.33375E+02
         0.41974E+02
         0.44525E+02
         0.32406E+02
         0.19489E+02
         0.86133E+01
        -0.20080E+02
        -0.45352E+02
        -0.63678E+02
        -0.66509E+02
        -0.46660E+02
         0.78218E+02
         0.11838E+02
        -0.48158E+01
         0.20946E+02
         0.45680E+02
         0.23506E+02
         0.51833E+02
         0.29000E+01
        -0.86507E+00
         0.12634E+02
         0.20511E+02
        -0.29295E+01
         0.47548E+00
        -0.63679E+01
         0.67174E+01
        -0.41791E+01
         0.10115E+02
         0.22807E+02
         0.24986E+02
         0.36592E+01
         0.26331E+02
         0.33082E+01
         0.10915E+02
         0.21453E+01
        -0.10484E+01
         0.60420E+01
        -0.34222E+01
         0.13553E+02
         0.20622E+02
        -0.90655E+01
         0.23433E+02
         0.11156E+02
         0.33113E+01
         0.16181E+02
         0.28411E+02
         0.17361E+02
         0.58987E+00
         0.14127E+00
        -0.22915E+02
        -0.30062E+02
        -0.19973E+02
        -0.10552E+02
        -0.23700E+02
        -0.10128E+02
         0.26598E+01
         0.10371E+02
         0.65889E+01
         0.65610E+01
        -0.25154E+01
         0.11110E+02
        -0.18986E+01
        -0.27422E+02
         0.49117E+01
        -0.28366E+01
         0.30615E+02
         0.40756E+02
         0.25189E+02
         0.17588E+02
         0.53194E+01
        -0.58660E+02
        -0.15052E+03
        -0.22272E+03
        -0.20429E+03
        -0.17434E+03
        -0.23486E+03
        -0.98729E+02
         0.72628E+02
         0.88364E+02
         0.58330E+02
         0.21222E+02
         0.30569E+02
         0.21857E+02
         0.13576E+02
        -0.21433E+02
        -0.53947E+02
        -0.62626E+02
        -0.20994E+02
         0.20093E+02
         0.97763E+01
         0.36838E+01
        -0.20750E+01
         0.54522E+01
         0.25504E+02
         0.17943E+02
         0.29705E+02
        -0.27383E+01
         0.83424E+01
         0.10285E+02
         0.10036E+02
        -0.21006E+01
         0.31391E+01
        -0.60573E+01
         0.10937E+01
        -0.11600E+01
         0.90667E+01
         0.23246E+02
         0.16798E+02
         0.13094E+01
         0.21545E+02
        -0.29504E+01
         0.25472E+01
         0.12510E+01
        -0.68405E-01
         0.18725E+02
         0.32182E+01
         0.22948E+02
         0.39745E+02
         0.38297E+02
         0.29325E+02
         0.15391E+02
         0.32153E+01
         0.28389E+02
         0.23632E+02
        -0.20211E+01
        -0.15003E+02
        -0.12606E+02
         0.44796E+02
        -0.44922E+02
        -0.57310E+02
        -0.89442E+02
        -0.60196E-02
         0.81431E+01
         0.59745E+01
         0.60295E+01
         0.57922E+01
         0.74622E+01
         0.16941E+02
        -0.51808E+01
        -0.12843E+02
        -0.11294E+02
         0.35196E+01
         0.25425E+02
         0.11180E+02
         0.32965E+02
         0.27224E+02
         0.18987E+02
        -0.10631E+02
        -0.80215E+02
        -0.14918E+03
        -0.12198E+03
        -0.96847E+02
        -0.51056E+02
        -0.13271E+02
        -0.11686E+03
         0.33455E+02
         0.42835E+02
         0.41065E+02
         0.33979E+02
         0.29315E+02
         0.13103E+02
         0.11824E+02
        -0.13673E+02
        -0.25684E+02
        -0.52883E+02
        -0.10205E+03
        -0.86038E+02
        -0.46041E+02
         0.17953E+01
         0.53208E+01
        -0.95226E+01
         0.17605E+02
        -0.18778E+01
         0.13755E+02
        -0.77779E+00
        -0.15412E+01
         0.17855E+02
         0.21289E+02
        -0.58228E+00
         0.75360E+01
        -0.32437E+01
         0.10243E+02
         0.12173E+02
         0.92688E+01
         0.21775E+02
         0.23888E+02
        -0.14574E+01
         0.15397E+02
         0.41417E+01
         0.11835E+02
         0.39078E+00
        -0.26355E+01
         0.41838E+02
         0.28793E+00
         0.28572E+02
         0.34185E+02
         0.54425E+02
         0.33123E+02
         0.24933E+02
         0.11035E+00
         0.42909E+02
         0.33356E+02
         0.42819E+01
         0.23133E+01
         0.20287E+01
         0.25950E+02
         0.23559E+02
         0.27564E+02
        -0.12964E+02
        -0.20793E+02
         0.23508E+02
         0.51400E+01
         0.43375E+01
        -0.30880E+01
        -0.38497E+01
         0.66031E+01
         0.27864E+02
        -0.17116E+01
        -0.25732E+02
        -0.18219E+01
         0.91836E+01
        -0.29873E+02
         0.17480E+02
         0.30132E+02
         0.81761E+01
         0.64703E+01
        -0.73868E+02
        -0.10013E+03
         0.12486E+03
        -0.86029E+02
        -0.48778E+02
         0.11385E+02
        -0.11521E+02
         0.51046E+02
         0.45941E+02
         0.34548E+02
         0.24004E+02
         0.17749E+02
         0.25767E+01
        -0.82199E+01
        -0.20778E+02
        -0.39853E+02
        -0.46733E+02
        -0.49063E+02
        -0.59275E+02
         0.13208E+01
         0.17534E+02
         0.14626E+01
         0.12708E+02
         0.33683E+02
         0.86205E+01
        -0.19617E+02
        -0.26095E+01
        -0.31375E+01
         0.19035E+02
         0.11829E+02
         0.74717E+00
         0.17567E+02
         0.57572E+01
         0.86064E+01
         0.31905E+02
         0.66270E+01
         0.22276E+02
         0.21906E+02
         0.32169E+01
         0.21387E+02
         0.71653E+01
         0.34801E+02
        -0.66266E+00
        -0.30195E+01
         0.40024E+02
        -0.42004E+01
         0.18688E+02
         0.17594E+02
        -0.79090E+00
         0.43543E+02
         0.16279E+02
        -0.29072E+01
         0.39104E+02
         0.32875E+02
         0.60764E+01
        -0.41832E+01
        -0.16102E+01
         0.28728E+02
         0.54605E+02
         0.42367E+02
        -0.12999E+02
        -0.78259E+01
         0.16224E+02
        -0.34734E+01
        -0.45782E+01
        -0.12753E+02
        -0.87143E+01
         0.13552E+00
         0.37798E+02
         0.42835E+02
         0.19883E+02
         0.31508E+02
         0.36877E+02
         0.66291E+01
         0.34205E+02
         0.47280E+02
         0.36351E+02
         0.31082E+02
        -0.45423E+02
        -0.74100E+02
         0.63318E+01
         0.10237E+03
        -0.13438E+03
        -0.98285E+02
        -0.17150E+02
         0.26674E+01
         0.54743E+02
         0.27197E+02
         0.20271E+02
         0.86331E+01
        -0.13311E+02
        -0.26518E+02
        -0.41916E+02
        -0.63676E+02
        -0.73303E+02
        -0.64241E+02
        -0.51416E+02
        -0.41801E+02
         0.93081E+01
         0.88698E+00
         0.11271E+02
         0.23384E+02
         0.16400E+02
         0.18753E+02
         0.17392E+00
         0.28877E+01
         0.15612E+02
         0.19349E+02
         0.51424E+00
         0.10443E+02
        -0.90395E+00
         0.12497E+02
         0.15254E+02
        -0.55403E+01
         0.10896E+02
         0.17307E+02
        -0.68002E+01
         0.11568E+02
        -0.12440E+02
        -0.70307E+01
        -0.38460E+01
        -0.11139E+02
         0.32458E+02
        -0.87317E+01
         0.32896E+02
         0.36461E+02
         0.51773E+01
         0.44626E+02
         0.61385E+01
        -0.13214E+02
         0.23565E+02
         0.21412E+02
         0.10346E+02
        -0.72925E+01
        -0.49052E+01
        -0.40882E+02
        -0.60884E+02
         0.39363E+02
         0.20294E+02
         0.62151E+02
        -0.74955E+01
        -0.13017E+02
        -0.14263E+02
        -0.16291E+02
        -0.18485E+02
        -0.14433E+02
        -0.18606E+02
        -0.37504E+02
        -0.53271E+02
        -0.45482E+02
         0.14042E+02
         0.44712E+01
         0.31420E+02
         0.40734E+02
         0.31149E+02
         0.27536E+02
        -0.23657E+01
        -0.29910E+02
        -0.22795E+03
        -0.23553E+03
        -0.21509E+03
        -0.17000E+03
        -0.24255E+03
        -0.15738E+03
        -0.65483E+02
         0.20876E+02
         0.14970E+02
         0.27961E+01
        -0.74266E+01
        -0.20401E+02
        -0.23090E+02
        -0.76900E+02
        -0.74041E+02
        -0.50010E+02
        -0.27611E+02
        -0.50046E+02
         0.66680E+01
        -0.13199E+02
        -0.66566E+01
        -0.44125E+01
        -0.39194E+02
        -0.42847E+02
        -0.42738E+01
         0.79534E+01
         0.12969E+02
         0.21960E+02
        -0.39604E+01
         0.22957E+00
        -0.55317E+01
         0.87949E+01
         0.17452E+02
         0.33488E+01
         0.19802E+02
         0.12969E+02
         0.59618E+01
         0.22476E+02
        -0.68100E+01
        -0.78123E+01
        -0.52792E+01
        -0.53174E+01
         0.32807E+02
        -0.86735E+01
         0.25535E+02
         0.24951E+02
         0.26872E+02
         0.30829E+02
        -0.19961E+01
        -0.94509E+01
         0.11236E+02
        -0.67176E+01
        -0.64650E+01
        -0.21113E+01
        -0.68088E+01
         0.49192E+02
         0.74007E+02
         0.87215E+02
        -0.18215E+02
         0.10039E+02
         0.56366E+02
        -0.59709E+01
        -0.56194E+01
        -0.63128E+01
        -0.12777E+02
        -0.19514E+02
        -0.18468E+02
        -0.43938E+02
        -0.76401E+02
        -0.54295E+02
         0.40686E+02
        -0.48915E+02
         0.46536E+02
         0.41606E+02
         0.19550E+02
         0.21099E+02
         0.20480E+01
         0.13227E+02
        -0.48956E+02
        -0.21373E+03
        -0.12778E+03
        -0.13298E+03
        -0.25053E+03
        -0.47957E+01
         0.11513E+02
         0.32692E+02
         0.35449E+02
         0.26990E+02
         0.12090E+02
         0.19249E+00
        -0.34920E+02
        -0.68938E+02
        -0.10209E+03
        -0.95733E+02
        -0.49386E+02
        -0.21697E+02
         0.97985E+00
        -0.92050E+01
        -0.20512E+02
        -0.55961E+01
        -0.29445E+02
        -0.17024E+02
        -0.91767E+01
         0.57178E+01
         0.81294E+01
         0.25733E+02
        -0.42914E+01
         0.12875E+01
        -0.70379E+01
         0.12871E+02
         0.18670E+02
         0.33272E+01
         0.71052E+01
         0.24744E+01
         0.28362E+01
         0.24753E+02
         0.47881E+01
         0.52638E+02
         0.61645E+01
        -0.28851E+01
         0.24763E+02
        -0.87130E+01
         0.58569E+01
         0.41480E+02
         0.57929E+02
         0.26538E+02
        -0.24691E+01
        -0.71307E+01
         0.67688E+01
        -0.35539E+01
        -0.22101E+02
        -0.12784E+02
        -0.13070E+02
         0.59408E+02
         0.59740E+02
         0.36350E+01
        -0.32788E+02
         0.21222E+02
         0.62750E+02
        -0.37550E+01
        -0.69004E+01
        -0.13326E+02
        -0.22687E+02
        -0.23702E+02
        -0.18610E+02
        -0.34642E+02
        -0.53699E+02
        -0.42259E+02
         0.78172E+01
        -0.30703E+02
         0.59220E+00
         0.14732E+02
         0.12216E+02
         0.21973E+02
        -0.18107E+02
         0.80136E+02
         0.91444E+02
         0.76175E+02
        -0.78578E+02
         0.21316E+03
        -0.18628E+02
         0.15726E+02
         0.37539E+02
         0.30895E+02
         0.28432E+02
         0.92020E+01
        -0.36215E+01
        -0.15765E+02
        -0.68886E+01
        -0.47704E+02
        -0.81594E+02
        -0.75666E+02
        -0.85410E+02
        -0.88863E+02
        -0.27498E+01
        -0.17496E+02
        -0.23549E+02
        -0.22746E+02
        -0.31197E+02
        -0.42500E+02
        -0.10794E+02
         0.45738E+01
         0.31749E+01
         0.24557E+02
        -0.11901E+01
        -0.75167E+01
        -0.17710E+02
         0.12853E+01
        -0.74606E+01
        -0.51541E+01
         0.71789E+01
        -0.65021E+01
        -0.36886E+01
         0.52453E+01
         0.23872E+02
         0.42652E+02
         0.49033E+01
        -0.20337E-01
         0.93541E+01
        -0.87044E+01
         0.20268E+02
         0.38692E+02
         0.47842E+02
         0.27879E+02
        -0.78959E+01
        -0.11001E+02
        -0.68662E+01
        -0.13080E+02
        -0.33443E+02
        -0.27098E+02
        -0.21308E+02
         0.24430E+02
         0.87909E+02
         0.67106E+02
         0.99553E+02
         0.32734E+02
         0.90868E+02
        -0.11301E+02
        -0.10388E+02
        -0.15756E+02
        -0.12135E+02
        -0.19103E+02
        -0.29698E+02
        -0.53187E+02
        -0.91353E+02
        -0.76184E+02
        -0.18086E+02
        -0.49291E+02
        -0.37797E+01
        -0.25819E+00
         0.81210E+01
        -0.40730E+00
        -0.73384E+02
        -0.14988E+03
        -0.13995E+03
         0.14433E+03
        -0.75293E+02
         0.76585E+02
         0.23859E+03
         0.47899E+02
         0.12095E+03
         0.67006E+02
         0.40354E+02
         0.19903E+02
         0.18557E+01
        -0.10971E+02
         0.57702E+01
        -0.60917E+02
        -0.90639E+02
        -0.93059E+02
        -0.66001E+02
        -0.70326E+02
        -0.27852E+01
        -0.10976E+02
        -0.25370E+02
        -0.35636E+02
        -0.68325E+02
        -0.71011E+02
        -0.87803E+00
        -0.26761E+00
         0.20247E+01
         0.12649E+02
         0.14130E+01
        -0.16909E+02
        -0.15517E+02
         0.13099E+02
         0.16495E+02
        -0.18586E+02
         0.54496E+01
        -0.24812E+02
        -0.12542E+01
         0.60474E+01
         0.14407E+02
         0.46990E+02
         0.50739E+01
        -0.61321E+01
         0.21203E+02
        -0.21623E+02
         0.32688E+02
         0.53453E+02
         0.78162E+02
         0.27921E+02
        -0.47863E+02
        -0.13930E+02
        -0.33568E+02
        -0.61318E+02
        -0.49987E+02
        -0.27144E+02
        -0.13003E+02
        -0.14219E+01
         0.27508E+02
         0.92810E+02
         0.12992E+03
         0.14245E+03
         0.74898E+02
        -0.52035E+01
        -0.21258E+02
        -0.41289E+02
        -0.59708E+02
        -0.65350E+02
        -0.41089E+02
        -0.52920E+02
        -0.13545E+03
        -0.12276E+03
        -0.37527E+02
        -0.78254E+02
        -0.22123E+02
        -0.19809E+02
        -0.58879E+01
        -0.11942E+02
         0.21346E+02
         0.70225E+02
         0.94434E+02
         0.10345E+03
         0.12020E+03
         0.26176E+03
         0.65526E+02
         0.11638E+03
         0.52695E+02
         0.23463E+02
         0.16652E+02
        -0.11705E+02
        -0.20374E+02
        -0.71512E+02
        -0.20717E+03
        -0.92451E+02
        -0.16343E+03
        -0.19970E+03
        -0.16365E+03
        -0.11099E+03
         0.33758E+02
         0.24677E+02
         0.82896E+01
         0.31533E+01
        -0.26251E+02
        -0.69454E+02
         0.23289E+02
         0.20365E+02
         0.12088E+02
         0.37420E+02
         0.20020E+02
         0.43634E+02
         0.29700E+02
         0.20812E+02
         0.50435E+02
         0.25662E+02
         0.28360E+02
         0.81167E+01
         0.23883E+02
         0.23213E+02
        -0.51643E+02
        -0.43447E+02
        -0.37450E+02
         0.69204E+01
         0.12564E+02
         0.10331E+02
         0.17983E+02
         0.47366E+02
         0.63528E+02
         0.94923E+01
        -0.32735E+02
        -0.31438E+02
        -0.45596E+02
        -0.57523E+02
         0.35269E+01
         0.15544E+02
         0.13843E+02
         0.95088E+02
         0.16608E+03
         0.25331E+03
         0.29723E+03
         0.12234E+03
         0.13546E+02
        -0.35284E+02
        -0.46513E+02
        -0.69648E+02
        -0.86360E+02
        -0.94700E+02
        -0.14203E+03
        -0.11810E+03
        -0.11581E+03
        -0.11445E+03
        -0.10113E+02
        -0.79152E+02
         0.42372E+02
         0.48683E+02
         0.52199E+02
         0.62459E+02
         0.45895E+02
         0.74372E+02
         0.16126E+03
         0.23713E+03
         0.49795E+03
         0.44165E+01
        -0.34866E+03
        -0.46099E+03
        -0.44237E+03
        -0.24060E+03
        -0.80989E+02
        -0.75342E+02
        -0.12205E+03
        -0.15738E+03
        -0.17031E+03
        -0.16516E+03
        -0.15070E+03
        -0.18610E+03
        -0.16048E+03
        -0.12860E+03
         0.79584E+02
         0.11289E+03
         0.16367E+03
         0.12481E+03
         0.92923E+02
         0.38596E+02
         0.41704E+02
         0.37644E+02
        -0.15044E+02
        -0.22643E+02
         0.46587E+02
         0.71821E+02
         0.72544E+02
         0.48298E+02
         0.11269E+03
        -0.12118E+03
        -0.92797E+02
         0.33774E+02
        -0.17173E+03
        -0.16487E+03
        -0.51200E+03
        -0.64940E+03
        -0.33700E+03
        -0.16078E+03
         0.12889E+02
        -0.15254E+03
         0.20290E+02
        -0.42810E+02
        -0.15382E+03
        -0.14251E+03
        -0.74909E+02
        -0.11551E+03
         0.29146E+02
         0.75658E+02
         0.12499E+03
         0.14062E+03
         0.11511E+03
         0.15592E+03
         0.13576E+03
         0.28089E+02
        -0.11252E+03
        -0.47666E+03
        -0.63375E+03
        -0.22952E+03
        -0.13424E+03
        -0.76625E+02
        -0.84061E+02
        -0.51512E+02
        -0.61007E+01
         0.68003E+02
         0.83355E+02
         0.36381E+02
         0.70306E+02
        -0.32260E+02
         0.16170E+03
         0.14421E+03
         0.10689E+03
         0.10085E+03
         0.18944E+03
         0.32114E+03
         0.40829E+03
         0.31521E+03
         0.72173E+02
        -0.59822E+03
        -0.13271E+04
        -0.15355E+04
        -0.11147E+04
        -0.56609E+03
        -0.18667E+03
        -0.98504E+02
        -0.76360E+02
        -0.47580E+02
         0.13492E+02
         0.18994E+03
         0.15973E+03
         0.86627E+02
        -0.56834E+01
        -0.54082E+02
        -0.10264E+03
        -0.12262E+03
        -0.19370E+03
        -0.15798E+03
        -0.96941E+02
        -0.29960E+01
        -0.64693E+02
        -0.15874E+02
         0.12298E+02
         0.96779E+02
        -0.39140E+02
        -0.48067E+02
        -0.80776E+02
        -0.83921E+01
        -0.48574E+02
         0.54422E+02
         0.13456E+03
        -0.60081E+02
         0.22151E+03
         0.26188E+03
         0.83504E+03
         0.10852E+04
         0.44813E+03
         0.21341E+03
         0.15425E+03
         0.14429E+03
         0.65699E+02
         0.14707E+03
         0.23291E+03
         0.27534E+03
         0.19017E+02
         0.13310E+03
        -0.55753E+02
        -0.35664E+02
        -0.12647E+03
        -0.15279E+03
        -0.12457E+03
        -0.44202E+02
        -0.64089E+02
        -0.29852E+02
         0.41707E+02
         0.60832E+03
         0.99172E+03
         0.35031E+03
         0.25603E+03
         0.27685E+03
         0.29766E+03
         0.27421E+03
         0.21956E+03
         0.18513E+03
         0.20105E+03
         0.97617E+02
        -0.97590E+02
        -0.29270E+02
        -0.13456E+03
        -0.94183E+02
        -0.46563E+02
        -0.36828E+02
        -0.71599E+02
        -0.19376E+03
        -0.36641E+03
        -0.39939E+03
        -0.78375E+02
         0.60146E+03
         0.15577E+04
         0.20462E+04
         0.17203E+04
         0.10906E+04
         0.61534E+03
         0.42090E+03
         0.40120E+03
         0.58883E+03
         0.68562E+03
         0.43999E+03
         0.35995E+03
         0.29050E+03
         0.19256E+03
  
SCALARS                         fint_y  double 1
LOOKUP_TABLE default
         0.74985E+02
        -0.10179E+04
        -0.52067E+03
        -0.75567E+03
         0.43443E+03
        -0.56917E+03
        -0.56554E+01
         0.44594E+03
        -0.91180E+03
        -0.13327E+04
        -0.22978E+03
        -0.43257E+03
        -0.73366E+03
        -0.40836E+03
        -0.42684E+03
        -0.27002E+03
        -0.11831E+03
        -0.20921E+02
        -0.15687E+03
         0.94786E+01
        -0.53168E+03
         0.34995E+03
        -0.31692E+02
        -0.33435E+03
        -0.19370E+03
        -0.28095E+03
        -0.18112E+03
        -0.73434E+03
        -0.38620E+02
        -0.49239E+03
         0.64884E+02
         0.15489E+03
        -0.10260E+03
         0.41659E+02
         0.18264E+03
        -0.12707E+03
         0.47968E+02
         0.13643E+03
         0.40264E+02
         0.12606E+03
        -0.31512E+03
        -0.49054E+03
        -0.14070E+03
        -0.27859E+03
        -0.75475E+01
         0.98226E+02
         0.17886E+02
         0.37297E+02
         0.25361E+03
         0.15662E+03
         0.13278E+03
        -0.55769E+02
         0.33856E+03
         0.34393E+03
         0.17576E+04
         0.13105E+04
         0.27173E+04
        -0.29096E+03
         0.20522E+04
        -0.13166E+03
        -0.57162E+03
        -0.18395E+03
        -0.13139E+03
        -0.32883E+03
        -0.90333E+03
         0.16066E+03
        -0.16441E+04
        -0.22063E+03
        -0.54357E+03
        -0.50577E+03
        -0.36848E+03
        -0.22321E+03
        -0.25458E+03
        -0.16533E+03
         0.76855E+04
         0.66506E+04
         0.12768E+05
         0.14285E+05
         0.90848E+04
         0.10758E+05
         0.43821E+04
         0.17529E+04
         0.39375E+04
         0.12051E+04
        -0.34074E+03
        -0.97041E+02
         0.26349E+03
         0.20386E+03
         0.10970E+03
        -0.16636E+02
        -0.16348E+03
        -0.19448E+03
        -0.24462E+03
        -0.30930E+03
        -0.13643E+04
         0.23886E+02
        -0.21600E+04
        -0.27217E+03
        -0.10855E+04
        -0.34373E+03
         0.42538E+03
        -0.17218E+04
        -0.44537E+03
        -0.46680E+03
        -0.39895E+03
        -0.13554E+03
        -0.83561E+03
        -0.99974E+03
         0.16470E+03
        -0.70574E+01
         0.15138E+04
         0.13540E+04
         0.30447E+04
         0.28463E+04
         0.33124E+04
         0.23227E+04
         0.32698E+04
         0.59354E+03
        -0.11246E+04
        -0.69138E+04
        -0.22123E+05
        -0.40251E+05
        -0.22288E+05
        -0.34459E+05
        -0.21543E+04
        -0.16119E+04
         0.21450E+04
         0.14678E+04
         0.13488E+04
         0.99533E+03
         0.11428E+04
         0.73567E+03
         0.83525E+03
         0.48442E+03
         0.57014E+03
         0.45254E+03
         0.35581E+03
         0.60644E+03
         0.16071E+03
         0.60184E+03
        -0.23971E+03
         0.37086E+02
        -0.13290E+04
        -0.19476E+03
        -0.12160E+04
        -0.41588E+03
        -0.11746E+04
        -0.70728E+03
         0.15237E+04
        -0.35590E+03
         0.56267E+04
        -0.56070E+03
         0.35150E+04
        -0.72778E+03
         0.11525E+04
        -0.74636E+03
        -0.87196E+03
        -0.69150E+03
        -0.23827E+04
        -0.47123E+04
        -0.17354E+04
        -0.25677E+04
        -0.46756E+03
        -0.46464E+03
        -0.28739E+03
        -0.14337E+03
        -0.21864E+03
         0.25354E+03
        -0.14070E+03
         0.60135E+02
         0.16173E+04
         0.83557E+02
         0.14220E+03
        -0.12155E+04
        -0.53599E+02
        -0.41954E+03
        -0.74960E+03
        -0.11988E+04
        -0.26387E+02
         0.29450E+03
         0.17631E+01
         0.52754E+03
         0.36487E+03
         0.11804E+04
         0.12413E+04
        -0.63186E+03
        -0.24877E+04
         0.14450E+03
        -0.54436E+04
        -0.52745E+04
        -0.33164E+03
        -0.83761E+03
        -0.58803E+03
         0.57235E+04
         0.84643E+04
         0.63356E+04
         0.36663E+04
         0.15265E+04
        -0.46619E+03
         0.16969E+03
         0.11266E+03
        -0.26682E+02
        -0.14544E+04
        -0.48089E+04
        -0.69552E+04
        -0.50858E+04
         0.18333E+04
        -0.76303E+03
         0.12349E+04
         0.26194E+04
         0.84651E+03
         0.94149E+03
         0.17494E+04
         0.23227E+04
         0.31038E+04
         0.35530E+04
        -0.57204E+04
        -0.75060E+04
         0.11117E+04
         0.28282E+04
         0.21261E+04
         0.16518E+04
         0.12797E+04
         0.51876E+03
        -0.16616E+03
        -0.96591E+03
        -0.84436E+03
        -0.31011E+04
        -0.63528E+04
        -0.52147E+04
         0.56376E+04
         0.10435E+05
         0.11432E+05
         0.78446E+04
        -0.48589E+03
        -0.97232E+03
        -0.23074E+04
        -0.38456E+04
        -0.10121E+04
        -0.18012E+04
        -0.12594E+03
        -0.16376E+03
        -0.36570E+03
        -0.25510E+03
        -0.51347E+02
        -0.18515E+03
        -0.42178E+03
        -0.43936E+02
        -0.39246E+02
        -0.21160E+03
        -0.27096E+03
        -0.15915E+04
        -0.16724E+03
        -0.68674E+03
        -0.91407E+03
        -0.12497E+04
        -0.33221E+03
         0.20560E+02
        -0.43309E+03
         0.39747E+03
        -0.22606E+03
        -0.81440E+03
        -0.14558E+02
        -0.83031E+03
        -0.19836E+04
         0.14455E+03
        -0.55198E+04
        -0.27662E+04
         0.30888E+03
        -0.68570E+03
        -0.58540E+03
         0.91618E+03
         0.15441E+04
         0.20459E+04
         0.18458E+04
         0.60008E+03
        -0.82218E+03
        -0.12065E+03
        -0.19205E+03
        -0.75817E+02
        -0.83594E+03
        -0.35087E+04
        -0.32232E+04
        -0.32233E+04
         0.11990E+04
        -0.34233E+03
         0.81328E+03
         0.41723E+04
         0.87080E+03
         0.12672E+03
        -0.16338E+03
        -0.12809E+03
         0.78768E+03
         0.15969E+04
         0.18388E+04
         0.25682E+04
         0.23482E+04
         0.22876E+04
         0.22285E+04
         0.15628E+04
         0.13065E+04
         0.55801E+02
        -0.10181E+04
        -0.10199E+04
        -0.67335E+03
        -0.25943E+04
        -0.59276E+04
         0.13942E+04
         0.50658E+04
         0.63900E+04
         0.56934E+04
         0.48074E+04
        -0.23582E+03
        -0.17251E+03
        -0.92145E+01
        -0.91028E+03
        -0.38974E+03
        -0.81396E+03
         0.26965E+02
        -0.13842E+03
        -0.30518E+03
        -0.43856E+03
        -0.11307E+03
        -0.37075E+03
        -0.78609E+02
        -0.27631E+03
        -0.64459E+03
        -0.21989E+03
        -0.37108E+03
        -0.65245E+03
        -0.48151E+03
        -0.82482E+03
        -0.12360E+04
        -0.17945E+04
        -0.51754E+03
        -0.20308E+03
        -0.72044E+03
        -0.16389E+03
        -0.80942E+03
        -0.93693E+03
        -0.30161E+03
        -0.85316E+03
         0.10558E+03
        -0.20892E+02
        -0.38479E+03
        -0.16546E+04
         0.54062E+02
        -0.16693E+02
         0.43642E+02
        -0.94478E+03
        -0.44088E+03
         0.30997E+03
         0.88583E+03
         0.13738E+03
        -0.14011E+04
        -0.24982E+03
        -0.54752E+02
         0.15243E+03
         0.35026E+02
        -0.61378E+03
        -0.30967E+03
        -0.19248E+04
        -0.62280E+03
        -0.48216E+03
         0.80290E+03
         0.12734E+04
         0.32118E+03
        -0.94750E+02
        -0.69903E+03
        -0.84704E+03
        -0.62352E+03
         0.10255E+03
         0.14480E+04
         0.25355E+04
         0.15193E+04
         0.13560E+04
         0.30047E+04
         0.20627E+04
         0.13613E+04
         0.55672E+03
        -0.93006E+01
         0.33250E+02
         0.35011E+03
         0.20133E+02
        -0.20387E+03
        -0.17333E+04
         0.18614E+04
         0.24825E+04
         0.45630E+04
         0.24485E+04
         0.31927E+02
         0.12479E+03
         0.14376E+03
         0.29928E+03
        -0.23087E+02
         0.25080E+02
         0.51077E+02
        -0.16087E+03
        -0.16087E+03
        -0.52533E+03
        -0.85872E+02
        -0.23926E+03
         0.38706E+01
        -0.40275E+03
        -0.73655E+03
        -0.10009E+03
        -0.23891E+03
         0.10837E+03
        -0.27217E+03
        -0.46485E+03
        -0.72998E+03
        -0.12341E+04
        -0.37858E+03
        -0.22375E+03
        -0.60054E+03
        -0.15688E+03
        -0.58704E+03
        -0.98749E+03
        -0.81097E+03
        -0.80235E+03
         0.24095E+03
         0.83937E+01
         0.43584E+03
         0.44461E+03
        -0.63946E+02
         0.53510E+02
        -0.25068E+01
        -0.12050E+04
        -0.11823E+04
        -0.61514E+03
         0.52860E+03
        -0.54941E+03
        -0.11718E+04
        -0.16357E+03
        -0.77637E+01
         0.33412E+02
         0.23552E+03
         0.34046E+03
         0.36803E+03
         0.25242E+02
        -0.34563E+03
        -0.16518E+03
        -0.75875E+02
        -0.23148E+03
        -0.10924E+03
        -0.97393E+02
        -0.20648E+03
        -0.47169E+03
        -0.78173E+03
        -0.19227E+03
         0.78997E+03
         0.17103E+04
         0.22972E+04
         0.32842E+04
         0.27057E+04
         0.19278E+04
         0.84126E+03
         0.35051E+03
         0.32902E+03
         0.27987E+03
         0.38107E+03
         0.43237E+03
         0.27013E+02
        -0.49546E+03
        -0.12970E+04
        -0.14055E+04
        -0.12223E+04
        -0.77815E+03
         0.89953E+02
         0.86533E+02
         0.23795E+03
         0.41079E+03
         0.82362E+02
         0.15069E+03
         0.25370E+02
        -0.10332E+03
        -0.33352E+02
        -0.29716E+03
        -0.41573E+02
        -0.11544E+03
         0.50095E+02
        -0.20530E+03
        -0.47085E+03
        -0.20154E+02
        -0.17184E+03
         0.25274E+03
        -0.15380E+03
        -0.24858E+03
        -0.48802E+03
        -0.74178E+03
        -0.13565E+03
        -0.95906E+02
        -0.45498E+03
        -0.57200E+02
        -0.48531E+03
        -0.81580E+03
        -0.90241E+03
        -0.44888E+03
         0.29140E+03
         0.85934E+02
         0.48752E+03
         0.48205E+03
         0.20394E+02
         0.92355E+02
         0.10158E+03
        -0.98557E+03
        -0.11146E+04
        -0.65965E+03
        -0.64574E+02
        -0.59429E+03
        -0.96152E+03
        -0.55439E+02
         0.21057E+02
         0.22066E+02
         0.14917E+03
         0.36913E+03
         0.30211E+03
         0.30276E+03
        -0.59482E+02
         0.88484E+02
        -0.19465E+03
        -0.49062E+03
        -0.99238E+02
        -0.10338E+02
        -0.63618E+02
        -0.33459E+03
        -0.72840E+03
        -0.54396E+03
         0.78607E+03
         0.19793E+04
         0.22961E+04
         0.27769E+04
         0.18027E+04
         0.10134E+04
         0.56002E+03
         0.25713E+03
         0.15860E+03
         0.10858E+03
         0.93708E+02
         0.26750E+03
         0.26195E+03
         0.19932E+02
        -0.42301E+03
        -0.74760E+03
        -0.78463E+03
        -0.58425E+03
         0.35354E+02
         0.58172E+02
         0.16235E+03
         0.19552E+03
         0.69226E+02
         0.96685E+02
         0.34148E+02
        -0.15074E+02
        -0.18967E+02
        -0.12356E+03
        -0.25966E+02
        -0.43138E+02
         0.27500E+02
        -0.95115E+02
        -0.32276E+03
         0.13368E+02
        -0.71343E+02
         0.96524E+02
        -0.40954E+02
        -0.11346E+03
        -0.12462E+03
        -0.29968E+03
        -0.29492E+02
        -0.12518E+01
        -0.16231E+03
         0.15601E+02
        -0.24815E+03
        -0.40354E+03
        -0.43818E+03
        -0.27202E+03
         0.11706E+03
         0.52741E+02
         0.19467E+03
         0.13501E+03
         0.55233E+02
         0.58949E+02
         0.45209E+02
        -0.53125E+03
        -0.70821E+03
        -0.43290E+03
         0.19029E+02
        -0.34563E+03
        -0.70497E+03
         0.10783E+02
         0.29518E+02
         0.33146E+02
         0.74146E+02
         0.13609E+03
         0.15456E+03
         0.11870E+03
         0.29524E+02
         0.96767E+02
        -0.39001E+02
        -0.25297E+03
         0.15872E+02
         0.69582E+01
        -0.28285E+02
        -0.14750E+03
        -0.34972E+03
        -0.38255E+03
         0.13666E+03
         0.12876E+04
         0.13095E+04
         0.12164E+04
         0.96961E+03
         0.37377E+03
         0.13758E+03
         0.45276E+02
         0.19414E+02
        -0.69466E+01
        -0.19126E+02
         0.17805E+02
         0.97190E+02
        -0.11411E+02
        -0.10092E+03
        -0.20986E+03
        -0.33066E+03
        -0.31446E+03
         0.42949E+02
         0.33743E+02
         0.93607E+02
         0.10494E+03
         0.48438E+02
         0.68428E+02
         0.24188E+02
         0.11604E+01
        -0.16168E+02
        -0.48998E+02
         0.59360E-01
        -0.25600E+02
         0.20950E+02
        -0.20613E+02
        -0.95280E+02
         0.59767E+01
        -0.30685E+02
         0.22618E+02
         0.94694E+00
        -0.21590E+02
         0.10770E+02
        -0.64034E+02
         0.20827E+02
         0.20748E+02
        -0.10365E+03
         0.29700E+02
        -0.89952E+02
        -0.17072E+03
        -0.22389E+03
        -0.14519E+03
         0.62348E+02
         0.40514E+02
         0.73492E+02
         0.47664E+02
         0.40876E+02
         0.32061E+02
         0.36815E+02
        -0.19652E+03
        -0.16586E+03
         0.17927E+02
         0.15932E+03
         0.56234E+02
        -0.11915E+03
         0.12449E+02
         0.15875E+02
         0.89086E+01
         0.33044E+02
         0.46826E+02
         0.43264E+02
         0.32145E+02
        -0.61871E+01
         0.30369E+02
        -0.17058E+02
        -0.12656E+03
         0.63330E+01
         0.63895E+01
        -0.14738E+02
        -0.74481E+02
        -0.11640E+03
        -0.89824E+02
         0.43267E+02
         0.29579E+03
         0.27847E+03
         0.78363E+03
         0.37192E+03
         0.72708E+02
        -0.60387E+01
        -0.75822E+02
        -0.72518E+02
        -0.52471E+02
        -0.34184E+02
        -0.97275E+01
         0.15055E+02
         0.97308E+01
        -0.25494E+02
        -0.93933E+02
        -0.20738E+03
        -0.25400E+03
         0.62802E+02
         0.34639E+02
         0.99578E+02
         0.12406E+03
         0.36250E+02
         0.68789E+02
         0.16229E+02
         0.70933E+01
         0.28745E+01
        -0.80027E+01
         0.16686E+02
         0.13891E+02
         0.22255E+02
         0.12000E+02
         0.12217E+02
         0.18405E+02
        -0.21783E+00
         0.26639E+02
         0.33170E+02
         0.43124E+02
         0.67028E+02
         0.14939E+03
         0.24528E+02
         0.13761E+02
        -0.17850E+02
         0.20719E+02
        -0.59315E+01
        -0.18456E+02
        -0.22482E+02
         0.26336E+02
         0.61830E+02
         0.35524E+02
         0.87537E+02
         0.74163E+02
         0.11880E+02
         0.35320E+02
         0.24576E+02
        -0.34691E+02
        -0.72202E+02
        -0.63440E+02
         0.15292E+01
         0.44911E+01
         0.92725E+02
         0.57371E+01
         0.14157E+02
         0.31338E+01
         0.33570E+02
         0.42118E+02
         0.32405E+02
         0.38302E+02
        -0.30398E+02
        -0.97430E+01
        -0.60976E+02
        -0.15545E+03
        -0.26145E+02
        -0.11481E+02
        -0.35128E+01
        -0.23709E+02
        -0.60364E+02
        -0.93071E+02
        -0.43900E+02
         0.19695E+03
         0.18933E+03
        -0.40789E+02
        -0.33232E+03
        -0.21618E+03
        -0.52820E+02
        -0.68542E+02
        -0.64648E+02
        -0.60528E+02
        -0.36426E+02
         0.33655E+01
         0.16786E+01
        -0.14450E+02
        -0.11907E+03
        -0.10497E+03
        -0.14826E+03
        -0.18469E+03
         0.49073E+02
         0.27362E+02
         0.56227E+02
         0.10488E+03
         0.14287E+02
         0.50576E+02
         0.15977E+02
         0.23676E+02
         0.93903E+01
         0.10422E+02
         0.23001E+02
         0.25927E+02
         0.29639E+02
         0.40798E+02
         0.39640E+02
         0.18128E+02
         0.20623E+02
         0.32732E+02
         0.12980E+02
         0.43567E+02
         0.78193E+02
         0.20290E+03
         0.16820E+02
         0.10890E+02
         0.36192E+02
         0.13986E+02
         0.36686E+02
         0.67012E+02
         0.84711E+02
         0.56241E+02
         0.48336E+02
         0.33853E+02
         0.51827E+02
         0.40751E+02
         0.12350E+02
         0.35060E+02
         0.14365E+02
         0.61368E+02
         0.49432E+02
         0.54983E+02
         0.29617E+02
         0.12140E+03
         0.15178E+03
         0.69057E+01
         0.18991E+02
         0.25277E+02
         0.43729E+02
         0.38836E+02
         0.29729E+02
         0.96880E+01
        -0.36808E+02
        -0.10456E+02
        -0.80498E+02
        -0.17902E+03
        -0.18584E+02
        -0.12953E+02
        -0.27160E+01
         0.31988E+01
        -0.17203E+02
        -0.11600E+02
        -0.68179E+02
        -0.12954E+03
        -0.30509E+03
        -0.32247E+03
        -0.28006E+03
        -0.19536E+03
        -0.92230E+02
        -0.40656E+02
        -0.43275E+02
        -0.41161E+02
        -0.12185E+02
         0.19762E+02
         0.28776E+02
        -0.23439E+02
        -0.63574E+02
        -0.10958E+03
        -0.13952E+03
        -0.11436E+03
         0.44473E+02
         0.41152E+02
         0.54057E+02
         0.72220E+02
         0.37154E+02
         0.30811E+02
         0.23834E+02
         0.14281E+02
         0.11728E+02
         0.20791E+02
         0.17236E+02
         0.27415E+02
         0.30881E+02
         0.46758E+02
         0.81426E+02
         0.32825E+02
         0.22257E+02
         0.52679E+02
         0.44166E+02
         0.81936E+02
         0.15424E+03
         0.30102E+03
         0.62690E+02
         0.31082E+02
         0.50837E+02
         0.31730E+02
         0.28625E+02
         0.61393E+02
         0.11945E+03
         0.12688E+03
         0.78567E+02
         0.48422E+02
         0.11856E+03
         0.12390E+03
         0.60571E+01
         0.43711E+02
         0.32332E+02
         0.10950E+03
         0.13469E+03
         0.85561E+02
        -0.24001E+02
         0.10784E+02
         0.30879E+03
         0.36291E+02
         0.30050E+02
         0.30432E+02
         0.51156E+02
         0.73818E+02
         0.79445E+02
         0.59312E+02
         0.14980E+02
         0.58223E+02
        -0.92177E+02
        -0.18023E+03
        -0.60408E+02
        -0.37322E+02
        -0.90720E+01
         0.10288E+02
         0.50114E+02
         0.20631E+02
        -0.97325E+02
        -0.20880E+03
        -0.19620E+03
        -0.31571E+03
        -0.68894E+03
        -0.45266E+03
        -0.23841E+03
        -0.13139E+03
        -0.78600E+02
        -0.40131E+02
        -0.12334E+02
         0.24996E+02
         0.18100E+02
        -0.47639E+02
        -0.12974E+03
        -0.20586E+03
        -0.27481E+03
        -0.30301E+03
         0.43058E+02
         0.32398E+02
         0.11835E+03
         0.11831E+03
         0.41321E+02
         0.73975E+02
         0.16052E+02
         0.20386E+02
         0.99006E+01
         0.27567E+02
         0.34541E+02
         0.40218E+02
         0.33173E+02
         0.46238E+02
         0.78670E+02
         0.36691E+02
         0.31962E+02
         0.41833E+02
         0.45077E+02
         0.68110E+02
         0.81484E+02
         0.18411E+03
         0.19178E+02
         0.25422E+02
         0.54803E+02
         0.36887E+02
         0.49581E+02
         0.82764E+02
         0.10123E+03
         0.89105E+02
         0.84779E+02
         0.45692E+02
         0.10682E+03
         0.10484E+03
         0.21827E+01
         0.23419E+02
         0.20594E+02
         0.13343E+03
         0.11611E+03
         0.65607E+02
        -0.10382E+01
         0.14141E+03
         0.40782E+03
         0.33009E+02
         0.23166E+02
         0.26163E+02
         0.61262E+02
         0.77240E+02
         0.80917E+02
         0.65130E+02
         0.23777E+01
         0.71636E+02
        -0.10525E+03
        -0.17889E+03
        -0.53904E+02
        -0.45030E+02
        -0.17013E+02
         0.13548E+02
         0.34525E+02
         0.51818E+02
        -0.43469E+02
        -0.36498E+03
        -0.50675E+03
        -0.56023E+03
        -0.51161E+03
        -0.27259E+03
        -0.18806E+03
        -0.14189E+03
        -0.63308E+02
        -0.38544E+02
        -0.94866E+01
         0.19870E+02
         0.28214E+02
        -0.22495E+02
        -0.11314E+03
        -0.19970E+03
        -0.28824E+03
        -0.23724E+03
         0.69466E+02
         0.37989E+02
         0.11597E+03
         0.11085E+03
         0.39263E+02
         0.56433E+02
         0.17858E+02
         0.27812E+02
         0.13959E+02
         0.27904E+02
         0.45518E+02
         0.53314E+02
         0.39426E+02
         0.55517E+02
         0.92352E+02
         0.26811E+02
         0.34620E+02
         0.46789E+02
         0.28826E+02
         0.75662E+02
         0.85876E+02
         0.35259E+03
         0.64438E+02
         0.25050E+02
         0.30780E+02
         0.30823E+02
         0.63400E+02
         0.10243E+03
         0.19691E+03
         0.14963E+03
         0.63062E+02
         0.36673E+02
         0.60421E+02
         0.10297E+03
         0.71627E+01
         0.37027E+02
         0.29314E+02
         0.15485E+03
         0.26823E+03
         0.23510E+03
        -0.22694E+02
         0.11669E+03
         0.46278E+03
         0.21879E+02
         0.23595E+02
         0.20029E+02
         0.47809E+02
         0.63544E+02
         0.71262E+02
         0.65096E+02
        -0.10890E+02
         0.49981E+02
        -0.11010E+03
        -0.16611E+03
        -0.67213E+02
        -0.43662E+02
        -0.88855E+01
         0.22847E+02
         0.98117E+02
         0.13382E+03
        -0.56029E+02
        -0.40440E+03
        -0.63844E+03
        -0.82528E+03
        -0.75140E+03
        -0.47055E+03
        -0.20289E+03
        -0.96547E+02
        -0.52559E+02
        -0.32055E+02
        -0.85991E+01
         0.12623E+02
         0.36918E+01
        -0.63241E+02
        -0.15642E+03
        -0.20346E+03
        -0.27353E+03
        -0.32793E+03
         0.69751E+02
         0.36399E+02
         0.10748E+03
         0.13286E+03
         0.38304E+02
         0.83967E+02
         0.17728E+02
         0.10268E+02
         0.13646E+02
         0.25408E+02
         0.19491E+02
         0.36232E+02
         0.37301E+02
         0.63303E+02
         0.12342E+03
         0.20748E+02
         0.30393E+02
         0.41783E+02
         0.43588E+02
         0.88102E+02
         0.15556E+03
         0.32003E+03
         0.58644E+02
         0.19518E+02
         0.47837E+02
         0.23847E+02
         0.53079E+02
         0.11345E+03
         0.17148E+03
         0.12091E+03
         0.63311E+02
         0.37400E+02
         0.10103E+03
         0.11208E+03
         0.61576E+01
         0.22143E+02
         0.40034E+02
         0.19152E+03
         0.27836E+03
         0.28771E+03
         0.10024E+03
         0.32552E+03
         0.40801E+03
         0.44326E+02
         0.20843E+02
         0.20673E+02
         0.45291E+02
         0.62365E+02
         0.48539E+02
         0.50363E+02
        -0.12386E+02
         0.43516E+02
        -0.10665E+03
        -0.23124E+03
        -0.38199E+02
        -0.35038E+02
        -0.53514E+01
         0.25472E+02
         0.12889E+03
         0.95768E+02
        -0.16252E+03
        -0.38552E+03
        -0.64460E+03
        -0.90916E+03
        -0.75617E+03
        -0.50533E+03
        -0.20858E+03
        -0.96238E+02
        -0.38061E+02
        -0.31222E+02
        -0.93412E+01
         0.16301E+02
        -0.68207E+01
        -0.58100E+02
        -0.14126E+03
        -0.13662E+03
        -0.31130E+03
        -0.35374E+03
         0.51077E+02
         0.43191E+02
         0.10992E+03
         0.12071E+03
         0.45711E+02
         0.79724E+02
         0.14167E+02
         0.17307E+02
         0.65275E+01
         0.15063E+02
         0.28810E+02
         0.56978E+02
         0.33665E+02
         0.49625E+02
         0.10185E+03
         0.37588E+02
         0.41702E+02
         0.51956E+02
         0.38107E+02
         0.89616E+02
         0.17141E+03
         0.35061E+03
         0.70867E+02
         0.31694E+02
         0.71709E+02
         0.39613E+02
         0.55632E+02
         0.85273E+02
         0.20852E+03
         0.15949E+03
         0.76181E+02
         0.35075E+02
         0.10291E+03
         0.99655E+02
         0.49400E+01
         0.39956E+02
         0.13142E+02
         0.13268E+03
         0.16771E+03
         0.15541E+03
        -0.26649E+02
         0.15150E+03
         0.37903E+03
         0.30434E+02
         0.22524E+02
         0.22734E+02
         0.53254E+02
         0.69531E+02
         0.52481E+02
         0.64120E+02
         0.72372E+01
         0.68553E+02
        -0.10120E+03
        -0.25088E+03
        -0.13879E+02
        -0.15915E+01
         0.22847E+01
         0.26854E+02
         0.15743E+03
         0.11891E+03
        -0.89206E+02
        -0.51273E+03
        -0.64154E+03
        -0.78211E+03
        -0.84235E+03
        -0.49702E+03
        -0.24934E+03
        -0.82239E+02
        -0.26289E+02
        -0.19716E+02
        -0.47053E+01
         0.11957E+02
        -0.13074E+02
        -0.89105E+02
        -0.14141E+03
        -0.16972E+03
        -0.23672E+03
        -0.29813E+03
         0.35502E+02
         0.36087E+02
         0.82822E+02
         0.11666E+03
         0.35140E+02
         0.70280E+02
         0.18857E+02
         0.17344E+02
         0.22636E+02
         0.20679E+02
         0.29399E+02
         0.61065E+02
         0.25772E+02
         0.38732E+02
         0.89654E+02
         0.25594E+02
         0.22541E+02
         0.38925E+02
         0.31287E+02
         0.75203E+02
         0.18651E+03
         0.20530E+03
         0.31428E+02
         0.23779E+02
         0.54583E+02
         0.36785E+02
         0.55083E+02
         0.77428E+02
         0.18159E+03
         0.14944E+03
         0.72056E+02
         0.47548E+02
         0.11187E+03
         0.83839E+02
         0.91346E+01
         0.35861E+02
         0.35517E+02
         0.14031E+03
         0.18953E+03
         0.15653E+03
         0.43989E+02
         0.12024E+03
         0.29931E+03
         0.46558E+02
         0.33476E+02
         0.34715E+02
         0.57122E+02
         0.76716E+02
         0.71191E+02
         0.57977E+02
         0.66984E+01
         0.66049E+02
        -0.81302E+02
        -0.23812E+03
        -0.44975E+02
        -0.32515E+02
        -0.25360E+01
         0.61667E+02
         0.91696E+02
         0.52016E+02
        -0.16572E+03
        -0.35592E+03
        -0.60347E+03
        -0.79693E+03
        -0.66760E+03
        -0.48739E+03
        -0.21175E+03
        -0.97652E+02
        -0.44013E+02
        -0.18360E+02
         0.22096E+00
         0.16220E+02
        -0.88018E+01
        -0.71429E+02
        -0.15051E+03
        -0.21567E+03
        -0.24885E+03
        -0.27889E+03
         0.36135E+02
         0.30101E+02
         0.63355E+02
         0.81917E+02
         0.13426E+02
         0.29108E+02
         0.12385E+02
         0.14876E+02
         0.17411E+02
         0.36575E+02
         0.32586E+02
         0.47642E+02
         0.30571E+02
         0.53673E+02
         0.10803E+03
         0.40675E+02
         0.23219E+02
         0.37928E+02
         0.44054E+02
         0.74882E+02
         0.13600E+03
         0.27956E+03
         0.64587E+02
         0.38853E+02
         0.57678E+02
         0.48855E+02
         0.84794E+02
         0.12011E+03
         0.19994E+03
         0.15147E+03
         0.80401E+02
         0.58719E+02
         0.10024E+03
         0.97561E+02
        -0.12240E+02
         0.32846E+02
         0.22585E+02
         0.69802E+02
         0.96347E+02
         0.23850E+03
         0.86697E+02
         0.22818E+03
         0.35156E+03
         0.39193E+02
         0.33884E+02
         0.33686E+02
         0.51919E+02
         0.41954E+02
         0.47598E+02
         0.25992E+02
        -0.22455E+02
         0.16695E+02
        -0.97672E+02
        -0.21304E+03
        -0.37508E+02
        -0.28878E+02
         0.33596E+01
         0.50865E+02
         0.89872E+02
         0.10439E+03
        -0.86504E+02
        -0.35830E+03
        -0.50510E+03
        -0.44144E+03
        -0.40485E+03
        -0.31531E+03
        -0.20154E+03
        -0.13083E+03
        -0.67039E+02
        -0.31010E+02
        -0.11996E+02
         0.75583E+01
         0.16481E+01
        -0.75941E+02
        -0.14423E+03
        -0.16673E+03
        -0.21401E+03
        -0.26777E+03
         0.51117E+02
         0.29554E+02
         0.84817E+02
         0.11181E+03
         0.20438E+02
         0.35552E+02
         0.16456E+02
         0.14863E+02
         0.18459E+02
         0.27142E+02
         0.32108E+02
         0.30647E+02
         0.23972E+02
         0.43021E+02
         0.84450E+02
         0.40932E+02
         0.43081E+02
         0.24627E+02
         0.53060E+02
         0.10445E+03
         0.17248E+03
         0.30157E+03
         0.59131E+02
         0.30181E+02
         0.67981E+02
         0.40843E+02
         0.44651E+02
         0.83620E+02
         0.24363E+03
         0.16753E+03
         0.60352E+02
         0.43033E+02
         0.81784E+02
         0.77031E+02
        -0.63432E+01
         0.23125E+02
         0.28886E+02
         0.15019E+03
         0.21738E+03
         0.31714E+03
         0.15242E+03
         0.37489E+03
         0.48886E+03
         0.42980E+02
         0.34900E+02
         0.24158E+02
         0.38290E+02
         0.53802E+02
         0.42230E+02
         0.38910E+02
        -0.83163E+01
         0.34257E+02
        -0.68318E+02
        -0.16112E+03
        -0.59773E+02
        -0.37120E+02
         0.76204E+01
         0.47897E+02
         0.10823E+03
         0.11818E+03
        -0.31847E+02
        -0.40226E+03
        -0.83541E+03
        -0.10044E+04
        -0.82618E+03
        -0.57318E+03
        -0.27014E+03
        -0.13175E+03
        -0.69362E+02
        -0.45207E+02
        -0.18647E+02
        -0.25322E+01
        -0.26178E+02
        -0.74301E+02
        -0.12735E+03
        -0.17616E+03
        -0.20193E+03
        -0.24371E+03
         0.46530E+02
         0.45583E+02
         0.60187E+02
         0.60712E+02
         0.25594E+02
         0.39341E+02
         0.20594E+02
         0.19385E+02
         0.10754E+02
         0.44243E+02
         0.21311E+02
         0.43353E+02
         0.18832E+02
         0.29741E+02
         0.10378E+03
         0.15579E+02
         0.32457E+02
         0.15041E+02
         0.52152E+02
         0.11234E+03
         0.20309E+03
         0.40437E+03
         0.47951E+02
         0.21745E+02
         0.57635E+02
         0.29937E+02
         0.64899E+02
         0.12456E+03
         0.18083E+03
         0.14254E+03
         0.33577E+02
         0.23535E+02
         0.53720E+02
         0.69876E+02
         0.11476E+02
         0.33800E+02
         0.24535E+02
         0.13821E+03
         0.25716E+03
         0.36671E+03
         0.13545E+03
         0.40983E+03
         0.51573E+03
         0.26076E+02
         0.17443E+02
         0.14285E+02
         0.33268E+02
         0.36417E+02
         0.19667E+02
         0.19591E+02
        -0.86806E+01
         0.29543E+02
        -0.66636E+02
        -0.16092E+03
        -0.98769E+01
        -0.19240E+02
         0.10609E+02
         0.50627E+02
         0.90442E+02
         0.19497E+03
         0.65356E+02
        -0.44856E+03
        -0.89624E+03
        -0.86242E+03
        -0.70133E+03
        -0.58675E+03
        -0.29239E+03
        -0.14424E+03
        -0.72625E+02
        -0.45933E+02
        -0.24205E+02
        -0.13741E+02
        -0.37508E+02
        -0.68839E+02
        -0.86583E+02
        -0.69593E+02
        -0.11080E+03
        -0.18090E+03
         0.99632E+01
         0.23493E+02
         0.13453E+02
         0.13205E+02
         0.59052E+01
         0.20311E+02
         0.74943E+01
         0.19197E+02
         0.65847E+01
         0.34756E+02
         0.33815E+02
         0.45418E+02
         0.23341E+02
         0.37146E+02
         0.87001E+02
         0.18439E+02
         0.24781E+02
         0.84099E+00
         0.55517E+02
         0.95718E+02
         0.16728E+03
         0.29162E+03
         0.37040E+02
         0.23023E+02
         0.47895E+02
         0.14285E+02
         0.55661E+02
         0.10737E+03
         0.23046E+03
         0.11921E+03
         0.17508E+02
         0.19763E+02
         0.24615E+02
         0.17644E+02
         0.78805E+01
         0.23267E+02
         0.22385E+02
         0.99308E+02
         0.26210E+03
         0.32135E+03
         0.70267E+02
         0.34738E+02
         0.45764E+03
         0.21568E+02
         0.18670E+02
         0.42657E+01
         0.81573E+01
        -0.68205E+01
        -0.11044E+01
        -0.60477E+01
        -0.76724E+01
         0.46739E+01
        -0.18574E+02
        -0.81592E+02
        -0.13456E+02
        -0.10728E+02
         0.52217E+01
         0.74812E+02
         0.90811E+02
         0.21841E+03
        -0.10422E+03
        -0.54121E+03
        -0.72475E+03
        -0.11169E+04
        -0.73576E+03
        -0.39477E+03
        -0.15553E+03
        -0.12789E+03
        -0.69465E+02
        -0.38522E+02
        -0.98946E+01
        -0.79874E+01
        -0.35727E+02
        -0.58356E+02
        -0.42649E+02
        -0.34406E+02
        -0.63207E+02
        -0.10250E+03
         0.43106E+01
         0.19179E+01
         0.91222E+00
        -0.42291E+02
         0.13663E+02
         0.14197E+02
         0.20201E+02
         0.35395E+02
        -0.61808E+01
         0.52501E+02
         0.39243E+02
         0.54697E+02
         0.17902E+02
         0.63425E+02
         0.11973E+03
        -0.60156E+01
         0.12101E+02
        -0.33646E+02
         0.30684E+02
         0.66228E+02
         0.14476E+03
         0.12242E+03
         0.14792E+02
         0.10020E+02
         0.63041E+02
         0.18071E+02
         0.56245E+02
         0.88808E+02
         0.12070E+03
         0.91713E+02
        -0.30789E+02
         0.18572E+02
        -0.29843E+02
        -0.41923E+02
         0.10907E+02
         0.11829E+02
        -0.40172E+01
         0.62708E+02
         0.19152E+03
         0.27408E+03
         0.13638E+03
         0.26947E+03
         0.47682E+03
         0.24284E+02
         0.30067E+01
        -0.11899E+02
         0.67541E+01
        -0.22136E+01
         0.94473E+01
         0.37187E+01
         0.40513E+02
         0.11706E+02
         0.60798E+02
         0.32623E+02
         0.30088E+02
         0.56259E+01
         0.16113E+02
         0.36958E+02
         0.65202E+02
         0.20308E+03
        -0.56115E+02
        -0.59344E+03
        -0.96481E+03
        -0.82268E+03
        -0.33241E+03
        -0.20811E+03
        -0.10760E+03
        -0.68724E+02
        -0.44714E+02
        -0.23151E+02
        -0.32489E+02
        -0.36759E+02
        -0.13937E+01
         0.24785E+02
         0.65828E+02
         0.16180E+03
         0.10777E+03
         0.53578E+02
         0.20792E+02
        -0.24618E+02
        -0.51843E+02
        -0.11885E+03
         0.10738E+02
        -0.11369E+02
         0.21610E+02
         0.32631E+02
         0.16116E+02
         0.78677E+02
         0.62876E+02
         0.55002E+02
         0.24468E+02
         0.36474E+02
         0.72840E+02
         0.28837E+02
         0.32248E+02
        -0.39527E+02
         0.62111E+02
         0.56177E+02
         0.20921E+03
         0.30863E+03
         0.10401E+03
         0.52520E+02
         0.44157E+02
         0.49526E+02
         0.17623E+02
         0.84166E+01
        -0.12020E+02
         0.26099E+02
        -0.24100E+02
         0.17098E+02
        -0.11099E+03
        -0.10055E+03
         0.31661E+02
         0.53173E+01
         0.67137E+01
         0.11670E+03
         0.13580E+03
         0.61091E+02
         0.82483E+00
         0.20579E+03
         0.30685E+03
         0.67815E+02
         0.24526E+02
        -0.90203E+00
        -0.33544E+01
        -0.51049E+02
        -0.47334E+02
         0.30474E+02
         0.11772E+03
         0.11305E+02
         0.16527E+03
         0.21859E+03
         0.87381E+02
         0.22676E+02
         0.11244E+02
         0.33896E+02
         0.59939E+02
        -0.85849E+02
        -0.90456E+02
        -0.91296E+02
        -0.60127E+02
        -0.53008E+03
        -0.24239E+03
        -0.41664E+03
        -0.23366E+03
        -0.10080E+03
        -0.36217E+02
        -0.99641E+02
        -0.11965E+03
        -0.11202E+03
         0.42595E+02
         0.20119E+03
         0.38176E+03
         0.37724E+03
         0.45540E+03
         0.36694E+03
         0.44302E+02
         0.13819E+02
        -0.35658E+02
        -0.99329E+02
         0.47724E+00
        -0.47290E+02
         0.36672E+02
         0.61960E+02
         0.28296E+02
         0.81411E+02
         0.43364E+02
         0.50677E+02
         0.35004E+02
         0.54160E+02
         0.49113E+02
         0.86935E+02
         0.25427E+01
        -0.11674E+02
         0.14119E+03
         0.68898E+02
         0.63913E+03
         0.88366E+03
         0.31666E+03
         0.13878E+03
         0.17789E+02
         0.11811E+03
         0.60246E+02
         0.32273E+02
         0.21477E+02
         0.58959E+02
        -0.33548E+02
         0.46874E+02
        -0.12558E+03
        -0.13484E+03
         0.16778E+02
        -0.84315E+01
         0.60623E+01
        -0.44290E+01
        -0.81458E+02
        -0.23252E+02
         0.83349E+02
         0.31118E+03
         0.70236E+03
         0.18289E+03
         0.44923E+02
        -0.26124E+02
        -0.35615E+02
        -0.67545E+02
        -0.87834E+02
        -0.61378E+02
         0.61698E+02
        -0.27566E+02
         0.85996E+02
         0.23882E+03
         0.40395E+02
         0.12829E+02
         0.16621E+02
         0.47874E+01
         0.65493E+01
        -0.82593E+02
        -0.15260E+03
        -0.47613E+02
         0.88609E+02
        -0.20754E+03
        -0.76215E+03
        -0.11234E+04
        -0.92885E+03
        -0.48125E+03
        -0.18703E+03
        -0.19180E+03
        -0.22094E+03
        -0.15756E+03
         0.34924E+02
         0.13865E+03
         0.31863E+03
         0.41221E+03
         0.47016E+03
         0.43390E+03
         0.65264E+02
         0.10079E+01
        -0.11702E+03
        -0.13906E+03
        -0.18008E+03
        -0.22826E+03
         0.10187E+02
         0.39250E+02
         0.38154E+02
         0.69546E+02
        -0.99445E+01
        -0.96212E+01
         0.16468E+02
         0.82039E+01
        -0.30769E+01
         0.18487E+03
         0.54026E+02
         0.27314E+02
         0.28733E+03
         0.25669E+03
         0.82898E+03
         0.12283E+04
         0.32044E+03
         0.16800E+03
         0.38598E+02
         0.13094E+03
         0.44456E+02
         0.56090E+02
         0.12103E+03
         0.25228E+03
         0.62914E+01
         0.45458E+02
        -0.11002E+03
        -0.21229E+03
        -0.16708E+03
        -0.90398E+02
         0.56607E+01
         0.22325E+02
         0.40587E+01
         0.84588E+02
         0.21076E+03
         0.38042E+03
         0.96643E+03
         0.16531E+03
        -0.20623E+02
        -0.11234E+03
        -0.57055E+02
        -0.47761E+02
        -0.77315E+02
        -0.17084E+03
        -0.14493E+03
        -0.21316E+03
        -0.17184E+03
        -0.27456E+02
        -0.17418E+03
        -0.52743E+02
         0.12414E+02
         0.98331E+01
        -0.16193E+02
         0.91589E+01
         0.13332E+03
         0.35272E+03
         0.25037E+03
        -0.54064E+03
        -0.17909E+04
        -0.24207E+04
        -0.19088E+04
        -0.10649E+04
        -0.49885E+03
        -0.32723E+03
        -0.29024E+03
        -0.17283E+03
         0.61390E+02
         0.19524E+03
         0.95438E+02
         0.12299E+03
         0.14721E+03
         0.91509E+02
  
SCALARS                         fint_z  double 1
LOOKUP_TABLE default
        -0.36666E+03
        -0.12641E+04
        -0.29380E+02
         0.10736E+04
        -0.25973E+03
        -0.93248E+03
        -0.16473E+03
         0.53551E+02
         0.58146E+03
         0.14071E+04
         0.16668E+03
         0.32328E+03
        -0.13152E+04
        -0.27793E+03
        -0.83860E+03
        -0.26079E+03
         0.12214E+03
         0.88413E+01
         0.10206E+03
        -0.14825E+03
        -0.10613E+04
        -0.38895E+04
        -0.25520E+04
        -0.76135E+03
        -0.36023E+04
        -0.22176E+04
        -0.73702E+03
        -0.15370E+04
        -0.56361E+03
        -0.13219E+04
         0.22894E+03
         0.22121E+03
         0.20663E+03
         0.18147E+03
         0.22951E+03
         0.21687E+03
         0.91131E+02
         0.16549E+03
         0.55384E+02
         0.12928E+03
         0.14387E+03
         0.16042E+03
         0.37377E+02
         0.10115E+03
         0.10188E+03
        -0.45661E+01
        -0.40653E+02
        -0.42240E+02
         0.25880E+03
         0.70090E+02
        -0.85517E+02
        -0.32955E+03
        -0.87845E+03
        -0.72759E+03
        -0.17308E+04
        -0.14437E+04
        -0.20347E+04
         0.72714E+03
        -0.12499E+04
         0.33651E+03
         0.13311E+04
         0.30531E+03
        -0.29939E+03
        -0.27152E+03
         0.13326E+04
         0.10986E+03
         0.23787E+04
         0.11491E+03
         0.26679E+03
        -0.41600E+03
        -0.19197E+02
        -0.53474E+03
        -0.12924E+04
        -0.10829E+04
        -0.10500E+05
        -0.97466E+04
        -0.16123E+05
        -0.17344E+05
        -0.13303E+05
        -0.12642E+05
        -0.63981E+04
        -0.13287E+04
        -0.47997E+04
        -0.86179E+03
         0.75070E+03
         0.34959E+03
         0.28989E+02
        -0.38400E+03
         0.49033E+03
         0.12961E+02
         0.62676E+03
         0.41586E+03
         0.20245E+03
         0.39720E+02
         0.12429E+04
        -0.90614E+02
         0.30949E+04
         0.67983E+03
         0.33572E+04
         0.46623E+03
         0.21377E+04
         0.31827E+04
         0.24456E+03
         0.38110E+03
         0.48549E+03
         0.14418E+04
        -0.24397E+03
         0.34351E+03
        -0.29326E+03
        -0.73373E+03
        -0.39376E+03
        -0.45642E+03
         0.10218E+04
         0.15665E+04
         0.39421E+04
         0.55109E+04
         0.77256E+04
         0.10513E+05
         0.18824E+05
         0.25308E+05
         0.24679E+05
         0.40986E+05
         0.73875E+04
         0.16073E+05
        -0.43185E+04
        -0.32145E+04
        -0.19370E+04
        -0.10806E+04
        -0.41197E+03
        -0.50750E+03
         0.91998E+02
        -0.29348E+03
         0.80182E+03
         0.20224E+03
         0.95523E+03
         0.45097E+03
         0.70014E+03
         0.42651E+03
         0.56400E+03
         0.50415E+03
         0.47822E+03
         0.56509E+03
        -0.43008E+03
         0.40922E+03
        -0.15466E+04
         0.30339E+03
        -0.81916E+04
         0.71433E+02
        -0.85660E+04
        -0.55957E+02
        -0.35789E+04
         0.15187E+03
         0.65463E+03
         0.34275E+03
         0.19762E+04
         0.26704E+03
         0.18752E+02
        -0.47141E+03
         0.11091E+04
         0.35845E+04
         0.21923E+04
         0.49526E+04
        -0.50684E+03
         0.15344E+02
         0.61372E+03
         0.62875E+03
        -0.85332E+03
        -0.23044E+04
        -0.14631E+04
        -0.84846E+03
        -0.37480E+04
         0.21814E+03
         0.69631E+03
         0.86211E+03
         0.18690E+02
         0.81693E+03
         0.21753E+03
         0.55546E+03
         0.43161E+03
        -0.11788E+03
         0.97386E+03
         0.48312E+03
        -0.13131E+04
        -0.12933E+04
        -0.78436E+03
         0.12822E+04
         0.50871E+04
         0.21165E+04
         0.73690E+04
         0.72831E+04
         0.12355E+04
         0.15687E+03
        -0.55975E+03
        -0.84474E+04
        -0.11274E+05
        -0.93972E+04
        -0.52621E+04
        -0.11486E+04
         0.89544E+03
         0.75939E+03
         0.10762E+04
         0.79392E+03
         0.17608E+04
         0.42012E+04
         0.25861E+04
         0.60543E+04
         0.36950E+04
         0.60551E+04
         0.16342E+04
         0.25691E+04
         0.12439E+04
         0.34938E+03
         0.43974E+03
         0.14154E+04
         0.24353E+04
         0.63959E+04
         0.83193E+04
        -0.65259E+03
        -0.53407E+04
        -0.21528E+04
        -0.19534E+03
         0.74660E+03
         0.16020E+04
         0.15344E+04
         0.83068E+03
        -0.28989E+03
        -0.10325E+04
        -0.32389E+04
        -0.12020E+05
        -0.13939E+05
        -0.19929E+05
        -0.78614E+04
         0.57462E+03
         0.29831E+04
         0.19748E+03
         0.50390E+03
         0.73741E+03
         0.21241E+04
         0.78306E+03
         0.22311E+04
        -0.49988E+02
         0.36868E+03
         0.49293E+03
         0.49554E+03
         0.21260E+03
         0.30123E+02
        -0.91178E+02
         0.19743E+03
        -0.54879E+03
         0.21750E+03
         0.44168E+03
         0.98559E+03
         0.12695E+01
         0.68161E+03
         0.44035E+03
         0.76245E+03
         0.48963E+03
        -0.52978E+01
         0.12073E+04
         0.45205E+03
         0.43286E+03
         0.10248E+04
         0.57077E+03
         0.11744E+04
         0.36879E+04
         0.13655E+04
         0.39734E+04
         0.29507E+04
         0.79934E+03
         0.56880E+03
         0.20918E+03
        -0.15113E+04
        -0.23098E+04
        -0.21200E+04
        -0.19643E+04
        -0.42136E+03
         0.10010E+04
         0.62751E+03
         0.57280E+03
         0.10568E+03
         0.59850E+03
         0.15341E+04
         0.22528E+04
         0.13637E+04
        -0.12330E+04
         0.27906E+04
         0.90423E+03
         0.23433E+04
         0.87273E+03
         0.56090E+03
         0.90158E+02
        -0.36512E+03
        -0.90856E+03
        -0.96573E+03
        -0.25681E+04
        -0.31811E+04
        -0.26984E+04
        -0.16265E+04
        -0.67775E+03
         0.71636E+03
         0.16786E+04
         0.14764E+04
         0.34860E+03
        -0.97239E+03
        -0.14346E+04
        -0.29519E+04
        -0.10375E+05
        -0.61164E+04
        -0.92319E+04
        -0.43933E+04
        -0.26798E+04
        -0.61433E+02
         0.29204E+03
         0.21212E+03
         0.16436E+03
         0.86311E+02
         0.51618E+03
         0.23608E+03
         0.15441E+03
         0.28445E+03
         0.33071E+03
         0.73257E+03
         0.31617E+03
         0.59154E+03
         0.28132E+03
         0.53832E+03
         0.84263E+03
        -0.54252E+02
         0.39614E+03
         0.40985E+03
         0.69347E+02
         0.68844E+03
         0.37588E+03
         0.96161E+03
         0.78949E+02
        -0.12801E+03
         0.89741E+03
        -0.19269E+03
         0.10555E+04
         0.14178E+04
         0.96213E+03
         0.10657E+04
        -0.46862E+03
        -0.50802E+03
        -0.13578E+03
         0.73506E+03
         0.50899E+03
         0.14034E+02
         0.13493E+02
         0.76355E+03
         0.24288E+03
        -0.32204E+03
        -0.20725E+03
         0.37322E+03
         0.12679E+04
         0.53425E+02
        -0.52676E+02
         0.20688E+01
        -0.75308E+02
         0.17033E+03
         0.61996E+03
         0.41166E+03
         0.88955E+03
        -0.38014E+02
         0.60848E+03
         0.36955E+03
         0.76653E+03
         0.18414E+03
        -0.56303E+02
        -0.63352E+03
        -0.10227E+04
        -0.21495E+04
        -0.27470E+04
        -0.22341E+04
        -0.14058E+04
        -0.41642E+03
        -0.25789E+03
         0.69235E+03
         0.12995E+04
         0.10388E+04
         0.52291E+03
         0.17874E+03
         0.17953E+03
         0.44969E+03
        -0.10929E+04
        -0.28489E+04
        -0.21925E+04
        -0.13428E+04
        -0.14751E+04
         0.17314E+03
         0.86152E+02
        -0.32263E+02
        -0.84877E+02
        -0.23483E+03
        -0.13253E+03
        -0.27723E+03
         0.65049E+02
         0.16610E+03
         0.21559E+03
         0.45566E+03
         0.27239E+03
         0.41330E+03
         0.20454E+03
         0.46052E+03
         0.73730E+03
        -0.73688E+02
         0.36442E+03
        -0.11799E+03
         0.21092E+02
         0.46023E+03
         0.29040E+03
         0.66246E+03
        -0.46523E+02
        -0.14502E+03
         0.78977E+03
        -0.34549E+03
         0.68190E+03
         0.93178E+03
         0.72411E+03
         0.10958E+04
        -0.82650E+03
        -0.48713E+03
        -0.70483E+03
        -0.60731E+03
        -0.68108E+02
        -0.60619E+02
         0.16955E+02
         0.10269E+04
         0.94898E+03
         0.55550E+03
        -0.22835E+03
         0.60894E+03
         0.98658E+03
        -0.16706E+03
        -0.12946E+03
         0.24447E+02
        -0.31765E+03
        -0.38706E+03
        -0.75331E+03
        -0.37616E+03
        -0.15971E+03
        -0.42123E+03
         0.26619E+02
        -0.15450E+03
        -0.28001E+02
         0.25104E+02
         0.57042E+02
        -0.56112E+02
        -0.10094E+04
        -0.18302E+04
        -0.20049E+04
        -0.24388E+04
        -0.23424E+04
        -0.19200E+04
        -0.53952E+03
         0.74063E+03
         0.92382E+03
         0.39726E+03
         0.38023E+03
         0.45172E+03
         0.43357E+03
         0.65010E+03
         0.13754E+04
         0.16611E+04
         0.15639E+04
         0.71848E+03
         0.25059E+03
        -0.64549E+02
        -0.29553E+02
        -0.60796E+02
        -0.20418E+03
        -0.34779E+03
        -0.22146E+03
        -0.26173E+03
         0.22687E+02
         0.79957E+02
        -0.82725E+01
         0.19643E+03
         0.14375E+03
         0.31012E+03
         0.12109E+03
         0.27026E+03
         0.55395E+03
        -0.15863E+03
         0.82274E+02
        -0.27497E+03
        -0.53264E+01
         0.22094E+03
         0.14363E+03
         0.30826E+03
        -0.13940E+02
        -0.76395E+02
         0.50524E+03
        -0.21018E+03
         0.38930E+03
         0.75673E+03
         0.94207E+03
         0.64542E+03
        -0.50737E+03
        -0.23684E+03
        -0.61957E+03
        -0.56592E+03
        -0.10205E+03
        -0.10468E+03
        -0.16880E+02
         0.10154E+04
         0.12021E+04
         0.96553E+03
         0.31125E+03
         0.71675E+03
         0.73800E+03
        -0.80584E+02
        -0.68396E+02
         0.18439E+02
        -0.38636E+02
        -0.17088E+03
        -0.18924E+03
        -0.42964E+02
         0.25620E+02
        -0.26396E+03
        -0.11710E+03
        -0.17489E+03
        -0.77651E+02
         0.11405E+02
         0.74508E+02
         0.25619E+02
        -0.38217E+03
        -0.14258E+04
        -0.27271E+04
        -0.25055E+04
        -0.22098E+04
        -0.11825E+04
        -0.66471E+02
         0.31850E+03
         0.53125E+03
         0.25485E+03
         0.11538E+03
         0.16017E+03
         0.19093E+03
         0.34691E+03
         0.76777E+03
         0.60797E+03
         0.91690E+03
         0.56748E+03
         0.30950E+03
         0.24030E+02
        -0.85938E+02
        -0.65546E+02
        -0.14448E+03
        -0.20460E+03
        -0.12665E+03
        -0.14555E+03
        -0.32717E+02
        -0.30346E+02
        -0.42539E+02
         0.93808E+02
         0.25602E+02
         0.69148E+02
         0.10790E+02
         0.89700E+02
         0.34187E+03
        -0.78024E+02
         0.37899E+02
        -0.14184E+03
        -0.13307E+02
         0.83711E+02
         0.36531E+02
         0.18255E+03
        -0.44410E+01
        -0.27388E+02
         0.17447E+03
        -0.63062E+02
         0.26042E+03
         0.49461E+03
         0.54965E+03
         0.28271E+03
        -0.13926E+03
        -0.54957E+02
        -0.21247E+03
        -0.15715E+03
        -0.94444E+02
        -0.52020E+02
        -0.26360E+02
         0.61809E+03
         0.95184E+03
         0.71460E+03
         0.23844E+03
         0.41133E+03
         0.52891E+03
        -0.23371E+02
        -0.15755E+02
         0.77694E+01
        -0.10233E+02
        -0.41366E+02
        -0.72865E+02
        -0.40514E+02
         0.56608E+02
        -0.70389E+02
        -0.67372E+02
        -0.58173E+02
        -0.25921E+02
         0.17104E+02
         0.34702E+02
         0.46919E+02
        -0.78508E+02
        -0.64323E+03
        -0.18253E+04
        -0.12591E+04
        -0.86371E+03
        -0.26317E+03
         0.29958E+03
         0.30731E+03
         0.17638E+03
         0.62476E+02
         0.18340E+02
         0.28017E+02
         0.36552E+02
         0.21161E+02
         0.12115E+03
         0.23832E+03
         0.30030E+03
         0.32272E+03
         0.26021E+03
         0.96860E+02
        -0.57261E+02
        -0.28555E+02
        -0.98746E+02
        -0.11821E+03
        -0.78605E+02
        -0.56561E+02
        -0.28836E+02
         0.73450E+01
        -0.42047E+02
         0.22984E+02
        -0.13732E+02
         0.35957E+02
        -0.11634E+02
         0.65095E+01
         0.99478E+02
        -0.47434E+02
         0.13088E+02
        -0.52692E+02
        -0.77060E+01
         0.30381E+02
        -0.31115E+00
         0.70169E+02
        -0.17107E+02
        -0.20113E+02
         0.73840E+02
        -0.17167E+02
         0.10932E+03
         0.19090E+03
         0.23713E+03
         0.13363E+03
        -0.51652E+02
        -0.88472E+01
        -0.72859E+02
        -0.60887E+02
        -0.76029E+02
        -0.35788E+02
        -0.25091E+02
         0.15763E+03
         0.23649E+03
        -0.26971E+02
        -0.27200E+02
         0.14071E+03
         0.20433E+03
        -0.20649E+01
         0.88857E+01
         0.17288E+02
         0.15174E+02
         0.13803E+02
         0.18202E+01
         0.62947E+01
         0.26625E+02
        -0.26423E+02
        -0.31553E+02
        -0.18903E+02
        -0.24768E+02
         0.29929E+01
         0.27136E+02
         0.59339E+02
         0.80869E+02
        -0.59749E+01
        -0.15815E+03
        -0.22547E+03
        -0.52647E+03
        -0.73932E+02
         0.22473E+03
         0.13597E+03
         0.33024E+02
        -0.12165E+01
         0.68790E+01
         0.16900E+02
         0.13917E+02
        -0.47067E+01
         0.10955E+02
         0.78953E+02
         0.18053E+03
         0.20306E+03
         0.20248E+03
         0.11161E+03
        -0.68427E+02
        -0.38103E+02
        -0.72043E+02
        -0.12018E+03
        -0.68940E+02
        -0.70241E+02
        -0.17864E+02
        -0.20842E+02
        -0.32224E+02
        -0.19053E+02
        -0.27274E+02
        -0.15256E+02
        -0.24611E+02
        -0.28465E+02
        -0.16337E+02
        -0.24566E+02
        -0.37492E+02
        -0.44074E+02
        -0.21779E+02
        -0.45215E+02
        -0.63073E+02
        -0.82498E+02
        -0.30648E+02
        -0.21458E+02
        -0.39944E+02
        -0.27249E+02
        -0.19751E+02
         0.10574E+02
        -0.21001E+02
        -0.35321E+02
        -0.61821E+02
        -0.24401E+02
        -0.10095E+03
        -0.77669E+02
        -0.40410E+02
        -0.39057E+02
        -0.14783E+02
         0.32910E+02
         0.10608E+03
         0.10625E+03
         0.71760E+02
         0.15772E+02
        -0.35588E+02
        -0.15249E+02
        -0.98809E+00
         0.80502E+01
        -0.22015E+01
        -0.65801E+01
         0.36452E+01
         0.12987E+02
         0.25524E+02
        -0.33826E+02
        -0.23072E+02
         0.13534E+02
        -0.34863E+01
        -0.60456E+01
        -0.15355E+01
         0.25166E+02
         0.11794E+03
         0.15111E+03
        -0.12076E+03
         0.98625E+02
         0.46770E+02
         0.15961E+03
         0.14203E+03
        -0.90364E+02
        -0.88315E+02
        -0.25827E+02
        -0.44632E+01
         0.70447E+01
         0.10557E+02
         0.28659E+02
         0.88083E+02
         0.69249E+02
         0.19676E+03
         0.12865E+03
         0.68224E+02
         0.97336E+02
        -0.47518E+02
        -0.22539E+02
        -0.51264E+02
        -0.74811E+02
        -0.60867E+02
        -0.63588E+02
        -0.12882E+02
        -0.25856E+02
        -0.35391E+02
        -0.38853E+02
        -0.21134E+02
        -0.16782E+02
        -0.21751E+02
        -0.45094E+02
        -0.26890E+02
        -0.16533E+02
        -0.38423E+02
        -0.37998E+02
        -0.13736E+02
        -0.53627E+02
        -0.52090E+02
        -0.14182E+03
        -0.24336E+02
        -0.77482E+01
        -0.84454E+02
        -0.12908E+02
        -0.69749E+02
        -0.11456E+03
        -0.10523E+03
        -0.82341E+02
        -0.67530E+02
        -0.26377E+02
        -0.46990E+02
        -0.48672E+02
        -0.22928E+02
        -0.32274E+02
        -0.11902E+02
        -0.26306E+02
        -0.44046E+02
        -0.33559E+02
         0.25468E+02
        -0.41865E+02
        -0.12033E+03
        -0.67448E+01
        -0.97445E+01
         0.72427E+00
        -0.87449E+01
        -0.12460E+02
        -0.12545E+02
        -0.44814E+01
         0.41705E+02
        -0.22430E+02
        -0.44711E+02
        -0.13670E+02
        -0.13111E+02
         0.24431E+01
         0.27475E+01
         0.21110E+02
         0.90369E+02
         0.14366E+03
         0.29936E+03
         0.44408E+03
         0.28021E+03
         0.34782E+03
         0.94302E+02
        -0.48063E+02
        -0.74874E+02
        -0.28222E+02
        -0.19696E+02
         0.44539E+01
         0.10683E+02
         0.32860E+02
         0.13184E+03
         0.86840E+02
         0.13753E+03
         0.11774E+03
         0.12535E+03
         0.41354E+02
        -0.20455E+02
        -0.17433E+02
        -0.43064E+02
        -0.93700E+02
        -0.30688E+02
        -0.76278E+02
        -0.86412E+01
        -0.13905E+02
        -0.34694E+02
        -0.37709E+02
        -0.67908E+01
        -0.11409E+02
        -0.62136E+01
        -0.33003E+02
        -0.63479E+02
        -0.21231E+02
        -0.37407E+02
        -0.50139E+02
        -0.32754E+02
        -0.79065E+02
        -0.91784E+02
        -0.18404E+03
        -0.44216E+02
        -0.16917E+02
        -0.90611E+02
        -0.17759E+02
        -0.46530E+02
        -0.12562E+03
        -0.14236E+03
        -0.14617E+03
        -0.88397E+02
        -0.33482E+02
        -0.11076E+03
        -0.12182E+03
        -0.36964E+02
        -0.41848E+02
        -0.11681E+02
        -0.12403E+03
        -0.21116E+03
        -0.15520E+03
        -0.48118E+02
        -0.42457E+02
        -0.22484E+03
        -0.21264E+02
        -0.81969E+01
         0.38730E+01
        -0.93997E+01
        -0.40884E+02
        -0.73308E+02
        -0.43636E+02
         0.11517E+02
        -0.43294E+02
        -0.51639E+02
        -0.11778E+02
        -0.68946E+01
         0.20122E+01
        -0.41587E+01
         0.12190E+02
         0.12253E+03
         0.27659E+03
         0.39055E+03
         0.31389E+03
         0.23668E+03
         0.25766E+03
         0.14290E+03
        -0.10410E+03
        -0.14182E+03
        -0.71551E+02
        -0.21012E+02
         0.17018E+01
         0.12051E+02
         0.40276E+02
         0.14618E+03
         0.23111E+03
         0.28944E+03
         0.25020E+03
         0.20731E+03
         0.12459E+03
        -0.29712E+02
        -0.14264E+02
        -0.71079E+02
        -0.89884E+02
        -0.65874E+02
        -0.65863E+02
        -0.58164E+01
        -0.18223E+02
        -0.11124E+02
        -0.30809E+02
        -0.17433E+02
        -0.28477E+02
        -0.15256E+02
        -0.27866E+02
        -0.59609E+02
        -0.20524E+02
        -0.46807E+02
        -0.42885E+02
        -0.27655E+02
        -0.81991E+02
        -0.62034E+02
        -0.14188E+03
        -0.45511E+02
        -0.19952E+02
        -0.93096E+02
        -0.26216E+02
        -0.59040E+02
        -0.16804E+03
        -0.20796E+03
        -0.92194E+02
        -0.10744E+03
        -0.40914E+02
        -0.13669E+03
        -0.10881E+03
        -0.64548E+02
        -0.33924E+02
        -0.85592E+01
        -0.13012E+03
        -0.15439E+03
        -0.98082E+02
        -0.83873E+02
        -0.18670E+03
        -0.22705E+03
        -0.21532E+02
        -0.12504E+02
        -0.16150E+01
        -0.20396E+02
        -0.48890E+02
        -0.52425E+02
        -0.41251E+02
         0.12172E+01
        -0.47429E+02
        -0.53915E+02
        -0.27309E+02
        -0.22526E+02
        -0.84208E+01
        -0.14173E+02
         0.10069E+02
         0.12210E+03
         0.27219E+03
         0.47580E+03
         0.68154E+03
         0.60516E+03
         0.27505E+03
        -0.29085E+02
        -0.84010E+02
        -0.10137E+03
        -0.67638E+02
        -0.21446E+01
         0.10422E+02
         0.21090E+02
         0.55438E+02
         0.14222E+03
         0.20616E+03
         0.27669E+03
         0.23778E+03
         0.21924E+03
         0.84558E+02
        -0.53061E+02
        -0.20434E+02
        -0.82081E+02
        -0.13949E+03
        -0.60262E+02
        -0.85633E+02
        -0.15030E+02
        -0.12448E+02
        -0.23428E+02
        -0.37037E+02
        -0.17397E+02
        -0.29808E+02
        -0.16237E+02
        -0.36026E+02
        -0.39673E+02
        -0.31070E+02
        -0.48512E+02
        -0.47405E+02
        -0.36337E+02
        -0.95927E+02
        -0.94943E+02
        -0.17224E+03
        -0.51557E+02
        -0.15427E+02
        -0.59838E+02
        -0.24012E+02
        -0.86189E+02
        -0.19610E+03
        -0.15135E+03
        -0.17866E+03
        -0.92187E+02
        -0.39340E+02
        -0.91709E+02
        -0.85661E+02
        -0.67159E+02
        -0.33177E+02
        -0.19492E+02
        -0.11445E+03
        -0.20747E+03
        -0.25113E+03
        -0.76799E+02
        -0.22844E+03
        -0.27753E+03
        -0.17391E+02
        -0.20184E+02
         0.27664E+01
        -0.22329E+02
        -0.34003E+02
        -0.49313E+02
        -0.36648E+02
         0.37307E+02
        -0.37314E+02
        -0.31160E+02
         0.81844E+01
        -0.22989E+02
        -0.10142E+02
        -0.16557E+02
         0.12547E+02
         0.11243E+03
         0.39282E+03
         0.70012E+03
         0.77265E+03
         0.68620E+03
         0.19615E+03
         0.13881E+03
        -0.15223E+03
        -0.14516E+03
        -0.61581E+02
        -0.53372E+01
         0.20562E+02
         0.40703E+02
         0.72857E+02
         0.15488E+03
         0.30387E+03
         0.31812E+03
         0.28009E+03
         0.20501E+03
         0.11866E+03
        -0.46955E+02
        -0.24149E+02
        -0.69124E+02
        -0.97401E+02
        -0.51031E+02
        -0.76598E+02
        -0.15941E+02
        -0.16623E+02
        -0.30408E+02
        -0.27252E+02
        -0.16041E+02
        -0.45718E+02
        -0.23240E+02
        -0.40524E+02
        -0.66288E+02
        -0.11837E+02
        -0.41007E+02
        -0.46417E+02
        -0.19930E+02
        -0.87971E+02
        -0.86577E+02
        -0.19599E+03
        -0.38436E+02
        -0.16563E+02
        -0.72370E+02
        -0.32647E+02
        -0.93389E+02
        -0.14880E+03
        -0.20900E+03
        -0.14832E+03
        -0.87604E+02
        -0.37492E+02
        -0.12052E+03
        -0.93913E+02
        -0.56511E+02
        -0.14941E+02
        -0.18641E+02
        -0.24421E+03
        -0.32494E+03
        -0.28852E+03
        -0.11103E+03
        -0.30078E+03
        -0.32967E+03
        -0.33116E+02
        -0.14792E+02
         0.61017E+01
        -0.19163E+02
        -0.45000E+02
        -0.39620E+02
         0.28669E+01
         0.43493E+02
        -0.38936E+02
        -0.44214E+02
         0.27358E+02
        -0.39851E+02
        -0.28025E+02
        -0.25459E+02
         0.25262E+02
         0.17172E+03
         0.42601E+03
         0.76848E+03
         0.76318E+03
         0.76387E+03
         0.24819E+03
         0.55793E+02
        -0.15825E+03
        -0.17481E+03
        -0.60494E+02
        -0.20938E+02
         0.17553E+02
         0.37823E+02
         0.56194E+02
         0.16026E+03
         0.18792E+03
         0.24078E+03
         0.14856E+03
         0.25043E+03
         0.14158E+03
        -0.36711E+02
        -0.34322E+02
        -0.65602E+02
        -0.91465E+02
        -0.62104E+02
        -0.67194E+02
        -0.18978E+02
        -0.12132E+02
        -0.38360E+02
        -0.19071E+02
        -0.21519E+02
        -0.72702E+02
        -0.27972E+02
        -0.66340E+02
        -0.88686E+02
        -0.34098E+02
        -0.49162E+02
        -0.59924E+02
        -0.13052E+02
        -0.79632E+02
        -0.97654E+02
        -0.20452E+03
        -0.55084E+02
        -0.13858E+02
        -0.11043E+03
        -0.47539E+02
        -0.10867E+03
        -0.17444E+03
        -0.27713E+03
        -0.18511E+03
        -0.10929E+03
        -0.50252E+02
        -0.14179E+03
        -0.11929E+03
        -0.43289E+02
        -0.45513E+02
        -0.13957E+02
        -0.21861E+03
        -0.32234E+03
        -0.27744E+03
        -0.52357E+02
        -0.13888E+03
        -0.34840E+03
        -0.36808E+02
        -0.26248E+02
         0.76310E+01
        -0.20549E+02
        -0.62393E+02
        -0.46628E+02
        -0.41553E+02
         0.38009E+02
        -0.57909E+02
        -0.36773E+02
         0.24168E+02
        -0.56594E+02
        -0.30042E+02
        -0.13624E+02
         0.10613E+02
         0.20614E+03
         0.60555E+03
         0.81943E+03
         0.80590E+03
         0.62032E+03
         0.27936E+03
         0.10683E+03
        -0.15426E+03
        -0.17803E+03
        -0.99663E+02
        -0.31003E+02
         0.15845E+02
         0.56421E+02
         0.94215E+02
         0.19073E+03
         0.26754E+03
         0.24418E+03
         0.20870E+03
         0.20656E+03
         0.17479E+03
        -0.44496E+02
        -0.30321E+02
        -0.62640E+02
        -0.10123E+03
        -0.41819E+02
        -0.65006E+02
        -0.17926E+02
        -0.51102E+01
        -0.41026E+02
        -0.22099E+02
        -0.30506E+02
        -0.64583E+02
        -0.39848E+02
        -0.60238E+02
        -0.12192E+03
        -0.31686E+02
        -0.34478E+02
        -0.50127E+02
        -0.12035E+02
        -0.56317E+02
        -0.10040E+03
        -0.14287E+03
        -0.43594E+02
        -0.20702E+02
        -0.93799E+02
        -0.44723E+02
        -0.99641E+02
        -0.18294E+03
        -0.21581E+03
        -0.16274E+03
        -0.11965E+03
        -0.47694E+02
        -0.15037E+03
        -0.10912E+03
        -0.70393E+02
        -0.30260E+02
        -0.26079E+02
        -0.23388E+03
        -0.27014E+03
        -0.21383E+03
        -0.94275E+02
        -0.18704E+03
        -0.21144E+03
        -0.34622E+02
        -0.20645E+02
         0.83396E+01
        -0.16971E+02
        -0.56318E+02
        -0.63446E+02
        -0.44290E+02
         0.22732E+02
        -0.58066E+02
        -0.39997E+02
         0.16921E+02
        -0.39952E+02
        -0.21449E+02
        -0.14730E+02
         0.35396E+02
         0.21731E+03
         0.48205E+03
         0.51527E+03
         0.73514E+03
         0.60158E+03
         0.30367E+03
         0.21189E+03
        -0.11906E+03
        -0.15247E+03
        -0.87508E+02
        -0.23983E+02
         0.31413E+02
         0.67218E+02
         0.10532E+03
         0.18692E+03
         0.22913E+03
         0.31233E+03
         0.23725E+03
         0.18954E+03
         0.13635E+03
        -0.51494E+02
        -0.36729E+02
        -0.52201E+02
        -0.74843E+02
        -0.34027E+02
        -0.42498E+02
        -0.13218E+02
        -0.95706E+01
        -0.33531E+02
        -0.58268E+02
        -0.19970E+02
        -0.54072E+02
        -0.31184E+02
        -0.60006E+02
        -0.10190E+03
        -0.28123E+02
        -0.44163E+02
        -0.46671E+02
        -0.33698E+02
        -0.75347E+02
        -0.81451E+02
        -0.17490E+03
        -0.44030E+02
        -0.25492E+02
        -0.10015E+03
        -0.38809E+02
        -0.10305E+03
        -0.18087E+03
        -0.22077E+03
        -0.16617E+03
        -0.10017E+03
        -0.49002E+02
        -0.13252E+03
        -0.10733E+03
        -0.32380E+02
        -0.30950E+02
        -0.17391E+02
        -0.43820E+02
        -0.89816E+02
        -0.27137E+03
        -0.90391E+02
        -0.20971E+03
        -0.26080E+03
        -0.21003E+02
        -0.14103E+02
         0.11762E+02
        -0.16927E+01
        -0.16140E+01
        -0.20611E+02
         0.70436E+01
         0.49102E+02
        -0.62868E+01
        -0.30298E+02
         0.18784E+02
        -0.95389E+01
        -0.16897E+02
        -0.16690E+02
         0.21650E+02
         0.16343E+03
         0.37846E+03
         0.61426E+03
         0.68821E+03
         0.51140E+03
         0.42843E+03
        -0.17704E+02
        -0.14805E+03
        -0.13373E+03
        -0.84365E+02
        -0.19410E+02
         0.18807E+02
         0.45131E+02
         0.70976E+02
         0.13772E+03
         0.24043E+03
         0.27881E+03
         0.22319E+03
         0.17421E+03
         0.17816E+03
        -0.43411E+02
        -0.20136E+02
        -0.52446E+02
        -0.77896E+02
        -0.27446E+02
        -0.34994E+02
        -0.93139E+01
        -0.16983E+02
        -0.35958E+02
        -0.60492E+02
        -0.14268E+02
        -0.33939E+02
        -0.24539E+02
        -0.41008E+02
        -0.87788E+02
        -0.22879E+02
        -0.52212E+02
        -0.30993E+02
        -0.36998E+02
        -0.92935E+02
        -0.95541E+02
        -0.19156E+03
        -0.39473E+02
        -0.72362E+01
        -0.10195E+03
        -0.20249E+02
        -0.91217E+02
        -0.15938E+03
        -0.29711E+03
        -0.15660E+03
        -0.67217E+02
        -0.35905E+02
        -0.10245E+03
        -0.67364E+02
        -0.23020E+02
        -0.16746E+02
        -0.19699E+02
        -0.14704E+03
        -0.27017E+03
        -0.25307E+03
        -0.69016E+02
        -0.35125E+03
        -0.34640E+03
        -0.21727E+02
        -0.16038E+02
        -0.92310E+00
        -0.10361E+02
        -0.26627E+02
        -0.17974E+02
        -0.41858E+01
         0.56507E+02
        -0.63856E+01
        -0.20071E+02
         0.96660E+01
        -0.33614E+02
        -0.29608E+02
        -0.16788E+02
         0.19524E+02
         0.13776E+03
         0.37143E+03
         0.74963E+03
         0.10255E+04
         0.82753E+03
         0.46336E+03
         0.54606E+02
        -0.15133E+03
        -0.18383E+03
        -0.10046E+03
        -0.44730E+02
        -0.54065E+01
         0.29960E+02
         0.57126E+02
         0.13720E+03
         0.21120E+03
         0.26199E+03
         0.25156E+03
         0.19545E+03
         0.13809E+03
        -0.31531E+02
        -0.29567E+02
        -0.36961E+02
        -0.37084E+02
        -0.23853E+02
        -0.13728E+02
        -0.12069E+02
        -0.25208E+02
        -0.34458E+02
        -0.58113E+02
        -0.16450E+02
        -0.40772E+02
        -0.19398E+02
        -0.39543E+02
        -0.80304E+02
         0.24039E+01
        -0.47223E+02
        -0.12930E+02
        -0.17667E+02
        -0.91287E+02
        -0.10132E+03
        -0.22475E+03
        -0.35733E+02
        -0.10255E+02
        -0.89628E+02
        -0.20042E+02
        -0.66751E+02
        -0.18264E+03
        -0.22026E+03
        -0.11986E+03
        -0.42641E+02
        -0.24644E+02
        -0.65919E+02
        -0.65024E+02
        -0.38131E+02
        -0.25146E+02
        -0.20262E+02
        -0.10640E+03
        -0.16178E+03
        -0.24910E+03
        -0.89412E+02
        -0.36324E+03
        -0.36853E+03
        -0.19546E+02
        -0.70234E+01
         0.54990E+01
        -0.53041E+00
        -0.13661E+02
        -0.12885E+02
        -0.51199E+01
         0.40772E+02
         0.83365E+01
        -0.13253E+02
         0.53861E+02
        -0.18043E+02
        -0.22990E+02
        -0.15449E+02
         0.14035E+02
         0.11563E+03
         0.29258E+03
         0.75389E+03
         0.10665E+04
         0.87016E+03
         0.38913E+03
         0.14322E+03
        -0.19749E+03
        -0.19287E+03
        -0.10318E+03
        -0.38115E+02
         0.18431E+01
         0.17513E+02
         0.29828E+02
         0.61292E+02
         0.13359E+03
         0.15616E+03
         0.86891E+02
         0.86800E+02
         0.10781E+03
        -0.19710E+02
        -0.21216E+02
        -0.56999E+01
        -0.25818E+02
         0.66265E+00
         0.10422E+02
        -0.89326E+01
        -0.23155E+02
        -0.21920E+02
        -0.64389E+02
        -0.23620E+02
        -0.37399E+02
        -0.19054E+02
        -0.42617E+02
        -0.10188E+03
        -0.56529E+01
        -0.33423E+02
        -0.74652E+01
        -0.26125E+02
        -0.80132E+02
        -0.10713E+03
        -0.19032E+03
        -0.40743E+02
        -0.11772E+02
        -0.74433E+02
        -0.57333E+01
        -0.67089E+02
        -0.15468E+03
        -0.19857E+03
        -0.11100E+03
        -0.11142E+02
        -0.65252E+01
        -0.25048E+02
        -0.89452E+01
        -0.17460E+02
        -0.15836E+02
        -0.11566E+02
        -0.13020E+03
        -0.40729E+03
        -0.31040E+03
        -0.14125E+03
        -0.64544E+02
        -0.10364E+03
        -0.66042E+01
         0.36410E+01
         0.48012E+01
         0.10015E+01
         0.78927E+01
         0.70112E+01
         0.35626E+02
         0.51979E+02
         0.31251E+02
        -0.10816E+02
         0.51173E+02
        -0.19517E+02
        -0.14610E+02
        -0.70279E+01
         0.30210E+02
         0.16353E+03
         0.49838E+03
         0.10388E+04
         0.93687E+03
         0.92190E+03
         0.29865E+03
         0.11168E+03
        -0.24994E+03
        -0.16939E+03
        -0.76778E+02
        -0.24643E+02
        -0.26920E+01
         0.11797E+02
        -0.20701E+01
         0.78624E+01
         0.46026E+02
         0.70007E+02
         0.78342E+02
         0.92350E+02
         0.87945E+02
        -0.18092E+02
        -0.11005E+02
         0.63621E+01
         0.42667E+02
         0.17696E+02
         0.46377E+02
        -0.29868E+02
        -0.29723E+02
        -0.22002E+02
        -0.57258E+02
        -0.27362E+02
        -0.55591E+02
        -0.27592E+02
        -0.57822E+02
        -0.10202E+03
         0.14211E+02
        -0.33638E+02
         0.36173E+02
        -0.70631E+01
        -0.50873E+02
        -0.61319E+02
        -0.11758E+03
        -0.16601E+02
        -0.93494E+01
        -0.62926E+02
         0.54059E+01
        -0.11089E+03
        -0.12781E+03
        -0.13577E+03
        -0.16965E+03
         0.96862E+02
         0.21424E+02
         0.62918E+02
         0.63992E+02
         0.36929E+00
        -0.13149E+02
         0.21870E+01
        -0.88527E+02
        -0.36208E+03
        -0.19735E+03
         0.95599E+01
        -0.23539E+03
        -0.28279E+03
        -0.73831E+00
         0.28050E+02
         0.21346E+02
         0.24304E+02
         0.42278E+02
         0.54417E+02
         0.10741E+02
         0.26143E+02
         0.52487E+02
        -0.20955E+02
         0.22699E+02
         0.18797E+01
         0.22072E+02
         0.11586E+02
         0.52378E+02
         0.11310E+03
         0.42431E+03
         0.88773E+03
         0.82199E+03
         0.86161E+03
         0.37494E+03
        -0.10639E+03
        -0.10843E+03
        -0.67851E+02
        -0.24078E+02
        -0.11262E+02
        -0.64921E+01
        -0.25667E+02
        -0.77093E+02
        -0.11328E+03
        -0.18257E+03
        -0.13631E+03
        -0.90914E+02
         0.18857E+02
         0.60906E+02
        -0.43880E+02
        -0.28074E+02
         0.38378E+02
         0.10515E+03
         0.43988E+02
         0.10840E+03
        -0.51011E+02
        -0.26228E+02
        -0.16694E+02
        -0.99463E+02
        -0.63001E+02
        -0.64873E+02
        -0.50311E+02
        -0.38977E+02
        -0.72523E+02
        -0.53894E+01
        -0.40275E+02
         0.57161E+02
        -0.14345E+02
        -0.53208E+02
        -0.40715E+02
        -0.89835E+02
        -0.12356E+02
        -0.12577E+01
        -0.56934E+02
         0.16218E+02
        -0.17641E+02
        -0.18936E+02
        -0.51456E+02
        -0.28491E+02
         0.18641E+03
         0.11956E+03
         0.23026E+03
         0.17246E+03
        -0.26493E+02
        -0.10664E+02
        -0.22031E+02
        -0.17095E+03
        -0.11179E+03
        -0.13905E+03
        -0.29689E+02
        -0.13402E+03
        -0.15985E+03
         0.81094E+01
         0.32402E+02
         0.20171E+02
         0.57402E+02
         0.11911E+03
         0.18676E+03
         0.89804E+02
         0.10263E+02
         0.90085E+02
        -0.70930E+01
         0.60424E+01
         0.78029E+01
         0.18499E+02
         0.12446E+02
         0.59209E+02
         0.18903E+03
         0.16440E+03
         0.88747E+02
         0.77015E+02
         0.30000E+03
         0.46530E+03
         0.95448E+02
        -0.11094E+03
        -0.20806E+03
        -0.15740E+03
        -0.70449E+02
        -0.44210E+02
        -0.14375E+03
        -0.32319E+03
        -0.50443E+03
        -0.52694E+03
        -0.49682E+03
        -0.25971E+03
        -0.15981E+03
        -0.26585E+02
        -0.35582E+02
        -0.31474E+02
         0.94460E+01
         0.90307E+02
         0.28756E+02
         0.11098E+03
        -0.42827E+02
        -0.44875E+02
        -0.34939E+02
        -0.66967E+02
        -0.42820E+02
        -0.42570E+02
        -0.44879E+02
        -0.53872E+02
        -0.28971E+02
         0.26498E+02
        -0.50367E+02
         0.18609E+02
         0.12455E+02
        -0.50806E+02
        -0.63093E+02
        -0.15498E+03
        -0.15561E+02
         0.32705E+02
        -0.56305E+02
         0.82991E+02
        -0.64192E+02
        -0.33148E+02
        -0.24324E+02
        -0.89048E+02
         0.28164E+03
         0.21092E+03
         0.25792E+03
         0.20104E+03
         0.18463E+02
        -0.86543E+01
        -0.21946E+02
        -0.60328E+01
         0.30297E+02
         0.35310E+02
         0.66652E+02
         0.11099E+01
        -0.19184E+03
         0.34661E+02
         0.73618E+02
         0.33104E+02
         0.11023E+03
         0.14699E+03
         0.17564E+03
         0.11850E+03
         0.75647E+00
         0.11759E+03
         0.36712E+02
         0.40179E+02
         0.76343E+01
        -0.14737E+02
        -0.15053E+02
         0.15414E+02
         0.10163E+03
         0.14343E+03
         0.38219E+02
        -0.31188E+02
         0.15723E+03
         0.60089E+03
         0.60458E+03
         0.12740E+02
        -0.47775E+03
        -0.51448E+03
        -0.29857E+03
        -0.18399E+03
        -0.27344E+03
        -0.52348E+03
        -0.49732E+03
        -0.52935E+03
        -0.51799E+03
        -0.35571E+03
        -0.21433E+03
        -0.72495E+02
         0.62364E+02
         0.42652E+02
         0.14133E+03
         0.17632E+03
         0.19673E+03
         0.19841E+03
         0.46773E+01
         0.25453E+02
         0.67728E+01
         0.17848E+02
         0.11676E+02
         0.15604E+02
        -0.56023E+01
         0.25340E+02
         0.33127E+02
         0.39061E+02
        -0.42358E+02
         0.31586E+02
         0.30739E+01
        -0.99178E+02
        -0.19453E+03
        -0.19001E+03
        -0.15840E+03
         0.20055E+02
        -0.20754E+02
         0.11460E+03
         0.51516E+02
         0.11535E+03
         0.27250E+03
        -0.10523E+03
         0.24909E+03
         0.19395E+03
         0.25762E+03
         0.23032E+03
         0.15477E+03
         0.57968E+02
        -0.13407E+02
         0.10393E+03
         0.22428E+03
         0.30048E+03
         0.44784E+03
         0.50149E+03
         0.37259E+01
        -0.70331E+02
         0.35002E+02
         0.27133E+02
         0.13670E+03
         0.25694E+03
         0.26749E+03
         0.15395E+03
         0.48206E+02
         0.12916E+03
         0.15286E+03
         0.95340E+02
         0.89831E+01
        -0.79516E+02
        -0.44075E+02
        -0.11240E+02
        -0.79786E+02
        -0.21104E+03
        -0.34523E+03
        -0.18820E+03
         0.45904E+03
         0.13507E+04
         0.14275E+04
         0.17230E+03
        -0.85582E+03
        -0.94626E+03
        -0.63890E+03
        -0.39327E+03
        -0.33560E+03
        -0.52445E+03
        -0.55671E+03
        -0.37649E+03
        -0.24391E+03
        -0.15502E+03
        -0.30252E+02
         0.44719E+02
  
SCALARS        characteristic_distance  double 1
LOOKUP_TABLE default
         0.00000E+00
         0.00000E+00
         0.00000E+00
         0.00000E+00
         0.00000E+00
         0.00000E+00
         0.00000E+00
         0.00000E+00
         0.00000E+00
         0.00000E+00
         0.00000E+00
         0.00000E+00
         0.00000E+00
         0.00000E+00
         0.00000E+00
         0.00000E+00
         0.00000E+00
         0.00000E+00
         0.00000E+00
         0.00000E+00
         0.00000E+00
         0.00000E+00
         0.00000E+00
         0.00000E+00
         0.00000E+00
         0.00000E+00
         0.00000E+00
         0.00000E+00
         0.00000E+00
         0.00000E+00
         0.00000E+00
         0.00000E+00
         0.00000E+00
         0.00000E+00
         0.00000E+00
         0.00000E+00
         0.00000E+00
         0.00000E+00
         0.00000E+00
         0.00000E+00
         0.00000E+00
         0.00000E+00
         0.00000E+00
         0.00000E+00
         0.00000E+00
         0.00000E+00
         0.00000E+00
         0.00000E+00
         0.00000E+00
         0.00000E+00
         0.00000E+00
         0.00000E+00
         0.00000E+00
         0.00000E+00
         0.00000E+00
         0.00000E+00
         0.00000E+00
         0.00000E+00
         0.00000E+00
         0.00000E+00
         0.00000E+00
         0.00000E+00
         0.00000E+00
         0.00000E+00
         0.00000E+00
         0.00000E+00
         0.00000E+00
         0.00000E+00
         0.00000E+00
         0.00000E+00
         0.00000E+00
         0.00000E+00
         0.00000E+00
         0.00000E+00
         0.00000E+00
         0.00000E+00
         0.00000E+00
         0.00000E+00
         0.00000E+00
         0.00000E+00
         0.00000E+00
         0.00000E+00
         0.00000E+00
         0.00000E+00
         0.00000E+00
         0.00000E+00
         0.00000E+00
         0.00000E+00
         0.00000E+00
         0.00000E+00
         0.00000E+00
         0.00000E+00
         0.00000E+00
         0.00000E+00
         0.00000E+00
         0.00000E+00
         0.00000E+00
         0.00000E+00
         0.00000E+00
         0.00000E+00
         0.00000E+00
         0.00000E+00
         0.00000E+00
         0.00000E+00
         0.00000E+00
         0.00000E+00
         0.00000E+00
         0.00000E+00
         0.00000E+00
         0.00000E+00
         0.00000E+00
         0.00000E+00
         0.00000E+00
         0.00000E+00
         0.00000E+00
         0.00000E+00
         0.00000E+00
         0.00000E+00
         0.00000E+00
         0.00000E+00
         0.00000E+00
         0.00000E+00
         0.00000E+00
         0.00000E+00
         0.00000E+00
         0.00000E+00
         0.00000E+00
         0.00000E+00
         0.00000E+00
         0.00000E+00
         0.00000E+00
         0.00000E+00
         0.00000E+00
         0.00000E+00
         0.00000E+00
         0.00000E+00
         0.00000E+00
         0.00000E+00
         0.00000E+00
         0.00000E+00
         0.00000E+00
         0.00000E+00
         0.00000E+00
         0.00000E+00
         0.00000E+00
         0.00000E+00
         0.00000E+00
         0.00000E+00
         0.00000E+00
         0.00000E+00
         0.00000E+00
         0.00000E+00
         0.00000E+00
         0.00000E+00
         0.00000E+00
         0.00000E+00
         0.00000E+00
         0.00000E+00
         0.00000E+00
         0.00000E+00
         0.00000E+00
         0.00000E+00
         0.00000E+00
         0.00000E+00
         0.00000E+00
         0.00000E+00
         0.00000E+00
         0.00000E+00
         0.00000E+00
         0.00000E+00
         0.00000E+00
         0.00000E+00
         0.00000E+00
         0.00000E+00
         0.00000E+00
         0.00000E+00
         0.00000E+00
         0.00000E+00
         0.00000E+00
         0.00000E+00
         0.00000E+00
         0.00000E+00
         0.00000E+00
         0.00000E+00
         0.00000E+00
         0.00000E+00
         0.00000E+00
         0.00000E+00
         0.00000E+00
         0.00000E+00
         0.00000E+00
         0.00000E+00
         0.00000E+00
         0.00000E+00
         0.00000E+00
         0.00000E+00
         0.00000E+00
         0.00000E+00
         0.00000E+00
         0.00000E+00
         0.00000E+00
         0.00000E+00
         0.00000E+00
         0.00000E+00
         0.00000E+00
         0.00000E+00
         0.00000E+00
         0.00000E+00
         0.00000E+00
         0.00000E+00
         0.00000E+00
         0.00000E+00
         0.00000E+00
         0.00000E+00
         0.00000E+00
         0.00000E+00
         0.00000E+00
         0.00000E+00
         0.00000E+00
         0.00000E+00
         0.00000E+00
         0.00000E+00
         0.00000E+00
         0.00000E+00
         0.00000E+00
         0.00000E+00
         0.00000E+00
         0.00000E+00
         0.00000E+00
         0.00000E+00
         0.00000E+00
         0.00000E+00
         0.00000E+00
         0.00000E+00
         0.00000E+00
         0.00000E+00
         0.00000E+00
         0.00000E+00
         0.00000E+00
         0.00000E+00
         0.00000E+00
         0.00000E+00
         0.00000E+00
         0.00000E+00
         0.00000E+00
         0.00000E+00
         0.00000E+00
         0.00000E+00
         0.00000E+00
         0.00000E+00
         0.00000E+00
         0.00000E+00
         0.00000E+00
         0.00000E+00
         0.00000E+00
         0.00000E+00
         0.00000E+00
         0.00000E+00
         0.00000E+00
         0.00000E+00
         0.00000E+00
         0.00000E+00
         0.00000E+00
         0.00000E+00
         0.00000E+00
         0.00000E+00
         0.00000E+00
         0.00000E+00
         0.00000E+00
         0.00000E+00
         0.00000E+00
         0.00000E+00
         0.00000E+00
         0.00000E+00
         0.00000E+00
         0.00000E+00
         0.00000E+00
         0.00000E+00
         0.00000E+00
         0.00000E+00
         0.00000E+00
         0.00000E+00
         0.00000E+00
         0.00000E+00
         0.00000E+00
         0.00000E+00
         0.00000E+00
         0.00000E+00
         0.00000E+00
         0.00000E+00
         0.00000E+00
         0.00000E+00
         0.00000E+00
         0.00000E+00
         0.00000E+00
         0.00000E+00
         0.00000E+00
         0.00000E+00
         0.00000E+00
         0.00000E+00
         0.00000E+00
         0.00000E+00
         0.00000E+00
         0.00000E+00
         0.00000E+00
         0.00000E+00
         0.00000E+00
         0.00000E+00
         0.00000E+00
         0.00000E+00
         0.00000E+00
         0.00000E+00
         0.00000E+00
         0.00000E+00
         0.00000E+00
         0.00000E+00
         0.00000E+00
         0.00000E+00
         0.00000E+00
         0.00000E+00
         0.00000E+00
         0.00000E+00
         0.00000E+00
         0.00000E+00
         0.00000E+00
         0.00000E+00
         0.00000E+00
         0.00000E+00
         0.00000E+00
         0.00000E+00
         0.00000E+00
         0.00000E+00
         0.00000E+00
         0.00000E+00
         0.00000E+00
         0.00000E+00
         0.00000E+00
         0.00000E+00
         0.00000E+00
         0.00000E+00
         0.00000E+00
         0.00000E+00
         0.00000E+00
         0.00000E+00
         0.00000E+00
         0.00000E+00
         0.00000E+00
         0.00000E+00
         0.00000E+00
         0.00000E+00
         0.00000E+00
         0.00000E+00
         0.00000E+00
         0.00000E+00
         0.00000E+00
         0.00000E+00
         0.00000E+00
         0.00000E+00
         0.00000E+00
         0.00000E+00
         0.00000E+00
         0.00000E+00
         0.00000E+00
         0.00000E+00
         0.00000E+00
         0.00000E+00
         0.00000E+00
         0.00000E+00
         0.00000E+00
         0.00000E+00
         0.00000E+00
         0.00000E+00
         0.00000E+00
         0.00000E+00
         0.00000E+00
         0.00000E+00
         0.00000E+00
         0.00000E+00
         0.00000E+00
         0.00000E+00
         0.00000E+00
         0.00000E+00
         0.00000E+00
         0.00000E+00
         0.00000E+00
         0.00000E+00
         0.00000E+00
         0.00000E+00
         0.00000E+00
         0.00000E+00
         0.00000E+00
         0.00000E+00
         0.00000E+00
         0.00000E+00
         0.00000E+00
         0.00000E+00
         0.00000E+00
         0.00000E+00
         0.00000E+00
         0.00000E+00
         0.00000E+00
         0.00000E+00
         0.00000E+00
         0.00000E+00
         0.00000E+00
         0.00000E+00
         0.00000E+00
         0.00000E+00
         0.00000E+00
         0.00000E+00
         0.00000E+00
         0.00000E+00
         0.00000E+00
         0.00000E+00
         0.00000E+00
         0.00000E+00
         0.00000E+00
         0.00000E+00
         0.00000E+00
         0.00000E+00
         0.00000E+00
         0.00000E+00
         0.00000E+00
         0.00000E+00
         0.00000E+00
         0.00000E+00
         0.00000E+00
         0.00000E+00
         0.00000E+00
         0.00000E+00
         0.00000E+00
         0.00000E+00
         0.00000E+00
         0.00000E+00
         0.00000E+00
         0.00000E+00
         0.00000E+00
         0.00000E+00
         0.00000E+00
         0.00000E+00
         0.00000E+00
         0.00000E+00
         0.00000E+00
         0.00000E+00
         0.00000E+00
         0.00000E+00
         0.00000E+00
         0.00000E+00
         0.00000E+00
         0.00000E+00
         0.00000E+00
         0.00000E+00
         0.00000E+00
         0.00000E+00
         0.00000E+00
         0.00000E+00
         0.00000E+00
         0.00000E+00
         0.00000E+00
         0.00000E+00
         0.00000E+00
         0.00000E+00
         0.00000E+00
         0.00000E+00
         0.00000E+00
         0.00000E+00
         0.00000E+00
         0.00000E+00
         0.00000E+00
         0.00000E+00
         0.00000E+00
         0.00000E+00
         0.00000E+00
         0.00000E+00
         0.00000E+00
         0.00000E+00
         0.00000E+00
         0.00000E+00
         0.00000E+00
         0.00000E+00
         0.00000E+00
         0.00000E+00
         0.00000E+00
         0.00000E+00
         0.00000E+00
         0.00000E+00
         0.00000E+00
         0.00000E+00
         0.00000E+00
         0.00000E+00
         0.00000E+00
         0.00000E+00
         0.00000E+00
         0.00000E+00
         0.00000E+00
         0.00000E+00
         0.00000E+00
         0.00000E+00
         0.00000E+00
         0.00000E+00
         0.00000E+00
         0.00000E+00
         0.00000E+00
         0.00000E+00
         0.00000E+00
         0.00000E+00
         0.00000E+00
         0.00000E+00
         0.00000E+00
         0.00000E+00
         0.00000E+00
         0.00000E+00
         0.00000E+00
         0.00000E+00
         0.00000E+00
         0.00000E+00
         0.00000E+00
         0.00000E+00
         0.00000E+00
         0.00000E+00
         0.00000E+00
         0.00000E+00
         0.00000E+00
         0.00000E+00
         0.00000E+00
         0.00000E+00
         0.00000E+00
         0.00000E+00
         0.00000E+00
         0.00000E+00
         0.00000E+00
         0.00000E+00
         0.00000E+00
         0.00000E+00
         0.00000E+00
         0.00000E+00
         0.00000E+00
         0.00000E+00
         0.00000E+00
         0.00000E+00
         0.00000E+00
         0.00000E+00
         0.00000E+00
         0.00000E+00
         0.00000E+00
         0.00000E+00
         0.00000E+00
         0.00000E+00
         0.00000E+00
         0.00000E+00
         0.00000E+00
         0.00000E+00
         0.00000E+00
         0.00000E+00
         0.00000E+00
         0.00000E+00
         0.00000E+00
         0.00000E+00
         0.00000E+00
         0.00000E+00
         0.00000E+00
         0.00000E+00
         0.00000E+00
         0.00000E+00
         0.00000E+00
         0.00000E+00
         0.00000E+00
         0.00000E+00
         0.00000E+00
         0.00000E+00
         0.00000E+00
         0.00000E+00
         0.00000E+00
         0.00000E+00
         0.00000E+00
         0.00000E+00
         0.00000E+00
         0.00000E+00
         0.00000E+00
         0.00000E+00
         0.00000E+00
         0.00000E+00
         0.00000E+00
         0.00000E+00
         0.00000E+00
         0.00000E+00
         0.00000E+00
         0.00000E+00
         0.00000E+00
         0.00000E+00
         0.00000E+00
         0.00000E+00
         0.00000E+00
         0.00000E+00
         0.00000E+00
         0.00000E+00
         0.00000E+00
         0.00000E+00
         0.00000E+00
         0.00000E+00
         0.00000E+00
         0.00000E+00
         0.00000E+00
         0.00000E+00
         0.00000E+00
         0.00000E+00
         0.00000E+00
         0.00000E+00
         0.00000E+00
         0.00000E+00
         0.00000E+00
         0.00000E+00
         0.00000E+00
         0.00000E+00
         0.00000E+00
         0.00000E+00
         0.00000E+00
         0.00000E+00
         0.00000E+00
         0.00000E+00
         0.00000E+00
         0.00000E+00
         0.00000E+00
         0.00000E+00
         0.00000E+00
         0.00000E+00
         0.00000E+00
         0.00000E+00
         0.00000E+00
         0.00000E+00
         0.00000E+00
         0.00000E+00
         0.00000E+00
         0.00000E+00
         0.00000E+00
         0.00000E+00
         0.00000E+00
         0.00000E+00
         0.00000E+00
         0.00000E+00
         0.00000E+00
         0.00000E+00
         0.00000E+00
         0.00000E+00
         0.00000E+00
         0.00000E+00
         0.00000E+00
         0.00000E+00
         0.00000E+00
         0.00000E+00
         0.00000E+00
         0.00000E+00
         0.00000E+00
         0.00000E+00
         0.00000E+00
         0.00000E+00
         0.00000E+00
         0.00000E+00
         0.00000E+00
         0.00000E+00
         0.00000E+00
         0.00000E+00
         0.00000E+00
         0.00000E+00
         0.00000E+00
         0.00000E+00
         0.00000E+00
         0.00000E+00
         0.00000E+00
         0.00000E+00
         0.00000E+00
         0.00000E+00
         0.00000E+00
         0.00000E+00
         0.00000E+00
         0.00000E+00
         0.00000E+00
         0.00000E+00
         0.00000E+00
         0.00000E+00
         0.00000E+00
         0.00000E+00
         0.00000E+00
         0.00000E+00
         0.00000E+00
         0.00000E+00
         0.00000E+00
         0.00000E+00
         0.00000E+00
         0.00000E+00
         0.00000E+00
         0.00000E+00
         0.00000E+00
         0.00000E+00
         0.00000E+00
         0.00000E+00
         0.00000E+00
         0.00000E+00
         0.00000E+00
         0.00000E+00
         0.00000E+00
         0.00000E+00
         0.00000E+00
         0.00000E+00
         0.00000E+00
         0.00000E+00
         0.00000E+00
         0.00000E+00
         0.00000E+00
         0.00000E+00
         0.00000E+00
         0.00000E+00
         0.00000E+00
         0.00000E+00
         0.00000E+00
         0.00000E+00
         0.00000E+00
         0.00000E+00
         0.00000E+00
         0.00000E+00
         0.00000E+00
         0.00000E+00
         0.00000E+00
         0.00000E+00
         0.00000E+00
         0.00000E+00
         0.00000E+00
         0.00000E+00
         0.00000E+00
         0.00000E+00
         0.00000E+00
         0.00000E+00
         0.00000E+00
         0.00000E+00
         0.00000E+00
         0.00000E+00
         0.00000E+00
         0.00000E+00
         0.00000E+00
         0.00000E+00
         0.00000E+00
         0.00000E+00
         0.00000E+00
         0.00000E+00
         0.00000E+00
         0.00000E+00
         0.00000E+00
         0.00000E+00
         0.00000E+00
         0.00000E+00
         0.00000E+00
         0.00000E+00
         0.00000E+00
         0.00000E+00
         0.00000E+00
         0.00000E+00
         0.00000E+00
         0.00000E+00
         0.00000E+00
         0.00000E+00
         0.00000E+00
         0.00000E+00
         0.00000E+00
         0.00000E+00
         0.00000E+00
         0.00000E+00
         0.00000E+00
         0.00000E+00
         0.00000E+00
         0.00000E+00
         0.00000E+00
         0.00000E+00
         0.00000E+00
         0.00000E+00
         0.00000E+00
         0.00000E+00
         0.00000E+00
         0.00000E+00
         0.00000E+00
         0.00000E+00
         0.00000E+00
         0.00000E+00
         0.00000E+00
         0.00000E+00
         0.00000E+00
         0.00000E+00
         0.00000E+00
         0.00000E+00
         0.00000E+00
         0.00000E+00
         0.00000E+00
         0.00000E+00
         0.00000E+00
         0.00000E+00
         0.00000E+00
         0.00000E+00
         0.00000E+00
         0.00000E+00
         0.00000E+00
         0.00000E+00
         0.00000E+00
         0.00000E+00
         0.00000E+00
         0.00000E+00
         0.00000E+00
         0.00000E+00
         0.00000E+00
         0.00000E+00
         0.00000E+00
         0.00000E+00
         0.00000E+00
         0.00000E+00
         0.00000E+00
         0.00000E+00
         0.00000E+00
         0.00000E+00
         0.00000E+00
         0.00000E+00
         0.00000E+00
         0.00000E+00
         0.00000E+00
         0.00000E+00
         0.00000E+00
         0.00000E+00
         0.00000E+00
         0.00000E+00
         0.00000E+00
         0.00000E+00
         0.00000E+00
         0.00000E+00
         0.00000E+00
         0.00000E+00
         0.00000E+00
         0.00000E+00
         0.00000E+00
         0.00000E+00
         0.00000E+00
         0.00000E+00
         0.00000E+00
         0.00000E+00
         0.00000E+00
         0.00000E+00
         0.00000E+00
         0.00000E+00
         0.00000E+00
         0.00000E+00
         0.00000E+00
         0.00000E+00
         0.00000E+00
         0.00000E+00
         0.00000E+00
         0.00000E+00
         0.00000E+00
         0.00000E+00
         0.00000E+00
         0.00000E+00
         0.00000E+00
         0.00000E+00
         0.00000E+00
         0.00000E+00
         0.00000E+00
         0.00000E+00
         0.00000E+00
         0.00000E+00
         0.00000E+00
         0.00000E+00
         0.00000E+00
         0.00000E+00
         0.00000E+00
         0.00000E+00
         0.00000E+00
         0.00000E+00
         0.00000E+00
         0.00000E+00
         0.00000E+00
         0.00000E+00
         0.00000E+00
         0.00000E+00
         0.00000E+00
         0.00000E+00
         0.00000E+00
         0.00000E+00
         0.00000E+00
         0.00000E+00
         0.00000E+00
         0.00000E+00
         0.00000E+00
         0.00000E+00
         0.00000E+00
         0.00000E+00
         0.00000E+00
         0.00000E+00
         0.00000E+00
         0.00000E+00
         0.00000E+00
         0.00000E+00
         0.00000E+00
         0.00000E+00
         0.00000E+00
         0.00000E+00
         0.00000E+00
         0.00000E+00
         0.00000E+00
         0.00000E+00
         0.00000E+00
         0.00000E+00
         0.00000E+00
         0.00000E+00
         0.00000E+00
         0.00000E+00
         0.00000E+00
         0.00000E+00
         0.00000E+00
         0.00000E+00
         0.00000E+00
         0.00000E+00
         0.00000E+00
         0.00000E+00
         0.00000E+00
         0.00000E+00
         0.00000E+00
         0.00000E+00
         0.00000E+00
         0.00000E+00
         0.00000E+00
         0.00000E+00
         0.00000E+00
         0.00000E+00
         0.00000E+00
         0.00000E+00
         0.00000E+00
         0.00000E+00
         0.00000E+00
         0.00000E+00
         0.00000E+00
         0.00000E+00
         0.00000E+00
         0.00000E+00
         0.00000E+00
         0.00000E+00
         0.00000E+00
         0.00000E+00
         0.00000E+00
         0.00000E+00
         0.00000E+00
         0.00000E+00
         0.00000E+00
         0.00000E+00
         0.00000E+00
         0.00000E+00
         0.00000E+00
         0.00000E+00
         0.00000E+00
         0.00000E+00
         0.00000E+00
         0.00000E+00
         0.00000E+00
         0.00000E+00
         0.00000E+00
         0.00000E+00
         0.00000E+00
         0.00000E+00
         0.00000E+00
         0.00000E+00
         0.00000E+00
         0.00000E+00
         0.00000E+00
         0.00000E+00
         0.00000E+00
         0.00000E+00
         0.00000E+00
         0.00000E+00
         0.00000E+00
         0.00000E+00
         0.00000E+00
         0.00000E+00
         0.00000E+00
         0.00000E+00
         0.00000E+00
         0.00000E+00
         0.00000E+00
         0.00000E+00
         0.00000E+00
         0.00000E+00
         0.00000E+00
         0.00000E+00
         0.00000E+00
         0.00000E+00
         0.00000E+00
         0.00000E+00
         0.00000E+00
         0.00000E+00
         0.00000E+00
         0.00000E+00
         0.00000E+00
         0.00000E+00
         0.00000E+00
         0.00000E+00
         0.00000E+00
         0.00000E+00
         0.00000E+00
         0.00000E+00
         0.00000E+00
         0.00000E+00
         0.00000E+00
         0.00000E+00
         0.00000E+00
         0.00000E+00
         0.00000E+00
         0.00000E+00
         0.00000E+00
         0.00000E+00
         0.00000E+00
         0.00000E+00
         0.00000E+00
         0.00000E+00
         0.00000E+00
         0.00000E+00
         0.00000E+00
         0.00000E+00
         0.00000E+00
         0.00000E+00
         0.00000E+00
         0.00000E+00
         0.00000E+00
         0.00000E+00
         0.00000E+00
         0.00000E+00
         0.00000E+00
         0.00000E+00
         0.00000E+00
         0.00000E+00
         0.00000E+00
         0.00000E+00
         0.00000E+00
         0.00000E+00
         0.00000E+00
         0.00000E+00
         0.00000E+00
         0.00000E+00
         0.00000E+00
         0.00000E+00
         0.00000E+00
         0.00000E+00
         0.00000E+00
         0.00000E+00
         0.00000E+00
         0.00000E+00
         0.00000E+00
         0.00000E+00
         0.00000E+00
         0.00000E+00
         0.00000E+00
         0.00000E+00
         0.00000E+00
         0.00000E+00
         0.00000E+00
         0.00000E+00
         0.00000E+00
         0.00000E+00
         0.00000E+00
         0.00000E+00
         0.00000E+00
         0.00000E+00
         0.00000E+00
         0.00000E+00
         0.00000E+00
         0.00000E+00
         0.00000E+00
         0.00000E+00
         0.00000E+00
         0.00000E+00
         0.00000E+00
         0.00000E+00
         0.00000E+00
         0.00000E+00
         0.00000E+00
         0.00000E+00
         0.00000E+00
         0.00000E+00
         0.00000E+00
         0.00000E+00
         0.00000E+00
         0.00000E+00
         0.00000E+00
         0.00000E+00
         0.00000E+00
         0.00000E+00
         0.00000E+00
         0.00000E+00
         0.00000E+00
         0.00000E+00
         0.00000E+00
         0.00000E+00
         0.00000E+00
         0.00000E+00
         0.00000E+00
         0.00000E+00
         0.00000E+00
         0.00000E+00
         0.00000E+00
         0.00000E+00
         0.00000E+00
         0.00000E+00
         0.00000E+00
         0.00000E+00
         0.00000E+00
         0.00000E+00
         0.00000E+00
         0.00000E+00
         0.00000E+00
         0.00000E+00
         0.00000E+00
         0.00000E+00
         0.00000E+00
         0.00000E+00
         0.00000E+00
         0.00000E+00
         0.00000E+00
         0.00000E+00
         0.00000E+00
         0.00000E+00
         0.00000E+00
         0.00000E+00
         0.00000E+00
         0.00000E+00
         0.00000E+00
         0.00000E+00
         0.00000E+00
         0.00000E+00
         0.00000E+00
         0.00000E+00
         0.00000E+00
         0.00000E+00
         0.00000E+00
         0.00000E+00
         0.00000E+00
         0.00000E+00
         0.00000E+00
         0.00000E+00
         0.00000E+00
         0.00000E+00
         0.00000E+00
         0.00000E+00
         0.00000E+00
         0.00000E+00
         0.00000E+00
         0.00000E+00
         0.00000E+00
         0.00000E+00
         0.00000E+00
         0.00000E+00
         0.00000E+00
         0.00000E+00
         0.00000E+00
         0.00000E+00
         0.00000E+00
         0.00000E+00
         0.00000E+00
         0.00000E+00
         0.00000E+00
         0.00000E+00
         0.00000E+00
         0.00000E+00
         0.00000E+00
         0.00000E+00
         0.00000E+00
         0.00000E+00
         0.00000E+00
         0.00000E+00
         0.00000E+00
         0.00000E+00
         0.00000E+00
         0.00000E+00
         0.00000E+00
         0.00000E+00
         0.00000E+00
         0.00000E+00
         0.00000E+00
         0.00000E+00
         0.00000E+00
         0.00000E+00
         0.00000E+00
         0.00000E+00
         0.00000E+00
         0.00000E+00
         0.00000E+00
         0.00000E+00
         0.00000E+00
         0.00000E+00
         0.00000E+00
         0.00000E+00
         0.00000E+00
         0.00000E+00
         0.00000E+00
         0.00000E+00
         0.00000E+00
         0.00000E+00
         0.00000E+00
         0.00000E+00
         0.00000E+00
         0.00000E+00
         0.00000E+00
         0.00000E+00
         0.00000E+00
         0.00000E+00
         0.00000E+00
         0.00000E+00
         0.00000E+00
         0.00000E+00
         0.00000E+00
         0.00000E+00
         0.00000E+00
         0.00000E+00
         0.00000E+00
         0.00000E+00
         0.00000E+00
         0.00000E+00
         0.00000E+00
         0.00000E+00
         0.00000E+00
         0.00000E+00
         0.00000E+00
         0.00000E+00
         0.00000E+00
         0.00000E+00
         0.00000E+00
         0.00000E+00
         0.00000E+00
         0.00000E+00
         0.00000E+00
         0.00000E+00
         0.00000E+00
         0.00000E+00
         0.00000E+00
         0.00000E+00
         0.00000E+00
         0.00000E+00
         0.00000E+00
         0.00000E+00
         0.00000E+00
         0.00000E+00
         0.00000E+00
         0.00000E+00
         0.00000E+00
         0.00000E+00
         0.00000E+00
         0.00000E+00
         0.00000E+00
         0.00000E+00
         0.00000E+00
         0.00000E+00
         0.00000E+00
         0.00000E+00
         0.00000E+00
         0.00000E+00
         0.00000E+00
         0.00000E+00
         0.00000E+00
         0.00000E+00
         0.00000E+00
         0.00000E+00
         0.00000E+00
         0.00000E+00
         0.00000E+00
         0.00000E+00
         0.00000E+00
         0.00000E+00
         0.00000E+00
         0.00000E+00
         0.00000E+00
         0.00000E+00
         0.00000E+00
         0.00000E+00
         0.00000E+00
         0.00000E+00
         0.00000E+00
         0.00000E+00
         0.00000E+00
         0.00000E+00
         0.00000E+00
         0.00000E+00
         0.00000E+00
         0.00000E+00
         0.00000E+00
         0.00000E+00
         0.00000E+00
         0.00000E+00
         0.00000E+00
         0.00000E+00
         0.00000E+00
         0.00000E+00
         0.00000E+00
         0.00000E+00
         0.00000E+00
         0.00000E+00
         0.00000E+00
         0.00000E+00
         0.00000E+00
         0.00000E+00
         0.00000E+00
         0.00000E+00
         0.00000E+00
         0.00000E+00
         0.00000E+00
         0.00000E+00
         0.00000E+00
         0.00000E+00
         0.00000E+00
         0.00000E+00
         0.00000E+00
         0.00000E+00
         0.00000E+00
         0.00000E+00
         0.00000E+00
         0.00000E+00
         0.00000E+00
         0.00000E+00
         0.00000E+00
         0.00000E+00
         0.00000E+00
         0.00000E+00
         0.00000E+00
         0.00000E+00
         0.00000E+00
         0.00000E+00
         0.00000E+00
         0.00000E+00
         0.00000E+00
         0.00000E+00
         0.00000E+00
         0.00000E+00
         0.00000E+00
         0.00000E+00
         0.00000E+00
         0.00000E+00
         0.00000E+00
         0.00000E+00
         0.00000E+00
         0.00000E+00
         0.00000E+00
         0.00000E+00
         0.00000E+00
         0.00000E+00
         0.00000E+00
         0.00000E+00
         0.00000E+00
         0.00000E+00
         0.00000E+00
         0.00000E+00
         0.00000E+00
         0.00000E+00
         0.00000E+00
         0.00000E+00
         0.00000E+00
         0.00000E+00
         0.00000E+00
         0.00000E+00
         0.00000E+00
         0.00000E+00
         0.00000E+00
         0.00000E+00
         0.00000E+00
         0.00000E+00
         0.00000E+00
         0.00000E+00
         0.00000E+00
         0.00000E+00
         0.00000E+00
         0.00000E+00
         0.00000E+00
         0.00000E+00
         0.00000E+00
         0.00000E+00
         0.00000E+00
         0.00000E+00
         0.00000E+00
         0.00000E+00
         0.00000E+00
         0.00000E+00
         0.00000E+00
         0.00000E+00
         0.00000E+00
         0.00000E+00
         0.00000E+00
         0.00000E+00
         0.00000E+00
         0.00000E+00
         0.00000E+00
         0.00000E+00
         0.00000E+00
         0.00000E+00
         0.00000E+00
         0.00000E+00
         0.00000E+00
         0.00000E+00
         0.00000E+00
         0.00000E+00
         0.00000E+00
         0.00000E+00
         0.00000E+00
         0.00000E+00
         0.00000E+00
         0.00000E+00
         0.00000E+00
         0.00000E+00
         0.00000E+00
         0.00000E+00
         0.00000E+00
         0.00000E+00
         0.00000E+00
         0.00000E+00
         0.00000E+00
         0.00000E+00
         0.00000E+00
         0.00000E+00
         0.00000E+00
         0.00000E+00
         0.00000E+00
         0.00000E+00
         0.00000E+00
         0.00000E+00
         0.00000E+00
         0.00000E+00
         0.00000E+00
         0.00000E+00
         0.00000E+00
         0.00000E+00
         0.00000E+00
         0.00000E+00
         0.00000E+00
         0.00000E+00
         0.00000E+00
         0.00000E+00
         0.00000E+00
         0.00000E+00
         0.00000E+00
         0.00000E+00
         0.00000E+00
         0.00000E+00
         0.00000E+00
         0.00000E+00
         0.00000E+00
         0.00000E+00
         0.00000E+00
         0.00000E+00
         0.00000E+00
         0.00000E+00
         0.00000E+00
         0.00000E+00
         0.00000E+00
         0.00000E+00
         0.00000E+00
         0.00000E+00
         0.00000E+00
         0.00000E+00
         0.00000E+00
         0.00000E+00
         0.00000E+00
         0.00000E+00
         0.00000E+00
         0.00000E+00
         0.00000E+00
         0.00000E+00
         0.00000E+00
         0.00000E+00
         0.00000E+00
         0.00000E+00
         0.00000E+00
         0.00000E+00
         0.00000E+00
         0.00000E+00
         0.00000E+00
         0.00000E+00
         0.00000E+00
         0.00000E+00
         0.00000E+00
         0.00000E+00
         0.00000E+00
         0.00000E+00
         0.00000E+00
         0.00000E+00
         0.00000E+00
         0.00000E+00
         0.00000E+00
         0.00000E+00
         0.00000E+00
         0.00000E+00
         0.00000E+00
         0.00000E+00
         0.00000E+00
         0.00000E+00
         0.00000E+00
         0.00000E+00
         0.00000E+00
         0.00000E+00
         0.00000E+00
         0.00000E+00
         0.00000E+00
         0.00000E+00
         0.00000E+00
         0.00000E+00
         0.00000E+00
         0.00000E+00
         0.00000E+00
         0.00000E+00
         0.00000E+00
         0.00000E+00
         0.00000E+00
         0.00000E+00
         0.00000E+00
         0.00000E+00
         0.00000E+00
         0.00000E+00
         0.00000E+00
         0.00000E+00
         0.00000E+00
         0.00000E+00
         0.00000E+00
         0.00000E+00
         0.00000E+00
         0.00000E+00
         0.00000E+00
         0.00000E+00
         0.00000E+00
         0.00000E+00
         0.00000E+00
         0.00000E+00
         0.00000E+00
         0.00000E+00
         0.00000E+00
         0.00000E+00
         0.00000E+00
         0.00000E+00
         0.00000E+00
         0.00000E+00
         0.00000E+00
         0.00000E+00
         0.00000E+00
         0.00000E+00
         0.00000E+00
         0.00000E+00
         0.00000E+00
         0.00000E+00
         0.00000E+00
         0.00000E+00
         0.00000E+00
         0.00000E+00
         0.00000E+00
         0.00000E+00
         0.00000E+00
         0.00000E+00
         0.00000E+00
         0.00000E+00
         0.00000E+00
         0.00000E+00
         0.00000E+00
         0.00000E+00
         0.00000E+00
         0.00000E+00
         0.00000E+00
         0.00000E+00
         0.00000E+00
         0.00000E+00
         0.00000E+00
         0.00000E+00
         0.00000E+00
         0.00000E+00
         0.00000E+00
         0.00000E+00
         0.00000E+00
         0.00000E+00
         0.00000E+00
         0.00000E+00
         0.00000E+00
         0.00000E+00
         0.00000E+00
         0.00000E+00
         0.00000E+00
         0.00000E+00
         0.00000E+00
         0.00000E+00
         0.00000E+00
         0.00000E+00
         0.00000E+00
         0.00000E+00
         0.00000E+00
         0.00000E+00
         0.00000E+00
         0.00000E+00
         0.00000E+00
         0.00000E+00
         0.00000E+00
         0.00000E+00
         0.00000E+00
         0.00000E+00
         0.00000E+00
         0.00000E+00
         0.00000E+00
         0.00000E+00
         0.00000E+00
         0.00000E+00
         0.00000E+00
         0.00000E+00
         0.00000E+00
         0.00000E+00
         0.00000E+00
         0.00000E+00
         0.00000E+00
         0.00000E+00
         0.00000E+00
         0.00000E+00
         0.00000E+00
         0.00000E+00
         0.00000E+00
         0.00000E+00
         0.00000E+00
         0.00000E+00
         0.00000E+00
         0.00000E+00
         0.00000E+00
         0.00000E+00
         0.00000E+00
         0.00000E+00
         0.00000E+00
         0.00000E+00
         0.00000E+00
         0.00000E+00
         0.00000E+00
         0.00000E+00
         0.00000E+00
         0.00000E+00
         0.00000E+00
         0.00000E+00
         0.00000E+00
         0.00000E+00
         0.00000E+00
         0.00000E+00
         0.00000E+00
         0.00000E+00
         0.00000E+00
         0.00000E+00
         0.00000E+00
         0.00000E+00
         0.00000E+00
         0.00000E+00
         0.00000E+00
         0.00000E+00
         0.00000E+00
         0.00000E+00
         0.00000E+00
         0.00000E+00
         0.00000E+00
         0.00000E+00
         0.00000E+00
         0.00000E+00
         0.00000E+00
         0.00000E+00
         0.00000E+00
         0.00000E+00
         0.00000E+00
         0.00000E+00
         0.00000E+00
         0.00000E+00
         0.00000E+00
         0.00000E+00
         0.00000E+00
         0.00000E+00
         0.00000E+00
         0.00000E+00
         0.00000E+00
         0.00000E+00
         0.00000E+00
         0.00000E+00
         0.00000E+00
         0.00000E+00
         0.00000E+00
         0.00000E+00
         0.00000E+00
         0.00000E+00
         0.00000E+00
         0.00000E+00
         0.00000E+00
         0.00000E+00
         0.00000E+00
         0.00000E+00
         0.00000E+00
         0.00000E+00
         0.00000E+00
         0.00000E+00
         0.00000E+00
         0.00000E+00
         0.00000E+00
         0.00000E+00
         0.00000E+00
         0.00000E+00
         0.00000E+00
         0.00000E+00
         0.00000E+00
         0.00000E+00
         0.00000E+00
         0.00000E+00
         0.00000E+00
         0.00000E+00
         0.00000E+00
         0.00000E+00
         0.00000E+00
         0.00000E+00
         0.00000E+00
         0.00000E+00
         0.00000E+00
         0.00000E+00
         0.00000E+00
         0.00000E+00
         0.00000E+00
         0.00000E+00
         0.00000E+00
         0.00000E+00
         0.00000E+00
         0.00000E+00
         0.00000E+00
         0.00000E+00
         0.00000E+00
         0.00000E+00
         0.00000E+00
         0.00000E+00
         0.00000E+00
         0.00000E+00
         0.00000E+00
         0.00000E+00
         0.00000E+00
         0.00000E+00
         0.00000E+00
         0.00000E+00
         0.00000E+00
         0.00000E+00
         0.00000E+00
         0.00000E+00
         0.00000E+00
         0.00000E+00
         0.00000E+00
         0.00000E+00
         0.00000E+00
         0.00000E+00
         0.00000E+00
         0.00000E+00
         0.00000E+00
         0.00000E+00
         0.00000E+00
         0.00000E+00
         0.00000E+00
         0.00000E+00
         0.00000E+00
         0.00000E+00
         0.00000E+00
         0.00000E+00
         0.00000E+00
         0.00000E+00
         0.00000E+00
         0.00000E+00
         0.00000E+00
         0.00000E+00
         0.00000E+00
         0.00000E+00
         0.00000E+00
         0.00000E+00
         0.00000E+00
         0.00000E+00
         0.00000E+00
         0.00000E+00
         0.00000E+00
         0.00000E+00
         0.00000E+00
         0.00000E+00
         0.00000E+00
         0.00000E+00
         0.00000E+00
         0.00000E+00
         0.00000E+00
         0.00000E+00
         0.00000E+00
         0.00000E+00
         0.00000E+00
         0.00000E+00
         0.00000E+00
         0.00000E+00
         0.00000E+00
         0.00000E+00
         0.00000E+00
         0.00000E+00
         0.00000E+00
         0.00000E+00
         0.00000E+00
         0.00000E+00
         0.00000E+00
         0.00000E+00
         0.00000E+00
         0.00000E+00
         0.00000E+00
         0.00000E+00
         0.00000E+00
         0.00000E+00
         0.00000E+00
         0.00000E+00
         0.00000E+00
         0.00000E+00
         0.00000E+00
         0.00000E+00
         0.00000E+00
         0.00000E+00
         0.00000E+00
         0.00000E+00
         0.00000E+00
         0.00000E+00
         0.00000E+00
         0.00000E+00
         0.00000E+00
         0.00000E+00
         0.00000E+00
         0.00000E+00
         0.00000E+00
         0.00000E+00
         0.00000E+00
         0.00000E+00
         0.00000E+00
         0.00000E+00
         0.00000E+00
         0.00000E+00
         0.00000E+00
         0.00000E+00
         0.00000E+00
         0.00000E+00
         0.00000E+00
         0.00000E+00
         0.00000E+00
         0.00000E+00
         0.00000E+00
         0.00000E+00
         0.00000E+00
         0.00000E+00
         0.00000E+00
         0.00000E+00
         0.00000E+00
         0.00000E+00
         0.00000E+00
         0.00000E+00
         0.00000E+00
         0.00000E+00
         0.00000E+00
         0.00000E+00
         0.00000E+00
         0.00000E+00
         0.00000E+00
         0.00000E+00
         0.00000E+00
         0.00000E+00
         0.00000E+00
         0.00000E+00
         0.00000E+00
         0.00000E+00
         0.00000E+00
         0.00000E+00
         0.00000E+00
         0.00000E+00
         0.00000E+00
         0.00000E+00
         0.00000E+00
         0.00000E+00
         0.00000E+00
         0.00000E+00
         0.00000E+00
         0.00000E+00
         0.00000E+00
         0.00000E+00
         0.00000E+00
         0.00000E+00
         0.00000E+00
         0.00000E+00
         0.00000E+00
         0.00000E+00
         0.00000E+00
         0.00000E+00
         0.00000E+00
         0.00000E+00
         0.00000E+00
         0.00000E+00
         0.00000E+00
         0.00000E+00
         0.00000E+00
         0.00000E+00
         0.00000E+00
         0.00000E+00
         0.00000E+00
         0.00000E+00
         0.00000E+00
         0.00000E+00
         0.00000E+00
         0.00000E+00
         0.00000E+00
         0.00000E+00
         0.00000E+00
         0.00000E+00
         0.00000E+00
         0.00000E+00
         0.00000E+00
         0.00000E+00
         0.00000E+00
         0.00000E+00
         0.00000E+00
         0.00000E+00
         0.00000E+00
         0.00000E+00
         0.00000E+00
         0.00000E+00
         0.00000E+00
         0.00000E+00
         0.00000E+00
         0.00000E+00
         0.00000E+00
         0.00000E+00
         0.00000E+00
         0.00000E+00
         0.00000E+00
         0.00000E+00
         0.00000E+00
         0.00000E+00
         0.00000E+00
         0.00000E+00
         0.00000E+00
         0.00000E+00
         0.00000E+00
         0.00000E+00
         0.00000E+00
         0.00000E+00
         0.00000E+00
         0.00000E+00
         0.00000E+00
         0.00000E+00
         0.00000E+00
         0.00000E+00
         0.00000E+00
         0.00000E+00
         0.00000E+00
         0.00000E+00
         0.00000E+00
         0.00000E+00
         0.00000E+00
         0.00000E+00
         0.00000E+00
         0.00000E+00
  
SCALARS                   max_wave_vel  double 1
LOOKUP_TABLE default
         0.00000E+00
         0.00000E+00
         0.00000E+00
         0.00000E+00
         0.00000E+00
         0.00000E+00
         0.00000E+00
         0.00000E+00
         0.00000E+00
         0.00000E+00
         0.00000E+00
         0.00000E+00
         0.00000E+00
         0.00000E+00
         0.00000E+00
         0.00000E+00
         0.00000E+00
         0.00000E+00
         0.00000E+00
         0.00000E+00
         0.00000E+00
         0.00000E+00
         0.00000E+00
         0.00000E+00
         0.00000E+00
         0.00000E+00
         0.00000E+00
         0.00000E+00
         0.00000E+00
         0.00000E+00
         0.00000E+00
         0.00000E+00
         0.00000E+00
         0.00000E+00
         0.00000E+00
         0.00000E+00
         0.00000E+00
         0.00000E+00
         0.00000E+00
         0.00000E+00
         0.00000E+00
         0.00000E+00
         0.00000E+00
         0.00000E+00
         0.00000E+00
         0.00000E+00
         0.00000E+00
         0.00000E+00
         0.00000E+00
         0.00000E+00
         0.00000E+00
         0.00000E+00
         0.00000E+00
         0.00000E+00
         0.00000E+00
         0.00000E+00
         0.00000E+00
         0.00000E+00
         0.00000E+00
         0.00000E+00
         0.00000E+00
         0.00000E+00
         0.00000E+00
         0.00000E+00
         0.00000E+00
         0.00000E+00
         0.00000E+00
         0.00000E+00
         0.00000E+00
         0.00000E+00
         0.00000E+00
         0.00000E+00
         0.00000E+00
         0.00000E+00
         0.00000E+00
         0.00000E+00
         0.00000E+00
         0.00000E+00
         0.00000E+00
         0.00000E+00
         0.00000E+00
         0.00000E+00
         0.00000E+00
         0.00000E+00
         0.00000E+00
         0.00000E+00
         0.00000E+00
         0.00000E+00
         0.00000E+00
         0.00000E+00
         0.00000E+00
         0.00000E+00
         0.00000E+00
         0.00000E+00
         0.00000E+00
         0.00000E+00
         0.00000E+00
         0.00000E+00
         0.00000E+00
         0.00000E+00
         0.00000E+00
         0.00000E+00
         0.00000E+00
         0.00000E+00
         0.00000E+00
         0.00000E+00
         0.00000E+00
         0.00000E+00
         0.00000E+00
         0.00000E+00
         0.00000E+00
         0.00000E+00
         0.00000E+00
         0.00000E+00
         0.00000E+00
         0.00000E+00
         0.00000E+00
         0.00000E+00
         0.00000E+00
         0.00000E+00
         0.00000E+00
         0.00000E+00
         0.00000E+00
         0.00000E+00
         0.00000E+00
         0.00000E+00
         0.00000E+00
         0.00000E+00
         0.00000E+00
         0.00000E+00
         0.00000E+00
         0.00000E+00
         0.00000E+00
         0.00000E+00
         0.00000E+00
         0.00000E+00
         0.00000E+00
         0.00000E+00
         0.00000E+00
         0.00000E+00
         0.00000E+00
         0.00000E+00
         0.00000E+00
         0.00000E+00
         0.00000E+00
         0.00000E+00
         0.00000E+00
         0.00000E+00
         0.00000E+00
         0.00000E+00
         0.00000E+00
         0.00000E+00
         0.00000E+00
         0.00000E+00
         0.00000E+00
         0.00000E+00
         0.00000E+00
         0.00000E+00
         0.00000E+00
         0.00000E+00
         0.00000E+00
         0.00000E+00
         0.00000E+00
         0.00000E+00
         0.00000E+00
         0.00000E+00
         0.00000E+00
         0.00000E+00
         0.00000E+00
         0.00000E+00
         0.00000E+00
         0.00000E+00
         0.00000E+00
         0.00000E+00
         0.00000E+00
         0.00000E+00
         0.00000E+00
         0.00000E+00
         0.00000E+00
         0.00000E+00
         0.00000E+00
         0.00000E+00
         0.00000E+00
         0.00000E+00
         0.00000E+00
         0.00000E+00
         0.00000E+00
         0.00000E+00
         0.00000E+00
         0.00000E+00
         0.00000E+00
         0.00000E+00
         0.00000E+00
         0.00000E+00
         0.00000E+00
         0.00000E+00
         0.00000E+00
         0.00000E+00
         0.00000E+00
         0.00000E+00
         0.00000E+00
         0.00000E+00
         0.00000E+00
         0.00000E+00
         0.00000E+00
         0.00000E+00
         0.00000E+00
         0.00000E+00
         0.00000E+00
         0.00000E+00
         0.00000E+00
         0.00000E+00
         0.00000E+00
         0.00000E+00
         0.00000E+00
         0.00000E+00
         0.00000E+00
         0.00000E+00
         0.00000E+00
         0.00000E+00
         0.00000E+00
         0.00000E+00
         0.00000E+00
         0.00000E+00
         0.00000E+00
         0.00000E+00
         0.00000E+00
         0.00000E+00
         0.00000E+00
         0.00000E+00
         0.00000E+00
         0.00000E+00
         0.00000E+00
         0.00000E+00
         0.00000E+00
         0.00000E+00
         0.00000E+00
         0.00000E+00
         0.00000E+00
         0.00000E+00
         0.00000E+00
         0.00000E+00
         0.00000E+00
         0.00000E+00
         0.00000E+00
         0.00000E+00
         0.00000E+00
         0.00000E+00
         0.00000E+00
         0.00000E+00
         0.00000E+00
         0.00000E+00
         0.00000E+00
         0.00000E+00
         0.00000E+00
         0.00000E+00
         0.00000E+00
         0.00000E+00
         0.00000E+00
         0.00000E+00
         0.00000E+00
         0.00000E+00
         0.00000E+00
         0.00000E+00
         0.00000E+00
         0.00000E+00
         0.00000E+00
         0.00000E+00
         0.00000E+00
         0.00000E+00
         0.00000E+00
         0.00000E+00
         0.00000E+00
         0.00000E+00
         0.00000E+00
         0.00000E+00
         0.00000E+00
         0.00000E+00
         0.00000E+00
         0.00000E+00
         0.00000E+00
         0.00000E+00
         0.00000E+00
         0.00000E+00
         0.00000E+00
         0.00000E+00
         0.00000E+00
         0.00000E+00
         0.00000E+00
         0.00000E+00
         0.00000E+00
         0.00000E+00
         0.00000E+00
         0.00000E+00
         0.00000E+00
         0.00000E+00
         0.00000E+00
         0.00000E+00
         0.00000E+00
         0.00000E+00
         0.00000E+00
         0.00000E+00
         0.00000E+00
         0.00000E+00
         0.00000E+00
         0.00000E+00
         0.00000E+00
         0.00000E+00
         0.00000E+00
         0.00000E+00
         0.00000E+00
         0.00000E+00
         0.00000E+00
         0.00000E+00
         0.00000E+00
         0.00000E+00
         0.00000E+00
         0.00000E+00
         0.00000E+00
         0.00000E+00
         0.00000E+00
         0.00000E+00
         0.00000E+00
         0.00000E+00
         0.00000E+00
         0.00000E+00
         0.00000E+00
         0.00000E+00
         0.00000E+00
         0.00000E+00
         0.00000E+00
         0.00000E+00
         0.00000E+00
         0.00000E+00
         0.00000E+00
         0.00000E+00
         0.00000E+00
         0.00000E+00
         0.00000E+00
         0.00000E+00
         0.00000E+00
         0.00000E+00
         0.00000E+00
         0.00000E+00
         0.00000E+00
         0.00000E+00
         0.00000E+00
         0.00000E+00
         0.00000E+00
         0.00000E+00
         0.00000E+00
         0.00000E+00
         0.00000E+00
         0.00000E+00
         0.00000E+00
         0.00000E+00
         0.00000E+00
         0.00000E+00
         0.00000E+00
         0.00000E+00
         0.00000E+00
         0.00000E+00
         0.00000E+00
         0.00000E+00
         0.00000E+00
         0.00000E+00
         0.00000E+00
         0.00000E+00
         0.00000E+00
         0.00000E+00
         0.00000E+00
         0.00000E+00
         0.00000E+00
         0.00000E+00
         0.00000E+00
         0.00000E+00
         0.00000E+00
         0.00000E+00
         0.00000E+00
         0.00000E+00
         0.00000E+00
         0.00000E+00
         0.00000E+00
         0.00000E+00
         0.00000E+00
         0.00000E+00
         0.00000E+00
         0.00000E+00
         0.00000E+00
         0.00000E+00
         0.00000E+00
         0.00000E+00
         0.00000E+00
         0.00000E+00
         0.00000E+00
         0.00000E+00
         0.00000E+00
         0.00000E+00
         0.00000E+00
         0.00000E+00
         0.00000E+00
         0.00000E+00
         0.00000E+00
         0.00000E+00
         0.00000E+00
         0.00000E+00
         0.00000E+00
         0.00000E+00
         0.00000E+00
         0.00000E+00
         0.00000E+00
         0.00000E+00
         0.00000E+00
         0.00000E+00
         0.00000E+00
         0.00000E+00
         0.00000E+00
         0.00000E+00
         0.00000E+00
         0.00000E+00
         0.00000E+00
         0.00000E+00
         0.00000E+00
         0.00000E+00
         0.00000E+00
         0.00000E+00
         0.00000E+00
         0.00000E+00
         0.00000E+00
         0.00000E+00
         0.00000E+00
         0.00000E+00
         0.00000E+00
         0.00000E+00
         0.00000E+00
         0.00000E+00
         0.00000E+00
         0.00000E+00
         0.00000E+00
         0.00000E+00
         0.00000E+00
         0.00000E+00
         0.00000E+00
         0.00000E+00
         0.00000E+00
         0.00000E+00
         0.00000E+00
         0.00000E+00
         0.00000E+00
         0.00000E+00
         0.00000E+00
         0.00000E+00
         0.00000E+00
         0.00000E+00
         0.00000E+00
         0.00000E+00
         0.00000E+00
         0.00000E+00
         0.00000E+00
         0.00000E+00
         0.00000E+00
         0.00000E+00
         0.00000E+00
         0.00000E+00
         0.00000E+00
         0.00000E+00
         0.00000E+00
         0.00000E+00
         0.00000E+00
         0.00000E+00
         0.00000E+00
         0.00000E+00
         0.00000E+00
         0.00000E+00
         0.00000E+00
         0.00000E+00
         0.00000E+00
         0.00000E+00
         0.00000E+00
         0.00000E+00
         0.00000E+00
         0.00000E+00
         0.00000E+00
         0.00000E+00
         0.00000E+00
         0.00000E+00
         0.00000E+00
         0.00000E+00
         0.00000E+00
         0.00000E+00
         0.00000E+00
         0.00000E+00
         0.00000E+00
         0.00000E+00
         0.00000E+00
         0.00000E+00
         0.00000E+00
         0.00000E+00
         0.00000E+00
         0.00000E+00
         0.00000E+00
         0.00000E+00
         0.00000E+00
         0.00000E+00
         0.00000E+00
         0.00000E+00
         0.00000E+00
         0.00000E+00
         0.00000E+00
         0.00000E+00
         0.00000E+00
         0.00000E+00
         0.00000E+00
         0.00000E+00
         0.00000E+00
         0.00000E+00
         0.00000E+00
         0.00000E+00
         0.00000E+00
         0.00000E+00
         0.00000E+00
         0.00000E+00
         0.00000E+00
         0.00000E+00
         0.00000E+00
         0.00000E+00
         0.00000E+00
         0.00000E+00
         0.00000E+00
         0.00000E+00
         0.00000E+00
         0.00000E+00
         0.00000E+00
         0.00000E+00
         0.00000E+00
         0.00000E+00
         0.00000E+00
         0.00000E+00
         0.00000E+00
         0.00000E+00
         0.00000E+00
         0.00000E+00
         0.00000E+00
         0.00000E+00
         0.00000E+00
         0.00000E+00
         0.00000E+00
         0.00000E+00
         0.00000E+00
         0.00000E+00
         0.00000E+00
         0.00000E+00
         0.00000E+00
         0.00000E+00
         0.00000E+00
         0.00000E+00
         0.00000E+00
         0.00000E+00
         0.00000E+00
         0.00000E+00
         0.00000E+00
         0.00000E+00
         0.00000E+00
         0.00000E+00
         0.00000E+00
         0.00000E+00
         0.00000E+00
         0.00000E+00
         0.00000E+00
         0.00000E+00
         0.00000E+00
         0.00000E+00
         0.00000E+00
         0.00000E+00
         0.00000E+00
         0.00000E+00
         0.00000E+00
         0.00000E+00
         0.00000E+00
         0.00000E+00
         0.00000E+00
         0.00000E+00
         0.00000E+00
         0.00000E+00
         0.00000E+00
         0.00000E+00
         0.00000E+00
         0.00000E+00
         0.00000E+00
         0.00000E+00
         0.00000E+00
         0.00000E+00
         0.00000E+00
         0.00000E+00
         0.00000E+00
         0.00000E+00
         0.00000E+00
         0.00000E+00
         0.00000E+00
         0.00000E+00
         0.00000E+00
         0.00000E+00
         0.00000E+00
         0.00000E+00
         0.00000E+00
         0.00000E+00
         0.00000E+00
         0.00000E+00
         0.00000E+00
         0.00000E+00
         0.00000E+00
         0.00000E+00
         0.00000E+00
         0.00000E+00
         0.00000E+00
         0.00000E+00
         0.00000E+00
         0.00000E+00
         0.00000E+00
         0.00000E+00
         0.00000E+00
         0.00000E+00
         0.00000E+00
         0.00000E+00
         0.00000E+00
         0.00000E+00
         0.00000E+00
         0.00000E+00
         0.00000E+00
         0.00000E+00
         0.00000E+00
         0.00000E+00
         0.00000E+00
         0.00000E+00
         0.00000E+00
         0.00000E+00
         0.00000E+00
         0.00000E+00
         0.00000E+00
         0.00000E+00
         0.00000E+00
         0.00000E+00
         0.00000E+00
         0.00000E+00
         0.00000E+00
         0.00000E+00
         0.00000E+00
         0.00000E+00
         0.00000E+00
         0.00000E+00
         0.00000E+00
         0.00000E+00
         0.00000E+00
         0.00000E+00
         0.00000E+00
         0.00000E+00
         0.00000E+00
         0.00000E+00
         0.00000E+00
         0.00000E+00
         0.00000E+00
         0.00000E+00
         0.00000E+00
         0.00000E+00
         0.00000E+00
         0.00000E+00
         0.00000E+00
         0.00000E+00
         0.00000E+00
         0.00000E+00
         0.00000E+00
         0.00000E+00
         0.00000E+00
         0.00000E+00
         0.00000E+00
         0.00000E+00
         0.00000E+00
         0.00000E+00
         0.00000E+00
         0.00000E+00
         0.00000E+00
         0.00000E+00
         0.00000E+00
         0.00000E+00
         0.00000E+00
         0.00000E+00
         0.00000E+00
         0.00000E+00
         0.00000E+00
         0.00000E+00
         0.00000E+00
         0.00000E+00
         0.00000E+00
         0.00000E+00
         0.00000E+00
         0.00000E+00
         0.00000E+00
         0.00000E+00
         0.00000E+00
         0.00000E+00
         0.00000E+00
         0.00000E+00
         0.00000E+00
         0.00000E+00
         0.00000E+00
         0.00000E+00
         0.00000E+00
         0.00000E+00
         0.00000E+00
         0.00000E+00
         0.00000E+00
         0.00000E+00
         0.00000E+00
         0.00000E+00
         0.00000E+00
         0.00000E+00
         0.00000E+00
         0.00000E+00
         0.00000E+00
         0.00000E+00
         0.00000E+00
         0.00000E+00
         0.00000E+00
         0.00000E+00
         0.00000E+00
         0.00000E+00
         0.00000E+00
         0.00000E+00
         0.00000E+00
         0.00000E+00
         0.00000E+00
         0.00000E+00
         0.00000E+00
         0.00000E+00
         0.00000E+00
         0.00000E+00
         0.00000E+00
         0.00000E+00
         0.00000E+00
         0.00000E+00
         0.00000E+00
         0.00000E+00
         0.00000E+00
         0.00000E+00
         0.00000E+00
         0.00000E+00
         0.00000E+00
         0.00000E+00
         0.00000E+00
         0.00000E+00
         0.00000E+00
         0.00000E+00
         0.00000E+00
         0.00000E+00
         0.00000E+00
         0.00000E+00
         0.00000E+00
         0.00000E+00
         0.00000E+00
         0.00000E+00
         0.00000E+00
         0.00000E+00
         0.00000E+00
         0.00000E+00
         0.00000E+00
         0.00000E+00
         0.00000E+00
         0.00000E+00
         0.00000E+00
         0.00000E+00
         0.00000E+00
         0.00000E+00
         0.00000E+00
         0.00000E+00
         0.00000E+00
         0.00000E+00
         0.00000E+00
         0.00000E+00
         0.00000E+00
         0.00000E+00
         0.00000E+00
         0.00000E+00
         0.00000E+00
         0.00000E+00
         0.00000E+00
         0.00000E+00
         0.00000E+00
         0.00000E+00
         0.00000E+00
         0.00000E+00
         0.00000E+00
         0.00000E+00
         0.00000E+00
         0.00000E+00
         0.00000E+00
         0.00000E+00
         0.00000E+00
         0.00000E+00
         0.00000E+00
         0.00000E+00
         0.00000E+00
         0.00000E+00
         0.00000E+00
         0.00000E+00
         0.00000E+00
         0.00000E+00
         0.00000E+00
         0.00000E+00
         0.00000E+00
         0.00000E+00
         0.00000E+00
         0.00000E+00
         0.00000E+00
         0.00000E+00
         0.00000E+00
         0.00000E+00
         0.00000E+00
         0.00000E+00
         0.00000E+00
         0.00000E+00
         0.00000E+00
         0.00000E+00
         0.00000E+00
         0.00000E+00
         0.00000E+00
         0.00000E+00
         0.00000E+00
         0.00000E+00
         0.00000E+00
         0.00000E+00
         0.00000E+00
         0.00000E+00
         0.00000E+00
         0.00000E+00
         0.00000E+00
         0.00000E+00
         0.00000E+00
         0.00000E+00
         0.00000E+00
         0.00000E+00
         0.00000E+00
         0.00000E+00
         0.00000E+00
         0.00000E+00
         0.00000E+00
         0.00000E+00
         0.00000E+00
         0.00000E+00
         0.00000E+00
         0.00000E+00
         0.00000E+00
         0.00000E+00
         0.00000E+00
         0.00000E+00
         0.00000E+00
         0.00000E+00
         0.00000E+00
         0.00000E+00
         0.00000E+00
         0.00000E+00
         0.00000E+00
         0.00000E+00
         0.00000E+00
         0.00000E+00
         0.00000E+00
         0.00000E+00
         0.00000E+00
         0.00000E+00
         0.00000E+00
         0.00000E+00
         0.00000E+00
         0.00000E+00
         0.00000E+00
         0.00000E+00
         0.00000E+00
         0.00000E+00
         0.00000E+00
         0.00000E+00
         0.00000E+00
         0.00000E+00
         0.00000E+00
         0.00000E+00
         0.00000E+00
         0.00000E+00
         0.00000E+00
         0.00000E+00
         0.00000E+00
         0.00000E+00
         0.00000E+00
         0.00000E+00
         0.00000E+00
         0.00000E+00
         0.00000E+00
         0.00000E+00
         0.00000E+00
         0.00000E+00
         0.00000E+00
         0.00000E+00
         0.00000E+00
         0.00000E+00
         0.00000E+00
         0.00000E+00
         0.00000E+00
         0.00000E+00
         0.00000E+00
         0.00000E+00
         0.00000E+00
         0.00000E+00
         0.00000E+00
         0.00000E+00
         0.00000E+00
         0.00000E+00
         0.00000E+00
         0.00000E+00
         0.00000E+00
         0.00000E+00
         0.00000E+00
         0.00000E+00
         0.00000E+00
         0.00000E+00
         0.00000E+00
         0.00000E+00
         0.00000E+00
         0.00000E+00
         0.00000E+00
         0.00000E+00
         0.00000E+00
         0.00000E+00
         0.00000E+00
         0.00000E+00
         0.00000E+00
         0.00000E+00
         0.00000E+00
         0.00000E+00
         0.00000E+00
         0.00000E+00
         0.00000E+00
         0.00000E+00
         0.00000E+00
         0.00000E+00
         0.00000E+00
         0.00000E+00
         0.00000E+00
         0.00000E+00
         0.00000E+00
         0.00000E+00
         0.00000E+00
         0.00000E+00
         0.00000E+00
         0.00000E+00
         0.00000E+00
         0.00000E+00
         0.00000E+00
         0.00000E+00
         0.00000E+00
         0.00000E+00
         0.00000E+00
         0.00000E+00
         0.00000E+00
         0.00000E+00
         0.00000E+00
         0.00000E+00
         0.00000E+00
         0.00000E+00
         0.00000E+00
         0.00000E+00
         0.00000E+00
         0.00000E+00
         0.00000E+00
         0.00000E+00
         0.00000E+00
         0.00000E+00
         0.00000E+00
         0.00000E+00
         0.00000E+00
         0.00000E+00
         0.00000E+00
         0.00000E+00
         0.00000E+00
         0.00000E+00
         0.00000E+00
         0.00000E+00
         0.00000E+00
         0.00000E+00
         0.00000E+00
         0.00000E+00
         0.00000E+00
         0.00000E+00
         0.00000E+00
         0.00000E+00
         0.00000E+00
         0.00000E+00
         0.00000E+00
         0.00000E+00
         0.00000E+00
         0.00000E+00
         0.00000E+00
         0.00000E+00
         0.00000E+00
         0.00000E+00
         0.00000E+00
         0.00000E+00
         0.00000E+00
         0.00000E+00
         0.00000E+00
         0.00000E+00
         0.00000E+00
         0.00000E+00
         0.00000E+00
         0.00000E+00
         0.00000E+00
         0.00000E+00
         0.00000E+00
         0.00000E+00
         0.00000E+00
         0.00000E+00
         0.00000E+00
         0.00000E+00
         0.00000E+00
         0.00000E+00
         0.00000E+00
         0.00000E+00
         0.00000E+00
         0.00000E+00
         0.00000E+00
         0.00000E+00
         0.00000E+00
         0.00000E+00
         0.00000E+00
         0.00000E+00
         0.00000E+00
         0.00000E+00
         0.00000E+00
         0.00000E+00
         0.00000E+00
         0.00000E+00
         0.00000E+00
         0.00000E+00
         0.00000E+00
         0.00000E+00
         0.00000E+00
         0.00000E+00
         0.00000E+00
         0.00000E+00
         0.00000E+00
         0.00000E+00
         0.00000E+00
         0.00000E+00
         0.00000E+00
         0.00000E+00
         0.00000E+00
         0.00000E+00
         0.00000E+00
         0.00000E+00
         0.00000E+00
         0.00000E+00
         0.00000E+00
         0.00000E+00
         0.00000E+00
         0.00000E+00
         0.00000E+00
         0.00000E+00
         0.00000E+00
         0.00000E+00
         0.00000E+00
         0.00000E+00
         0.00000E+00
         0.00000E+00
         0.00000E+00
         0.00000E+00
         0.00000E+00
         0.00000E+00
         0.00000E+00
         0.00000E+00
         0.00000E+00
         0.00000E+00
         0.00000E+00
         0.00000E+00
         0.00000E+00
         0.00000E+00
         0.00000E+00
         0.00000E+00
         0.00000E+00
         0.00000E+00
         0.00000E+00
         0.00000E+00
         0.00000E+00
         0.00000E+00
         0.00000E+00
         0.00000E+00
         0.00000E+00
         0.00000E+00
         0.00000E+00
         0.00000E+00
         0.00000E+00
         0.00000E+00
         0.00000E+00
         0.00000E+00
         0.00000E+00
         0.00000E+00
         0.00000E+00
         0.00000E+00
         0.00000E+00
         0.00000E+00
         0.00000E+00
         0.00000E+00
         0.00000E+00
         0.00000E+00
         0.00000E+00
         0.00000E+00
         0.00000E+00
         0.00000E+00
         0.00000E+00
         0.00000E+00
         0.00000E+00
         0.00000E+00
         0.00000E+00
         0.00000E+00
         0.00000E+00
         0.00000E+00
         0.00000E+00
         0.00000E+00
         0.00000E+00
         0.00000E+00
         0.00000E+00
         0.00000E+00
         0.00000E+00
         0.00000E+00
         0.00000E+00
         0.00000E+00
         0.00000E+00
         0.00000E+00
         0.00000E+00
         0.00000E+00
         0.00000E+00
         0.00000E+00
         0.00000E+00
         0.00000E+00
         0.00000E+00
         0.00000E+00
         0.00000E+00
         0.00000E+00
         0.00000E+00
         0.00000E+00
         0.00000E+00
         0.00000E+00
         0.00000E+00
         0.00000E+00
         0.00000E+00
         0.00000E+00
         0.00000E+00
         0.00000E+00
         0.00000E+00
         0.00000E+00
         0.00000E+00
         0.00000E+00
         0.00000E+00
         0.00000E+00
         0.00000E+00
         0.00000E+00
         0.00000E+00
         0.00000E+00
         0.00000E+00
         0.00000E+00
         0.00000E+00
         0.00000E+00
         0.00000E+00
         0.00000E+00
         0.00000E+00
         0.00000E+00
         0.00000E+00
         0.00000E+00
         0.00000E+00
         0.00000E+00
         0.00000E+00
         0.00000E+00
         0.00000E+00
         0.00000E+00
         0.00000E+00
         0.00000E+00
         0.00000E+00
         0.00000E+00
         0.00000E+00
         0.00000E+00
         0.00000E+00
         0.00000E+00
         0.00000E+00
         0.00000E+00
         0.00000E+00
         0.00000E+00
         0.00000E+00
         0.00000E+00
         0.00000E+00
         0.00000E+00
         0.00000E+00
         0.00000E+00
         0.00000E+00
         0.00000E+00
         0.00000E+00
         0.00000E+00
         0.00000E+00
         0.00000E+00
         0.00000E+00
         0.00000E+00
         0.00000E+00
         0.00000E+00
         0.00000E+00
         0.00000E+00
         0.00000E+00
         0.00000E+00
         0.00000E+00
         0.00000E+00
         0.00000E+00
         0.00000E+00
         0.00000E+00
         0.00000E+00
         0.00000E+00
         0.00000E+00
         0.00000E+00
         0.00000E+00
         0.00000E+00
         0.00000E+00
         0.00000E+00
         0.00000E+00
         0.00000E+00
         0.00000E+00
         0.00000E+00
         0.00000E+00
         0.00000E+00
         0.00000E+00
         0.00000E+00
         0.00000E+00
         0.00000E+00
         0.00000E+00
         0.00000E+00
         0.00000E+00
         0.00000E+00
         0.00000E+00
         0.00000E+00
         0.00000E+00
         0.00000E+00
         0.00000E+00
         0.00000E+00
         0.00000E+00
         0.00000E+00
         0.00000E+00
         0.00000E+00
         0.00000E+00
         0.00000E+00
         0.00000E+00
         0.00000E+00
         0.00000E+00
         0.00000E+00
         0.00000E+00
         0.00000E+00
         0.00000E+00
         0.00000E+00
         0.00000E+00
         0.00000E+00
         0.00000E+00
         0.00000E+00
         0.00000E+00
         0.00000E+00
         0.00000E+00
         0.00000E+00
         0.00000E+00
         0.00000E+00
         0.00000E+00
         0.00000E+00
         0.00000E+00
         0.00000E+00
         0.00000E+00
         0.00000E+00
         0.00000E+00
         0.00000E+00
         0.00000E+00
         0.00000E+00
         0.00000E+00
         0.00000E+00
         0.00000E+00
         0.00000E+00
         0.00000E+00
         0.00000E+00
         0.00000E+00
         0.00000E+00
         0.00000E+00
         0.00000E+00
         0.00000E+00
         0.00000E+00
         0.00000E+00
         0.00000E+00
         0.00000E+00
         0.00000E+00
         0.00000E+00
         0.00000E+00
         0.00000E+00
         0.00000E+00
         0.00000E+00
         0.00000E+00
         0.00000E+00
         0.00000E+00
         0.00000E+00
         0.00000E+00
         0.00000E+00
         0.00000E+00
         0.00000E+00
         0.00000E+00
         0.00000E+00
         0.00000E+00
         0.00000E+00
         0.00000E+00
         0.00000E+00
         0.00000E+00
         0.00000E+00
         0.00000E+00
         0.00000E+00
         0.00000E+00
         0.00000E+00
         0.00000E+00
         0.00000E+00
         0.00000E+00
         0.00000E+00
         0.00000E+00
         0.00000E+00
         0.00000E+00
         0.00000E+00
         0.00000E+00
         0.00000E+00
         0.00000E+00
         0.00000E+00
         0.00000E+00
         0.00000E+00
         0.00000E+00
         0.00000E+00
         0.00000E+00
         0.00000E+00
         0.00000E+00
         0.00000E+00
         0.00000E+00
         0.00000E+00
         0.00000E+00
         0.00000E+00
         0.00000E+00
         0.00000E+00
         0.00000E+00
         0.00000E+00
         0.00000E+00
         0.00000E+00
         0.00000E+00
         0.00000E+00
         0.00000E+00
         0.00000E+00
         0.00000E+00
         0.00000E+00
         0.00000E+00
         0.00000E+00
         0.00000E+00
         0.00000E+00
         0.00000E+00
         0.00000E+00
         0.00000E+00
         0.00000E+00
         0.00000E+00
         0.00000E+00
         0.00000E+00
         0.00000E+00
         0.00000E+00
         0.00000E+00
         0.00000E+00
         0.00000E+00
         0.00000E+00
         0.00000E+00
         0.00000E+00
         0.00000E+00
         0.00000E+00
         0.00000E+00
         0.00000E+00
         0.00000E+00
         0.00000E+00
         0.00000E+00
         0.00000E+00
         0.00000E+00
         0.00000E+00
         0.00000E+00
         0.00000E+00
         0.00000E+00
         0.00000E+00
         0.00000E+00
         0.00000E+00
         0.00000E+00
         0.00000E+00
         0.00000E+00
         0.00000E+00
         0.00000E+00
         0.00000E+00
         0.00000E+00
         0.00000E+00
         0.00000E+00
         0.00000E+00
         0.00000E+00
         0.00000E+00
         0.00000E+00
         0.00000E+00
         0.00000E+00
         0.00000E+00
         0.00000E+00
         0.00000E+00
         0.00000E+00
         0.00000E+00
         0.00000E+00
         0.00000E+00
         0.00000E+00
         0.00000E+00
         0.00000E+00
         0.00000E+00
         0.00000E+00
         0.00000E+00
         0.00000E+00
         0.00000E+00
         0.00000E+00
         0.00000E+00
         0.00000E+00
         0.00000E+00
         0.00000E+00
         0.00000E+00
         0.00000E+00
         0.00000E+00
         0.00000E+00
         0.00000E+00
         0.00000E+00
         0.00000E+00
         0.00000E+00
         0.00000E+00
         0.00000E+00
         0.00000E+00
         0.00000E+00
         0.00000E+00
         0.00000E+00
         0.00000E+00
         0.00000E+00
         0.00000E+00
         0.00000E+00
         0.00000E+00
         0.00000E+00
         0.00000E+00
         0.00000E+00
         0.00000E+00
         0.00000E+00
         0.00000E+00
         0.00000E+00
         0.00000E+00
         0.00000E+00
         0.00000E+00
         0.00000E+00
         0.00000E+00
         0.00000E+00
         0.00000E+00
         0.00000E+00
         0.00000E+00
         0.00000E+00
         0.00000E+00
         0.00000E+00
         0.00000E+00
         0.00000E+00
         0.00000E+00
         0.00000E+00
         0.00000E+00
         0.00000E+00
         0.00000E+00
         0.00000E+00
         0.00000E+00
         0.00000E+00
         0.00000E+00
         0.00000E+00
         0.00000E+00
         0.00000E+00
         0.00000E+00
         0.00000E+00
         0.00000E+00
         0.00000E+00
         0.00000E+00
         0.00000E+00
         0.00000E+00
         0.00000E+00
         0.00000E+00
         0.00000E+00
         0.00000E+00
         0.00000E+00
         0.00000E+00
         0.00000E+00
         0.00000E+00
         0.00000E+00
         0.00000E+00
         0.00000E+00
         0.00000E+00
         0.00000E+00
         0.00000E+00
         0.00000E+00
         0.00000E+00
         0.00000E+00
         0.00000E+00
         0.00000E+00
         0.00000E+00
         0.00000E+00
         0.00000E+00
         0.00000E+00
         0.00000E+00
         0.00000E+00
         0.00000E+00
         0.00000E+00
         0.00000E+00
         0.00000E+00
         0.00000E+00
         0.00000E+00
         0.00000E+00
         0.00000E+00
         0.00000E+00
         0.00000E+00
         0.00000E+00
         0.00000E+00
         0.00000E+00
         0.00000E+00
         0.00000E+00
         0.00000E+00
         0.00000E+00
         0.00000E+00
         0.00000E+00
         0.00000E+00
         0.00000E+00
         0.00000E+00
         0.00000E+00
         0.00000E+00
         0.00000E+00
         0.00000E+00
         0.00000E+00
         0.00000E+00
         0.00000E+00
         0.00000E+00
         0.00000E+00
         0.00000E+00
         0.00000E+00
         0.00000E+00
         0.00000E+00
         0.00000E+00
         0.00000E+00
         0.00000E+00
         0.00000E+00
         0.00000E+00
         0.00000E+00
         0.00000E+00
         0.00000E+00
         0.00000E+00
         0.00000E+00
         0.00000E+00
         0.00000E+00
         0.00000E+00
         0.00000E+00
         0.00000E+00
         0.00000E+00
         0.00000E+00
         0.00000E+00
         0.00000E+00
         0.00000E+00
         0.00000E+00
         0.00000E+00
         0.00000E+00
         0.00000E+00
         0.00000E+00
         0.00000E+00
         0.00000E+00
         0.00000E+00
         0.00000E+00
         0.00000E+00
         0.00000E+00
         0.00000E+00
         0.00000E+00
         0.00000E+00
         0.00000E+00
         0.00000E+00
         0.00000E+00
         0.00000E+00
         0.00000E+00
         0.00000E+00
         0.00000E+00
         0.00000E+00
         0.00000E+00
         0.00000E+00
         0.00000E+00
         0.00000E+00
         0.00000E+00
         0.00000E+00
         0.00000E+00
         0.00000E+00
         0.00000E+00
         0.00000E+00
         0.00000E+00
         0.00000E+00
         0.00000E+00
         0.00000E+00
         0.00000E+00
         0.00000E+00
         0.00000E+00
         0.00000E+00
         0.00000E+00
         0.00000E+00
         0.00000E+00
         0.00000E+00
         0.00000E+00
         0.00000E+00
         0.00000E+00
         0.00000E+00
         0.00000E+00
         0.00000E+00
         0.00000E+00
         0.00000E+00
         0.00000E+00
         0.00000E+00
         0.00000E+00
         0.00000E+00
         0.00000E+00
         0.00000E+00
         0.00000E+00
         0.00000E+00
         0.00000E+00
         0.00000E+00
         0.00000E+00
         0.00000E+00
         0.00000E+00
         0.00000E+00
         0.00000E+00
         0.00000E+00
         0.00000E+00
         0.00000E+00
         0.00000E+00
         0.00000E+00
         0.00000E+00
         0.00000E+00
         0.00000E+00
         0.00000E+00
         0.00000E+00
         0.00000E+00
         0.00000E+00
         0.00000E+00
         0.00000E+00
         0.00000E+00
         0.00000E+00
         0.00000E+00
         0.00000E+00
         0.00000E+00
         0.00000E+00
         0.00000E+00
         0.00000E+00
         0.00000E+00
         0.00000E+00
         0.00000E+00
         0.00000E+00
         0.00000E+00
         0.00000E+00
         0.00000E+00
         0.00000E+00
         0.00000E+00
         0.00000E+00
         0.00000E+00
         0.00000E+00
         0.00000E+00
         0.00000E+00
         0.00000E+00
         0.00000E+00
         0.00000E+00
         0.00000E+00
         0.00000E+00
         0.00000E+00
         0.00000E+00
         0.00000E+00
         0.00000E+00
         0.00000E+00
         0.00000E+00
         0.00000E+00
         0.00000E+00
         0.00000E+00
         0.00000E+00
         0.00000E+00
         0.00000E+00
         0.00000E+00
         0.00000E+00
         0.00000E+00
         0.00000E+00
         0.00000E+00
         0.00000E+00
         0.00000E+00
         0.00000E+00
         0.00000E+00
         0.00000E+00
         0.00000E+00
         0.00000E+00
         0.00000E+00
         0.00000E+00
         0.00000E+00
         0.00000E+00
         0.00000E+00
         0.00000E+00
         0.00000E+00
         0.00000E+00
         0.00000E+00
         0.00000E+00
         0.00000E+00
         0.00000E+00
         0.00000E+00
         0.00000E+00
         0.00000E+00
         0.00000E+00
         0.00000E+00
         0.00000E+00
         0.00000E+00
         0.00000E+00
         0.00000E+00
         0.00000E+00
         0.00000E+00
         0.00000E+00
         0.00000E+00
         0.00000E+00
         0.00000E+00
         0.00000E+00
         0.00000E+00
         0.00000E+00
         0.00000E+00
         0.00000E+00
         0.00000E+00
         0.00000E+00
         0.00000E+00
         0.00000E+00
         0.00000E+00
         0.00000E+00
         0.00000E+00
         0.00000E+00
         0.00000E+00
         0.00000E+00
         0.00000E+00
         0.00000E+00
         0.00000E+00
         0.00000E+00
         0.00000E+00
         0.00000E+00
         0.00000E+00
         0.00000E+00
         0.00000E+00
         0.00000E+00
         0.00000E+00
         0.00000E+00
         0.00000E+00
         0.00000E+00
         0.00000E+00
         0.00000E+00
         0.00000E+00
         0.00000E+00
         0.00000E+00
         0.00000E+00
         0.00000E+00
         0.00000E+00
         0.00000E+00
         0.00000E+00
         0.00000E+00
         0.00000E+00
         0.00000E+00
         0.00000E+00
         0.00000E+00
         0.00000E+00
         0.00000E+00
         0.00000E+00
         0.00000E+00
         0.00000E+00
         0.00000E+00
         0.00000E+00
         0.00000E+00
         0.00000E+00
         0.00000E+00
         0.00000E+00
         0.00000E+00
         0.00000E+00
         0.00000E+00
         0.00000E+00
         0.00000E+00
         0.00000E+00
         0.00000E+00
         0.00000E+00
         0.00000E+00
         0.00000E+00
         0.00000E+00
         0.00000E+00
         0.00000E+00
         0.00000E+00
         0.00000E+00
         0.00000E+00
         0.00000E+00
         0.00000E+00
         0.00000E+00
         0.00000E+00
         0.00000E+00
         0.00000E+00
         0.00000E+00
         0.00000E+00
         0.00000E+00
         0.00000E+00
         0.00000E+00
         0.00000E+00
         0.00000E+00
         0.00000E+00
         0.00000E+00
         0.00000E+00
         0.00000E+00
         0.00000E+00
         0.00000E+00
         0.00000E+00
         0.00000E+00
         0.00000E+00
         0.00000E+00
         0.00000E+00
         0.00000E+00
         0.00000E+00
         0.00000E+00
         0.00000E+00
         0.00000E+00
         0.00000E+00
         0.00000E+00
         0.00000E+00
         0.00000E+00
         0.00000E+00
         0.00000E+00
         0.00000E+00
         0.00000E+00
         0.00000E+00
         0.00000E+00
         0.00000E+00
         0.00000E+00
         0.00000E+00
         0.00000E+00
         0.00000E+00
         0.00000E+00
         0.00000E+00
         0.00000E+00
         0.00000E+00
         0.00000E+00
         0.00000E+00
         0.00000E+00
         0.00000E+00
         0.00000E+00
         0.00000E+00
         0.00000E+00
         0.00000E+00
         0.00000E+00
         0.00000E+00
         0.00000E+00
         0.00000E+00
         0.00000E+00
         0.00000E+00
         0.00000E+00
         0.00000E+00
         0.00000E+00
         0.00000E+00
         0.00000E+00
         0.00000E+00
         0.00000E+00
         0.00000E+00
         0.00000E+00
         0.00000E+00
         0.00000E+00
         0.00000E+00
         0.00000E+00
         0.00000E+00
         0.00000E+00
         0.00000E+00
         0.00000E+00
         0.00000E+00
         0.00000E+00
         0.00000E+00
         0.00000E+00
         0.00000E+00
         0.00000E+00
         0.00000E+00
         0.00000E+00
         0.00000E+00
         0.00000E+00
         0.00000E+00
         0.00000E+00
         0.00000E+00
         0.00000E+00
         0.00000E+00
         0.00000E+00
         0.00000E+00
         0.00000E+00
         0.00000E+00
         0.00000E+00
         0.00000E+00
         0.00000E+00
         0.00000E+00
         0.00000E+00
         0.00000E+00
         0.00000E+00
         0.00000E+00
         0.00000E+00
         0.00000E+00
         0.00000E+00
         0.00000E+00
         0.00000E+00
         0.00000E+00
         0.00000E+00
         0.00000E+00
         0.00000E+00
         0.00000E+00
         0.00000E+00
         0.00000E+00
         0.00000E+00
         0.00000E+00
         0.00000E+00
         0.00000E+00
         0.00000E+00
         0.00000E+00
         0.00000E+00
         0.00000E+00
         0.00000E+00
         0.00000E+00
         0.00000E+00
         0.00000E+00
         0.00000E+00
         0.00000E+00
         0.00000E+00
         0.00000E+00
         0.00000E+00
         0.00000E+00
         0.00000E+00
         0.00000E+00
         0.00000E+00
         0.00000E+00
         0.00000E+00
         0.00000E+00
         0.00000E+00
         0.00000E+00
         0.00000E+00
         0.00000E+00
         0.00000E+00
         0.00000E+00
         0.00000E+00
         0.00000E+00
         0.00000E+00
         0.00000E+00
         0.00000E+00
         0.00000E+00
         0.00000E+00
         0.00000E+00
         0.00000E+00
  
SCALARS                      eps_shear  double 1
LOOKUP_TABLE default
         0.00000E+00
         0.00000E+00
         0.00000E+00
         0.00000E+00
         0.00000E+00
         0.00000E+00
         0.00000E+00
         0.00000E+00
         0.00000E+00
         0.00000E+00
         0.00000E+00
         0.00000E+00
         0.00000E+00
         0.00000E+00
         0.00000E+00
         0.00000E+00
         0.00000E+00
         0.00000E+00
         0.00000E+00
         0.00000E+00
         0.00000E+00
         0.00000E+00
         0.00000E+00
         0.00000E+00
         0.00000E+00
         0.00000E+00
         0.00000E+00
         0.00000E+00
         0.00000E+00
         0.00000E+00
         0.00000E+00
         0.00000E+00
         0.00000E+00
         0.00000E+00
         0.00000E+00
         0.00000E+00
         0.00000E+00
         0.00000E+00
         0.00000E+00
         0.00000E+00
         0.00000E+00
         0.00000E+00
         0.00000E+00
         0.00000E+00
         0.00000E+00
         0.00000E+00
         0.00000E+00
         0.00000E+00
         0.00000E+00
         0.00000E+00
         0.00000E+00
         0.00000E+00
         0.00000E+00
         0.00000E+00
         0.00000E+00
         0.00000E+00
         0.00000E+00
         0.00000E+00
         0.00000E+00
         0.00000E+00
         0.00000E+00
         0.00000E+00
         0.00000E+00
         0.00000E+00
         0.00000E+00
         0.00000E+00
         0.00000E+00
         0.00000E+00
         0.00000E+00
         0.00000E+00
         0.00000E+00
         0.00000E+00
         0.00000E+00
         0.00000E+00
         0.00000E+00
         0.00000E+00
         0.00000E+00
         0.00000E+00
         0.00000E+00
         0.00000E+00
         0.00000E+00
         0.00000E+00
         0.00000E+00
         0.00000E+00
         0.00000E+00
         0.00000E+00
         0.00000E+00
         0.00000E+00
         0.00000E+00
         0.00000E+00
         0.00000E+00
         0.00000E+00
         0.00000E+00
         0.00000E+00
         0.00000E+00
         0.00000E+00
         0.00000E+00
         0.00000E+00
         0.00000E+00
         0.00000E+00
         0.00000E+00
         0.00000E+00
         0.00000E+00
         0.00000E+00
         0.00000E+00
         0.00000E+00
         0.00000E+00
         0.00000E+00
         0.00000E+00
         0.00000E+00
         0.00000E+00
         0.00000E+00
         0.00000E+00
         0.00000E+00
         0.00000E+00
         0.00000E+00
         0.00000E+00
         0.00000E+00
         0.00000E+00
         0.00000E+00
         0.00000E+00
         0.00000E+00
         0.00000E+00
         0.00000E+00
         0.00000E+00
         0.00000E+00
         0.00000E+00
         0.00000E+00
         0.00000E+00
         0.00000E+00
         0.00000E+00
         0.00000E+00
         0.00000E+00
         0.00000E+00
         0.00000E+00
         0.00000E+00
         0.00000E+00
         0.00000E+00
         0.00000E+00
         0.00000E+00
         0.00000E+00
         0.00000E+00
         0.00000E+00
         0.00000E+00
         0.00000E+00
         0.00000E+00
         0.00000E+00
         0.00000E+00
         0.00000E+00
         0.00000E+00
         0.00000E+00
         0.00000E+00
         0.00000E+00
         0.00000E+00
         0.00000E+00
         0.00000E+00
         0.00000E+00
         0.00000E+00
         0.00000E+00
         0.00000E+00
         0.00000E+00
         0.00000E+00
         0.00000E+00
         0.00000E+00
         0.00000E+00
         0.00000E+00
         0.00000E+00
         0.00000E+00
         0.00000E+00
         0.00000E+00
         0.00000E+00
         0.00000E+00
         0.00000E+00
         0.00000E+00
         0.00000E+00
         0.00000E+00
         0.00000E+00
         0.00000E+00
         0.00000E+00
         0.00000E+00
         0.00000E+00
         0.00000E+00
         0.00000E+00
         0.00000E+00
         0.00000E+00
         0.00000E+00
         0.00000E+00
         0.00000E+00
         0.00000E+00
         0.00000E+00
         0.00000E+00
         0.00000E+00
         0.00000E+00
         0.00000E+00
         0.00000E+00
         0.00000E+00
         0.00000E+00
         0.00000E+00
         0.00000E+00
         0.00000E+00
         0.00000E+00
         0.00000E+00
         0.00000E+00
         0.00000E+00
         0.00000E+00
         0.00000E+00
         0.00000E+00
         0.00000E+00
         0.00000E+00
         0.00000E+00
         0.00000E+00
         0.00000E+00
         0.00000E+00
         0.00000E+00
         0.00000E+00
         0.00000E+00
         0.00000E+00
         0.00000E+00
         0.00000E+00
         0.00000E+00
         0.00000E+00
         0.00000E+00
         0.00000E+00
         0.00000E+00
         0.00000E+00
         0.00000E+00
         0.00000E+00
         0.00000E+00
         0.00000E+00
         0.00000E+00
         0.00000E+00
         0.00000E+00
         0.00000E+00
         0.00000E+00
         0.00000E+00
         0.00000E+00
         0.00000E+00
         0.00000E+00
         0.00000E+00
         0.00000E+00
         0.00000E+00
         0.00000E+00
         0.00000E+00
         0.00000E+00
         0.00000E+00
         0.00000E+00
         0.00000E+00
         0.00000E+00
         0.00000E+00
         0.00000E+00
         0.00000E+00
         0.00000E+00
         0.00000E+00
         0.00000E+00
         0.00000E+00
         0.00000E+00
         0.00000E+00
         0.00000E+00
         0.00000E+00
         0.00000E+00
         0.00000E+00
         0.00000E+00
         0.00000E+00
         0.00000E+00
         0.00000E+00
         0.00000E+00
         0.00000E+00
         0.00000E+00
         0.00000E+00
         0.00000E+00
         0.00000E+00
         0.00000E+00
         0.00000E+00
         0.00000E+00
         0.00000E+00
         0.00000E+00
         0.00000E+00
         0.00000E+00
         0.00000E+00
         0.00000E+00
         0.00000E+00
         0.00000E+00
         0.00000E+00
         0.00000E+00
         0.00000E+00
         0.00000E+00
         0.00000E+00
         0.00000E+00
         0.00000E+00
         0.00000E+00
         0.00000E+00
         0.00000E+00
         0.00000E+00
         0.00000E+00
         0.00000E+00
         0.00000E+00
         0.00000E+00
         0.00000E+00
         0.00000E+00
         0.00000E+00
         0.00000E+00
         0.00000E+00
         0.00000E+00
         0.00000E+00
         0.00000E+00
         0.00000E+00
         0.00000E+00
         0.00000E+00
         0.00000E+00
         0.00000E+00
         0.00000E+00
         0.00000E+00
         0.00000E+00
         0.00000E+00
         0.00000E+00
         0.00000E+00
         0.00000E+00
         0.00000E+00
         0.00000E+00
         0.00000E+00
         0.00000E+00
         0.00000E+00
         0.00000E+00
         0.00000E+00
         0.00000E+00
         0.00000E+00
         0.00000E+00
         0.00000E+00
         0.00000E+00
         0.00000E+00
         0.00000E+00
         0.00000E+00
         0.00000E+00
         0.00000E+00
         0.00000E+00
         0.00000E+00
         0.00000E+00
         0.00000E+00
         0.00000E+00
         0.00000E+00
         0.00000E+00
         0.00000E+00
         0.00000E+00
         0.00000E+00
         0.00000E+00
         0.00000E+00
         0.00000E+00
         0.00000E+00
         0.00000E+00
         0.00000E+00
         0.00000E+00
         0.00000E+00
         0.00000E+00
         0.00000E+00
         0.00000E+00
         0.00000E+00
         0.00000E+00
         0.00000E+00
         0.00000E+00
         0.00000E+00
         0.00000E+00
         0.00000E+00
         0.00000E+00
         0.00000E+00
         0.00000E+00
         0.00000E+00
         0.00000E+00
         0.00000E+00
         0.00000E+00
         0.00000E+00
         0.00000E+00
         0.00000E+00
         0.00000E+00
         0.00000E+00
         0.00000E+00
         0.00000E+00
         0.00000E+00
         0.00000E+00
         0.00000E+00
         0.00000E+00
         0.00000E+00
         0.00000E+00
         0.00000E+00
         0.00000E+00
         0.00000E+00
         0.00000E+00
         0.00000E+00
         0.00000E+00
         0.00000E+00
         0.00000E+00
         0.00000E+00
         0.00000E+00
         0.00000E+00
         0.00000E+00
         0.00000E+00
         0.00000E+00
         0.00000E+00
         0.00000E+00
         0.00000E+00
         0.00000E+00
         0.00000E+00
         0.00000E+00
         0.00000E+00
         0.00000E+00
         0.00000E+00
         0.00000E+00
         0.00000E+00
         0.00000E+00
         0.00000E+00
         0.00000E+00
         0.00000E+00
         0.00000E+00
         0.00000E+00
         0.00000E+00
         0.00000E+00
         0.00000E+00
         0.00000E+00
         0.00000E+00
         0.00000E+00
         0.00000E+00
         0.00000E+00
         0.00000E+00
         0.00000E+00
         0.00000E+00
         0.00000E+00
         0.00000E+00
         0.00000E+00
         0.00000E+00
         0.00000E+00
         0.00000E+00
         0.00000E+00
         0.00000E+00
         0.00000E+00
         0.00000E+00
         0.00000E+00
         0.00000E+00
         0.00000E+00
         0.00000E+00
         0.00000E+00
         0.00000E+00
         0.00000E+00
         0.00000E+00
         0.00000E+00
         0.00000E+00
         0.00000E+00
         0.00000E+00
         0.00000E+00
         0.00000E+00
         0.00000E+00
         0.00000E+00
         0.00000E+00
         0.00000E+00
         0.00000E+00
         0.00000E+00
         0.00000E+00
         0.00000E+00
         0.00000E+00
         0.00000E+00
         0.00000E+00
         0.00000E+00
         0.00000E+00
         0.00000E+00
         0.00000E+00
         0.00000E+00
         0.00000E+00
         0.00000E+00
         0.00000E+00
         0.00000E+00
         0.00000E+00
         0.00000E+00
         0.00000E+00
         0.00000E+00
         0.00000E+00
         0.00000E+00
         0.00000E+00
         0.00000E+00
         0.00000E+00
         0.00000E+00
         0.00000E+00
         0.00000E+00
         0.00000E+00
         0.00000E+00
         0.00000E+00
         0.00000E+00
         0.00000E+00
         0.00000E+00
         0.00000E+00
         0.00000E+00
         0.00000E+00
         0.00000E+00
         0.00000E+00
         0.00000E+00
         0.00000E+00
         0.00000E+00
         0.00000E+00
         0.00000E+00
         0.00000E+00
         0.00000E+00
         0.00000E+00
         0.00000E+00
         0.00000E+00
         0.00000E+00
         0.00000E+00
         0.00000E+00
         0.00000E+00
         0.00000E+00
         0.00000E+00
         0.00000E+00
         0.00000E+00
         0.00000E+00
         0.00000E+00
         0.00000E+00
         0.00000E+00
         0.00000E+00
         0.00000E+00
         0.00000E+00
         0.00000E+00
         0.00000E+00
         0.00000E+00
         0.00000E+00
         0.00000E+00
         0.00000E+00
         0.00000E+00
         0.00000E+00
         0.00000E+00
         0.00000E+00
         0.00000E+00
         0.00000E+00
         0.00000E+00
         0.00000E+00
         0.00000E+00
         0.00000E+00
         0.00000E+00
         0.00000E+00
         0.00000E+00
         0.00000E+00
         0.00000E+00
         0.00000E+00
         0.00000E+00
         0.00000E+00
         0.00000E+00
         0.00000E+00
         0.00000E+00
         0.00000E+00
         0.00000E+00
         0.00000E+00
         0.00000E+00
         0.00000E+00
         0.00000E+00
         0.00000E+00
         0.00000E+00
         0.00000E+00
         0.00000E+00
         0.00000E+00
         0.00000E+00
         0.00000E+00
         0.00000E+00
         0.00000E+00
         0.00000E+00
         0.00000E+00
         0.00000E+00
         0.00000E+00
         0.00000E+00
         0.00000E+00
         0.00000E+00
         0.00000E+00
         0.00000E+00
         0.00000E+00
         0.00000E+00
         0.00000E+00
         0.00000E+00
         0.00000E+00
         0.00000E+00
         0.00000E+00
         0.00000E+00
         0.00000E+00
         0.00000E+00
         0.00000E+00
         0.00000E+00
         0.00000E+00
         0.00000E+00
         0.00000E+00
         0.00000E+00
         0.00000E+00
         0.00000E+00
         0.00000E+00
         0.00000E+00
         0.00000E+00
         0.00000E+00
         0.00000E+00
         0.00000E+00
         0.00000E+00
         0.00000E+00
         0.00000E+00
         0.00000E+00
         0.00000E+00
         0.00000E+00
         0.00000E+00
         0.00000E+00
         0.00000E+00
         0.00000E+00
         0.00000E+00
         0.00000E+00
         0.00000E+00
         0.00000E+00
         0.00000E+00
         0.00000E+00
         0.00000E+00
         0.00000E+00
         0.00000E+00
         0.00000E+00
         0.00000E+00
         0.00000E+00
         0.00000E+00
         0.00000E+00
         0.00000E+00
         0.00000E+00
         0.00000E+00
         0.00000E+00
         0.00000E+00
         0.00000E+00
         0.00000E+00
         0.00000E+00
         0.00000E+00
         0.00000E+00
         0.00000E+00
         0.00000E+00
         0.00000E+00
         0.00000E+00
         0.00000E+00
         0.00000E+00
         0.00000E+00
         0.00000E+00
         0.00000E+00
         0.00000E+00
         0.00000E+00
         0.00000E+00
         0.00000E+00
         0.00000E+00
         0.00000E+00
         0.00000E+00
         0.00000E+00
         0.00000E+00
         0.00000E+00
         0.00000E+00
         0.00000E+00
         0.00000E+00
         0.00000E+00
         0.00000E+00
         0.00000E+00
         0.00000E+00
         0.00000E+00
         0.00000E+00
         0.00000E+00
         0.00000E+00
         0.00000E+00
         0.00000E+00
         0.00000E+00
         0.00000E+00
         0.00000E+00
         0.00000E+00
         0.00000E+00
         0.00000E+00
         0.00000E+00
         0.00000E+00
         0.00000E+00
         0.00000E+00
         0.00000E+00
         0.00000E+00
         0.00000E+00
         0.00000E+00
         0.00000E+00
         0.00000E+00
         0.00000E+00
         0.00000E+00
         0.00000E+00
         0.00000E+00
         0.00000E+00
         0.00000E+00
         0.00000E+00
         0.00000E+00
         0.00000E+00
         0.00000E+00
         0.00000E+00
         0.00000E+00
         0.00000E+00
         0.00000E+00
         0.00000E+00
         0.00000E+00
         0.00000E+00
         0.00000E+00
         0.00000E+00
         0.00000E+00
         0.00000E+00
         0.00000E+00
         0.00000E+00
         0.00000E+00
         0.00000E+00
         0.00000E+00
         0.00000E+00
         0.00000E+00
         0.00000E+00
         0.00000E+00
         0.00000E+00
         0.00000E+00
         0.00000E+00
         0.00000E+00
         0.00000E+00
         0.00000E+00
         0.00000E+00
         0.00000E+00
         0.00000E+00
         0.00000E+00
         0.00000E+00
         0.00000E+00
         0.00000E+00
         0.00000E+00
         0.00000E+00
         0.00000E+00
         0.00000E+00
         0.00000E+00
         0.00000E+00
         0.00000E+00
         0.00000E+00
         0.00000E+00
         0.00000E+00
         0.00000E+00
         0.00000E+00
         0.00000E+00
         0.00000E+00
         0.00000E+00
         0.00000E+00
         0.00000E+00
         0.00000E+00
         0.00000E+00
         0.00000E+00
         0.00000E+00
         0.00000E+00
         0.00000E+00
         0.00000E+00
         0.00000E+00
         0.00000E+00
         0.00000E+00
         0.00000E+00
         0.00000E+00
         0.00000E+00
         0.00000E+00
         0.00000E+00
         0.00000E+00
         0.00000E+00
         0.00000E+00
         0.00000E+00
         0.00000E+00
         0.00000E+00
         0.00000E+00
         0.00000E+00
         0.00000E+00
         0.00000E+00
         0.00000E+00
         0.00000E+00
         0.00000E+00
         0.00000E+00
         0.00000E+00
         0.00000E+00
         0.00000E+00
         0.00000E+00
         0.00000E+00
         0.00000E+00
         0.00000E+00
         0.00000E+00
         0.00000E+00
         0.00000E+00
         0.00000E+00
         0.00000E+00
         0.00000E+00
         0.00000E+00
         0.00000E+00
         0.00000E+00
         0.00000E+00
         0.00000E+00
         0.00000E+00
         0.00000E+00
         0.00000E+00
         0.00000E+00
         0.00000E+00
         0.00000E+00
         0.00000E+00
         0.00000E+00
         0.00000E+00
         0.00000E+00
         0.00000E+00
         0.00000E+00
         0.00000E+00
         0.00000E+00
         0.00000E+00
         0.00000E+00
         0.00000E+00
         0.00000E+00
         0.00000E+00
         0.00000E+00
         0.00000E+00
         0.00000E+00
         0.00000E+00
         0.00000E+00
         0.00000E+00
         0.00000E+00
         0.00000E+00
         0.00000E+00
         0.00000E+00
         0.00000E+00
         0.00000E+00
         0.00000E+00
         0.00000E+00
         0.00000E+00
         0.00000E+00
         0.00000E+00
         0.00000E+00
         0.00000E+00
         0.00000E+00
         0.00000E+00
         0.00000E+00
         0.00000E+00
         0.00000E+00
         0.00000E+00
         0.00000E+00
         0.00000E+00
         0.00000E+00
         0.00000E+00
         0.00000E+00
         0.00000E+00
         0.00000E+00
         0.00000E+00
         0.00000E+00
         0.00000E+00
         0.00000E+00
         0.00000E+00
         0.00000E+00
         0.00000E+00
         0.00000E+00
         0.00000E+00
         0.00000E+00
         0.00000E+00
         0.00000E+00
         0.00000E+00
         0.00000E+00
         0.00000E+00
         0.00000E+00
         0.00000E+00
         0.00000E+00
         0.00000E+00
         0.00000E+00
         0.00000E+00
         0.00000E+00
         0.00000E+00
         0.00000E+00
         0.00000E+00
         0.00000E+00
         0.00000E+00
         0.00000E+00
         0.00000E+00
         0.00000E+00
         0.00000E+00
         0.00000E+00
         0.00000E+00
         0.00000E+00
         0.00000E+00
         0.00000E+00
         0.00000E+00
         0.00000E+00
         0.00000E+00
         0.00000E+00
         0.00000E+00
         0.00000E+00
         0.00000E+00
         0.00000E+00
         0.00000E+00
         0.00000E+00
         0.00000E+00
         0.00000E+00
         0.00000E+00
         0.00000E+00
         0.00000E+00
         0.00000E+00
         0.00000E+00
         0.00000E+00
         0.00000E+00
         0.00000E+00
         0.00000E+00
         0.00000E+00
         0.00000E+00
         0.00000E+00
         0.00000E+00
         0.00000E+00
         0.00000E+00
         0.00000E+00
         0.00000E+00
         0.00000E+00
         0.00000E+00
         0.00000E+00
         0.00000E+00
         0.00000E+00
         0.00000E+00
         0.00000E+00
         0.00000E+00
         0.00000E+00
         0.00000E+00
         0.00000E+00
         0.00000E+00
         0.00000E+00
         0.00000E+00
         0.00000E+00
         0.00000E+00
         0.00000E+00
         0.00000E+00
         0.00000E+00
         0.00000E+00
         0.00000E+00
         0.00000E+00
         0.00000E+00
         0.00000E+00
         0.00000E+00
         0.00000E+00
         0.00000E+00
         0.00000E+00
         0.00000E+00
         0.00000E+00
         0.00000E+00
         0.00000E+00
         0.00000E+00
         0.00000E+00
         0.00000E+00
         0.00000E+00
         0.00000E+00
         0.00000E+00
         0.00000E+00
         0.00000E+00
         0.00000E+00
         0.00000E+00
         0.00000E+00
         0.00000E+00
         0.00000E+00
         0.00000E+00
         0.00000E+00
         0.00000E+00
         0.00000E+00
         0.00000E+00
         0.00000E+00
         0.00000E+00
         0.00000E+00
         0.00000E+00
         0.00000E+00
         0.00000E+00
         0.00000E+00
         0.00000E+00
         0.00000E+00
         0.00000E+00
         0.00000E+00
         0.00000E+00
         0.00000E+00
         0.00000E+00
         0.00000E+00
         0.00000E+00
         0.00000E+00
         0.00000E+00
         0.00000E+00
         0.00000E+00
         0.00000E+00
         0.00000E+00
         0.00000E+00
         0.00000E+00
         0.00000E+00
         0.00000E+00
         0.00000E+00
         0.00000E+00
         0.00000E+00
         0.00000E+00
         0.00000E+00
         0.00000E+00
         0.00000E+00
         0.00000E+00
         0.00000E+00
         0.00000E+00
         0.00000E+00
         0.00000E+00
         0.00000E+00
         0.00000E+00
         0.00000E+00
         0.00000E+00
         0.00000E+00
         0.00000E+00
         0.00000E+00
         0.00000E+00
         0.00000E+00
         0.00000E+00
         0.00000E+00
         0.00000E+00
         0.00000E+00
         0.00000E+00
         0.00000E+00
         0.00000E+00
         0.00000E+00
         0.00000E+00
         0.00000E+00
         0.00000E+00
         0.00000E+00
         0.00000E+00
         0.00000E+00
         0.00000E+00
         0.00000E+00
         0.00000E+00
         0.00000E+00
         0.00000E+00
         0.00000E+00
         0.00000E+00
         0.00000E+00
         0.00000E+00
         0.00000E+00
         0.00000E+00
         0.00000E+00
         0.00000E+00
         0.00000E+00
         0.00000E+00
         0.00000E+00
         0.00000E+00
         0.00000E+00
         0.00000E+00
         0.00000E+00
         0.00000E+00
         0.00000E+00
         0.00000E+00
         0.00000E+00
         0.00000E+00
         0.00000E+00
         0.00000E+00
         0.00000E+00
         0.00000E+00
         0.00000E+00
         0.00000E+00
         0.00000E+00
         0.00000E+00
         0.00000E+00
         0.00000E+00
         0.00000E+00
         0.00000E+00
         0.00000E+00
         0.00000E+00
         0.00000E+00
         0.00000E+00
         0.00000E+00
         0.00000E+00
         0.00000E+00
         0.00000E+00
         0.00000E+00
         0.00000E+00
         0.00000E+00
         0.00000E+00
         0.00000E+00
         0.00000E+00
         0.00000E+00
         0.00000E+00
         0.00000E+00
         0.00000E+00
         0.00000E+00
         0.00000E+00
         0.00000E+00
         0.00000E+00
         0.00000E+00
         0.00000E+00
         0.00000E+00
         0.00000E+00
         0.00000E+00
         0.00000E+00
         0.00000E+00
         0.00000E+00
         0.00000E+00
         0.00000E+00
         0.00000E+00
         0.00000E+00
         0.00000E+00
         0.00000E+00
         0.00000E+00
         0.00000E+00
         0.00000E+00
         0.00000E+00
         0.00000E+00
         0.00000E+00
         0.00000E+00
         0.00000E+00
         0.00000E+00
         0.00000E+00
         0.00000E+00
         0.00000E+00
         0.00000E+00
         0.00000E+00
         0.00000E+00
         0.00000E+00
         0.00000E+00
         0.00000E+00
         0.00000E+00
         0.00000E+00
         0.00000E+00
         0.00000E+00
         0.00000E+00
         0.00000E+00
         0.00000E+00
         0.00000E+00
         0.00000E+00
         0.00000E+00
         0.00000E+00
         0.00000E+00
         0.00000E+00
         0.00000E+00
         0.00000E+00
         0.00000E+00
         0.00000E+00
         0.00000E+00
         0.00000E+00
         0.00000E+00
         0.00000E+00
         0.00000E+00
         0.00000E+00
         0.00000E+00
         0.00000E+00
         0.00000E+00
         0.00000E+00
         0.00000E+00
         0.00000E+00
         0.00000E+00
         0.00000E+00
         0.00000E+00
         0.00000E+00
         0.00000E+00
         0.00000E+00
         0.00000E+00
         0.00000E+00
         0.00000E+00
         0.00000E+00
         0.00000E+00
         0.00000E+00
         0.00000E+00
         0.00000E+00
         0.00000E+00
         0.00000E+00
         0.00000E+00
         0.00000E+00
         0.00000E+00
         0.00000E+00
         0.00000E+00
         0.00000E+00
         0.00000E+00
         0.00000E+00
         0.00000E+00
         0.00000E+00
         0.00000E+00
         0.00000E+00
         0.00000E+00
         0.00000E+00
         0.00000E+00
         0.00000E+00
         0.00000E+00
         0.00000E+00
         0.00000E+00
         0.00000E+00
         0.00000E+00
         0.00000E+00
         0.00000E+00
         0.00000E+00
         0.00000E+00
         0.00000E+00
         0.00000E+00
         0.00000E+00
         0.00000E+00
         0.00000E+00
         0.00000E+00
         0.00000E+00
         0.00000E+00
         0.00000E+00
         0.00000E+00
         0.00000E+00
         0.00000E+00
         0.00000E+00
         0.00000E+00
         0.00000E+00
         0.00000E+00
         0.00000E+00
         0.00000E+00
         0.00000E+00
         0.00000E+00
         0.00000E+00
         0.00000E+00
         0.00000E+00
         0.00000E+00
         0.00000E+00
         0.00000E+00
         0.00000E+00
         0.00000E+00
         0.00000E+00
         0.00000E+00
         0.00000E+00
         0.00000E+00
         0.00000E+00
         0.00000E+00
         0.00000E+00
         0.00000E+00
         0.00000E+00
         0.00000E+00
         0.00000E+00
         0.00000E+00
         0.00000E+00
         0.00000E+00
         0.00000E+00
         0.00000E+00
         0.00000E+00
         0.00000E+00
         0.00000E+00
         0.00000E+00
         0.00000E+00
         0.00000E+00
         0.00000E+00
         0.00000E+00
         0.00000E+00
         0.00000E+00
         0.00000E+00
         0.00000E+00
         0.00000E+00
         0.00000E+00
         0.00000E+00
         0.00000E+00
         0.00000E+00
         0.00000E+00
         0.00000E+00
         0.00000E+00
         0.00000E+00
         0.00000E+00
         0.00000E+00
         0.00000E+00
         0.00000E+00
         0.00000E+00
         0.00000E+00
         0.00000E+00
         0.00000E+00
         0.00000E+00
         0.00000E+00
         0.00000E+00
         0.00000E+00
         0.00000E+00
         0.00000E+00
         0.00000E+00
         0.00000E+00
         0.00000E+00
         0.00000E+00
         0.00000E+00
         0.00000E+00
         0.00000E+00
         0.00000E+00
         0.00000E+00
         0.00000E+00
         0.00000E+00
         0.00000E+00
         0.00000E+00
         0.00000E+00
         0.00000E+00
         0.00000E+00
         0.00000E+00
         0.00000E+00
         0.00000E+00
         0.00000E+00
         0.00000E+00
         0.00000E+00
         0.00000E+00
         0.00000E+00
         0.00000E+00
         0.00000E+00
         0.00000E+00
         0.00000E+00
         0.00000E+00
         0.00000E+00
         0.00000E+00
         0.00000E+00
         0.00000E+00
         0.00000E+00
         0.00000E+00
         0.00000E+00
         0.00000E+00
         0.00000E+00
         0.00000E+00
         0.00000E+00
         0.00000E+00
         0.00000E+00
         0.00000E+00
         0.00000E+00
         0.00000E+00
         0.00000E+00
         0.00000E+00
         0.00000E+00
         0.00000E+00
         0.00000E+00
         0.00000E+00
         0.00000E+00
         0.00000E+00
         0.00000E+00
         0.00000E+00
         0.00000E+00
         0.00000E+00
         0.00000E+00
         0.00000E+00
         0.00000E+00
         0.00000E+00
         0.00000E+00
         0.00000E+00
         0.00000E+00
         0.00000E+00
         0.00000E+00
         0.00000E+00
         0.00000E+00
         0.00000E+00
         0.00000E+00
         0.00000E+00
         0.00000E+00
         0.00000E+00
         0.00000E+00
         0.00000E+00
         0.00000E+00
         0.00000E+00
         0.00000E+00
         0.00000E+00
         0.00000E+00
         0.00000E+00
         0.00000E+00
         0.00000E+00
         0.00000E+00
         0.00000E+00
         0.00000E+00
         0.00000E+00
         0.00000E+00
         0.00000E+00
         0.00000E+00
         0.00000E+00
         0.00000E+00
         0.00000E+00
         0.00000E+00
         0.00000E+00
         0.00000E+00
         0.00000E+00
         0.00000E+00
         0.00000E+00
         0.00000E+00
         0.00000E+00
         0.00000E+00
         0.00000E+00
         0.00000E+00
         0.00000E+00
         0.00000E+00
         0.00000E+00
         0.00000E+00
         0.00000E+00
         0.00000E+00
         0.00000E+00
         0.00000E+00
         0.00000E+00
         0.00000E+00
         0.00000E+00
         0.00000E+00
         0.00000E+00
         0.00000E+00
         0.00000E+00
         0.00000E+00
         0.00000E+00
         0.00000E+00
         0.00000E+00
         0.00000E+00
         0.00000E+00
         0.00000E+00
         0.00000E+00
         0.00000E+00
         0.00000E+00
         0.00000E+00
         0.00000E+00
         0.00000E+00
         0.00000E+00
         0.00000E+00
         0.00000E+00
         0.00000E+00
         0.00000E+00
         0.00000E+00
         0.00000E+00
         0.00000E+00
         0.00000E+00
         0.00000E+00
         0.00000E+00
         0.00000E+00
         0.00000E+00
         0.00000E+00
         0.00000E+00
         0.00000E+00
         0.00000E+00
         0.00000E+00
         0.00000E+00
         0.00000E+00
         0.00000E+00
         0.00000E+00
         0.00000E+00
         0.00000E+00
         0.00000E+00
         0.00000E+00
         0.00000E+00
         0.00000E+00
         0.00000E+00
         0.00000E+00
         0.00000E+00
         0.00000E+00
         0.00000E+00
         0.00000E+00
         0.00000E+00
         0.00000E+00
         0.00000E+00
         0.00000E+00
         0.00000E+00
         0.00000E+00
         0.00000E+00
         0.00000E+00
         0.00000E+00
         0.00000E+00
         0.00000E+00
         0.00000E+00
         0.00000E+00
         0.00000E+00
         0.00000E+00
         0.00000E+00
         0.00000E+00
         0.00000E+00
         0.00000E+00
         0.00000E+00
         0.00000E+00
         0.00000E+00
         0.00000E+00
         0.00000E+00
         0.00000E+00
         0.00000E+00
         0.00000E+00
         0.00000E+00
         0.00000E+00
         0.00000E+00
         0.00000E+00
         0.00000E+00
         0.00000E+00
         0.00000E+00
         0.00000E+00
         0.00000E+00
         0.00000E+00
         0.00000E+00
         0.00000E+00
         0.00000E+00
         0.00000E+00
         0.00000E+00
         0.00000E+00
         0.00000E+00
         0.00000E+00
         0.00000E+00
         0.00000E+00
         0.00000E+00
         0.00000E+00
         0.00000E+00
         0.00000E+00
         0.00000E+00
         0.00000E+00
         0.00000E+00
         0.00000E+00
         0.00000E+00
         0.00000E+00
         0.00000E+00
         0.00000E+00
         0.00000E+00
         0.00000E+00
         0.00000E+00
         0.00000E+00
         0.00000E+00
         0.00000E+00
         0.00000E+00
         0.00000E+00
         0.00000E+00
         0.00000E+00
         0.00000E+00
         0.00000E+00
         0.00000E+00
         0.00000E+00
         0.00000E+00
         0.00000E+00
         0.00000E+00
         0.00000E+00
         0.00000E+00
         0.00000E+00
         0.00000E+00
         0.00000E+00
         0.00000E+00
         0.00000E+00
         0.00000E+00
         0.00000E+00
         0.00000E+00
         0.00000E+00
         0.00000E+00
         0.00000E+00
         0.00000E+00
         0.00000E+00
         0.00000E+00
         0.00000E+00
         0.00000E+00
         0.00000E+00
         0.00000E+00
         0.00000E+00
         0.00000E+00
         0.00000E+00
         0.00000E+00
         0.00000E+00
         0.00000E+00
         0.00000E+00
         0.00000E+00
         0.00000E+00
         0.00000E+00
         0.00000E+00
         0.00000E+00
         0.00000E+00
         0.00000E+00
         0.00000E+00
         0.00000E+00
         0.00000E+00
         0.00000E+00
         0.00000E+00
         0.00000E+00
         0.00000E+00
         0.00000E+00
         0.00000E+00
         0.00000E+00
         0.00000E+00
         0.00000E+00
         0.00000E+00
         0.00000E+00
         0.00000E+00
         0.00000E+00
         0.00000E+00
         0.00000E+00
         0.00000E+00
         0.00000E+00
         0.00000E+00
         0.00000E+00
         0.00000E+00
         0.00000E+00
         0.00000E+00
         0.00000E+00
         0.00000E+00
         0.00000E+00
         0.00000E+00
         0.00000E+00
         0.00000E+00
         0.00000E+00
         0.00000E+00
         0.00000E+00
         0.00000E+00
         0.00000E+00
         0.00000E+00
         0.00000E+00
         0.00000E+00
         0.00000E+00
         0.00000E+00
         0.00000E+00
         0.00000E+00
         0.00000E+00
         0.00000E+00
         0.00000E+00
         0.00000E+00
         0.00000E+00
         0.00000E+00
         0.00000E+00
         0.00000E+00
         0.00000E+00
         0.00000E+00
         0.00000E+00
         0.00000E+00
         0.00000E+00
         0.00000E+00
         0.00000E+00
         0.00000E+00
         0.00000E+00
         0.00000E+00
         0.00000E+00
         0.00000E+00
         0.00000E+00
         0.00000E+00
         0.00000E+00
         0.00000E+00
         0.00000E+00
         0.00000E+00
         0.00000E+00
         0.00000E+00
         0.00000E+00
         0.00000E+00
         0.00000E+00
         0.00000E+00
         0.00000E+00
         0.00000E+00
         0.00000E+00
         0.00000E+00
         0.00000E+00
         0.00000E+00
         0.00000E+00
         0.00000E+00
         0.00000E+00
         0.00000E+00
         0.00000E+00
         0.00000E+00
         0.00000E+00
         0.00000E+00
         0.00000E+00
         0.00000E+00
         0.00000E+00
         0.00000E+00
         0.00000E+00
         0.00000E+00
         0.00000E+00
         0.00000E+00
         0.00000E+00
         0.00000E+00
         0.00000E+00
         0.00000E+00
         0.00000E+00
         0.00000E+00
         0.00000E+00
         0.00000E+00
         0.00000E+00
         0.00000E+00
         0.00000E+00
         0.00000E+00
         0.00000E+00
         0.00000E+00
         0.00000E+00
         0.00000E+00
         0.00000E+00
         0.00000E+00
         0.00000E+00
         0.00000E+00
         0.00000E+00
         0.00000E+00
         0.00000E+00
         0.00000E+00
         0.00000E+00
         0.00000E+00
         0.00000E+00
         0.00000E+00
         0.00000E+00
         0.00000E+00
         0.00000E+00
         0.00000E+00
         0.00000E+00
         0.00000E+00
         0.00000E+00
         0.00000E+00
         0.00000E+00
         0.00000E+00
         0.00000E+00
         0.00000E+00
         0.00000E+00
         0.00000E+00
         0.00000E+00
         0.00000E+00
         0.00000E+00
         0.00000E+00
         0.00000E+00
         0.00000E+00
         0.00000E+00
         0.00000E+00
         0.00000E+00
         0.00000E+00
         0.00000E+00
         0.00000E+00
         0.00000E+00
         0.00000E+00
         0.00000E+00
         0.00000E+00
         0.00000E+00
         0.00000E+00
         0.00000E+00
         0.00000E+00
         0.00000E+00
         0.00000E+00
         0.00000E+00
         0.00000E+00
         0.00000E+00
         0.00000E+00
         0.00000E+00
         0.00000E+00
         0.00000E+00
         0.00000E+00
         0.00000E+00
         0.00000E+00
         0.00000E+00
         0.00000E+00
         0.00000E+00
         0.00000E+00
         0.00000E+00
         0.00000E+00
         0.00000E+00
         0.00000E+00
         0.00000E+00
         0.00000E+00
         0.00000E+00
         0.00000E+00
         0.00000E+00
         0.00000E+00
         0.00000E+00
         0.00000E+00
         0.00000E+00
         0.00000E+00
         0.00000E+00
         0.00000E+00
         0.00000E+00
         0.00000E+00
         0.00000E+00
         0.00000E+00
         0.00000E+00
         0.00000E+00
         0.00000E+00
         0.00000E+00
         0.00000E+00
         0.00000E+00
         0.00000E+00
         0.00000E+00
         0.00000E+00
         0.00000E+00
         0.00000E+00
         0.00000E+00
         0.00000E+00
         0.00000E+00
         0.00000E+00
         0.00000E+00
         0.00000E+00
         0.00000E+00
         0.00000E+00
         0.00000E+00
         0.00000E+00
         0.00000E+00
         0.00000E+00
         0.00000E+00
         0.00000E+00
         0.00000E+00
         0.00000E+00
         0.00000E+00
         0.00000E+00
         0.00000E+00
         0.00000E+00
         0.00000E+00
         0.00000E+00
         0.00000E+00
         0.00000E+00
         0.00000E+00
         0.00000E+00
         0.00000E+00
         0.00000E+00
         0.00000E+00
         0.00000E+00
         0.00000E+00
         0.00000E+00
         0.00000E+00
         0.00000E+00
         0.00000E+00
         0.00000E+00
         0.00000E+00
         0.00000E+00
         0.00000E+00
         0.00000E+00
         0.00000E+00
         0.00000E+00
         0.00000E+00
         0.00000E+00
         0.00000E+00
         0.00000E+00
         0.00000E+00
         0.00000E+00
         0.00000E+00
         0.00000E+00
         0.00000E+00
         0.00000E+00
         0.00000E+00
         0.00000E+00
         0.00000E+00
         0.00000E+00
         0.00000E+00
         0.00000E+00
         0.00000E+00
         0.00000E+00
         0.00000E+00
         0.00000E+00
         0.00000E+00
         0.00000E+00
         0.00000E+00
         0.00000E+00
         0.00000E+00
         0.00000E+00
         0.00000E+00
         0.00000E+00
         0.00000E+00
         0.00000E+00
         0.00000E+00
         0.00000E+00
         0.00000E+00
         0.00000E+00
         0.00000E+00
         0.00000E+00
         0.00000E+00
         0.00000E+00
         0.00000E+00
         0.00000E+00
         0.00000E+00
         0.00000E+00
         0.00000E+00
         0.00000E+00
         0.00000E+00
         0.00000E+00
         0.00000E+00
         0.00000E+00
         0.00000E+00
         0.00000E+00
         0.00000E+00
         0.00000E+00
         0.00000E+00
         0.00000E+00
         0.00000E+00
         0.00000E+00
         0.00000E+00
         0.00000E+00
         0.00000E+00
         0.00000E+00
         0.00000E+00
         0.00000E+00
         0.00000E+00
         0.00000E+00
         0.00000E+00
         0.00000E+00
         0.00000E+00
         0.00000E+00
         0.00000E+00
         0.00000E+00
         0.00000E+00
         0.00000E+00
         0.00000E+00
         0.00000E+00
         0.00000E+00
         0.00000E+00
         0.00000E+00
         0.00000E+00
         0.00000E+00
         0.00000E+00
         0.00000E+00
         0.00000E+00
         0.00000E+00
         0.00000E+00
         0.00000E+00
         0.00000E+00
         0.00000E+00
         0.00000E+00
         0.00000E+00
         0.00000E+00
         0.00000E+00
         0.00000E+00
         0.00000E+00
         0.00000E+00
         0.00000E+00
         0.00000E+00
         0.00000E+00
         0.00000E+00
         0.00000E+00
         0.00000E+00
         0.00000E+00
         0.00000E+00
         0.00000E+00
         0.00000E+00
         0.00000E+00
         0.00000E+00
         0.00000E+00
         0.00000E+00
         0.00000E+00
         0.00000E+00
         0.00000E+00
         0.00000E+00
         0.00000E+00
         0.00000E+00
         0.00000E+00
         0.00000E+00
         0.00000E+00
         0.00000E+00
         0.00000E+00
         0.00000E+00
         0.00000E+00
         0.00000E+00
         0.00000E+00
         0.00000E+00
         0.00000E+00
         0.00000E+00
         0.00000E+00
         0.00000E+00
         0.00000E+00
         0.00000E+00
         0.00000E+00
         0.00000E+00
         0.00000E+00
         0.00000E+00
         0.00000E+00
         0.00000E+00
         0.00000E+00
         0.00000E+00
         0.00000E+00
         0.00000E+00
         0.00000E+00
         0.00000E+00
         0.00000E+00
         0.00000E+00
         0.00000E+00
         0.00000E+00
         0.00000E+00
         0.00000E+00
         0.00000E+00
         0.00000E+00
         0.00000E+00
         0.00000E+00
         0.00000E+00
         0.00000E+00
         0.00000E+00
         0.00000E+00
         0.00000E+00
         0.00000E+00
         0.00000E+00
         0.00000E+00
         0.00000E+00
         0.00000E+00
         0.00000E+00
         0.00000E+00
         0.00000E+00
         0.00000E+00
         0.00000E+00
         0.00000E+00
         0.00000E+00
         0.00000E+00
         0.00000E+00
         0.00000E+00
         0.00000E+00
         0.00000E+00
         0.00000E+00
         0.00000E+00
         0.00000E+00
         0.00000E+00
         0.00000E+00
  
SCALARS                        eps_vol  double 1
LOOKUP_TABLE default
         0.00000E+00
         0.00000E+00
         0.00000E+00
         0.00000E+00
         0.00000E+00
         0.00000E+00
         0.00000E+00
         0.00000E+00
         0.00000E+00
         0.00000E+00
         0.00000E+00
         0.00000E+00
         0.00000E+00
         0.00000E+00
         0.00000E+00
         0.00000E+00
         0.00000E+00
         0.00000E+00
         0.00000E+00
         0.00000E+00
         0.00000E+00
         0.00000E+00
         0.00000E+00
         0.00000E+00
         0.00000E+00
         0.00000E+00
         0.00000E+00
         0.00000E+00
         0.00000E+00
         0.00000E+00
         0.00000E+00
         0.00000E+00
         0.00000E+00
         0.00000E+00
         0.00000E+00
         0.00000E+00
         0.00000E+00
         0.00000E+00
         0.00000E+00
         0.00000E+00
         0.00000E+00
         0.00000E+00
         0.00000E+00
         0.00000E+00
         0.00000E+00
         0.00000E+00
         0.00000E+00
         0.00000E+00
         0.00000E+00
         0.00000E+00
         0.00000E+00
         0.00000E+00
         0.00000E+00
         0.00000E+00
         0.00000E+00
         0.00000E+00
         0.00000E+00
         0.00000E+00
         0.00000E+00
         0.00000E+00
         0.00000E+00
         0.00000E+00
         0.00000E+00
         0.00000E+00
         0.00000E+00
         0.00000E+00
         0.00000E+00
         0.00000E+00
         0.00000E+00
         0.00000E+00
         0.00000E+00
         0.00000E+00
         0.00000E+00
         0.00000E+00
         0.00000E+00
         0.00000E+00
         0.00000E+00
         0.00000E+00
         0.00000E+00
         0.00000E+00
         0.00000E+00
         0.00000E+00
         0.00000E+00
         0.00000E+00
         0.00000E+00
         0.00000E+00
         0.00000E+00
         0.00000E+00
         0.00000E+00
         0.00000E+00
         0.00000E+00
         0.00000E+00
         0.00000E+00
         0.00000E+00
         0.00000E+00
         0.00000E+00
         0.00000E+00
         0.00000E+00
         0.00000E+00
         0.00000E+00
         0.00000E+00
         0.00000E+00
         0.00000E+00
         0.00000E+00
         0.00000E+00
         0.00000E+00
         0.00000E+00
         0.00000E+00
         0.00000E+00
         0.00000E+00
         0.00000E+00
         0.00000E+00
         0.00000E+00
         0.00000E+00
         0.00000E+00
         0.00000E+00
         0.00000E+00
         0.00000E+00
         0.00000E+00
         0.00000E+00
         0.00000E+00
         0.00000E+00
         0.00000E+00
         0.00000E+00
         0.00000E+00
         0.00000E+00
         0.00000E+00
         0.00000E+00
         0.00000E+00
         0.00000E+00
         0.00000E+00
         0.00000E+00
         0.00000E+00
         0.00000E+00
         0.00000E+00
         0.00000E+00
         0.00000E+00
         0.00000E+00
         0.00000E+00
         0.00000E+00
         0.00000E+00
         0.00000E+00
         0.00000E+00
         0.00000E+00
         0.00000E+00
         0.00000E+00
         0.00000E+00
         0.00000E+00
         0.00000E+00
         0.00000E+00
         0.00000E+00
         0.00000E+00
         0.00000E+00
         0.00000E+00
         0.00000E+00
         0.00000E+00
         0.00000E+00
         0.00000E+00
         0.00000E+00
         0.00000E+00
         0.00000E+00
         0.00000E+00
         0.00000E+00
         0.00000E+00
         0.00000E+00
         0.00000E+00
         0.00000E+00
         0.00000E+00
         0.00000E+00
         0.00000E+00
         0.00000E+00
         0.00000E+00
         0.00000E+00
         0.00000E+00
         0.00000E+00
         0.00000E+00
         0.00000E+00
         0.00000E+00
         0.00000E+00
         0.00000E+00
         0.00000E+00
         0.00000E+00
         0.00000E+00
         0.00000E+00
         0.00000E+00
         0.00000E+00
         0.00000E+00
         0.00000E+00
         0.00000E+00
         0.00000E+00
         0.00000E+00
         0.00000E+00
         0.00000E+00
         0.00000E+00
         0.00000E+00
         0.00000E+00
         0.00000E+00
         0.00000E+00
         0.00000E+00
         0.00000E+00
         0.00000E+00
         0.00000E+00
         0.00000E+00
         0.00000E+00
         0.00000E+00
         0.00000E+00
         0.00000E+00
         0.00000E+00
         0.00000E+00
         0.00000E+00
         0.00000E+00
         0.00000E+00
         0.00000E+00
         0.00000E+00
         0.00000E+00
         0.00000E+00
         0.00000E+00
         0.00000E+00
         0.00000E+00
         0.00000E+00
         0.00000E+00
         0.00000E+00
         0.00000E+00
         0.00000E+00
         0.00000E+00
         0.00000E+00
         0.00000E+00
         0.00000E+00
         0.00000E+00
         0.00000E+00
         0.00000E+00
         0.00000E+00
         0.00000E+00
         0.00000E+00
         0.00000E+00
         0.00000E+00
         0.00000E+00
         0.00000E+00
         0.00000E+00
         0.00000E+00
         0.00000E+00
         0.00000E+00
         0.00000E+00
         0.00000E+00
         0.00000E+00
         0.00000E+00
         0.00000E+00
         0.00000E+00
         0.00000E+00
         0.00000E+00
         0.00000E+00
         0.00000E+00
         0.00000E+00
         0.00000E+00
         0.00000E+00
         0.00000E+00
         0.00000E+00
         0.00000E+00
         0.00000E+00
         0.00000E+00
         0.00000E+00
         0.00000E+00
         0.00000E+00
         0.00000E+00
         0.00000E+00
         0.00000E+00
         0.00000E+00
         0.00000E+00
         0.00000E+00
         0.00000E+00
         0.00000E+00
         0.00000E+00
         0.00000E+00
         0.00000E+00
         0.00000E+00
         0.00000E+00
         0.00000E+00
         0.00000E+00
         0.00000E+00
         0.00000E+00
         0.00000E+00
         0.00000E+00
         0.00000E+00
         0.00000E+00
         0.00000E+00
         0.00000E+00
         0.00000E+00
         0.00000E+00
         0.00000E+00
         0.00000E+00
         0.00000E+00
         0.00000E+00
         0.00000E+00
         0.00000E+00
         0.00000E+00
         0.00000E+00
         0.00000E+00
         0.00000E+00
         0.00000E+00
         0.00000E+00
         0.00000E+00
         0.00000E+00
         0.00000E+00
         0.00000E+00
         0.00000E+00
         0.00000E+00
         0.00000E+00
         0.00000E+00
         0.00000E+00
         0.00000E+00
         0.00000E+00
         0.00000E+00
         0.00000E+00
         0.00000E+00
         0.00000E+00
         0.00000E+00
         0.00000E+00
         0.00000E+00
         0.00000E+00
         0.00000E+00
         0.00000E+00
         0.00000E+00
         0.00000E+00
         0.00000E+00
         0.00000E+00
         0.00000E+00
         0.00000E+00
         0.00000E+00
         0.00000E+00
         0.00000E+00
         0.00000E+00
         0.00000E+00
         0.00000E+00
         0.00000E+00
         0.00000E+00
         0.00000E+00
         0.00000E+00
         0.00000E+00
         0.00000E+00
         0.00000E+00
         0.00000E+00
         0.00000E+00
         0.00000E+00
         0.00000E+00
         0.00000E+00
         0.00000E+00
         0.00000E+00
         0.00000E+00
         0.00000E+00
         0.00000E+00
         0.00000E+00
         0.00000E+00
         0.00000E+00
         0.00000E+00
         0.00000E+00
         0.00000E+00
         0.00000E+00
         0.00000E+00
         0.00000E+00
         0.00000E+00
         0.00000E+00
         0.00000E+00
         0.00000E+00
         0.00000E+00
         0.00000E+00
         0.00000E+00
         0.00000E+00
         0.00000E+00
         0.00000E+00
         0.00000E+00
         0.00000E+00
         0.00000E+00
         0.00000E+00
         0.00000E+00
         0.00000E+00
         0.00000E+00
         0.00000E+00
         0.00000E+00
         0.00000E+00
         0.00000E+00
         0.00000E+00
         0.00000E+00
         0.00000E+00
         0.00000E+00
         0.00000E+00
         0.00000E+00
         0.00000E+00
         0.00000E+00
         0.00000E+00
         0.00000E+00
         0.00000E+00
         0.00000E+00
         0.00000E+00
         0.00000E+00
         0.00000E+00
         0.00000E+00
         0.00000E+00
         0.00000E+00
         0.00000E+00
         0.00000E+00
         0.00000E+00
         0.00000E+00
         0.00000E+00
         0.00000E+00
         0.00000E+00
         0.00000E+00
         0.00000E+00
         0.00000E+00
         0.00000E+00
         0.00000E+00
         0.00000E+00
         0.00000E+00
         0.00000E+00
         0.00000E+00
         0.00000E+00
         0.00000E+00
         0.00000E+00
         0.00000E+00
         0.00000E+00
         0.00000E+00
         0.00000E+00
         0.00000E+00
         0.00000E+00
         0.00000E+00
         0.00000E+00
         0.00000E+00
         0.00000E+00
         0.00000E+00
         0.00000E+00
         0.00000E+00
         0.00000E+00
         0.00000E+00
         0.00000E+00
         0.00000E+00
         0.00000E+00
         0.00000E+00
         0.00000E+00
         0.00000E+00
         0.00000E+00
         0.00000E+00
         0.00000E+00
         0.00000E+00
         0.00000E+00
         0.00000E+00
         0.00000E+00
         0.00000E+00
         0.00000E+00
         0.00000E+00
         0.00000E+00
         0.00000E+00
         0.00000E+00
         0.00000E+00
         0.00000E+00
         0.00000E+00
         0.00000E+00
         0.00000E+00
         0.00000E+00
         0.00000E+00
         0.00000E+00
         0.00000E+00
         0.00000E+00
         0.00000E+00
         0.00000E+00
         0.00000E+00
         0.00000E+00
         0.00000E+00
         0.00000E+00
         0.00000E+00
         0.00000E+00
         0.00000E+00
         0.00000E+00
         0.00000E+00
         0.00000E+00
         0.00000E+00
         0.00000E+00
         0.00000E+00
         0.00000E+00
         0.00000E+00
         0.00000E+00
         0.00000E+00
         0.00000E+00
         0.00000E+00
         0.00000E+00
         0.00000E+00
         0.00000E+00
         0.00000E+00
         0.00000E+00
         0.00000E+00
         0.00000E+00
         0.00000E+00
         0.00000E+00
         0.00000E+00
         0.00000E+00
         0.00000E+00
         0.00000E+00
         0.00000E+00
         0.00000E+00
         0.00000E+00
         0.00000E+00
         0.00000E+00
         0.00000E+00
         0.00000E+00
         0.00000E+00
         0.00000E+00
         0.00000E+00
         0.00000E+00
         0.00000E+00
         0.00000E+00
         0.00000E+00
         0.00000E+00
         0.00000E+00
         0.00000E+00
         0.00000E+00
         0.00000E+00
         0.00000E+00
         0.00000E+00
         0.00000E+00
         0.00000E+00
         0.00000E+00
         0.00000E+00
         0.00000E+00
         0.00000E+00
         0.00000E+00
         0.00000E+00
         0.00000E+00
         0.00000E+00
         0.00000E+00
         0.00000E+00
         0.00000E+00
         0.00000E+00
         0.00000E+00
         0.00000E+00
         0.00000E+00
         0.00000E+00
         0.00000E+00
         0.00000E+00
         0.00000E+00
         0.00000E+00
         0.00000E+00
         0.00000E+00
         0.00000E+00
         0.00000E+00
         0.00000E+00
         0.00000E+00
         0.00000E+00
         0.00000E+00
         0.00000E+00
         0.00000E+00
         0.00000E+00
         0.00000E+00
         0.00000E+00
         0.00000E+00
         0.00000E+00
         0.00000E+00
         0.00000E+00
         0.00000E+00
         0.00000E+00
         0.00000E+00
         0.00000E+00
         0.00000E+00
         0.00000E+00
         0.00000E+00
         0.00000E+00
         0.00000E+00
         0.00000E+00
         0.00000E+00
         0.00000E+00
         0.00000E+00
         0.00000E+00
         0.00000E+00
         0.00000E+00
         0.00000E+00
         0.00000E+00
         0.00000E+00
         0.00000E+00
         0.00000E+00
         0.00000E+00
         0.00000E+00
         0.00000E+00
         0.00000E+00
         0.00000E+00
         0.00000E+00
         0.00000E+00
         0.00000E+00
         0.00000E+00
         0.00000E+00
         0.00000E+00
         0.00000E+00
         0.00000E+00
         0.00000E+00
         0.00000E+00
         0.00000E+00
         0.00000E+00
         0.00000E+00
         0.00000E+00
         0.00000E+00
         0.00000E+00
         0.00000E+00
         0.00000E+00
         0.00000E+00
         0.00000E+00
         0.00000E+00
         0.00000E+00
         0.00000E+00
         0.00000E+00
         0.00000E+00
         0.00000E+00
         0.00000E+00
         0.00000E+00
         0.00000E+00
         0.00000E+00
         0.00000E+00
         0.00000E+00
         0.00000E+00
         0.00000E+00
         0.00000E+00
         0.00000E+00
         0.00000E+00
         0.00000E+00
         0.00000E+00
         0.00000E+00
         0.00000E+00
         0.00000E+00
         0.00000E+00
         0.00000E+00
         0.00000E+00
         0.00000E+00
         0.00000E+00
         0.00000E+00
         0.00000E+00
         0.00000E+00
         0.00000E+00
         0.00000E+00
         0.00000E+00
         0.00000E+00
         0.00000E+00
         0.00000E+00
         0.00000E+00
         0.00000E+00
         0.00000E+00
         0.00000E+00
         0.00000E+00
         0.00000E+00
         0.00000E+00
         0.00000E+00
         0.00000E+00
         0.00000E+00
         0.00000E+00
         0.00000E+00
         0.00000E+00
         0.00000E+00
         0.00000E+00
         0.00000E+00
         0.00000E+00
         0.00000E+00
         0.00000E+00
         0.00000E+00
         0.00000E+00
         0.00000E+00
         0.00000E+00
         0.00000E+00
         0.00000E+00
         0.00000E+00
         0.00000E+00
         0.00000E+00
         0.00000E+00
         0.00000E+00
         0.00000E+00
         0.00000E+00
         0.00000E+00
         0.00000E+00
         0.00000E+00
         0.00000E+00
         0.00000E+00
         0.00000E+00
         0.00000E+00
         0.00000E+00
         0.00000E+00
         0.00000E+00
         0.00000E+00
         0.00000E+00
         0.00000E+00
         0.00000E+00
         0.00000E+00
         0.00000E+00
         0.00000E+00
         0.00000E+00
         0.00000E+00
         0.00000E+00
         0.00000E+00
         0.00000E+00
         0.00000E+00
         0.00000E+00
         0.00000E+00
         0.00000E+00
         0.00000E+00
         0.00000E+00
         0.00000E+00
         0.00000E+00
         0.00000E+00
         0.00000E+00
         0.00000E+00
         0.00000E+00
         0.00000E+00
         0.00000E+00
         0.00000E+00
         0.00000E+00
         0.00000E+00
         0.00000E+00
         0.00000E+00
         0.00000E+00
         0.00000E+00
         0.00000E+00
         0.00000E+00
         0.00000E+00
         0.00000E+00
         0.00000E+00
         0.00000E+00
         0.00000E+00
         0.00000E+00
         0.00000E+00
         0.00000E+00
         0.00000E+00
         0.00000E+00
         0.00000E+00
         0.00000E+00
         0.00000E+00
         0.00000E+00
         0.00000E+00
         0.00000E+00
         0.00000E+00
         0.00000E+00
         0.00000E+00
         0.00000E+00
         0.00000E+00
         0.00000E+00
         0.00000E+00
         0.00000E+00
         0.00000E+00
         0.00000E+00
         0.00000E+00
         0.00000E+00
         0.00000E+00
         0.00000E+00
         0.00000E+00
         0.00000E+00
         0.00000E+00
         0.00000E+00
         0.00000E+00
         0.00000E+00
         0.00000E+00
         0.00000E+00
         0.00000E+00
         0.00000E+00
         0.00000E+00
         0.00000E+00
         0.00000E+00
         0.00000E+00
         0.00000E+00
         0.00000E+00
         0.00000E+00
         0.00000E+00
         0.00000E+00
         0.00000E+00
         0.00000E+00
         0.00000E+00
         0.00000E+00
         0.00000E+00
         0.00000E+00
         0.00000E+00
         0.00000E+00
         0.00000E+00
         0.00000E+00
         0.00000E+00
         0.00000E+00
         0.00000E+00
         0.00000E+00
         0.00000E+00
         0.00000E+00
         0.00000E+00
         0.00000E+00
         0.00000E+00
         0.00000E+00
         0.00000E+00
         0.00000E+00
         0.00000E+00
         0.00000E+00
         0.00000E+00
         0.00000E+00
         0.00000E+00
         0.00000E+00
         0.00000E+00
         0.00000E+00
         0.00000E+00
         0.00000E+00
         0.00000E+00
         0.00000E+00
         0.00000E+00
         0.00000E+00
         0.00000E+00
         0.00000E+00
         0.00000E+00
         0.00000E+00
         0.00000E+00
         0.00000E+00
         0.00000E+00
         0.00000E+00
         0.00000E+00
         0.00000E+00
         0.00000E+00
         0.00000E+00
         0.00000E+00
         0.00000E+00
         0.00000E+00
         0.00000E+00
         0.00000E+00
         0.00000E+00
         0.00000E+00
         0.00000E+00
         0.00000E+00
         0.00000E+00
         0.00000E+00
         0.00000E+00
         0.00000E+00
         0.00000E+00
         0.00000E+00
         0.00000E+00
         0.00000E+00
         0.00000E+00
         0.00000E+00
         0.00000E+00
         0.00000E+00
         0.00000E+00
         0.00000E+00
         0.00000E+00
         0.00000E+00
         0.00000E+00
         0.00000E+00
         0.00000E+00
         0.00000E+00
         0.00000E+00
         0.00000E+00
         0.00000E+00
         0.00000E+00
         0.00000E+00
         0.00000E+00
         0.00000E+00
         0.00000E+00
         0.00000E+00
         0.00000E+00
         0.00000E+00
         0.00000E+00
         0.00000E+00
         0.00000E+00
         0.00000E+00
         0.00000E+00
         0.00000E+00
         0.00000E+00
         0.00000E+00
         0.00000E+00
         0.00000E+00
         0.00000E+00
         0.00000E+00
         0.00000E+00
         0.00000E+00
         0.00000E+00
         0.00000E+00
         0.00000E+00
         0.00000E+00
         0.00000E+00
         0.00000E+00
         0.00000E+00
         0.00000E+00
         0.00000E+00
         0.00000E+00
         0.00000E+00
         0.00000E+00
         0.00000E+00
         0.00000E+00
         0.00000E+00
         0.00000E+00
         0.00000E+00
         0.00000E+00
         0.00000E+00
         0.00000E+00
         0.00000E+00
         0.00000E+00
         0.00000E+00
         0.00000E+00
         0.00000E+00
         0.00000E+00
         0.00000E+00
         0.00000E+00
         0.00000E+00
         0.00000E+00
         0.00000E+00
         0.00000E+00
         0.00000E+00
         0.00000E+00
         0.00000E+00
         0.00000E+00
         0.00000E+00
         0.00000E+00
         0.00000E+00
         0.00000E+00
         0.00000E+00
         0.00000E+00
         0.00000E+00
         0.00000E+00
         0.00000E+00
         0.00000E+00
         0.00000E+00
         0.00000E+00
         0.00000E+00
         0.00000E+00
         0.00000E+00
         0.00000E+00
         0.00000E+00
         0.00000E+00
         0.00000E+00
         0.00000E+00
         0.00000E+00
         0.00000E+00
         0.00000E+00
         0.00000E+00
         0.00000E+00
         0.00000E+00
         0.00000E+00
         0.00000E+00
         0.00000E+00
         0.00000E+00
         0.00000E+00
         0.00000E+00
         0.00000E+00
         0.00000E+00
         0.00000E+00
         0.00000E+00
         0.00000E+00
         0.00000E+00
         0.00000E+00
         0.00000E+00
         0.00000E+00
         0.00000E+00
         0.00000E+00
         0.00000E+00
         0.00000E+00
         0.00000E+00
         0.00000E+00
         0.00000E+00
         0.00000E+00
         0.00000E+00
         0.00000E+00
         0.00000E+00
         0.00000E+00
         0.00000E+00
         0.00000E+00
         0.00000E+00
         0.00000E+00
         0.00000E+00
         0.00000E+00
         0.00000E+00
         0.00000E+00
         0.00000E+00
         0.00000E+00
         0.00000E+00
         0.00000E+00
         0.00000E+00
         0.00000E+00
         0.00000E+00
         0.00000E+00
         0.00000E+00
         0.00000E+00
         0.00000E+00
         0.00000E+00
         0.00000E+00
         0.00000E+00
         0.00000E+00
         0.00000E+00
         0.00000E+00
         0.00000E+00
         0.00000E+00
         0.00000E+00
         0.00000E+00
         0.00000E+00
         0.00000E+00
         0.00000E+00
         0.00000E+00
         0.00000E+00
         0.00000E+00
         0.00000E+00
         0.00000E+00
         0.00000E+00
         0.00000E+00
         0.00000E+00
         0.00000E+00
         0.00000E+00
         0.00000E+00
         0.00000E+00
         0.00000E+00
         0.00000E+00
         0.00000E+00
         0.00000E+00
         0.00000E+00
         0.00000E+00
         0.00000E+00
         0.00000E+00
         0.00000E+00
         0.00000E+00
         0.00000E+00
         0.00000E+00
         0.00000E+00
         0.00000E+00
         0.00000E+00
         0.00000E+00
         0.00000E+00
         0.00000E+00
         0.00000E+00
         0.00000E+00
         0.00000E+00
         0.00000E+00
         0.00000E+00
         0.00000E+00
         0.00000E+00
         0.00000E+00
         0.00000E+00
         0.00000E+00
         0.00000E+00
         0.00000E+00
         0.00000E+00
         0.00000E+00
         0.00000E+00
         0.00000E+00
         0.00000E+00
         0.00000E+00
         0.00000E+00
         0.00000E+00
         0.00000E+00
         0.00000E+00
         0.00000E+00
         0.00000E+00
         0.00000E+00
         0.00000E+00
         0.00000E+00
         0.00000E+00
         0.00000E+00
         0.00000E+00
         0.00000E+00
         0.00000E+00
         0.00000E+00
         0.00000E+00
         0.00000E+00
         0.00000E+00
         0.00000E+00
         0.00000E+00
         0.00000E+00
         0.00000E+00
         0.00000E+00
         0.00000E+00
         0.00000E+00
         0.00000E+00
         0.00000E+00
         0.00000E+00
         0.00000E+00
         0.00000E+00
         0.00000E+00
         0.00000E+00
         0.00000E+00
         0.00000E+00
         0.00000E+00
         0.00000E+00
         0.00000E+00
         0.00000E+00
         0.00000E+00
         0.00000E+00
         0.00000E+00
         0.00000E+00
         0.00000E+00
         0.00000E+00
         0.00000E+00
         0.00000E+00
         0.00000E+00
         0.00000E+00
         0.00000E+00
         0.00000E+00
         0.00000E+00
         0.00000E+00
         0.00000E+00
         0.00000E+00
         0.00000E+00
         0.00000E+00
         0.00000E+00
         0.00000E+00
         0.00000E+00
         0.00000E+00
         0.00000E+00
         0.00000E+00
         0.00000E+00
         0.00000E+00
         0.00000E+00
         0.00000E+00
         0.00000E+00
         0.00000E+00
         0.00000E+00
         0.00000E+00
         0.00000E+00
         0.00000E+00
         0.00000E+00
         0.00000E+00
         0.00000E+00
         0.00000E+00
         0.00000E+00
         0.00000E+00
         0.00000E+00
         0.00000E+00
         0.00000E+00
         0.00000E+00
         0.00000E+00
         0.00000E+00
         0.00000E+00
         0.00000E+00
         0.00000E+00
         0.00000E+00
         0.00000E+00
         0.00000E+00
         0.00000E+00
         0.00000E+00
         0.00000E+00
         0.00000E+00
         0.00000E+00
         0.00000E+00
         0.00000E+00
         0.00000E+00
         0.00000E+00
         0.00000E+00
         0.00000E+00
         0.00000E+00
         0.00000E+00
         0.00000E+00
         0.00000E+00
         0.00000E+00
         0.00000E+00
         0.00000E+00
         0.00000E+00
         0.00000E+00
         0.00000E+00
         0.00000E+00
         0.00000E+00
         0.00000E+00
         0.00000E+00
         0.00000E+00
         0.00000E+00
         0.00000E+00
         0.00000E+00
         0.00000E+00
         0.00000E+00
         0.00000E+00
         0.00000E+00
         0.00000E+00
         0.00000E+00
         0.00000E+00
         0.00000E+00
         0.00000E+00
         0.00000E+00
         0.00000E+00
         0.00000E+00
         0.00000E+00
         0.00000E+00
         0.00000E+00
         0.00000E+00
         0.00000E+00
         0.00000E+00
         0.00000E+00
         0.00000E+00
         0.00000E+00
         0.00000E+00
         0.00000E+00
         0.00000E+00
         0.00000E+00
         0.00000E+00
         0.00000E+00
         0.00000E+00
         0.00000E+00
         0.00000E+00
         0.00000E+00
         0.00000E+00
         0.00000E+00
         0.00000E+00
         0.00000E+00
         0.00000E+00
         0.00000E+00
         0.00000E+00
         0.00000E+00
         0.00000E+00
         0.00000E+00
         0.00000E+00
         0.00000E+00
         0.00000E+00
         0.00000E+00
         0.00000E+00
         0.00000E+00
         0.00000E+00
         0.00000E+00
         0.00000E+00
         0.00000E+00
         0.00000E+00
         0.00000E+00
         0.00000E+00
         0.00000E+00
         0.00000E+00
         0.00000E+00
         0.00000E+00
         0.00000E+00
         0.00000E+00
         0.00000E+00
         0.00000E+00
         0.00000E+00
         0.00000E+00
         0.00000E+00
         0.00000E+00
         0.00000E+00
         0.00000E+00
         0.00000E+00
         0.00000E+00
         0.00000E+00
         0.00000E+00
         0.00000E+00
         0.00000E+00
         0.00000E+00
         0.00000E+00
         0.00000E+00
         0.00000E+00
         0.00000E+00
         0.00000E+00
         0.00000E+00
         0.00000E+00
         0.00000E+00
         0.00000E+00
         0.00000E+00
         0.00000E+00
         0.00000E+00
         0.00000E+00
         0.00000E+00
         0.00000E+00
         0.00000E+00
         0.00000E+00
         0.00000E+00
         0.00000E+00
         0.00000E+00
         0.00000E+00
         0.00000E+00
         0.00000E+00
         0.00000E+00
         0.00000E+00
         0.00000E+00
         0.00000E+00
         0.00000E+00
         0.00000E+00
         0.00000E+00
         0.00000E+00
         0.00000E+00
         0.00000E+00
         0.00000E+00
         0.00000E+00
         0.00000E+00
         0.00000E+00
         0.00000E+00
         0.00000E+00
         0.00000E+00
         0.00000E+00
         0.00000E+00
         0.00000E+00
         0.00000E+00
         0.00000E+00
         0.00000E+00
         0.00000E+00
         0.00000E+00
         0.00000E+00
         0.00000E+00
         0.00000E+00
         0.00000E+00
         0.00000E+00
         0.00000E+00
         0.00000E+00
         0.00000E+00
         0.00000E+00
         0.00000E+00
         0.00000E+00
         0.00000E+00
         0.00000E+00
         0.00000E+00
         0.00000E+00
         0.00000E+00
         0.00000E+00
         0.00000E+00
         0.00000E+00
         0.00000E+00
         0.00000E+00
         0.00000E+00
         0.00000E+00
         0.00000E+00
         0.00000E+00
         0.00000E+00
         0.00000E+00
         0.00000E+00
         0.00000E+00
         0.00000E+00
         0.00000E+00
         0.00000E+00
         0.00000E+00
         0.00000E+00
         0.00000E+00
         0.00000E+00
         0.00000E+00
         0.00000E+00
         0.00000E+00
         0.00000E+00
         0.00000E+00
         0.00000E+00
         0.00000E+00
         0.00000E+00
         0.00000E+00
         0.00000E+00
         0.00000E+00
         0.00000E+00
         0.00000E+00
         0.00000E+00
         0.00000E+00
         0.00000E+00
         0.00000E+00
         0.00000E+00
         0.00000E+00
         0.00000E+00
         0.00000E+00
         0.00000E+00
         0.00000E+00
         0.00000E+00
         0.00000E+00
         0.00000E+00
         0.00000E+00
         0.00000E+00
         0.00000E+00
         0.00000E+00
         0.00000E+00
         0.00000E+00
         0.00000E+00
         0.00000E+00
         0.00000E+00
         0.00000E+00
         0.00000E+00
         0.00000E+00
         0.00000E+00
         0.00000E+00
         0.00000E+00
         0.00000E+00
         0.00000E+00
         0.00000E+00
         0.00000E+00
         0.00000E+00
         0.00000E+00
         0.00000E+00
         0.00000E+00
         0.00000E+00
         0.00000E+00
         0.00000E+00
         0.00000E+00
         0.00000E+00
         0.00000E+00
         0.00000E+00
         0.00000E+00
         0.00000E+00
         0.00000E+00
         0.00000E+00
         0.00000E+00
         0.00000E+00
         0.00000E+00
         0.00000E+00
         0.00000E+00
         0.00000E+00
         0.00000E+00
         0.00000E+00
         0.00000E+00
         0.00000E+00
         0.00000E+00
         0.00000E+00
         0.00000E+00
         0.00000E+00
         0.00000E+00
         0.00000E+00
         0.00000E+00
         0.00000E+00
         0.00000E+00
         0.00000E+00
         0.00000E+00
         0.00000E+00
         0.00000E+00
         0.00000E+00
         0.00000E+00
         0.00000E+00
         0.00000E+00
         0.00000E+00
         0.00000E+00
         0.00000E+00
         0.00000E+00
         0.00000E+00
         0.00000E+00
         0.00000E+00
         0.00000E+00
         0.00000E+00
         0.00000E+00
         0.00000E+00
         0.00000E+00
         0.00000E+00
         0.00000E+00
         0.00000E+00
         0.00000E+00
         0.00000E+00
         0.00000E+00
         0.00000E+00
         0.00000E+00
         0.00000E+00
         0.00000E+00
         0.00000E+00
         0.00000E+00
         0.00000E+00
         0.00000E+00
         0.00000E+00
         0.00000E+00
         0.00000E+00
         0.00000E+00
         0.00000E+00
         0.00000E+00
         0.00000E+00
         0.00000E+00
         0.00000E+00
         0.00000E+00
         0.00000E+00
         0.00000E+00
         0.00000E+00
         0.00000E+00
         0.00000E+00
         0.00000E+00
         0.00000E+00
         0.00000E+00
         0.00000E+00
         0.00000E+00
         0.00000E+00
         0.00000E+00
         0.00000E+00
         0.00000E+00
         0.00000E+00
         0.00000E+00
         0.00000E+00
         0.00000E+00
         0.00000E+00
         0.00000E+00
         0.00000E+00
         0.00000E+00
         0.00000E+00
         0.00000E+00
         0.00000E+00
         0.00000E+00
         0.00000E+00
         0.00000E+00
         0.00000E+00
         0.00000E+00
         0.00000E+00
         0.00000E+00
         0.00000E+00
         0.00000E+00
         0.00000E+00
         0.00000E+00
         0.00000E+00
         0.00000E+00
         0.00000E+00
         0.00000E+00
         0.00000E+00
         0.00000E+00
         0.00000E+00
         0.00000E+00
         0.00000E+00
         0.00000E+00
         0.00000E+00
         0.00000E+00
         0.00000E+00
         0.00000E+00
         0.00000E+00
         0.00000E+00
         0.00000E+00
         0.00000E+00
         0.00000E+00
         0.00000E+00
         0.00000E+00
         0.00000E+00
         0.00000E+00
         0.00000E+00
         0.00000E+00
         0.00000E+00
         0.00000E+00
         0.00000E+00
         0.00000E+00
         0.00000E+00
         0.00000E+00
         0.00000E+00
         0.00000E+00
         0.00000E+00
         0.00000E+00
         0.00000E+00
         0.00000E+00
         0.00000E+00
         0.00000E+00
         0.00000E+00
         0.00000E+00
         0.00000E+00
         0.00000E+00
         0.00000E+00
         0.00000E+00
         0.00000E+00
         0.00000E+00
         0.00000E+00
         0.00000E+00
         0.00000E+00
         0.00000E+00
         0.00000E+00
         0.00000E+00
         0.00000E+00
         0.00000E+00
         0.00000E+00
         0.00000E+00
         0.00000E+00
         0.00000E+00
         0.00000E+00
         0.00000E+00
         0.00000E+00
         0.00000E+00
         0.00000E+00
         0.00000E+00
         0.00000E+00
         0.00000E+00
         0.00000E+00
         0.00000E+00
         0.00000E+00
         0.00000E+00
         0.00000E+00
         0.00000E+00
         0.00000E+00
         0.00000E+00
         0.00000E+00
         0.00000E+00
         0.00000E+00
         0.00000E+00
         0.00000E+00
         0.00000E+00
         0.00000E+00
         0.00000E+00
         0.00000E+00
         0.00000E+00
         0.00000E+00
         0.00000E+00
         0.00000E+00
         0.00000E+00
         0.00000E+00
         0.00000E+00
         0.00000E+00
         0.00000E+00
         0.00000E+00
         0.00000E+00
         0.00000E+00
         0.00000E+00
         0.00000E+00
         0.00000E+00
         0.00000E+00
         0.00000E+00
         0.00000E+00
         0.00000E+00
         0.00000E+00
         0.00000E+00
         0.00000E+00
         0.00000E+00
         0.00000E+00
         0.00000E+00
         0.00000E+00
         0.00000E+00
         0.00000E+00
         0.00000E+00
         0.00000E+00
         0.00000E+00
         0.00000E+00
         0.00000E+00
         0.00000E+00
         0.00000E+00
         0.00000E+00
         0.00000E+00
         0.00000E+00
         0.00000E+00
         0.00000E+00
         0.00000E+00
         0.00000E+00
         0.00000E+00
         0.00000E+00
         0.00000E+00
         0.00000E+00
         0.00000E+00
         0.00000E+00
         0.00000E+00
         0.00000E+00
         0.00000E+00
         0.00000E+00
         0.00000E+00
         0.00000E+00
         0.00000E+00
         0.00000E+00
         0.00000E+00
         0.00000E+00
         0.00000E+00
         0.00000E+00
         0.00000E+00
         0.00000E+00
         0.00000E+00
         0.00000E+00
         0.00000E+00
         0.00000E+00
         0.00000E+00
         0.00000E+00
         0.00000E+00
         0.00000E+00
         0.00000E+00
         0.00000E+00
         0.00000E+00
         0.00000E+00
         0.00000E+00
         0.00000E+00
         0.00000E+00
         0.00000E+00
         0.00000E+00
         0.00000E+00
         0.00000E+00
         0.00000E+00
         0.00000E+00
         0.00000E+00
         0.00000E+00
         0.00000E+00
         0.00000E+00
         0.00000E+00
         0.00000E+00
         0.00000E+00
         0.00000E+00
         0.00000E+00
         0.00000E+00
         0.00000E+00
         0.00000E+00
         0.00000E+00
         0.00000E+00
         0.00000E+00
         0.00000E+00
         0.00000E+00
         0.00000E+00
         0.00000E+00
         0.00000E+00
         0.00000E+00
         0.00000E+00
         0.00000E+00
         0.00000E+00
         0.00000E+00
         0.00000E+00
         0.00000E+00
         0.00000E+00
         0.00000E+00
         0.00000E+00
         0.00000E+00
         0.00000E+00
         0.00000E+00
         0.00000E+00
         0.00000E+00
         0.00000E+00
         0.00000E+00
         0.00000E+00
         0.00000E+00
         0.00000E+00
         0.00000E+00
         0.00000E+00
         0.00000E+00
         0.00000E+00
         0.00000E+00
         0.00000E+00
         0.00000E+00
         0.00000E+00
         0.00000E+00
         0.00000E+00
         0.00000E+00
         0.00000E+00
         0.00000E+00
         0.00000E+00
         0.00000E+00
         0.00000E+00
         0.00000E+00
         0.00000E+00
         0.00000E+00
         0.00000E+00
         0.00000E+00
         0.00000E+00
         0.00000E+00
         0.00000E+00
         0.00000E+00
         0.00000E+00
         0.00000E+00
         0.00000E+00
         0.00000E+00
         0.00000E+00
         0.00000E+00
         0.00000E+00
         0.00000E+00
         0.00000E+00
         0.00000E+00
         0.00000E+00
         0.00000E+00
         0.00000E+00
         0.00000E+00
         0.00000E+00
         0.00000E+00
         0.00000E+00
         0.00000E+00
         0.00000E+00
         0.00000E+00
         0.00000E+00
         0.00000E+00
         0.00000E+00
         0.00000E+00
         0.00000E+00
         0.00000E+00
         0.00000E+00
         0.00000E+00
         0.00000E+00
         0.00000E+00
         0.00000E+00
         0.00000E+00
         0.00000E+00
         0.00000E+00
         0.00000E+00
         0.00000E+00
         0.00000E+00
         0.00000E+00
         0.00000E+00
         0.00000E+00
         0.00000E+00
         0.00000E+00
         0.00000E+00
         0.00000E+00
         0.00000E+00
         0.00000E+00
         0.00000E+00
         0.00000E+00
         0.00000E+00
         0.00000E+00
         0.00000E+00
         0.00000E+00
         0.00000E+00
         0.00000E+00
         0.00000E+00
         0.00000E+00
         0.00000E+00
         0.00000E+00
         0.00000E+00
         0.00000E+00
         0.00000E+00
         0.00000E+00
         0.00000E+00
         0.00000E+00
         0.00000E+00
         0.00000E+00
         0.00000E+00
         0.00000E+00
         0.00000E+00
         0.00000E+00
         0.00000E+00
         0.00000E+00
         0.00000E+00
         0.00000E+00
         0.00000E+00
         0.00000E+00
         0.00000E+00
         0.00000E+00
         0.00000E+00
         0.00000E+00
         0.00000E+00
         0.00000E+00
         0.00000E+00
         0.00000E+00
         0.00000E+00
         0.00000E+00
         0.00000E+00
         0.00000E+00
         0.00000E+00
         0.00000E+00
         0.00000E+00
         0.00000E+00
         0.00000E+00
         0.00000E+00
         0.00000E+00
         0.00000E+00
         0.00000E+00
         0.00000E+00
         0.00000E+00
         0.00000E+00
         0.00000E+00
         0.00000E+00
         0.00000E+00
         0.00000E+00
         0.00000E+00
         0.00000E+00
         0.00000E+00
         0.00000E+00
         0.00000E+00
         0.00000E+00
         0.00000E+00
         0.00000E+00
         0.00000E+00
         0.00000E+00
         0.00000E+00
         0.00000E+00
         0.00000E+00
         0.00000E+00
         0.00000E+00
         0.00000E+00
         0.00000E+00
         0.00000E+00
         0.00000E+00
         0.00000E+00
         0.00000E+00
         0.00000E+00
         0.00000E+00
         0.00000E+00
         0.00000E+00
         0.00000E+00
         0.00000E+00
         0.00000E+00
         0.00000E+00
         0.00000E+00
         0.00000E+00
         0.00000E+00
         0.00000E+00
         0.00000E+00
         0.00000E+00
         0.00000E+00
         0.00000E+00
         0.00000E+00
         0.00000E+00
         0.00000E+00
         0.00000E+00
         0.00000E+00
         0.00000E+00
         0.00000E+00
         0.00000E+00
         0.00000E+00
         0.00000E+00
         0.00000E+00
         0.00000E+00
         0.00000E+00
         0.00000E+00
         0.00000E+00
         0.00000E+00
         0.00000E+00
         0.00000E+00
         0.00000E+00
         0.00000E+00
         0.00000E+00
         0.00000E+00
         0.00000E+00
         0.00000E+00
         0.00000E+00
         0.00000E+00
         0.00000E+00
         0.00000E+00
         0.00000E+00
         0.00000E+00
         0.00000E+00
         0.00000E+00
         0.00000E+00
         0.00000E+00
         0.00000E+00
         0.00000E+00
         0.00000E+00
         0.00000E+00
         0.00000E+00
         0.00000E+00
         0.00000E+00
         0.00000E+00
         0.00000E+00
         0.00000E+00
         0.00000E+00
         0.00000E+00
         0.00000E+00
         0.00000E+00
         0.00000E+00
         0.00000E+00
         0.00000E+00
         0.00000E+00
         0.00000E+00
         0.00000E+00
         0.00000E+00
         0.00000E+00
         0.00000E+00
         0.00000E+00
         0.00000E+00
         0.00000E+00
         0.00000E+00
         0.00000E+00
         0.00000E+00
         0.00000E+00
         0.00000E+00
         0.00000E+00
         0.00000E+00
         0.00000E+00
         0.00000E+00
         0.00000E+00
         0.00000E+00
         0.00000E+00
         0.00000E+00
         0.00000E+00
         0.00000E+00
         0.00000E+00
         0.00000E+00
         0.00000E+00
         0.00000E+00
         0.00000E+00
         0.00000E+00
         0.00000E+00
         0.00000E+00
         0.00000E+00
         0.00000E+00
         0.00000E+00
         0.00000E+00
         0.00000E+00
         0.00000E+00
         0.00000E+00
         0.00000E+00
         0.00000E+00
         0.00000E+00
         0.00000E+00
         0.00000E+00
         0.00000E+00
         0.00000E+00
         0.00000E+00
         0.00000E+00
         0.00000E+00
         0.00000E+00
         0.00000E+00
         0.00000E+00
         0.00000E+00
         0.00000E+00
         0.00000E+00
  
SCALARS                            eps  double 1
LOOKUP_TABLE default
         0.19903E+00
         0.25165E+00
         0.23721E+00
         0.18406E+00
         0.00000E+00
         0.00000E+00
         0.00000E+00
         0.00000E+00
         0.26686E+00
         0.22953E+00
         0.00000E+00
         0.00000E+00
         0.24813E+00
         0.20903E+00
         0.00000E+00
         0.00000E+00
         0.16982E+00
         0.18925E+00
         0.00000E+00
         0.00000E+00
         0.23840E+00
         0.27531E+00
         0.29172E+00
         0.00000E+00
         0.00000E+00
         0.00000E+00
         0.19823E+00
         0.22335E+00
         0.00000E+00
         0.00000E+00
         0.15195E+00
         0.17496E+00
         0.15545E+00
         0.00000E+00
         0.00000E+00
         0.00000E+00
         0.18184E+00
         0.19152E+00
         0.00000E+00
         0.00000E+00
         0.24197E+00
         0.21270E+00
         0.00000E+00
         0.00000E+00
         0.25897E+00
         0.19848E+00
         0.00000E+00
         0.00000E+00
         0.19635E+00
         0.00000E+00
         0.18474E+00
         0.00000E+00
         0.17248E+00
         0.00000E+00
         0.18054E+00
         0.00000E+00
         0.21127E+00
         0.19327E+00
         0.00000E+00
         0.00000E+00
         0.16871E+00
         0.19760E+00
         0.00000E+00
         0.00000E+00
         0.15341E+00
         0.00000E+00
         0.15446E+00
         0.00000E+00
         0.31786E+00
         0.28630E+00
         0.00000E+00
         0.00000E+00
         0.27848E+00
         0.00000E+00
         0.16599E+00
         0.00000E+00
         0.22645E+00
         0.00000E+00
         0.37322E+00
         0.00000E+00
         0.56242E+00
         0.36212E+00
         0.00000E+00
         0.00000E+00
         0.22441E+00
         0.00000E+00
         0.26541E+00
         0.00000E+00
         0.26206E+00
         0.00000E+00
         0.26125E+00
         0.22639E+00
         0.00000E+00
         0.00000E+00
         0.18873E+00
         0.00000E+00
         0.15874E+00
         0.00000E+00
         0.17123E+00
         0.00000E+00
         0.21719E+00
         0.21359E+00
         0.00000E+00
         0.00000E+00
         0.43708E+00
         0.43078E+00
         0.00000E+00
         0.00000E+00
         0.32516E+00
         0.00000E+00
         0.24673E+00
         0.00000E+00
         0.23845E+00
         0.00000E+00
         0.23341E+00
         0.00000E+00
         0.24563E+00
         0.00000E+00
         0.33961E+00
         0.00000E+00
         0.64052E+00
         0.00000E+00
         0.10065E+01
         0.00000E+00
         0.11143E+01
         0.00000E+00
         0.65943E+00
         0.00000E+00
         0.43661E+00
         0.00000E+00
         0.33000E+00
         0.00000E+00
         0.32912E+00
         0.00000E+00
         0.36719E+00
         0.00000E+00
         0.42458E+00
         0.00000E+00
         0.41282E+00
         0.00000E+00
         0.33944E+00
         0.00000E+00
         0.27999E+00
         0.00000E+00
         0.23982E+00
         0.00000E+00
         0.22004E+00
         0.00000E+00
         0.25067E+00
         0.00000E+00
         0.31394E+00
         0.00000E+00
         0.33150E+00
         0.00000E+00
         0.32556E+00
         0.00000E+00
         0.10439E+00
         0.14887E+00
         0.15116E+00
         0.89308E-01
         0.20293E+00
         0.15293E+00
         0.17139E+00
         0.13569E+00
         0.78146E-01
         0.10493E+00
         0.17837E+00
         0.18801E+00
         0.18591E+00
         0.15592E+00
         0.19078E+00
         0.63611E-01
         0.74624E-01
         0.61845E-01
         0.93246E-01
         0.84916E-01
         0.17019E+00
         0.16587E+00
         0.18439E+00
         0.11741E+00
         0.97146E-01
         0.10372E+00
         0.14311E+00
         0.15277E+00
         0.20174E+00
         0.11321E+00
         0.74022E-01
         0.11559E+00
         0.73957E-01
         0.10446E+00
         0.25957E+00
         0.21924E+00
         0.18721E+00
         0.21325E+00
         0.25780E+00
         0.34832E+00
         0.46968E+00
         0.34986E+00
         0.23578E+00
         0.18197E+00
         0.19268E+00
         0.22322E+00
         0.17251E+00
         0.13387E+00
         0.14745E+00
         0.20646E+00
         0.26543E+00
         0.18444E+00
         0.37002E+00
         0.34779E+00
         0.30423E+00
         0.22664E+00
         0.18969E+00
         0.19539E+00
         0.23206E+00
         0.31174E+00
         0.48420E+00
         0.76469E+00
         0.88939E+00
         0.61679E+00
         0.42089E+00
         0.30932E+00
         0.30374E+00
         0.30489E+00
         0.31073E+00
         0.32591E+00
         0.34022E+00
         0.32545E+00
         0.32086E+00
         0.40369E+00
         0.52727E+00
         0.52153E+00
         0.38920E+00
         0.31507E+00
         0.31814E-01
         0.50804E-01
         0.82410E-01
         0.52213E-01
         0.14978E+00
         0.15253E+00
         0.55828E-01
         0.41346E-01
         0.25716E-01
         0.29652E-01
         0.75335E-01
         0.10926E+00
         0.83365E-01
         0.78691E-01
         0.14748E+00
         0.45540E-01
         0.30901E-01
         0.37625E-01
         0.34936E-01
         0.33710E-01
         0.67593E-01
         0.11676E+00
         0.63040E-01
         0.46727E-01
         0.35786E-01
         0.61851E-01
         0.83483E-01
         0.11339E+00
         0.18918E+00
         0.92413E-01
         0.60822E-01
         0.85859E-01
         0.67835E-01
         0.11987E+00
         0.18247E+00
         0.13998E+00
         0.91295E-01
         0.18353E+00
         0.22965E+00
         0.30172E+00
         0.36479E+00
         0.30745E+00
         0.21123E+00
         0.86153E-01
         0.12972E+00
         0.17117E+00
         0.14319E+00
         0.13495E+00
         0.17482E+00
         0.25724E+00
         0.33776E+00
         0.23499E+00
         0.27581E+00
         0.26717E+00
         0.24074E+00
         0.16636E+00
         0.13588E+00
         0.15913E+00
         0.21421E+00
         0.29154E+00
         0.37408E+00
         0.41634E+00
         0.38826E+00
         0.39111E+00
         0.35334E+00
         0.24900E+00
         0.17783E+00
         0.14191E+00
         0.16128E+00
         0.22783E+00
         0.25915E+00
         0.25202E+00
         0.28528E+00
         0.40152E+00
         0.56127E+00
         0.60965E+00
         0.47418E+00
         0.31934E+00
         0.37517E-01
         0.45277E-01
         0.56145E-01
         0.44057E-01
         0.81783E-01
         0.76990E-01
         0.43963E-01
         0.37346E-01
         0.30974E-01
         0.30558E-01
         0.47756E-01
         0.63937E-01
         0.52804E-01
         0.46194E-01
         0.88435E-01
         0.35768E-01
         0.28977E-01
         0.36747E-01
         0.31783E-01
         0.34531E-01
         0.55117E-01
         0.85614E-01
         0.46238E-01
         0.37508E-01
         0.32575E-01
         0.44550E-01
         0.50885E-01
         0.76929E-01
         0.12970E+00
         0.63752E-01
         0.46934E-01
         0.57417E-01
         0.47640E-01
         0.62018E-01
         0.98725E-01
         0.80155E-01
         0.59038E-01
         0.12237E+00
         0.16958E+00
         0.22999E+00
         0.28003E+00
         0.21653E+00
         0.14321E+00
         0.54236E-01
         0.74585E-01
         0.93847E-01
         0.81894E-01
         0.74672E-01
         0.78885E-01
         0.96534E-01
         0.11836E+00
         0.96275E-01
         0.13966E+00
         0.12276E+00
         0.12118E+00
         0.84255E-01
         0.71430E-01
         0.94688E-01
         0.15048E+00
         0.22567E+00
         0.30859E+00
         0.35471E+00
         0.36163E+00
         0.34985E+00
         0.27720E+00
         0.18939E+00
         0.12870E+00
         0.89741E-01
         0.85414E-01
         0.11250E+00
         0.13058E+00
         0.12811E+00
         0.12515E+00
         0.13269E+00
         0.15628E+00
         0.17541E+00
         0.15778E+00
         0.12656E+00
         0.85189E-02
         0.84493E-02
         0.10073E-01
         0.10034E-01
         0.20325E-01
         0.24136E-01
         0.88468E-02
         0.98249E-02
         0.10224E-01
         0.15084E-01
         0.98062E-02
         0.20244E-01
         0.13534E-01
         0.10777E-01
         0.37679E-01
         0.89017E-02
         0.14901E-01
         0.99378E-02
         0.13927E-01
         0.23301E-01
         0.30187E-01
         0.49185E-01
         0.20118E-01
         0.12368E-01
         0.21123E-01
         0.10300E-01
         0.20184E-01
         0.39982E-01
         0.75109E-01
         0.37461E-01
         0.13025E-01
         0.13821E-01
         0.15829E-01
         0.21715E-01
         0.25288E-01
         0.18328E-01
         0.13536E-01
         0.66109E-01
         0.10428E+00
         0.15031E+00
         0.19014E+00
         0.13600E+00
         0.84390E-01
         0.16161E-01
         0.20402E-01
         0.29823E-01
         0.26874E-01
         0.27033E-01
         0.32190E-01
         0.41662E-01
         0.52247E-01
         0.38725E-01
         0.43110E-01
         0.41610E-01
         0.36326E-01
         0.25669E-01
         0.23960E-01
         0.42451E-01
         0.86852E-01
         0.15075E+00
         0.22794E+00
         0.28336E+00
         0.29765E+00
         0.25749E+00
         0.17828E+00
         0.11089E+00
         0.70521E-01
         0.43945E-01
         0.34938E-01
         0.39641E-01
         0.49392E-01
         0.57795E-01
         0.64704E-01
         0.74321E-01
         0.83234E-01
         0.85413E-01
         0.73860E-01
         0.54161E-01
         0.36487E-02
         0.28341E-02
         0.27546E-02
         0.21426E-02
         0.78129E-02
         0.10757E-01
         0.39632E-02
         0.64797E-02
         0.61689E-02
         0.10896E-01
         0.36208E-02
         0.59674E-02
         0.43455E-02
         0.48943E-02
         0.13673E-01
         0.35771E-02
         0.94993E-02
         0.25966E-02
         0.69077E-02
         0.13844E-01
         0.12266E-01
         0.22551E-01
         0.67647E-02
         0.45659E-02
         0.15188E-01
         0.20102E-02
         0.98525E-02
         0.20232E-01
         0.39825E-01
         0.21822E-01
         0.88103E-03
         0.17852E-02
         0.23163E-02
         0.72037E-02
         0.82156E-02
         0.52181E-02
         0.41552E-02
         0.30109E-01
         0.54210E-01
         0.84494E-01
         0.11177E+00
         0.75538E-01
         0.42856E-01
         0.38926E-02
         0.54089E-02
         0.92963E-02
         0.74223E-02
         0.70734E-02
         0.10450E-01
         0.16662E-01
         0.22703E-01
         0.17037E-01
         0.16157E-01
         0.18511E-01
         0.12330E-01
         0.83698E-02
         0.86709E-02
         0.18235E-01
         0.43867E-01
         0.86014E-01
         0.14075E+00
         0.18505E+00
         0.19666E+00
         0.15951E+00
         0.96293E-01
         0.51670E-01
         0.30104E-01
         0.17223E-01
         0.12537E-01
         0.13130E-01
         0.16233E-01
         0.16660E-01
         0.17788E-01
         0.24786E-01
         0.33900E-01
         0.38096E-01
         0.34508E-01
         0.25645E-01
         0.80491E-04
         0.00000E+00
         0.00000E+00
         0.00000E+00
         0.22429E-02
         0.19080E-02
         0.62744E-03
         0.17571E-02
         0.10543E-02
         0.39632E-02
         0.14333E-02
         0.24193E-02
         0.11372E-02
         0.22775E-02
         0.47306E-02
         0.00000E+00
         0.25503E-02
         0.00000E+00
         0.96724E-03
         0.47865E-02
         0.28090E-02
         0.64601E-02
         0.14446E-02
         0.22062E-03
         0.67040E-02
         0.00000E+00
         0.43062E-02
         0.80425E-02
         0.14657E-01
         0.90562E-02
         0.00000E+00
         0.00000E+00
         0.00000E+00
         0.91439E-04
         0.19965E-02
         0.22862E-04
         0.28178E-03
         0.10109E-01
         0.20044E-01
         0.33336E-01
         0.45394E-01
         0.27647E-01
         0.13771E-01
         0.61306E-03
         0.42080E-03
         0.13582E-02
         0.65129E-03
         0.14330E-02
         0.30724E-02
         0.51012E-02
         0.65243E-02
         0.36066E-02
         0.44601E-02
         0.73192E-02
         0.75208E-03
         0.23205E-02
         0.30723E-02
         0.63469E-02
         0.17527E-01
         0.38103E-01
         0.66613E-01
         0.90547E-01
         0.93144E-01
         0.68032E-01
         0.34740E-01
         0.16844E-01
         0.10527E-01
         0.68497E-02
         0.58399E-02
         0.51643E-02
         0.45612E-02
         0.45224E-02
         0.67489E-02
         0.10536E-01
         0.13018E-01
         0.12289E-01
         0.87519E-02
         0.65957E-02
         0.00000E+00
         0.00000E+00
         0.00000E+00
         0.00000E+00
         0.95571E-03
         0.10989E-02
         0.00000E+00
         0.00000E+00
         0.00000E+00
         0.00000E+00
         0.00000E+00
         0.46387E-03
         0.00000E+00
         0.00000E+00
         0.19634E-02
         0.00000E+00
         0.00000E+00
         0.00000E+00
         0.00000E+00
         0.00000E+00
         0.41136E-03
         0.65571E-03
         0.84538E-03
         0.00000E+00
         0.13385E-02
         0.00000E+00
         0.10589E-02
         0.25368E-02
         0.33179E-02
         0.22234E-02
         0.00000E+00
         0.00000E+00
         0.00000E+00
         0.12126E-03
         0.30176E-03
         0.00000E+00
         0.00000E+00
         0.34196E-02
         0.50432E-02
         0.75881E-02
         0.98446E-02
         0.28430E-02
         0.10652E-02
         0.70157E-03
         0.43668E-03
         0.55433E-03
         0.00000E+00
         0.81530E-04
         0.16260E-02
         0.33996E-02
         0.45071E-02
         0.25816E-02
         0.18282E-02
         0.47384E-02
         0.00000E+00
         0.17567E-02
         0.18899E-02
         0.23023E-02
         0.63779E-02
         0.14081E-01
         0.24151E-01
         0.31903E-01
         0.29445E-01
         0.17003E-01
         0.72748E-02
         0.54487E-02
         0.46427E-02
         0.46230E-02
         0.47311E-02
         0.41705E-02
         0.28907E-02
         0.15647E-02
         0.25917E-02
         0.55368E-02
         0.77641E-02
         0.75481E-02
         0.50559E-02
         0.38957E-02
         0.00000E+00
         0.00000E+00
         0.00000E+00
         0.00000E+00
         0.82276E-03
         0.12551E-02
         0.00000E+00
         0.00000E+00
         0.00000E+00
         0.00000E+00
         0.00000E+00
         0.00000E+00
         0.00000E+00
         0.00000E+00
         0.83256E-03
         0.00000E+00
         0.00000E+00
         0.00000E+00
         0.00000E+00
         0.00000E+00
         0.82293E-03
         0.12296E-02
         0.10865E-02
         0.00000E+00
         0.00000E+00
         0.00000E+00
         0.00000E+00
         0.94484E-03
         0.33479E-02
         0.00000E+00
         0.00000E+00
         0.00000E+00
         0.00000E+00
         0.00000E+00
         0.14387E-03
         0.00000E+00
         0.00000E+00
         0.34198E-02
         0.66981E-02
         0.10915E-01
         0.14693E-01
         0.83520E-02
         0.38023E-02
         0.57286E-03
         0.81216E-04
         0.85104E-04
         0.00000E+00
         0.00000E+00
         0.76490E-03
         0.24489E-02
         0.37071E-02
         0.24268E-02
         0.18322E-02
         0.43358E-02
         0.68543E-03
         0.18640E-02
         0.15982E-02
         0.14203E-02
         0.42822E-02
         0.10890E-01
         0.19666E-01
         0.28061E-01
         0.30277E-01
         0.22495E-01
         0.14841E-01
         0.84470E-02
         0.47805E-02
         0.44316E-02
         0.38098E-02
         0.31687E-02
         0.22279E-02
         0.89400E-03
         0.97618E-03
         0.30839E-02
         0.51513E-02
         0.59489E-02
         0.50334E-02
         0.41914E-02
         0.00000E+00
         0.00000E+00
         0.00000E+00
         0.00000E+00
         0.10981E-02
         0.17856E-02
         0.00000E+00
         0.00000E+00
         0.00000E+00
         0.00000E+00
         0.00000E+00
         0.00000E+00
         0.00000E+00
         0.00000E+00
         0.60818E-03
         0.00000E+00
         0.00000E+00
         0.00000E+00
         0.00000E+00
         0.00000E+00
         0.21582E-02
         0.31214E-02
         0.20172E-02
         0.00000E+00
         0.00000E+00
         0.00000E+00
         0.00000E+00
         0.86633E-03
         0.45783E-02
         0.00000E+00
         0.00000E+00
         0.00000E+00
         0.00000E+00
         0.00000E+00
         0.30209E-03
         0.00000E+00
         0.00000E+00
         0.41559E-02
         0.88064E-02
         0.14615E-01
         0.20068E-01
         0.12230E-01
         0.64343E-02
         0.11938E-02
         0.47329E-03
         0.39395E-03
         0.00000E+00
         0.00000E+00
         0.10125E-02
         0.30258E-02
         0.46413E-02
         0.31644E-02
         0.22409E-02
         0.49807E-02
         0.12160E-02
         0.21329E-02
         0.18169E-02
         0.13650E-02
         0.45299E-02
         0.13363E-01
         0.25217E-01
         0.36363E-01
         0.40254E-01
         0.31241E-01
         0.20847E-01
         0.12323E-01
         0.76150E-02
         0.62202E-02
         0.48762E-02
         0.38381E-02
         0.27320E-02
         0.12934E-02
         0.13910E-02
         0.38395E-02
         0.64088E-02
         0.76449E-02
         0.67051E-02
         0.54548E-02
         0.00000E+00
         0.00000E+00
         0.00000E+00
         0.00000E+00
         0.16201E-02
         0.24199E-02
         0.00000E+00
         0.00000E+00
         0.00000E+00
         0.00000E+00
         0.00000E+00
         0.00000E+00
         0.00000E+00
         0.00000E+00
         0.95959E-03
         0.00000E+00
         0.00000E+00
         0.00000E+00
         0.00000E+00
         0.00000E+00
         0.31611E-02
         0.43211E-02
         0.30263E-02
         0.00000E+00
         0.00000E+00
         0.00000E+00
         0.00000E+00
         0.10544E-02
         0.51825E-02
         0.00000E+00
         0.00000E+00
         0.00000E+00
         0.00000E+00
         0.43547E-03
         0.71511E-03
         0.00000E+00
         0.00000E+00
         0.52672E-02
         0.10711E-01
         0.16936E-01
         0.22590E-01
         0.13725E-01
         0.76984E-02
         0.22451E-02
         0.14973E-02
         0.14739E-02
         0.26606E-04
         0.18661E-03
         0.19384E-02
         0.42815E-02
         0.61263E-02
         0.41568E-02
         0.28560E-02
         0.60775E-02
         0.17605E-02
         0.29189E-02
         0.26003E-02
         0.21390E-02
         0.59044E-02
         0.16626E-01
         0.30951E-01
         0.42917E-01
         0.45299E-01
         0.34432E-01
         0.23815E-01
         0.14757E-01
         0.94015E-02
         0.77500E-02
         0.66034E-02
         0.54959E-02
         0.42300E-02
         0.27314E-02
         0.30036E-02
         0.58683E-02
         0.87775E-02
         0.99210E-02
         0.83194E-02
         0.66550E-02
         0.00000E+00
         0.00000E+00
         0.00000E+00
         0.00000E+00
         0.17840E-02
         0.25297E-02
         0.00000E+00
         0.00000E+00
         0.00000E+00
         0.00000E+00
         0.00000E+00
         0.00000E+00
         0.00000E+00
         0.00000E+00
         0.13598E-02
         0.00000E+00
         0.00000E+00
         0.00000E+00
         0.00000E+00
         0.00000E+00
         0.31498E-02
         0.42764E-02
         0.30884E-02
         0.00000E+00
         0.00000E+00
         0.00000E+00
         0.00000E+00
         0.15107E-02
         0.61692E-02
         0.00000E+00
         0.00000E+00
         0.00000E+00
         0.00000E+00
         0.70718E-03
         0.94728E-03
         0.00000E+00
         0.00000E+00
         0.60309E-02
         0.12192E-01
         0.19306E-01
         0.25578E-01
         0.15401E-01
         0.81796E-02
         0.24520E-02
         0.18520E-02
         0.20150E-02
         0.64995E-03
         0.96537E-03
         0.27480E-02
         0.49565E-02
         0.66421E-02
         0.44225E-02
         0.31050E-02
         0.62593E-02
         0.18712E-02
         0.30318E-02
         0.27279E-02
         0.26819E-02
         0.69094E-02
         0.18262E-01
         0.34223E-01
         0.48031E-01
         0.50696E-01
         0.37904E-01
         0.24934E-01
         0.14947E-01
         0.94446E-02
         0.77108E-02
         0.68117E-02
         0.58867E-02
         0.48748E-02
         0.36575E-02
         0.43767E-02
         0.73430E-02
         0.98916E-02
         0.10558E-01
         0.85135E-02
         0.65948E-02
         0.00000E+00
         0.00000E+00
         0.00000E+00
         0.00000E+00
         0.20158E-02
         0.27799E-02
         0.00000E+00
         0.00000E+00
         0.00000E+00
         0.00000E+00
         0.00000E+00
         0.00000E+00
         0.00000E+00
         0.00000E+00
         0.15608E-02
         0.00000E+00
         0.00000E+00
         0.00000E+00
         0.00000E+00
         0.00000E+00
         0.28235E-02
         0.40160E-02
         0.27045E-02
         0.00000E+00
         0.00000E+00
         0.00000E+00
         0.00000E+00
         0.17711E-02
         0.67740E-02
         0.00000E+00
         0.00000E+00
         0.00000E+00
         0.00000E+00
         0.89783E-03
         0.11998E-02
         0.00000E+00
         0.00000E+00
         0.63628E-02
         0.12785E-01
         0.20531E-01
         0.27511E-01
         0.16485E-01
         0.83351E-02
         0.21566E-02
         0.17208E-02
         0.19933E-02
         0.76529E-03
         0.11645E-02
         0.29490E-02
         0.51586E-02
         0.68685E-02
         0.46989E-02
         0.34961E-02
         0.66428E-02
         0.16469E-02
         0.27341E-02
         0.24942E-02
         0.25199E-02
         0.73975E-02
         0.18827E-01
         0.34876E-01
         0.50044E-01
         0.54404E-01
         0.40270E-01
         0.25307E-01
         0.14599E-01
         0.89326E-02
         0.70936E-02
         0.63057E-02
         0.56148E-02
         0.47424E-02
         0.35759E-02
         0.44282E-02
         0.75025E-02
         0.99976E-02
         0.10680E-01
         0.88571E-02
         0.69899E-02
         0.00000E+00
         0.00000E+00
         0.00000E+00
         0.00000E+00
         0.23278E-02
         0.32411E-02
         0.00000E+00
         0.00000E+00
         0.00000E+00
         0.00000E+00
         0.00000E+00
         0.00000E+00
         0.00000E+00
         0.00000E+00
         0.17424E-02
         0.00000E+00
         0.00000E+00
         0.00000E+00
         0.00000E+00
         0.00000E+00
         0.25200E-02
         0.39499E-02
         0.23365E-02
         0.00000E+00
         0.00000E+00
         0.00000E+00
         0.00000E+00
         0.13483E-02
         0.62278E-02
         0.00000E+00
         0.00000E+00
         0.00000E+00
         0.00000E+00
         0.10301E-02
         0.13366E-02
         0.00000E+00
         0.00000E+00
         0.63268E-02
         0.11929E-01
         0.19070E-01
         0.26303E-01
         0.16180E-01
         0.84230E-02
         0.18437E-02
         0.14784E-02
         0.17598E-02
         0.64662E-03
         0.99603E-03
         0.27438E-02
         0.51631E-02
         0.71547E-02
         0.51415E-02
         0.37470E-02
         0.72786E-02
         0.12173E-02
         0.22920E-02
         0.21121E-02
         0.23207E-02
         0.79082E-02
         0.19034E-01
         0.32903E-01
         0.46620E-01
         0.52684E-01
         0.40684E-01
         0.26002E-01
         0.14319E-01
         0.82989E-02
         0.65635E-02
         0.58600E-02
         0.52110E-02
         0.42881E-02
         0.31588E-02
         0.38602E-02
         0.68963E-02
         0.98875E-02
         0.11075E-01
         0.96684E-02
         0.79254E-02
         0.00000E+00
         0.00000E+00
         0.00000E+00
         0.00000E+00
         0.22162E-02
         0.31177E-02
         0.00000E+00
         0.00000E+00
         0.00000E+00
         0.00000E+00
         0.00000E+00
         0.00000E+00
         0.00000E+00
         0.00000E+00
         0.16816E-02
         0.00000E+00
         0.00000E+00
         0.00000E+00
         0.00000E+00
         0.00000E+00
         0.21753E-02
         0.39103E-02
         0.19115E-02
         0.00000E+00
         0.00000E+00
         0.00000E+00
         0.00000E+00
         0.11636E-02
         0.60452E-02
         0.00000E+00
         0.00000E+00
         0.00000E+00
         0.00000E+00
         0.80907E-03
         0.11171E-02
         0.00000E+00
         0.00000E+00
         0.60924E-02
         0.11231E-01
         0.17979E-01
         0.25224E-01
         0.16099E-01
         0.87020E-02
         0.14485E-02
         0.11730E-02
         0.15370E-02
         0.60035E-03
         0.93361E-03
         0.24966E-02
         0.47908E-02
         0.67684E-02
         0.48704E-02
         0.34711E-02
         0.71815E-02
         0.82087E-03
         0.19922E-02
         0.18455E-02
         0.18631E-02
         0.75531E-02
         0.18524E-01
         0.31241E-01
         0.43940E-01
         0.50288E-01
         0.40684E-01
         0.26612E-01
         0.13872E-01
         0.73374E-02
         0.57799E-02
         0.51748E-02
         0.46947E-02
         0.39195E-02
         0.30538E-02
         0.37188E-02
         0.63803E-02
         0.93514E-02
         0.10679E-01
         0.94156E-02
         0.78635E-02
         0.00000E+00
         0.00000E+00
         0.00000E+00
         0.00000E+00
         0.19498E-02
         0.26436E-02
         0.00000E+00
         0.00000E+00
         0.00000E+00
         0.00000E+00
         0.00000E+00
         0.00000E+00
         0.00000E+00
         0.00000E+00
         0.14459E-02
         0.00000E+00
         0.00000E+00
         0.00000E+00
         0.00000E+00
         0.00000E+00
         0.20248E-02
         0.39142E-02
         0.16960E-02
         0.00000E+00
         0.00000E+00
         0.00000E+00
         0.00000E+00
         0.12859E-02
         0.63467E-02
         0.00000E+00
         0.00000E+00
         0.00000E+00
         0.00000E+00
         0.60509E-03
         0.98002E-03
         0.00000E+00
         0.00000E+00
         0.57605E-02
         0.11247E-01
         0.18474E-01
         0.25779E-01
         0.16403E-01
         0.88214E-02
         0.12679E-02
         0.10630E-02
         0.14824E-02
         0.61404E-03
         0.95428E-03
         0.24087E-02
         0.44133E-02
         0.60584E-02
         0.42038E-02
         0.32067E-02
         0.65745E-02
         0.80220E-03
         0.20031E-02
         0.18506E-02
         0.17222E-02
         0.67752E-02
         0.17480E-01
         0.31202E-01
         0.45331E-01
         0.51030E-01
         0.40852E-01
         0.26728E-01
         0.14065E-01
         0.69416E-02
         0.52574E-02
         0.47824E-02
         0.45304E-02
         0.38783E-02
         0.31217E-02
         0.37664E-02
         0.62109E-02
         0.87552E-02
         0.96330E-02
         0.81983E-02
         0.68590E-02
         0.00000E+00
         0.00000E+00
         0.00000E+00
         0.00000E+00
         0.17358E-02
         0.23141E-02
         0.00000E+00
         0.00000E+00
         0.00000E+00
         0.00000E+00
         0.00000E+00
         0.00000E+00
         0.00000E+00
         0.00000E+00
         0.13257E-02
         0.00000E+00
         0.00000E+00
         0.00000E+00
         0.00000E+00
         0.00000E+00
         0.25010E-02
         0.41835E-02
         0.20501E-02
         0.00000E+00
         0.00000E+00
         0.00000E+00
         0.00000E+00
         0.14766E-02
         0.66522E-02
         0.00000E+00
         0.00000E+00
         0.00000E+00
         0.00000E+00
         0.49549E-03
         0.84265E-03
         0.00000E+00
         0.00000E+00
         0.59626E-02
         0.12167E-01
         0.19955E-01
         0.27445E-01
         0.16957E-01
         0.88824E-02
         0.14876E-02
         0.11618E-02
         0.14330E-02
         0.44369E-03
         0.73903E-03
         0.21713E-02
         0.40203E-02
         0.54709E-02
         0.37382E-02
         0.30119E-02
         0.61272E-02
         0.72394E-03
         0.19437E-02
         0.18410E-02
         0.17890E-02
         0.65783E-02
         0.18036E-01
         0.34176E-01
         0.49900E-01
         0.54987E-01
         0.42532E-01
         0.26824E-01
         0.14562E-01
         0.79045E-02
         0.59208E-02
         0.51652E-02
         0.47338E-02
         0.39082E-02
         0.29948E-02
         0.35422E-02
         0.58941E-02
         0.81036E-02
         0.86755E-02
         0.72392E-02
         0.61337E-02
         0.00000E+00
         0.00000E+00
         0.00000E+00
         0.00000E+00
         0.14845E-02
         0.19839E-02
         0.00000E+00
         0.00000E+00
         0.00000E+00
         0.00000E+00
         0.00000E+00
         0.00000E+00
         0.00000E+00
         0.00000E+00
         0.91845E-03
         0.00000E+00
         0.00000E+00
         0.00000E+00
         0.00000E+00
         0.00000E+00
         0.30189E-02
         0.46649E-02
         0.24833E-02
         0.00000E+00
         0.00000E+00
         0.00000E+00
         0.00000E+00
         0.14204E-02
         0.68092E-02
         0.00000E+00
         0.00000E+00
         0.00000E+00
         0.00000E+00
         0.19261E-03
         0.62114E-03
         0.00000E+00
         0.00000E+00
         0.57307E-02
         0.12501E-01
         0.21086E-01
         0.29333E-01
         0.17769E-01
         0.92262E-02
         0.17508E-02
         0.11901E-02
         0.12570E-02
         0.13548E-03
         0.29281E-03
         0.15899E-02
         0.33413E-02
         0.47798E-02
         0.32391E-02
         0.27639E-02
         0.57668E-02
         0.53509E-03
         0.17952E-02
         0.17699E-02
         0.16748E-02
         0.61879E-02
         0.18075E-01
         0.35852E-01
         0.53786E-01
         0.60106E-01
         0.45421E-01
         0.27625E-01
         0.15335E-01
         0.88818E-02
         0.66302E-02
         0.55058E-02
         0.46900E-02
         0.37224E-02
         0.26566E-02
         0.30313E-02
         0.52035E-02
         0.72878E-02
         0.78983E-02
         0.66065E-02
         0.56873E-02
         0.00000E+00
         0.00000E+00
         0.00000E+00
         0.00000E+00
         0.85742E-03
         0.11252E-02
         0.00000E+00
         0.00000E+00
         0.00000E+00
         0.00000E+00
         0.00000E+00
         0.00000E+00
         0.00000E+00
         0.00000E+00
         0.27202E-03
         0.00000E+00
         0.00000E+00
         0.00000E+00
         0.00000E+00
         0.00000E+00
         0.27414E-02
         0.44049E-02
         0.23318E-02
         0.00000E+00
         0.00000E+00
         0.00000E+00
         0.00000E+00
         0.81752E-03
         0.61695E-02
         0.00000E+00
         0.00000E+00
         0.00000E+00
         0.00000E+00
         0.00000E+00
         0.11520E-03
         0.00000E+00
         0.00000E+00
         0.45369E-02
         0.10861E-01
         0.19450E-01
         0.28026E-01
         0.17150E-01
         0.89899E-02
         0.16763E-02
         0.10608E-02
         0.10093E-02
         0.00000E+00
         0.00000E+00
         0.43491E-03
         0.18432E-02
         0.31123E-02
         0.19577E-02
         0.20956E-02
         0.48336E-02
         0.15431E-03
         0.13195E-02
         0.12044E-02
         0.10471E-02
         0.46994E-02
         0.15140E-01
         0.31890E-01
         0.50395E-01
         0.58291E-01
         0.44410E-01
         0.26840E-01
         0.14737E-01
         0.84037E-02
         0.62274E-02
         0.51907E-02
         0.43549E-02
         0.34354E-02
         0.22868E-02
         0.20812E-02
         0.36074E-02
         0.54020E-02
         0.59755E-02
         0.50668E-02
         0.45726E-02
         0.00000E+00
         0.00000E+00
         0.00000E+00
         0.00000E+00
         0.00000E+00
         0.00000E+00
         0.00000E+00
         0.00000E+00
         0.00000E+00
         0.00000E+00
         0.00000E+00
         0.00000E+00
         0.00000E+00
         0.00000E+00
         0.27749E-03
         0.00000E+00
         0.00000E+00
         0.00000E+00
         0.00000E+00
         0.00000E+00
         0.20605E-02
         0.37336E-02
         0.18166E-02
         0.00000E+00
         0.00000E+00
         0.00000E+00
         0.00000E+00
         0.91675E-03
         0.67287E-02
         0.34669E-03
         0.00000E+00
         0.00000E+00
         0.00000E+00
         0.00000E+00
         0.00000E+00
         0.00000E+00
         0.00000E+00
         0.41456E-02
         0.10342E-01
         0.19310E-01
         0.28537E-01
         0.18239E-01
         0.93544E-02
         0.13151E-02
         0.79276E-03
         0.75710E-03
         0.00000E+00
         0.00000E+00
         0.00000E+00
         0.00000E+00
         0.50899E-03
         0.00000E+00
         0.16210E-02
         0.36695E-02
         0.68052E-03
         0.10981E-02
         0.62647E-03
         0.55366E-03
         0.37696E-02
         0.13176E-01
         0.29557E-01
         0.48611E-01
         0.58061E-01
         0.46502E-01
         0.26816E-01
         0.12694E-01
         0.69544E-02
         0.53396E-02
         0.45152E-02
         0.38301E-02
         0.32232E-02
         0.26474E-02
         0.23003E-02
         0.29162E-02
         0.38630E-02
         0.37293E-02
         0.29565E-02
         0.29974E-02
         0.00000E+00
         0.00000E+00
         0.00000E+00
         0.00000E+00
         0.19465E-03
         0.00000E+00
         0.00000E+00
         0.00000E+00
         0.00000E+00
         0.00000E+00
         0.00000E+00
         0.00000E+00
         0.00000E+00
         0.00000E+00
         0.16376E-02
         0.00000E+00
         0.00000E+00
         0.00000E+00
         0.00000E+00
         0.00000E+00
         0.16922E-02
         0.40669E-02
         0.12117E-02
         0.00000E+00
         0.00000E+00
         0.00000E+00
         0.00000E+00
         0.18899E-02
         0.81889E-02
         0.13352E-02
         0.00000E+00
         0.00000E+00
         0.00000E+00
         0.00000E+00
         0.11516E-02
         0.12924E-03
         0.00000E+00
         0.49846E-02
         0.10725E-01
         0.19974E-01
         0.30413E-01
         0.20997E-01
         0.11273E-01
         0.10031E-02
         0.11198E-02
         0.18827E-02
         0.11313E-02
         0.82839E-03
         0.10749E-02
         0.19035E-02
         0.29579E-02
         0.10326E-02
         0.44427E-02
         0.46503E-02
         0.41173E-02
         0.15387E-02
         0.56355E-03
         0.15576E-02
         0.52517E-02
         0.13367E-01
         0.28019E-01
         0.46906E-01
         0.59782E-01
         0.52815E-01
         0.30784E-01
         0.13028E-01
         0.63193E-02
         0.41794E-02
         0.37757E-02
         0.41739E-02
         0.50390E-02
         0.62306E-02
         0.68026E-02
         0.76014E-02
         0.86999E-02
         0.82706E-02
         0.64747E-02
         0.47731E-02
         0.00000E+00
         0.00000E+00
         0.00000E+00
         0.00000E+00
         0.10056E-02
         0.12080E-02
         0.00000E+00
         0.00000E+00
         0.00000E+00
         0.00000E+00
         0.00000E+00
         0.86922E-03
         0.00000E+00
         0.00000E+00
         0.33259E-02
         0.00000E+00
         0.00000E+00
         0.00000E+00
         0.00000E+00
         0.00000E+00
         0.42901E-02
         0.63549E-02
         0.35119E-02
         0.00000E+00
         0.00000E+00
         0.00000E+00
         0.47196E-03
         0.36549E-02
         0.10854E-01
         0.28051E-02
         0.00000E+00
         0.00000E+00
         0.00000E+00
         0.47335E-03
         0.24997E-02
         0.17669E-02
         0.00000E+00
         0.68816E-02
         0.13177E-01
         0.23307E-01
         0.34890E-01
         0.25286E-01
         0.14411E-01
         0.28762E-02
         0.36243E-02
         0.55246E-02
         0.38769E-02
         0.29539E-02
         0.27451E-02
         0.34177E-02
         0.47274E-02
         0.28144E-02
         0.54278E-02
         0.47512E-02
         0.69340E-02
         0.35524E-02
         0.21226E-02
         0.39228E-02
         0.83627E-02
         0.16705E-01
         0.31164E-01
         0.50391E-01
         0.65045E-01
         0.60762E-01
         0.38658E-01
         0.20379E-01
         0.13791E-01
         0.10098E-01
         0.86693E-02
         0.98233E-02
         0.11388E-01
         0.13062E-01
         0.13222E-01
         0.12023E-01
         0.11393E-01
         0.10351E-01
         0.86945E-02
         0.68015E-02
         0.34426E-02
         0.39980E-02
         0.56837E-02
         0.46814E-02
         0.74494E-02
         0.63414E-02
         0.34230E-02
         0.34438E-02
         0.31961E-02
         0.30951E-02
         0.22203E-02
         0.10225E-02
         0.21319E-02
         0.14905E-02
         0.21114E-02
         0.58588E-02
         0.44730E-02
         0.39844E-02
         0.10901E-01
         0.69800E-02
         0.26920E-01
         0.23615E-01
         0.29149E-01
         0.16405E-01
         0.28157E-02
         0.13657E-01
         0.92214E-03
         0.44614E-02
         0.14710E-01
         0.54483E-02
         0.70813E-02
         0.14421E-01
         0.62507E-02
         0.79859E-02
         0.97299E-02
         0.75897E-02
         0.41361E-02
         0.82241E-02
         0.18830E-01
         0.34081E-01
         0.51210E-01
         0.37457E-01
         0.25776E-01
         0.27475E-01
         0.27113E-01
         0.29293E-01
         0.21578E-01
         0.16509E-01
         0.15776E-01
         0.16247E-01
         0.16282E-01
         0.10161E-01
         0.12399E-01
         0.73692E-02
         0.10480E-01
         0.56478E-02
         0.38525E-02
         0.58414E-02
         0.12147E-01
         0.25463E-01
         0.48458E-01
         0.76754E-01
         0.96449E-01
         0.93599E-01
         0.73486E-01
         0.64325E-01
         0.61993E-01
         0.55788E-01
         0.48716E-01
         0.45186E-01
         0.43436E-01
         0.40821E-01
         0.38873E-01
         0.36431E-01
         0.32439E-01
         0.24658E-01
         0.14446E-01
         0.68170E-02
         0.13040E-01
         0.14778E-01
         0.18184E-01
         0.15670E-01
         0.21670E-01
         0.18777E-01
         0.14161E-01
         0.13715E-01
         0.12803E-01
         0.13087E-01
         0.12547E-01
         0.99830E-02
         0.13055E-01
         0.11627E-01
         0.80952E-02
         0.20986E-01
         0.16852E-01
         0.14336E-01
         0.34222E-01
         0.25704E-01
         0.68310E-01
         0.64864E-01
         0.70421E-01
         0.45673E-01
         0.13211E-01
         0.38944E-01
         0.94301E-02
         0.11343E-01
         0.30851E-01
         0.21677E-01
         0.21969E-01
         0.38097E-01
         0.20996E-01
         0.24849E-01
         0.26082E-01
         0.22945E-01
         0.16391E-01
         0.13637E-01
         0.30946E-01
         0.56056E-01
         0.83905E-01
         0.71491E-01
         0.64179E-01
         0.64991E-01
         0.60985E-01
         0.61847E-01
         0.47383E-01
         0.37288E-01
         0.38882E-01
         0.40685E-01
         0.39166E-01
         0.27401E-01
         0.30695E-01
         0.24469E-01
         0.29001E-01
         0.16884E-01
         0.93647E-02
         0.67417E-02
         0.13344E-01
         0.35347E-01
         0.70782E-01
         0.11100E+00
         0.14280E+00
         0.15514E+00
         0.14640E+00
         0.14120E+00
         0.13231E+00
         0.11532E+00
         0.98110E-01
         0.86578E-01
         0.80955E-01
         0.73477E-01
         0.69340E-01
         0.69069E-01
         0.63891E-01
         0.50513E-01
         0.33219E-01
         0.19757E-01
  
SCALARS                            dam  double 1
LOOKUP_TABLE default
         0.00000E+00
         0.00000E+00
         0.00000E+00
         0.00000E+00
         0.00000E+00
         0.00000E+00
         0.00000E+00
         0.00000E+00
         0.00000E+00
         0.00000E+00
         0.00000E+00
         0.00000E+00
         0.00000E+00
         0.00000E+00
         0.00000E+00
         0.00000E+00
         0.00000E+00
         0.00000E+00
         0.00000E+00
         0.00000E+00
         0.00000E+00
         0.00000E+00
         0.00000E+00
         0.00000E+00
         0.00000E+00
         0.00000E+00
         0.00000E+00
         0.00000E+00
         0.00000E+00
         0.00000E+00
         0.00000E+00
         0.00000E+00
         0.00000E+00
         0.00000E+00
         0.00000E+00
         0.00000E+00
         0.00000E+00
         0.00000E+00
         0.00000E+00
         0.00000E+00
         0.00000E+00
         0.00000E+00
         0.00000E+00
         0.00000E+00
         0.00000E+00
         0.00000E+00
         0.00000E+00
         0.00000E+00
         0.00000E+00
         0.00000E+00
         0.00000E+00
         0.00000E+00
         0.00000E+00
         0.00000E+00
         0.00000E+00
         0.00000E+00
         0.00000E+00
         0.00000E+00
         0.00000E+00
         0.00000E+00
         0.00000E+00
         0.00000E+00
         0.00000E+00
         0.00000E+00
         0.00000E+00
         0.00000E+00
         0.00000E+00
         0.00000E+00
         0.00000E+00
         0.00000E+00
         0.00000E+00
         0.00000E+00
         0.00000E+00
         0.00000E+00
         0.00000E+00
         0.00000E+00
         0.00000E+00
         0.00000E+00
         0.00000E+00
         0.00000E+00
         0.00000E+00
         0.00000E+00
         0.00000E+00
         0.00000E+00
         0.00000E+00
         0.00000E+00
         0.00000E+00
         0.00000E+00
         0.00000E+00
         0.00000E+00
         0.00000E+00
         0.00000E+00
         0.00000E+00
         0.00000E+00
         0.00000E+00
         0.00000E+00
         0.00000E+00
         0.00000E+00
         0.00000E+00
         0.00000E+00
         0.00000E+00
         0.00000E+00
         0.00000E+00
         0.00000E+00
         0.00000E+00
         0.00000E+00
         0.00000E+00
         0.00000E+00
         0.00000E+00
         0.00000E+00
         0.00000E+00
         0.00000E+00
         0.00000E+00
         0.00000E+00
         0.00000E+00
         0.00000E+00
         0.00000E+00
         0.00000E+00
         0.00000E+00
         0.00000E+00
         0.00000E+00
         0.00000E+00
         0.00000E+00
         0.00000E+00
         0.00000E+00
         0.00000E+00
         0.00000E+00
         0.00000E+00
         0.00000E+00
         0.00000E+00
         0.00000E+00
         0.00000E+00
         0.00000E+00
         0.00000E+00
         0.00000E+00
         0.00000E+00
         0.00000E+00
         0.00000E+00
         0.00000E+00
         0.00000E+00
         0.00000E+00
         0.00000E+00
         0.00000E+00
         0.00000E+00
         0.00000E+00
         0.00000E+00
         0.00000E+00
         0.00000E+00
         0.00000E+00
         0.00000E+00
         0.00000E+00
         0.00000E+00
         0.00000E+00
         0.00000E+00
         0.00000E+00
         0.00000E+00
         0.00000E+00
         0.00000E+00
         0.00000E+00
         0.00000E+00
         0.00000E+00
         0.00000E+00
         0.00000E+00
         0.00000E+00
         0.00000E+00
         0.00000E+00
         0.00000E+00
         0.00000E+00
         0.00000E+00
         0.00000E+00
         0.00000E+00
         0.00000E+00
         0.00000E+00
         0.00000E+00
         0.00000E+00
         0.00000E+00
         0.00000E+00
         0.00000E+00
         0.00000E+00
         0.00000E+00
         0.00000E+00
         0.00000E+00
         0.00000E+00
         0.00000E+00
         0.00000E+00
         0.00000E+00
         0.00000E+00
         0.00000E+00
         0.00000E+00
         0.00000E+00
         0.00000E+00
         0.00000E+00
         0.00000E+00
         0.00000E+00
         0.00000E+00
         0.00000E+00
         0.00000E+00
         0.00000E+00
         0.00000E+00
         0.00000E+00
         0.00000E+00
         0.00000E+00
         0.00000E+00
         0.00000E+00
         0.00000E+00
         0.00000E+00
         0.00000E+00
         0.00000E+00
         0.00000E+00
         0.00000E+00
         0.00000E+00
         0.00000E+00
         0.00000E+00
         0.00000E+00
         0.00000E+00
         0.00000E+00
         0.00000E+00
         0.00000E+00
         0.00000E+00
         0.00000E+00
         0.00000E+00
         0.00000E+00
         0.00000E+00
         0.00000E+00
         0.00000E+00
         0.00000E+00
         0.00000E+00
         0.00000E+00
         0.00000E+00
         0.00000E+00
         0.00000E+00
         0.00000E+00
         0.00000E+00
         0.00000E+00
         0.00000E+00
         0.00000E+00
         0.00000E+00
         0.00000E+00
         0.00000E+00
         0.00000E+00
         0.00000E+00
         0.00000E+00
         0.00000E+00
         0.00000E+00
         0.00000E+00
         0.00000E+00
         0.00000E+00
         0.00000E+00
         0.00000E+00
         0.00000E+00
         0.00000E+00
         0.00000E+00
         0.00000E+00
         0.00000E+00
         0.00000E+00
         0.00000E+00
         0.00000E+00
         0.00000E+00
         0.00000E+00
         0.00000E+00
         0.00000E+00
         0.00000E+00
         0.00000E+00
         0.00000E+00
         0.00000E+00
         0.00000E+00
         0.00000E+00
         0.00000E+00
         0.00000E+00
         0.00000E+00
         0.00000E+00
         0.00000E+00
         0.00000E+00
         0.00000E+00
         0.00000E+00
         0.00000E+00
         0.00000E+00
         0.00000E+00
         0.00000E+00
         0.00000E+00
         0.00000E+00
         0.00000E+00
         0.00000E+00
         0.00000E+00
         0.00000E+00
         0.00000E+00
         0.00000E+00
         0.00000E+00
         0.00000E+00
         0.00000E+00
         0.00000E+00
         0.00000E+00
         0.00000E+00
         0.00000E+00
         0.00000E+00
         0.00000E+00
         0.00000E+00
         0.00000E+00
         0.00000E+00
         0.00000E+00
         0.00000E+00
         0.00000E+00
         0.00000E+00
         0.00000E+00
         0.00000E+00
         0.00000E+00
         0.00000E+00
         0.00000E+00
         0.00000E+00
         0.00000E+00
         0.00000E+00
         0.00000E+00
         0.00000E+00
         0.00000E+00
         0.00000E+00
         0.00000E+00
         0.00000E+00
         0.00000E+00
         0.00000E+00
         0.00000E+00
         0.00000E+00
         0.00000E+00
         0.00000E+00
         0.00000E+00
         0.00000E+00
         0.00000E+00
         0.00000E+00
         0.00000E+00
         0.00000E+00
         0.00000E+00
         0.00000E+00
         0.00000E+00
         0.00000E+00
         0.00000E+00
         0.00000E+00
         0.00000E+00
         0.00000E+00
         0.00000E+00
         0.00000E+00
         0.00000E+00
         0.00000E+00
         0.00000E+00
         0.00000E+00
         0.00000E+00
         0.00000E+00
         0.00000E+00
         0.00000E+00
         0.00000E+00
         0.00000E+00
         0.00000E+00
         0.00000E+00
         0.00000E+00
         0.00000E+00
         0.00000E+00
         0.00000E+00
         0.00000E+00
         0.00000E+00
         0.00000E+00
         0.00000E+00
         0.00000E+00
         0.00000E+00
         0.00000E+00
         0.00000E+00
         0.00000E+00
         0.00000E+00
         0.00000E+00
         0.00000E+00
         0.00000E+00
         0.00000E+00
         0.00000E+00
         0.00000E+00
         0.00000E+00
         0.00000E+00
         0.00000E+00
         0.00000E+00
         0.00000E+00
         0.00000E+00
         0.00000E+00
         0.00000E+00
         0.00000E+00
         0.00000E+00
         0.00000E+00
         0.00000E+00
         0.00000E+00
         0.00000E+00
         0.00000E+00
         0.00000E+00
         0.00000E+00
         0.00000E+00
         0.00000E+00
         0.00000E+00
         0.00000E+00
         0.00000E+00
         0.00000E+00
         0.00000E+00
         0.00000E+00
         0.00000E+00
         0.00000E+00
         0.00000E+00
         0.00000E+00
         0.00000E+00
         0.00000E+00
         0.00000E+00
         0.00000E+00
         0.00000E+00
         0.00000E+00
         0.00000E+00
         0.00000E+00
         0.00000E+00
         0.00000E+00
         0.00000E+00
         0.00000E+00
         0.00000E+00
         0.00000E+00
         0.00000E+00
         0.00000E+00
         0.00000E+00
         0.00000E+00
         0.00000E+00
         0.00000E+00
         0.00000E+00
         0.00000E+00
         0.00000E+00
         0.00000E+00
         0.00000E+00
         0.00000E+00
         0.00000E+00
         0.00000E+00
         0.00000E+00
         0.00000E+00
         0.00000E+00
         0.00000E+00
         0.00000E+00
         0.00000E+00
         0.00000E+00
         0.00000E+00
         0.00000E+00
         0.00000E+00
         0.00000E+00
         0.00000E+00
         0.00000E+00
         0.00000E+00
         0.00000E+00
         0.00000E+00
         0.00000E+00
         0.00000E+00
         0.00000E+00
         0.00000E+00
         0.00000E+00
         0.00000E+00
         0.00000E+00
         0.00000E+00
         0.00000E+00
         0.00000E+00
         0.00000E+00
         0.00000E+00
         0.00000E+00
         0.00000E+00
         0.00000E+00
         0.00000E+00
         0.00000E+00
         0.00000E+00
         0.00000E+00
         0.00000E+00
         0.00000E+00
         0.00000E+00
         0.00000E+00
         0.00000E+00
         0.00000E+00
         0.00000E+00
         0.00000E+00
         0.00000E+00
         0.00000E+00
         0.00000E+00
         0.00000E+00
         0.00000E+00
         0.00000E+00
         0.00000E+00
         0.00000E+00
         0.00000E+00
         0.00000E+00
         0.00000E+00
         0.00000E+00
         0.00000E+00
         0.00000E+00
         0.00000E+00
         0.00000E+00
         0.00000E+00
         0.00000E+00
         0.00000E+00
         0.00000E+00
         0.00000E+00
         0.00000E+00
         0.00000E+00
         0.00000E+00
         0.00000E+00
         0.00000E+00
         0.00000E+00
         0.00000E+00
         0.00000E+00
         0.00000E+00
         0.00000E+00
         0.00000E+00
         0.00000E+00
         0.00000E+00
         0.00000E+00
         0.00000E+00
         0.00000E+00
         0.00000E+00
         0.00000E+00
         0.00000E+00
         0.00000E+00
         0.00000E+00
         0.00000E+00
         0.00000E+00
         0.00000E+00
         0.00000E+00
         0.00000E+00
         0.00000E+00
         0.00000E+00
         0.00000E+00
         0.00000E+00
         0.00000E+00
         0.00000E+00
         0.00000E+00
         0.00000E+00
         0.00000E+00
         0.00000E+00
         0.00000E+00
         0.00000E+00
         0.00000E+00
         0.00000E+00
         0.00000E+00
         0.00000E+00
         0.00000E+00
         0.00000E+00
         0.00000E+00
         0.00000E+00
         0.00000E+00
         0.00000E+00
         0.00000E+00
         0.00000E+00
         0.00000E+00
         0.00000E+00
         0.00000E+00
         0.00000E+00
         0.00000E+00
         0.00000E+00
         0.00000E+00
         0.00000E+00
         0.00000E+00
         0.00000E+00
         0.00000E+00
         0.00000E+00
         0.00000E+00
         0.00000E+00
         0.00000E+00
         0.00000E+00
         0.00000E+00
         0.00000E+00
         0.00000E+00
         0.00000E+00
         0.00000E+00
         0.00000E+00
         0.00000E+00
         0.00000E+00
         0.00000E+00
         0.00000E+00
         0.00000E+00
         0.00000E+00
         0.00000E+00
         0.00000E+00
         0.00000E+00
         0.00000E+00
         0.00000E+00
         0.00000E+00
         0.00000E+00
         0.00000E+00
         0.00000E+00
         0.00000E+00
         0.00000E+00
         0.00000E+00
         0.00000E+00
         0.00000E+00
         0.00000E+00
         0.00000E+00
         0.00000E+00
         0.00000E+00
         0.00000E+00
         0.00000E+00
         0.00000E+00
         0.00000E+00
         0.00000E+00
         0.00000E+00
         0.00000E+00
         0.00000E+00
         0.00000E+00
         0.00000E+00
         0.00000E+00
         0.00000E+00
         0.00000E+00
         0.00000E+00
         0.00000E+00
         0.00000E+00
         0.00000E+00
         0.00000E+00
         0.00000E+00
         0.00000E+00
         0.00000E+00
         0.00000E+00
         0.00000E+00
         0.00000E+00
         0.00000E+00
         0.00000E+00
         0.00000E+00
         0.00000E+00
         0.00000E+00
         0.00000E+00
         0.00000E+00
         0.00000E+00
         0.00000E+00
         0.00000E+00
         0.00000E+00
         0.00000E+00
         0.00000E+00
         0.00000E+00
         0.00000E+00
         0.00000E+00
         0.00000E+00
         0.00000E+00
         0.00000E+00
         0.00000E+00
         0.00000E+00
         0.00000E+00
         0.00000E+00
         0.00000E+00
         0.00000E+00
         0.00000E+00
         0.00000E+00
         0.00000E+00
         0.00000E+00
         0.00000E+00
         0.00000E+00
         0.00000E+00
         0.00000E+00
         0.00000E+00
         0.00000E+00
         0.00000E+00
         0.00000E+00
         0.00000E+00
         0.00000E+00
         0.00000E+00
         0.00000E+00
         0.00000E+00
         0.00000E+00
         0.00000E+00
         0.00000E+00
         0.00000E+00
         0.00000E+00
         0.00000E+00
         0.00000E+00
         0.00000E+00
         0.00000E+00
         0.00000E+00
         0.00000E+00
         0.00000E+00
         0.00000E+00
         0.00000E+00
         0.00000E+00
         0.00000E+00
         0.00000E+00
         0.00000E+00
         0.00000E+00
         0.00000E+00
         0.00000E+00
         0.00000E+00
         0.00000E+00
         0.00000E+00
         0.00000E+00
         0.00000E+00
         0.00000E+00
         0.00000E+00
         0.00000E+00
         0.00000E+00
         0.00000E+00
         0.00000E+00
         0.00000E+00
         0.00000E+00
         0.00000E+00
         0.00000E+00
         0.00000E+00
         0.00000E+00
         0.00000E+00
         0.00000E+00
         0.00000E+00
         0.00000E+00
         0.00000E+00
         0.00000E+00
         0.00000E+00
         0.00000E+00
         0.00000E+00
         0.00000E+00
         0.00000E+00
         0.00000E+00
         0.00000E+00
         0.00000E+00
         0.00000E+00
         0.00000E+00
         0.00000E+00
         0.00000E+00
         0.00000E+00
         0.00000E+00
         0.00000E+00
         0.00000E+00
         0.00000E+00
         0.00000E+00
         0.00000E+00
         0.00000E+00
         0.00000E+00
         0.00000E+00
         0.00000E+00
         0.00000E+00
         0.00000E+00
         0.00000E+00
         0.00000E+00
         0.00000E+00
         0.00000E+00
         0.00000E+00
         0.00000E+00
         0.00000E+00
         0.00000E+00
         0.00000E+00
         0.00000E+00
         0.00000E+00
         0.00000E+00
         0.00000E+00
         0.00000E+00
         0.00000E+00
         0.00000E+00
         0.00000E+00
         0.00000E+00
         0.00000E+00
         0.00000E+00
         0.00000E+00
         0.00000E+00
         0.00000E+00
         0.00000E+00
         0.00000E+00
         0.00000E+00
         0.00000E+00
         0.00000E+00
         0.00000E+00
         0.00000E+00
         0.00000E+00
         0.00000E+00
         0.00000E+00
         0.00000E+00
         0.00000E+00
         0.00000E+00
         0.00000E+00
         0.00000E+00
         0.00000E+00
         0.00000E+00
         0.00000E+00
         0.00000E+00
         0.00000E+00
         0.00000E+00
         0.00000E+00
         0.00000E+00
         0.00000E+00
         0.00000E+00
         0.00000E+00
         0.00000E+00
         0.00000E+00
         0.00000E+00
         0.00000E+00
         0.00000E+00
         0.00000E+00
         0.00000E+00
         0.00000E+00
         0.00000E+00
         0.00000E+00
         0.00000E+00
         0.00000E+00
         0.00000E+00
         0.00000E+00
         0.00000E+00
         0.00000E+00
         0.00000E+00
         0.00000E+00
         0.00000E+00
         0.00000E+00
         0.00000E+00
         0.00000E+00
         0.00000E+00
         0.00000E+00
         0.00000E+00
         0.00000E+00
         0.00000E+00
         0.00000E+00
         0.00000E+00
         0.00000E+00
         0.00000E+00
         0.00000E+00
         0.00000E+00
         0.00000E+00
         0.00000E+00
         0.00000E+00
         0.00000E+00
         0.00000E+00
         0.00000E+00
         0.00000E+00
         0.00000E+00
         0.00000E+00
         0.00000E+00
         0.00000E+00
         0.00000E+00
         0.00000E+00
         0.00000E+00
         0.00000E+00
         0.00000E+00
         0.00000E+00
         0.00000E+00
         0.00000E+00
         0.00000E+00
         0.00000E+00
         0.00000E+00
         0.00000E+00
         0.00000E+00
         0.00000E+00
         0.00000E+00
         0.00000E+00
         0.00000E+00
         0.00000E+00
         0.00000E+00
         0.00000E+00
         0.00000E+00
         0.00000E+00
         0.00000E+00
         0.00000E+00
         0.00000E+00
         0.00000E+00
         0.00000E+00
         0.00000E+00
         0.00000E+00
         0.00000E+00
         0.00000E+00
         0.00000E+00
         0.00000E+00
         0.00000E+00
         0.00000E+00
         0.00000E+00
         0.00000E+00
         0.00000E+00
         0.00000E+00
         0.00000E+00
         0.00000E+00
         0.00000E+00
         0.00000E+00
         0.00000E+00
         0.00000E+00
         0.00000E+00
         0.00000E+00
         0.00000E+00
         0.00000E+00
         0.00000E+00
         0.00000E+00
         0.00000E+00
         0.00000E+00
         0.00000E+00
         0.00000E+00
         0.00000E+00
         0.00000E+00
         0.00000E+00
         0.00000E+00
         0.00000E+00
         0.00000E+00
         0.00000E+00
         0.00000E+00
         0.00000E+00
         0.00000E+00
         0.00000E+00
         0.00000E+00
         0.00000E+00
         0.00000E+00
         0.00000E+00
         0.00000E+00
         0.00000E+00
         0.00000E+00
         0.00000E+00
         0.00000E+00
         0.00000E+00
         0.00000E+00
         0.00000E+00
         0.00000E+00
         0.00000E+00
         0.00000E+00
         0.00000E+00
         0.00000E+00
         0.00000E+00
         0.00000E+00
         0.00000E+00
         0.00000E+00
         0.00000E+00
         0.00000E+00
         0.00000E+00
         0.00000E+00
         0.00000E+00
         0.00000E+00
         0.00000E+00
         0.00000E+00
         0.00000E+00
         0.00000E+00
         0.00000E+00
         0.00000E+00
         0.00000E+00
         0.00000E+00
         0.00000E+00
         0.00000E+00
         0.00000E+00
         0.00000E+00
         0.00000E+00
         0.00000E+00
         0.00000E+00
         0.00000E+00
         0.00000E+00
         0.00000E+00
         0.00000E+00
         0.00000E+00
         0.00000E+00
         0.00000E+00
         0.00000E+00
         0.00000E+00
         0.00000E+00
         0.00000E+00
         0.00000E+00
         0.00000E+00
         0.00000E+00
         0.00000E+00
         0.00000E+00
         0.00000E+00
         0.00000E+00
         0.00000E+00
         0.00000E+00
         0.00000E+00
         0.00000E+00
         0.00000E+00
         0.00000E+00
         0.00000E+00
         0.00000E+00
         0.00000E+00
         0.00000E+00
         0.00000E+00
         0.00000E+00
         0.00000E+00
         0.00000E+00
         0.00000E+00
         0.00000E+00
         0.00000E+00
         0.00000E+00
         0.00000E+00
         0.00000E+00
         0.00000E+00
         0.00000E+00
         0.00000E+00
         0.00000E+00
         0.00000E+00
         0.00000E+00
         0.00000E+00
         0.00000E+00
         0.00000E+00
         0.00000E+00
         0.00000E+00
         0.00000E+00
         0.00000E+00
         0.00000E+00
         0.00000E+00
         0.00000E+00
         0.00000E+00
         0.00000E+00
         0.00000E+00
         0.00000E+00
         0.00000E+00
         0.00000E+00
         0.00000E+00
         0.00000E+00
         0.00000E+00
         0.00000E+00
         0.00000E+00
         0.00000E+00
         0.00000E+00
         0.00000E+00
         0.00000E+00
         0.00000E+00
         0.00000E+00
         0.00000E+00
         0.00000E+00
         0.00000E+00
         0.00000E+00
         0.00000E+00
         0.00000E+00
         0.00000E+00
         0.00000E+00
         0.00000E+00
         0.00000E+00
         0.00000E+00
         0.00000E+00
         0.00000E+00
         0.00000E+00
         0.00000E+00
         0.00000E+00
         0.00000E+00
         0.00000E+00
         0.00000E+00
         0.00000E+00
         0.00000E+00
         0.00000E+00
         0.00000E+00
         0.00000E+00
         0.00000E+00
         0.00000E+00
         0.00000E+00
         0.00000E+00
         0.00000E+00
         0.00000E+00
         0.00000E+00
         0.00000E+00
         0.00000E+00
         0.00000E+00
         0.00000E+00
         0.00000E+00
         0.00000E+00
         0.00000E+00
         0.00000E+00
         0.00000E+00
         0.00000E+00
         0.00000E+00
         0.00000E+00
         0.00000E+00
         0.00000E+00
         0.00000E+00
         0.00000E+00
         0.00000E+00
         0.00000E+00
         0.00000E+00
         0.00000E+00
         0.00000E+00
         0.00000E+00
         0.00000E+00
         0.00000E+00
         0.00000E+00
         0.00000E+00
         0.00000E+00
         0.00000E+00
         0.00000E+00
         0.00000E+00
         0.00000E+00
         0.00000E+00
         0.00000E+00
         0.00000E+00
         0.00000E+00
         0.00000E+00
         0.00000E+00
         0.00000E+00
         0.00000E+00
         0.00000E+00
         0.00000E+00
         0.00000E+00
         0.00000E+00
         0.00000E+00
         0.00000E+00
         0.00000E+00
         0.00000E+00
         0.00000E+00
         0.00000E+00
         0.00000E+00
         0.00000E+00
         0.00000E+00
         0.00000E+00
         0.00000E+00
         0.00000E+00
         0.00000E+00
         0.00000E+00
         0.00000E+00
         0.00000E+00
         0.00000E+00
         0.00000E+00
         0.00000E+00
         0.00000E+00
         0.00000E+00
         0.00000E+00
         0.00000E+00
         0.00000E+00
         0.00000E+00
         0.00000E+00
         0.00000E+00
         0.00000E+00
         0.00000E+00
         0.00000E+00
         0.00000E+00
         0.00000E+00
         0.00000E+00
         0.00000E+00
         0.00000E+00
         0.00000E+00
         0.00000E+00
         0.00000E+00
         0.00000E+00
         0.00000E+00
         0.00000E+00
         0.00000E+00
         0.00000E+00
         0.00000E+00
         0.00000E+00
         0.00000E+00
         0.00000E+00
         0.00000E+00
         0.00000E+00
         0.00000E+00
         0.00000E+00
         0.00000E+00
         0.00000E+00
         0.00000E+00
         0.00000E+00
         0.00000E+00
         0.00000E+00
         0.00000E+00
         0.00000E+00
         0.00000E+00
         0.00000E+00
         0.00000E+00
         0.00000E+00
         0.00000E+00
         0.00000E+00
         0.00000E+00
         0.00000E+00
         0.00000E+00
         0.00000E+00
         0.00000E+00
         0.00000E+00
         0.00000E+00
         0.00000E+00
         0.00000E+00
         0.00000E+00
         0.00000E+00
         0.00000E+00
         0.00000E+00
         0.00000E+00
         0.00000E+00
         0.00000E+00
         0.00000E+00
         0.00000E+00
         0.00000E+00
         0.00000E+00
         0.00000E+00
         0.00000E+00
         0.00000E+00
         0.00000E+00
         0.00000E+00
         0.00000E+00
         0.00000E+00
         0.00000E+00
         0.00000E+00
         0.00000E+00
         0.00000E+00
         0.00000E+00
         0.00000E+00
         0.00000E+00
         0.00000E+00
         0.00000E+00
         0.00000E+00
         0.00000E+00
         0.00000E+00
         0.00000E+00
         0.00000E+00
         0.00000E+00
         0.00000E+00
         0.00000E+00
         0.00000E+00
         0.00000E+00
         0.00000E+00
         0.00000E+00
         0.00000E+00
         0.00000E+00
         0.00000E+00
         0.00000E+00
         0.00000E+00
         0.00000E+00
         0.00000E+00
         0.00000E+00
         0.00000E+00
         0.00000E+00
         0.00000E+00
         0.00000E+00
         0.00000E+00
         0.00000E+00
         0.00000E+00
         0.00000E+00
         0.00000E+00
         0.00000E+00
         0.00000E+00
         0.00000E+00
         0.00000E+00
         0.00000E+00
         0.00000E+00
         0.00000E+00
         0.00000E+00
         0.00000E+00
         0.00000E+00
         0.00000E+00
         0.00000E+00
         0.00000E+00
         0.00000E+00
         0.00000E+00
         0.00000E+00
         0.00000E+00
         0.00000E+00
         0.00000E+00
         0.00000E+00
         0.00000E+00
         0.00000E+00
         0.00000E+00
         0.00000E+00
         0.00000E+00
         0.00000E+00
         0.00000E+00
         0.00000E+00
         0.00000E+00
         0.00000E+00
         0.00000E+00
         0.00000E+00
         0.00000E+00
         0.00000E+00
         0.00000E+00
         0.00000E+00
         0.00000E+00
         0.00000E+00
         0.00000E+00
         0.00000E+00
         0.00000E+00
         0.00000E+00
         0.00000E+00
         0.00000E+00
         0.00000E+00
         0.00000E+00
         0.00000E+00
         0.00000E+00
         0.00000E+00
         0.00000E+00
         0.00000E+00
         0.00000E+00
         0.00000E+00
         0.00000E+00
         0.00000E+00
         0.00000E+00
         0.00000E+00
         0.00000E+00
         0.00000E+00
         0.00000E+00
         0.00000E+00
         0.00000E+00
         0.00000E+00
         0.00000E+00
         0.00000E+00
         0.00000E+00
         0.00000E+00
         0.00000E+00
         0.00000E+00
         0.00000E+00
         0.00000E+00
         0.00000E+00
         0.00000E+00
         0.00000E+00
         0.00000E+00
         0.00000E+00
         0.00000E+00
         0.00000E+00
         0.00000E+00
         0.00000E+00
         0.00000E+00
         0.00000E+00
         0.00000E+00
         0.00000E+00
         0.00000E+00
         0.00000E+00
         0.00000E+00
         0.00000E+00
         0.00000E+00
         0.00000E+00
         0.00000E+00
         0.00000E+00
         0.00000E+00
         0.00000E+00
         0.00000E+00
         0.00000E+00
         0.00000E+00
         0.00000E+00
         0.00000E+00
         0.00000E+00
         0.00000E+00
         0.00000E+00
         0.00000E+00
         0.00000E+00
         0.00000E+00
         0.00000E+00
         0.00000E+00
         0.00000E+00
         0.00000E+00
         0.00000E+00
         0.00000E+00
         0.00000E+00
         0.00000E+00
         0.00000E+00
         0.00000E+00
         0.00000E+00
         0.00000E+00
         0.00000E+00
         0.00000E+00
         0.00000E+00
         0.00000E+00
         0.00000E+00
         0.00000E+00
         0.00000E+00
         0.00000E+00
         0.00000E+00
         0.00000E+00
         0.00000E+00
         0.00000E+00
         0.00000E+00
         0.00000E+00
         0.00000E+00
         0.00000E+00
         0.00000E+00
         0.00000E+00
         0.00000E+00
         0.00000E+00
         0.00000E+00
         0.00000E+00
         0.00000E+00
         0.00000E+00
         0.00000E+00
         0.00000E+00
         0.00000E+00
         0.00000E+00
         0.00000E+00
         0.00000E+00
         0.00000E+00
         0.00000E+00
         0.00000E+00
         0.00000E+00
         0.00000E+00
         0.00000E+00
         0.00000E+00
         0.00000E+00
         0.00000E+00
         0.00000E+00
         0.00000E+00
         0.00000E+00
         0.00000E+00
         0.00000E+00
         0.00000E+00
         0.00000E+00
         0.00000E+00
         0.00000E+00
         0.00000E+00
         0.00000E+00
         0.00000E+00
         0.00000E+00
         0.00000E+00
         0.00000E+00
         0.00000E+00
         0.00000E+00
         0.00000E+00
         0.00000E+00
         0.00000E+00
         0.00000E+00
         0.00000E+00
         0.00000E+00
         0.00000E+00
         0.00000E+00
         0.00000E+00
         0.00000E+00
         0.00000E+00
         0.00000E+00
         0.00000E+00
         0.00000E+00
         0.00000E+00
         0.00000E+00
         0.00000E+00
         0.00000E+00
         0.00000E+00
         0.00000E+00
         0.00000E+00
         0.00000E+00
         0.00000E+00
         0.00000E+00
         0.00000E+00
         0.00000E+00
         0.00000E+00
         0.00000E+00
         0.00000E+00
         0.00000E+00
         0.00000E+00
         0.00000E+00
         0.00000E+00
         0.00000E+00
         0.00000E+00
         0.00000E+00
         0.00000E+00
         0.00000E+00
         0.00000E+00
         0.00000E+00
         0.00000E+00
         0.00000E+00
         0.00000E+00
         0.00000E+00
         0.00000E+00
         0.00000E+00
         0.00000E+00
         0.00000E+00
         0.00000E+00
         0.00000E+00
         0.00000E+00
         0.00000E+00
         0.00000E+00
         0.00000E+00
         0.00000E+00
         0.00000E+00
         0.00000E+00
         0.00000E+00
         0.00000E+00
         0.00000E+00
         0.00000E+00
         0.00000E+00
         0.00000E+00
         0.00000E+00
         0.00000E+00
         0.00000E+00
         0.00000E+00
         0.00000E+00
         0.00000E+00
         0.00000E+00
         0.00000E+00
         0.00000E+00
         0.00000E+00
         0.00000E+00
         0.00000E+00
         0.00000E+00
         0.00000E+00
         0.00000E+00
         0.00000E+00
         0.00000E+00
         0.00000E+00
         0.00000E+00
         0.00000E+00
         0.00000E+00
         0.00000E+00
         0.00000E+00
         0.00000E+00
         0.00000E+00
         0.00000E+00
         0.00000E+00
         0.00000E+00
         0.00000E+00
         0.00000E+00
         0.00000E+00
         0.00000E+00
         0.00000E+00
         0.00000E+00
         0.00000E+00
         0.00000E+00
         0.00000E+00
         0.00000E+00
         0.00000E+00
         0.00000E+00
         0.00000E+00
         0.00000E+00
         0.00000E+00
         0.00000E+00
         0.00000E+00
         0.00000E+00
         0.00000E+00
         0.00000E+00
         0.00000E+00
         0.00000E+00
         0.00000E+00
         0.00000E+00
         0.00000E+00
         0.00000E+00
         0.00000E+00
         0.00000E+00
         0.00000E+00
         0.00000E+00
         0.00000E+00
         0.00000E+00
         0.00000E+00
         0.00000E+00
         0.00000E+00
         0.00000E+00
         0.00000E+00
         0.00000E+00
         0.00000E+00
         0.00000E+00
         0.00000E+00
         0.00000E+00
         0.00000E+00
         0.00000E+00
         0.00000E+00
         0.00000E+00
         0.00000E+00
         0.00000E+00
         0.00000E+00
         0.00000E+00
         0.00000E+00
         0.00000E+00
         0.00000E+00
         0.00000E+00
         0.00000E+00
         0.00000E+00
         0.00000E+00
         0.00000E+00
         0.00000E+00
         0.00000E+00
         0.00000E+00
         0.00000E+00
         0.00000E+00
         0.00000E+00
         0.00000E+00
         0.00000E+00
         0.00000E+00
         0.00000E+00
         0.00000E+00
         0.00000E+00
         0.00000E+00
         0.00000E+00
         0.00000E+00
         0.00000E+00
         0.00000E+00
         0.00000E+00
         0.00000E+00
         0.00000E+00
         0.00000E+00
         0.00000E+00
         0.00000E+00
         0.00000E+00
         0.00000E+00
         0.00000E+00
         0.00000E+00
         0.00000E+00
         0.00000E+00
         0.00000E+00
         0.00000E+00
         0.00000E+00
         0.00000E+00
         0.00000E+00
         0.00000E+00
         0.00000E+00
         0.00000E+00
         0.00000E+00
         0.00000E+00
         0.00000E+00
         0.00000E+00
         0.00000E+00
         0.00000E+00
         0.00000E+00
         0.00000E+00
         0.00000E+00
         0.00000E+00
         0.00000E+00
         0.00000E+00
         0.00000E+00
         0.00000E+00
         0.00000E+00
         0.00000E+00
         0.00000E+00
         0.00000E+00
         0.00000E+00
         0.00000E+00
         0.00000E+00
         0.00000E+00
         0.00000E+00
         0.00000E+00
         0.00000E+00
         0.00000E+00
         0.00000E+00
         0.00000E+00
         0.00000E+00
         0.00000E+00
         0.00000E+00
         0.00000E+00
         0.00000E+00
         0.00000E+00
         0.00000E+00
         0.00000E+00
         0.00000E+00
         0.00000E+00
         0.00000E+00
         0.00000E+00
         0.00000E+00
         0.00000E+00
         0.00000E+00
         0.00000E+00
         0.00000E+00
         0.00000E+00
         0.00000E+00
         0.00000E+00
         0.00000E+00
         0.00000E+00
         0.00000E+00
         0.00000E+00
         0.00000E+00
         0.00000E+00
         0.00000E+00
         0.00000E+00
         0.00000E+00
         0.00000E+00
         0.00000E+00
         0.00000E+00
         0.00000E+00
         0.00000E+00
         0.00000E+00
         0.00000E+00
         0.00000E+00
         0.00000E+00
         0.00000E+00
         0.00000E+00
         0.00000E+00
         0.00000E+00
         0.00000E+00
         0.00000E+00
         0.00000E+00
         0.00000E+00
         0.00000E+00
         0.00000E+00
         0.00000E+00
         0.00000E+00
         0.00000E+00
         0.00000E+00
         0.00000E+00
         0.00000E+00
         0.00000E+00
         0.00000E+00
         0.00000E+00
         0.00000E+00
         0.00000E+00
         0.00000E+00
         0.00000E+00
         0.00000E+00
         0.00000E+00
         0.00000E+00
         0.00000E+00
         0.00000E+00
         0.00000E+00
         0.00000E+00
         0.00000E+00
         0.00000E+00
         0.00000E+00
         0.00000E+00
         0.00000E+00
         0.00000E+00
         0.00000E+00
         0.00000E+00
         0.00000E+00
         0.00000E+00
         0.00000E+00
         0.00000E+00
         0.00000E+00
         0.00000E+00
         0.00000E+00
         0.00000E+00
         0.00000E+00
         0.00000E+00
         0.00000E+00
         0.00000E+00
         0.00000E+00
         0.00000E+00
         0.00000E+00
         0.00000E+00
         0.00000E+00
         0.00000E+00
         0.00000E+00
         0.00000E+00
         0.00000E+00
         0.00000E+00
         0.00000E+00
         0.00000E+00
         0.00000E+00
         0.00000E+00
         0.00000E+00
         0.00000E+00
         0.00000E+00
         0.00000E+00
         0.00000E+00
         0.00000E+00
         0.00000E+00
         0.00000E+00
         0.00000E+00
         0.00000E+00
         0.00000E+00
         0.00000E+00
         0.00000E+00
         0.00000E+00
         0.00000E+00
         0.00000E+00
         0.00000E+00
         0.00000E+00
         0.00000E+00
         0.00000E+00
         0.00000E+00
         0.00000E+00
         0.00000E+00
         0.00000E+00
         0.00000E+00
         0.00000E+00
         0.00000E+00
         0.00000E+00
         0.00000E+00
         0.00000E+00
         0.00000E+00
         0.00000E+00
         0.00000E+00
         0.00000E+00
         0.00000E+00
         0.00000E+00
         0.00000E+00
         0.00000E+00
         0.00000E+00
         0.00000E+00
         0.00000E+00
         0.00000E+00
         0.00000E+00
         0.00000E+00
         0.00000E+00
         0.00000E+00
         0.00000E+00
         0.00000E+00
         0.00000E+00
         0.00000E+00
         0.00000E+00
         0.00000E+00
         0.00000E+00
         0.00000E+00
         0.00000E+00
         0.00000E+00
         0.00000E+00
         0.00000E+00
         0.00000E+00
         0.00000E+00
         0.00000E+00
         0.00000E+00
         0.00000E+00
         0.00000E+00
         0.00000E+00
         0.00000E+00
         0.00000E+00
         0.00000E+00
         0.00000E+00
         0.00000E+00
         0.00000E+00
         0.00000E+00
         0.00000E+00
         0.00000E+00
         0.00000E+00
         0.00000E+00
         0.00000E+00
         0.00000E+00
         0.00000E+00
         0.00000E+00
         0.00000E+00
         0.00000E+00
         0.00000E+00
         0.00000E+00
         0.00000E+00
         0.00000E+00
         0.00000E+00
         0.00000E+00
         0.00000E+00
         0.00000E+00
         0.00000E+00
         0.00000E+00
         0.00000E+00
         0.00000E+00
         0.00000E+00
         0.00000E+00
         0.00000E+00
         0.00000E+00
         0.00000E+00
         0.00000E+00
         0.00000E+00
         0.00000E+00
         0.00000E+00
         0.00000E+00
         0.00000E+00
         0.00000E+00
         0.00000E+00
         0.00000E+00
         0.00000E+00
         0.00000E+00
         0.00000E+00
         0.00000E+00
         0.00000E+00
         0.00000E+00
         0.00000E+00
         0.00000E+00
         0.00000E+00
         0.00000E+00
         0.00000E+00
         0.00000E+00
         0.00000E+00
         0.00000E+00
         0.00000E+00
         0.00000E+00
         0.00000E+00
         0.00000E+00
         0.00000E+00
         0.00000E+00
         0.00000E+00
         0.00000E+00
         0.00000E+00
         0.00000E+00
         0.00000E+00
         0.00000E+00
         0.00000E+00
         0.00000E+00
         0.00000E+00
         0.00000E+00
         0.00000E+00
         0.00000E+00
         0.00000E+00
         0.00000E+00
         0.00000E+00
         0.00000E+00
         0.00000E+00
         0.00000E+00
         0.00000E+00
         0.00000E+00
         0.00000E+00
         0.00000E+00
         0.00000E+00
         0.00000E+00
         0.00000E+00
         0.00000E+00
         0.00000E+00
         0.00000E+00
         0.00000E+00
         0.00000E+00
         0.00000E+00
         0.00000E+00
         0.00000E+00
         0.00000E+00
         0.00000E+00
         0.00000E+00
         0.00000E+00
         0.00000E+00
         0.00000E+00
         0.00000E+00
         0.00000E+00
         0.00000E+00
         0.00000E+00
         0.00000E+00
         0.00000E+00
         0.00000E+00
         0.00000E+00
         0.00000E+00
         0.00000E+00
         0.00000E+00
         0.00000E+00
         0.00000E+00
         0.00000E+00
         0.00000E+00
         0.00000E+00
         0.00000E+00
         0.00000E+00
         0.00000E+00
         0.00000E+00
         0.00000E+00
         0.00000E+00
         0.00000E+00
         0.00000E+00
         0.00000E+00
         0.00000E+00
         0.00000E+00
         0.00000E+00
         0.00000E+00
         0.00000E+00
         0.00000E+00
         0.00000E+00
         0.00000E+00
         0.00000E+00
         0.00000E+00
         0.00000E+00
         0.00000E+00
         0.00000E+00
         0.00000E+00
         0.00000E+00
         0.00000E+00
         0.00000E+00
         0.00000E+00
         0.00000E+00
         0.00000E+00
         0.00000E+00
         0.00000E+00
         0.00000E+00
         0.00000E+00
         0.00000E+00
         0.00000E+00
         0.00000E+00
         0.00000E+00
         0.00000E+00
         0.00000E+00
         0.00000E+00
         0.00000E+00
         0.00000E+00
         0.00000E+00
         0.00000E+00
         0.00000E+00
         0.00000E+00
         0.00000E+00
         0.00000E+00
         0.00000E+00
         0.00000E+00
         0.00000E+00
         0.00000E+00
         0.00000E+00
         0.00000E+00
         0.00000E+00
         0.00000E+00
         0.00000E+00
         0.00000E+00
         0.00000E+00
         0.00000E+00
         0.00000E+00
         0.00000E+00
         0.00000E+00
         0.00000E+00
         0.00000E+00
         0.00000E+00
         0.00000E+00
         0.00000E+00
         0.00000E+00
         0.00000E+00
         0.00000E+00
         0.00000E+00
         0.00000E+00
         0.00000E+00
         0.00000E+00
         0.00000E+00
         0.00000E+00
         0.00000E+00
         0.00000E+00
  
SCALARS           initial_coordinate_x  double 1
LOOKUP_TABLE default
         0.10378E-02
         0.17452E-02
         0.23177E-02
         0.16698E-02
         0.10379E-02
         0.17453E-02
         0.23178E-02
         0.16700E-02
         0.30377E-02
         0.27791E-02
         0.30377E-02
         0.27788E-02
         0.12850E-02
         0.65139E-03
         0.12851E-02
         0.65164E-03
         0.12757E-03
        -0.12822E-03
         0.12783E-03
        -0.12804E-03
         0.94500E-03
         0.11327E-02
         0.17490E-02
         0.94533E-03
         0.11330E-02
         0.17494E-02
         0.40588E-03
         0.39779E-03
         0.40594E-03
         0.39781E-03
        -0.76303E-03
        -0.86604E-03
         0.46119E-03
        -0.76268E-03
        -0.86593E-03
         0.46164E-03
        -0.18300E-02
        -0.18440E-02
        -0.18297E-02
        -0.18441E-02
        -0.27238E-02
        -0.28028E-02
        -0.27238E-02
        -0.28031E-02
        -0.25365E-02
        -0.19287E-02
        -0.25363E-02
        -0.19283E-02
        -0.99363E-03
        -0.99377E-03
        -0.14380E-02
        -0.14377E-02
        -0.31574E-03
        -0.31594E-03
        -0.11068E-02
        -0.11071E-02
        -0.18845E-02
        -0.18713E-02
        -0.18846E-02
        -0.18714E-02
        -0.15871E-03
        -0.94089E-03
        -0.15844E-03
        -0.94029E-03
         0.78856E-03
         0.78922E-03
         0.17211E-02
         0.17211E-02
         0.32050E-02
         0.28046E-02
         0.32047E-02
         0.28047E-02
         0.23059E-02
         0.23060E-02
        -0.40614E-03
        -0.40627E-03
        -0.12092E-02
        -0.12092E-02
        -0.19448E-02
        -0.19448E-02
        -0.25029E-02
        -0.26371E-02
        -0.25029E-02
        -0.26372E-02
        -0.27671E-02
        -0.27674E-02
        -0.21123E-02
        -0.21122E-02
        -0.16087E-02
        -0.16087E-02
        -0.11939E-02
        -0.58641E-03
        -0.11937E-02
        -0.58606E-03
         0.20912E-03
         0.20952E-03
         0.10586E-02
         0.10589E-02
         0.18413E-02
         0.18413E-02
         0.24544E-02
         0.26022E-02
         0.24543E-02
         0.26021E-02
         0.37964E-02
         0.39100E-02
         0.37964E-02
         0.39100E-02
         0.34621E-02
         0.34621E-02
         0.29267E-02
         0.29267E-02
         0.22211E-02
         0.22211E-02
         0.13865E-02
         0.13865E-02
         0.47130E-03
         0.47130E-03
        -0.47130E-03
        -0.47130E-03
        -0.13865E-02
        -0.13865E-02
        -0.22211E-02
        -0.22211E-02
        -0.29267E-02
        -0.29267E-02
        -0.34621E-02
        -0.34621E-02
        -0.37964E-02
        -0.37964E-02
        -0.39100E-02
        -0.39100E-02
        -0.37964E-02
        -0.37964E-02
        -0.34621E-02
        -0.34621E-02
        -0.29267E-02
        -0.29267E-02
        -0.22211E-02
        -0.22211E-02
        -0.13865E-02
        -0.13865E-02
        -0.47130E-03
        -0.47130E-03
         0.47130E-03
         0.47130E-03
         0.13865E-02
         0.13865E-02
         0.22211E-02
         0.22211E-02
         0.29267E-02
         0.29267E-02
         0.34621E-02
         0.34621E-02
         0.37964E-02
         0.37964E-02
         0.10376E-02
         0.17450E-02
         0.23175E-02
         0.16696E-02
         0.30377E-02
         0.27795E-02
         0.12849E-02
         0.65115E-03
         0.12731E-03
        -0.12841E-03
         0.94467E-03
         0.11323E-02
         0.17487E-02
         0.40583E-03
         0.39777E-03
        -0.76338E-03
        -0.86615E-03
         0.46074E-03
        -0.18303E-02
        -0.18439E-02
        -0.27238E-02
        -0.28025E-02
        -0.25366E-02
        -0.19292E-02
        -0.99349E-03
        -0.14384E-02
        -0.31554E-03
        -0.11064E-02
        -0.18845E-02
        -0.18712E-02
        -0.15899E-03
        -0.94149E-03
         0.78790E-03
         0.17210E-02
         0.32053E-02
         0.28046E-02
         0.23058E-02
        -0.40600E-03
        -0.12092E-02
        -0.19447E-02
        -0.25028E-02
        -0.26370E-02
        -0.27668E-02
        -0.21125E-02
        -0.16088E-02
        -0.11940E-02
        -0.58676E-03
         0.20871E-03
         0.10583E-02
         0.18413E-02
         0.24545E-02
         0.26022E-02
         0.37964E-02
         0.39100E-02
         0.34621E-02
         0.29267E-02
         0.22211E-02
         0.13865E-02
         0.47130E-03
        -0.47130E-03
        -0.13865E-02
        -0.22211E-02
        -0.29267E-02
        -0.34621E-02
        -0.37964E-02
        -0.39100E-02
        -0.37964E-02
        -0.34621E-02
        -0.29267E-02
        -0.22211E-02
        -0.13865E-02
        -0.47130E-03
         0.47130E-03
         0.13865E-02
         0.22211E-02
         0.29267E-02
         0.34621E-02
         0.37964E-02
         0.10375E-02
         0.17448E-02
         0.23174E-02
         0.16694E-02
         0.30377E-02
         0.27798E-02
         0.12848E-02
         0.65090E-03
         0.12705E-03
        -0.12859E-03
         0.94434E-03
         0.11320E-02
         0.17483E-02
         0.40577E-03
         0.39776E-03
        -0.76374E-03
        -0.86626E-03
         0.46029E-03
        -0.18306E-02
        -0.18438E-02
        -0.27238E-02
        -0.28022E-02
        -0.25368E-02
        -0.19296E-02
        -0.99334E-03
        -0.14387E-02
        -0.31534E-03
        -0.11061E-02
        -0.18844E-02
        -0.18710E-02
        -0.15926E-03
        -0.94209E-03
         0.78724E-03
         0.17210E-02
         0.32056E-02
         0.28046E-02
         0.23057E-02
        -0.40586E-03
        -0.12092E-02
        -0.19447E-02
        -0.25028E-02
        -0.26369E-02
        -0.27665E-02
        -0.21126E-02
        -0.16088E-02
        -0.11941E-02
        -0.58711E-03
         0.20830E-03
         0.10580E-02
         0.18414E-02
         0.24546E-02
         0.26023E-02
         0.37964E-02
         0.39100E-02
         0.34621E-02
         0.29267E-02
         0.22211E-02
         0.13865E-02
         0.47130E-03
        -0.47130E-03
        -0.13865E-02
        -0.22211E-02
        -0.29267E-02
        -0.34621E-02
        -0.37964E-02
        -0.39100E-02
        -0.37964E-02
        -0.34621E-02
        -0.29267E-02
        -0.22211E-02
        -0.13865E-02
        -0.47130E-03
         0.47130E-03
         0.13865E-02
         0.22211E-02
         0.29267E-02
         0.34621E-02
         0.37964E-02
         0.10374E-02
         0.17446E-02
         0.23173E-02
         0.16692E-02
         0.30376E-02
         0.27801E-02
         0.12847E-02
         0.65065E-03
         0.12678E-03
        -0.12878E-03
         0.94401E-03
         0.11316E-02
         0.17479E-02
         0.40572E-03
         0.39774E-03
        -0.76409E-03
        -0.86637E-03
         0.45985E-03
        -0.18309E-02
        -0.18437E-02
        -0.27237E-02
        -0.28020E-02
        -0.25369E-02
        -0.19300E-02
        -0.99320E-03
        -0.14391E-02
        -0.31514E-03
        -0.11057E-02
        -0.18844E-02
        -0.18709E-02
        -0.15954E-03
        -0.94269E-03
         0.78658E-03
         0.17209E-02
         0.32060E-02
         0.28046E-02
         0.23056E-02
        -0.40572E-03
        -0.12092E-02
        -0.19446E-02
        -0.25028E-02
        -0.26368E-02
        -0.27662E-02
        -0.21128E-02
        -0.16088E-02
        -0.11942E-02
        -0.58746E-03
         0.20790E-03
         0.10577E-02
         0.18414E-02
         0.24548E-02
         0.26024E-02
         0.37964E-02
         0.39100E-02
         0.34621E-02
         0.29267E-02
         0.22211E-02
         0.13865E-02
         0.47130E-03
        -0.47130E-03
        -0.13865E-02
        -0.22211E-02
        -0.29267E-02
        -0.34621E-02
        -0.37964E-02
        -0.39100E-02
        -0.37964E-02
        -0.34621E-02
        -0.29267E-02
        -0.22211E-02
        -0.13865E-02
        -0.47130E-03
         0.47130E-03
         0.13865E-02
         0.22211E-02
         0.29267E-02
         0.34621E-02
         0.37964E-02
         0.10373E-02
         0.17445E-02
         0.23172E-02
         0.16689E-02
         0.30376E-02
         0.27805E-02
         0.12846E-02
         0.65041E-03
         0.12652E-03
        -0.12896E-03
         0.94367E-03
         0.11313E-02
         0.17475E-02
         0.40566E-03
         0.39772E-03
        -0.76444E-03
        -0.86648E-03
         0.45940E-03
        -0.18312E-02
        -0.18436E-02
        -0.27237E-02
        -0.28017E-02
        -0.25371E-02
        -0.19305E-02
        -0.99305E-03
        -0.14394E-02
        -0.31494E-03
        -0.11054E-02
        -0.18843E-02
        -0.18708E-02
        -0.15981E-03
        -0.94328E-03
         0.78592E-03
         0.17209E-02
         0.32063E-02
         0.28045E-02
         0.23055E-02
        -0.40558E-03
        -0.12092E-02
        -0.19446E-02
        -0.25027E-02
        -0.26367E-02
        -0.27658E-02
        -0.21129E-02
        -0.16089E-02
        -0.11943E-02
        -0.58781E-03
         0.20749E-03
         0.10574E-02
         0.18415E-02
         0.24549E-02
         0.26025E-02
         0.37964E-02
         0.39100E-02
         0.34621E-02
         0.29267E-02
         0.22211E-02
         0.13865E-02
         0.47130E-03
        -0.47130E-03
        -0.13865E-02
        -0.22211E-02
        -0.29267E-02
        -0.34621E-02
        -0.37964E-02
        -0.39100E-02
        -0.37964E-02
        -0.34621E-02
        -0.29267E-02
        -0.22211E-02
        -0.13865E-02
        -0.47130E-03
         0.47130E-03
         0.13865E-02
         0.22211E-02
         0.29267E-02
         0.34621E-02
         0.37964E-02
         0.10372E-02
         0.17443E-02
         0.23171E-02
         0.16687E-02
         0.30376E-02
         0.27808E-02
         0.12845E-02
         0.65016E-03
         0.12626E-03
        -0.12915E-03
         0.94334E-03
         0.11310E-02
         0.17471E-02
         0.40561E-03
         0.39770E-03
        -0.76480E-03
        -0.86659E-03
         0.45895E-03
        -0.18315E-02
        -0.18435E-02
        -0.27237E-02
        -0.28014E-02
        -0.25372E-02
        -0.19309E-02
        -0.99291E-03
        -0.14398E-02
        -0.31474E-03
        -0.11051E-02
        -0.18843E-02
        -0.18706E-02
        -0.16009E-03
        -0.94388E-03
         0.78526E-03
         0.17208E-02
         0.32066E-02
         0.28045E-02
         0.23053E-02
        -0.40545E-03
        -0.12092E-02
        -0.19446E-02
        -0.25027E-02
        -0.26366E-02
        -0.27655E-02
        -0.21130E-02
        -0.16089E-02
        -0.11944E-02
        -0.58816E-03
         0.20709E-03
         0.10571E-02
         0.18415E-02
         0.24550E-02
         0.26025E-02
         0.37964E-02
         0.39100E-02
         0.34621E-02
         0.29267E-02
         0.22211E-02
         0.13865E-02
         0.47130E-03
        -0.47130E-03
        -0.13865E-02
        -0.22211E-02
        -0.29267E-02
        -0.34621E-02
        -0.37964E-02
        -0.39100E-02
        -0.37964E-02
        -0.34621E-02
        -0.29267E-02
        -0.22211E-02
        -0.13865E-02
        -0.47130E-03
         0.47130E-03
         0.13865E-02
         0.22211E-02
         0.29267E-02
         0.34621E-02
         0.37964E-02
         0.10371E-02
         0.17441E-02
         0.23169E-02
         0.16685E-02
         0.30376E-02
         0.27812E-02
         0.12844E-02
         0.64992E-03
         0.12600E-03
        -0.12933E-03
         0.94301E-03
         0.11306E-02
         0.17467E-02
         0.40556E-03
         0.39769E-03
        -0.76515E-03
        -0.86670E-03
         0.45850E-03
        -0.18318E-02
        -0.18434E-02
        -0.27236E-02
        -0.28011E-02
        -0.25374E-02
        -0.19313E-02
        -0.99277E-03
        -0.14401E-02
        -0.31454E-03
        -0.11047E-02
        -0.18842E-02
        -0.18705E-02
        -0.16036E-03
        -0.94448E-03
         0.78460E-03
         0.17208E-02
         0.32070E-02
         0.28045E-02
         0.23052E-02
        -0.40531E-03
        -0.12092E-02
        -0.19445E-02
        -0.25027E-02
        -0.26366E-02
        -0.27652E-02
        -0.21132E-02
        -0.16090E-02
        -0.11946E-02
        -0.58851E-03
         0.20668E-03
         0.10567E-02
         0.18416E-02
         0.24551E-02
         0.26026E-02
         0.37964E-02
         0.39100E-02
         0.34621E-02
         0.29267E-02
         0.22211E-02
         0.13865E-02
         0.47130E-03
        -0.47130E-03
        -0.13865E-02
        -0.22211E-02
        -0.29267E-02
        -0.34621E-02
        -0.37964E-02
        -0.39100E-02
        -0.37964E-02
        -0.34621E-02
        -0.29267E-02
        -0.22211E-02
        -0.13865E-02
        -0.47130E-03
         0.47130E-03
         0.13865E-02
         0.22211E-02
         0.29267E-02
         0.34621E-02
         0.37964E-02
         0.10370E-02
         0.17439E-02
         0.23168E-02
         0.16683E-02
         0.30375E-02
         0.27815E-02
         0.12843E-02
         0.64967E-03
         0.12573E-03
        -0.12952E-03
         0.94268E-03
         0.11303E-02
         0.17463E-02
         0.40550E-03
         0.39767E-03
        -0.76551E-03
        -0.86680E-03
         0.45806E-03
        -0.18321E-02
        -0.18433E-02
        -0.27236E-02
        -0.28009E-02
        -0.25375E-02
        -0.19317E-02
        -0.99262E-03
        -0.14405E-02
        -0.31434E-03
        -0.11044E-02
        -0.18842E-02
        -0.18704E-02
        -0.16064E-03
        -0.94508E-03
         0.78394E-03
         0.17208E-02
         0.32073E-02
         0.28045E-02
         0.23051E-02
        -0.40517E-03
        -0.12092E-02
        -0.19445E-02
        -0.25026E-02
        -0.26365E-02
        -0.27649E-02
        -0.21133E-02
        -0.16090E-02
        -0.11947E-02
        -0.58886E-03
         0.20627E-03
         0.10564E-02
         0.18416E-02
         0.24553E-02
         0.26027E-02
         0.37964E-02
         0.39100E-02
         0.34621E-02
         0.29267E-02
         0.22211E-02
         0.13865E-02
         0.47130E-03
        -0.47130E-03
        -0.13865E-02
        -0.22211E-02
        -0.29267E-02
        -0.34621E-02
        -0.37964E-02
        -0.39100E-02
        -0.37964E-02
        -0.34621E-02
        -0.29267E-02
        -0.22211E-02
        -0.13865E-02
        -0.47130E-03
         0.47130E-03
         0.13865E-02
         0.22211E-02
         0.29267E-02
         0.34621E-02
         0.37964E-02
         0.10368E-02
         0.17438E-02
         0.23167E-02
         0.16681E-02
         0.30375E-02
         0.27819E-02
         0.12842E-02
         0.64943E-03
         0.12547E-03
        -0.12970E-03
         0.94235E-03
         0.11300E-02
         0.17459E-02
         0.40545E-03
         0.39766E-03
        -0.76586E-03
        -0.86691E-03
         0.45761E-03
        -0.18324E-02
        -0.18432E-02
        -0.27236E-02
        -0.28006E-02
        -0.25377E-02
        -0.19322E-02
        -0.99248E-03
        -0.14408E-02
        -0.31414E-03
        -0.11040E-02
        -0.18841E-02
        -0.18703E-02
        -0.16091E-03
        -0.94568E-03
         0.78328E-03
         0.17207E-02
         0.32076E-02
         0.28044E-02
         0.23050E-02
        -0.40503E-03
        -0.12092E-02
        -0.19445E-02
        -0.25026E-02
        -0.26364E-02
        -0.27646E-02
        -0.21134E-02
        -0.16091E-02
        -0.11948E-02
        -0.58921E-03
         0.20587E-03
         0.10561E-02
         0.18416E-02
         0.24554E-02
         0.26027E-02
         0.37964E-02
         0.39100E-02
         0.34621E-02
         0.29267E-02
         0.22211E-02
         0.13865E-02
         0.47130E-03
        -0.47130E-03
        -0.13865E-02
        -0.22211E-02
        -0.29267E-02
        -0.34621E-02
        -0.37964E-02
        -0.39100E-02
        -0.37964E-02
        -0.34621E-02
        -0.29267E-02
        -0.22211E-02
        -0.13865E-02
        -0.47130E-03
         0.47130E-03
         0.13865E-02
         0.22211E-02
         0.29267E-02
         0.34621E-02
         0.37964E-02
         0.10367E-02
         0.17436E-02
         0.23166E-02
         0.16679E-02
         0.30375E-02
         0.27822E-02
         0.12841E-02
         0.64918E-03
         0.12521E-03
        -0.12989E-03
         0.94202E-03
         0.11296E-02
         0.17455E-02
         0.40539E-03
         0.39764E-03
        -0.76621E-03
        -0.86702E-03
         0.45716E-03
        -0.18326E-02
        -0.18431E-02
        -0.27235E-02
        -0.28003E-02
        -0.25379E-02
        -0.19326E-02
        -0.99233E-03
        -0.14412E-02
        -0.31394E-03
        -0.11037E-02
        -0.18841E-02
        -0.18701E-02
        -0.16119E-03
        -0.94628E-03
         0.78262E-03
         0.17207E-02
         0.32079E-02
         0.28044E-02
         0.23049E-02
        -0.40490E-03
        -0.12093E-02
        -0.19444E-02
        -0.25026E-02
        -0.26363E-02
        -0.27643E-02
        -0.21136E-02
        -0.16091E-02
        -0.11949E-02
        -0.58956E-03
         0.20546E-03
         0.10558E-02
         0.18417E-02
         0.24555E-02
         0.26028E-02
         0.37964E-02
         0.39100E-02
         0.34621E-02
         0.29267E-02
         0.22211E-02
         0.13865E-02
         0.47130E-03
        -0.47130E-03
        -0.13865E-02
        -0.22211E-02
        -0.29267E-02
        -0.34621E-02
        -0.37964E-02
        -0.39100E-02
        -0.37964E-02
        -0.34621E-02
        -0.29267E-02
        -0.22211E-02
        -0.13865E-02
        -0.47130E-03
         0.47130E-03
         0.13865E-02
         0.22211E-02
         0.29267E-02
         0.34621E-02
         0.37964E-02
         0.10366E-02
         0.17434E-02
         0.23164E-02
         0.16677E-02
         0.30375E-02
         0.27825E-02
         0.12840E-02
         0.64894E-03
         0.12495E-03
        -0.13007E-03
         0.94169E-03
         0.11293E-02
         0.17451E-02
         0.40534E-03
         0.39762E-03
        -0.76657E-03
        -0.86713E-03
         0.45671E-03
        -0.18329E-02
        -0.18430E-02
        -0.27235E-02
        -0.28001E-02
        -0.25380E-02
        -0.19330E-02
        -0.99219E-03
        -0.14415E-02
        -0.31374E-03
        -0.11033E-02
        -0.18840E-02
        -0.18700E-02
        -0.16146E-03
        -0.94687E-03
         0.78195E-03
         0.17207E-02
         0.32083E-02
         0.28044E-02
         0.23048E-02
        -0.40476E-03
        -0.12093E-02
        -0.19444E-02
        -0.25026E-02
        -0.26362E-02
        -0.27640E-02
        -0.21137E-02
        -0.16091E-02
        -0.11950E-02
        -0.58991E-03
         0.20505E-03
         0.10555E-02
         0.18417E-02
         0.24556E-02
         0.26029E-02
         0.37964E-02
         0.39100E-02
         0.34621E-02
         0.29267E-02
         0.22211E-02
         0.13865E-02
         0.47130E-03
        -0.47130E-03
        -0.13865E-02
        -0.22211E-02
        -0.29267E-02
        -0.34621E-02
        -0.37964E-02
        -0.39100E-02
        -0.37964E-02
        -0.34621E-02
        -0.29267E-02
        -0.22211E-02
        -0.13865E-02
        -0.47130E-03
         0.47130E-03
         0.13865E-02
         0.22211E-02
         0.29267E-02
         0.34621E-02
         0.37964E-02
         0.10365E-02
         0.17432E-02
         0.23163E-02
         0.16675E-02
         0.30374E-02
         0.27829E-02
         0.12839E-02
         0.64869E-03
         0.12468E-03
        -0.13026E-03
         0.94135E-03
         0.11289E-02
         0.17447E-02
         0.40528E-03
         0.39760E-03
        -0.76692E-03
        -0.86724E-03
         0.45626E-03
        -0.18332E-02
        -0.18430E-02
        -0.27235E-02
        -0.27998E-02
        -0.25382E-02
        -0.19334E-02
        -0.99205E-03
        -0.14419E-02
        -0.31354E-03
        -0.11030E-02
        -0.18840E-02
        -0.18699E-02
        -0.16174E-03
        -0.94747E-03
         0.78129E-03
         0.17206E-02
         0.32086E-02
         0.28044E-02
         0.23047E-02
        -0.40462E-03
        -0.12093E-02
        -0.19444E-02
        -0.25025E-02
        -0.26361E-02
        -0.27637E-02
        -0.21139E-02
        -0.16092E-02
        -0.11951E-02
        -0.59025E-03
         0.20465E-03
         0.10552E-02
         0.18418E-02
         0.24558E-02
         0.26030E-02
         0.37964E-02
         0.39100E-02
         0.34621E-02
         0.29267E-02
         0.22211E-02
         0.13865E-02
         0.47130E-03
        -0.47130E-03
        -0.13865E-02
        -0.22211E-02
        -0.29267E-02
        -0.34621E-02
        -0.37964E-02
        -0.39100E-02
        -0.37964E-02
        -0.34621E-02
        -0.29267E-02
        -0.22211E-02
        -0.13865E-02
        -0.47130E-03
         0.47130E-03
         0.13865E-02
         0.22211E-02
         0.29267E-02
         0.34621E-02
         0.37964E-02
         0.10364E-02
         0.17430E-02
         0.23162E-02
         0.16672E-02
         0.30374E-02
         0.27832E-02
         0.12838E-02
         0.64845E-03
         0.12442E-03
        -0.13044E-03
         0.94102E-03
         0.11286E-02
         0.17443E-02
         0.40523E-03
         0.39759E-03
        -0.76727E-03
        -0.86735E-03
         0.45582E-03
        -0.18335E-02
        -0.18429E-02
        -0.27235E-02
        -0.27995E-02
        -0.25383E-02
        -0.19339E-02
        -0.99190E-03
        -0.14422E-02
        -0.31334E-03
        -0.11026E-02
        -0.18839E-02
        -0.18697E-02
        -0.16201E-03
        -0.94807E-03
         0.78063E-03
         0.17206E-02
         0.32089E-02
         0.28043E-02
         0.23046E-02
        -0.40448E-03
        -0.12093E-02
        -0.19443E-02
        -0.25025E-02
        -0.26360E-02
        -0.27633E-02
        -0.21140E-02
        -0.16092E-02
        -0.11953E-02
        -0.59060E-03
         0.20424E-03
         0.10549E-02
         0.18418E-02
         0.24559E-02
         0.26030E-02
         0.37964E-02
         0.39100E-02
         0.34621E-02
         0.29267E-02
         0.22211E-02
         0.13865E-02
         0.47130E-03
        -0.47130E-03
        -0.13865E-02
        -0.22211E-02
        -0.29267E-02
        -0.34621E-02
        -0.37964E-02
        -0.39100E-02
        -0.37964E-02
        -0.34621E-02
        -0.29267E-02
        -0.22211E-02
        -0.13865E-02
        -0.47130E-03
         0.47130E-03
         0.13865E-02
         0.22211E-02
         0.29267E-02
         0.34621E-02
         0.37964E-02
         0.10363E-02
         0.17429E-02
         0.23161E-02
         0.16670E-02
         0.30374E-02
         0.27836E-02
         0.12837E-02
         0.64820E-03
         0.12416E-03
        -0.13063E-03
         0.94069E-03
         0.11282E-02
         0.17439E-02
         0.40518E-03
         0.39757E-03
        -0.76763E-03
        -0.86746E-03
         0.45537E-03
        -0.18338E-02
        -0.18428E-02
        -0.27234E-02
        -0.27992E-02
        -0.25385E-02
        -0.19343E-02
        -0.99176E-03
        -0.14425E-02
        -0.31314E-03
        -0.11023E-02
        -0.18839E-02
        -0.18696E-02
        -0.16229E-03
        -0.94867E-03
         0.77997E-03
         0.17205E-02
         0.32092E-02
         0.28043E-02
         0.23044E-02
        -0.40434E-03
        -0.12093E-02
        -0.19443E-02
        -0.25025E-02
        -0.26359E-02
        -0.27630E-02
        -0.21141E-02
        -0.16093E-02
        -0.11954E-02
        -0.59095E-03
         0.20384E-03
         0.10546E-02
         0.18419E-02
         0.24560E-02
         0.26031E-02
         0.37964E-02
         0.39100E-02
         0.34621E-02
         0.29267E-02
         0.22211E-02
         0.13865E-02
         0.47130E-03
        -0.47130E-03
        -0.13865E-02
        -0.22211E-02
        -0.29267E-02
        -0.34621E-02
        -0.37964E-02
        -0.39100E-02
        -0.37964E-02
        -0.34621E-02
        -0.29267E-02
        -0.22211E-02
        -0.13865E-02
        -0.47130E-03
         0.47130E-03
         0.13865E-02
         0.22211E-02
         0.29267E-02
         0.34621E-02
         0.37964E-02
         0.10362E-02
         0.17427E-02
         0.23160E-02
         0.16668E-02
         0.30373E-02
         0.27839E-02
         0.12836E-02
         0.64796E-03
         0.12390E-03
        -0.13082E-03
         0.94036E-03
         0.11279E-02
         0.17435E-02
         0.40512E-03
         0.39755E-03
        -0.76798E-03
        -0.86756E-03
         0.45492E-03
        -0.18341E-02
        -0.18427E-02
        -0.27234E-02
        -0.27990E-02
        -0.25386E-02
        -0.19347E-02
        -0.99161E-03
        -0.14429E-02
        -0.31294E-03
        -0.11019E-02
        -0.18838E-02
        -0.18695E-02
        -0.16256E-03
        -0.94927E-03
         0.77931E-03
         0.17205E-02
         0.32096E-02
         0.28043E-02
         0.23043E-02
        -0.40420E-03
        -0.12093E-02
        -0.19443E-02
        -0.25024E-02
        -0.26358E-02
        -0.27627E-02
        -0.21143E-02
        -0.16093E-02
        -0.11955E-02
        -0.59130E-03
         0.20343E-03
         0.10543E-02
         0.18419E-02
         0.24561E-02
         0.26032E-02
         0.37964E-02
         0.39100E-02
         0.34621E-02
         0.29267E-02
         0.22211E-02
         0.13865E-02
         0.47130E-03
        -0.47130E-03
        -0.13865E-02
        -0.22211E-02
        -0.29267E-02
        -0.34621E-02
        -0.37964E-02
        -0.39100E-02
        -0.37964E-02
        -0.34621E-02
        -0.29267E-02
        -0.22211E-02
        -0.13865E-02
        -0.47130E-03
         0.47130E-03
         0.13865E-02
         0.22211E-02
         0.29267E-02
         0.34621E-02
         0.37964E-02
         0.10360E-02
         0.17425E-02
         0.23158E-02
         0.16666E-02
         0.30373E-02
         0.27842E-02
         0.12835E-02
         0.64771E-03
         0.12363E-03
        -0.13100E-03
         0.94003E-03
         0.11276E-02
         0.17432E-02
         0.40507E-03
         0.39754E-03
        -0.76834E-03
        -0.86767E-03
         0.45447E-03
        -0.18344E-02
        -0.18426E-02
        -0.27234E-02
        -0.27987E-02
        -0.25388E-02
        -0.19352E-02
        -0.99147E-03
        -0.14433E-02
        -0.31274E-03
        -0.11016E-02
        -0.18838E-02
        -0.18694E-02
        -0.16284E-03
        -0.94986E-03
         0.77865E-03
         0.17205E-02
         0.32099E-02
         0.28042E-02
         0.23042E-02
        -0.40407E-03
        -0.12093E-02
        -0.19442E-02
        -0.25024E-02
        -0.26358E-02
        -0.27624E-02
        -0.21144E-02
        -0.16094E-02
        -0.11956E-02
        -0.59165E-03
         0.20302E-03
         0.10540E-02
         0.18419E-02
         0.24563E-02
         0.26033E-02
         0.37964E-02
         0.39100E-02
         0.34621E-02
         0.29267E-02
         0.22211E-02
         0.13865E-02
         0.47130E-03
        -0.47130E-03
        -0.13865E-02
        -0.22211E-02
        -0.29267E-02
        -0.34621E-02
        -0.37964E-02
        -0.39100E-02
        -0.37964E-02
        -0.34621E-02
        -0.29267E-02
        -0.22211E-02
        -0.13865E-02
        -0.47130E-03
         0.47130E-03
         0.13865E-02
         0.22211E-02
         0.29267E-02
         0.34621E-02
         0.37964E-02
         0.10359E-02
         0.17423E-02
         0.23157E-02
         0.16664E-02
         0.30373E-02
         0.27846E-02
         0.12834E-02
         0.64747E-03
         0.12337E-03
        -0.13118E-03
         0.93970E-03
         0.11272E-02
         0.17428E-02
         0.40501E-03
         0.39752E-03
        -0.76869E-03
        -0.86778E-03
         0.45402E-03
        -0.18347E-02
        -0.18425E-02
        -0.27234E-02
        -0.27984E-02
        -0.25389E-02
        -0.19356E-02
        -0.99133E-03
        -0.14436E-02
        -0.31254E-03
        -0.11013E-02
        -0.18837E-02
        -0.18692E-02
        -0.16311E-03
        -0.95046E-03
         0.77799E-03
         0.17204E-02
         0.32102E-02
         0.28042E-02
         0.23041E-02
        -0.40393E-03
        -0.12093E-02
        -0.19442E-02
        -0.25024E-02
        -0.26357E-02
        -0.27621E-02
        -0.21146E-02
        -0.16094E-02
        -0.11957E-02
        -0.59200E-03
         0.20262E-03
         0.10536E-02
         0.18420E-02
         0.24564E-02
         0.26033E-02
         0.37964E-02
         0.39100E-02
         0.34621E-02
         0.29267E-02
         0.22211E-02
         0.13865E-02
         0.47130E-03
        -0.47130E-03
        -0.13865E-02
        -0.22211E-02
        -0.29267E-02
        -0.34621E-02
        -0.37964E-02
        -0.39100E-02
        -0.37964E-02
        -0.34621E-02
        -0.29267E-02
        -0.22211E-02
        -0.13865E-02
        -0.47130E-03
         0.47130E-03
         0.13865E-02
         0.22211E-02
         0.29267E-02
         0.34621E-02
         0.37964E-02
         0.10358E-02
         0.17422E-02
         0.23156E-02
         0.16662E-02
         0.30373E-02
         0.27849E-02
         0.12833E-02
         0.64722E-03
         0.12311E-03
        -0.13137E-03
         0.93937E-03
         0.11269E-02
         0.17424E-02
         0.40496E-03
         0.39750E-03
        -0.76904E-03
        -0.86789E-03
         0.45358E-03
        -0.18350E-02
        -0.18424E-02
        -0.27233E-02
        -0.27981E-02
        -0.25391E-02
        -0.19360E-02
        -0.99118E-03
        -0.14440E-02
        -0.31234E-03
        -0.11009E-02
        -0.18836E-02
        -0.18691E-02
        -0.16339E-03
        -0.95106E-03
         0.77733E-03
         0.17204E-02
         0.32105E-02
         0.28042E-02
         0.23040E-02
        -0.40379E-03
        -0.12093E-02
        -0.19441E-02
        -0.25023E-02
        -0.26356E-02
        -0.27618E-02
        -0.21147E-02
        -0.16094E-02
        -0.11958E-02
        -0.59235E-03
         0.20221E-03
         0.10533E-02
         0.18420E-02
         0.24565E-02
         0.26034E-02
         0.37964E-02
         0.39100E-02
         0.34621E-02
         0.29267E-02
         0.22211E-02
         0.13865E-02
         0.47130E-03
        -0.47130E-03
        -0.13865E-02
        -0.22211E-02
        -0.29267E-02
        -0.34621E-02
        -0.37964E-02
        -0.39100E-02
        -0.37964E-02
        -0.34621E-02
        -0.29267E-02
        -0.22211E-02
        -0.13865E-02
        -0.47130E-03
         0.47130E-03
         0.13865E-02
         0.22211E-02
         0.29267E-02
         0.34621E-02
         0.37964E-02
         0.10357E-02
         0.17420E-02
         0.23155E-02
         0.16660E-02
         0.30372E-02
         0.27853E-02
         0.12832E-02
         0.64698E-03
         0.12285E-03
        -0.13155E-03
         0.93903E-03
         0.11266E-02
         0.17420E-02
         0.40490E-03
         0.39749E-03
        -0.76940E-03
        -0.86800E-03
         0.45313E-03
        -0.18353E-02
        -0.18423E-02
        -0.27233E-02
        -0.27979E-02
        -0.25393E-02
        -0.19365E-02
        -0.99104E-03
        -0.14443E-02
        -0.31214E-03
        -0.11006E-02
        -0.18836E-02
        -0.18690E-02
        -0.16366E-03
        -0.95166E-03
         0.77667E-03
         0.17203E-02
         0.32109E-02
         0.28042E-02
         0.23039E-02
        -0.40365E-03
        -0.12093E-02
        -0.19441E-02
        -0.25023E-02
        -0.26355E-02
        -0.27615E-02
        -0.21148E-02
        -0.16095E-02
        -0.11960E-02
        -0.59270E-03
         0.20180E-03
         0.10530E-02
         0.18421E-02
         0.24566E-02
         0.26035E-02
         0.37964E-02
         0.39100E-02
         0.34621E-02
         0.29267E-02
         0.22211E-02
         0.13865E-02
         0.47130E-03
        -0.47130E-03
        -0.13865E-02
        -0.22211E-02
        -0.29267E-02
        -0.34621E-02
        -0.37964E-02
        -0.39100E-02
        -0.37964E-02
        -0.34621E-02
        -0.29267E-02
        -0.22211E-02
        -0.13865E-02
        -0.47130E-03
         0.47130E-03
         0.13865E-02
         0.22211E-02
         0.29267E-02
         0.34621E-02
         0.37964E-02
         0.10356E-02
         0.17418E-02
         0.23153E-02
         0.16657E-02
         0.30372E-02
         0.27856E-02
         0.12830E-02
         0.64673E-03
         0.12259E-03
        -0.13174E-03
         0.93870E-03
         0.11262E-02
         0.17416E-02
         0.40485E-03
         0.39747E-03
        -0.76975E-03
        -0.86811E-03
         0.45268E-03
        -0.18356E-02
        -0.18422E-02
        -0.27233E-02
        -0.27976E-02
        -0.25394E-02
        -0.19369E-02
        -0.99090E-03
        -0.14446E-02
        -0.31194E-03
        -0.11002E-02
        -0.18835E-02
        -0.18689E-02
        -0.16394E-03
        -0.95226E-03
         0.77601E-03
         0.17203E-02
         0.32112E-02
         0.28042E-02
         0.23038E-02
        -0.40352E-03
        -0.12093E-02
        -0.19441E-02
        -0.25023E-02
        -0.26354E-02
        -0.27612E-02
        -0.21150E-02
        -0.16095E-02
        -0.11961E-02
        -0.59305E-03
         0.20140E-03
         0.10527E-02
         0.18421E-02
         0.24568E-02
         0.26036E-02
         0.37964E-02
         0.39100E-02
         0.34621E-02
         0.29267E-02
         0.22211E-02
         0.13865E-02
         0.47130E-03
        -0.47130E-03
        -0.13865E-02
        -0.22211E-02
        -0.29267E-02
        -0.34621E-02
        -0.37964E-02
        -0.39100E-02
        -0.37964E-02
        -0.34621E-02
        -0.29267E-02
        -0.22211E-02
        -0.13865E-02
        -0.47130E-03
         0.47130E-03
         0.13865E-02
         0.22211E-02
         0.29267E-02
         0.34621E-02
         0.37964E-02
         0.10355E-02
         0.17416E-02
         0.23152E-02
         0.16655E-02
         0.30372E-02
         0.27860E-02
         0.12829E-02
         0.64649E-03
         0.12232E-03
        -0.13193E-03
         0.93837E-03
         0.11259E-02
         0.17412E-02
         0.40480E-03
         0.39745E-03
        -0.77011E-03
        -0.86822E-03
         0.45223E-03
        -0.18359E-02
        -0.18421E-02
        -0.27232E-02
        -0.27973E-02
        -0.25396E-02
        -0.19373E-02
        -0.99075E-03
        -0.14450E-02
        -0.31173E-03
        -0.10999E-02
        -0.18835E-02
        -0.18687E-02
        -0.16421E-03
        -0.95285E-03
         0.77535E-03
         0.17202E-02
         0.32115E-02
         0.28041E-02
         0.23037E-02
        -0.40338E-03
        -0.12093E-02
        -0.19440E-02
        -0.25023E-02
        -0.26353E-02
        -0.27609E-02
        -0.21151E-02
        -0.16096E-02
        -0.11962E-02
        -0.59340E-03
         0.20099E-03
         0.10524E-02
         0.18422E-02
         0.24569E-02
         0.26036E-02
         0.37964E-02
         0.39100E-02
         0.34621E-02
         0.29267E-02
         0.22211E-02
         0.13865E-02
         0.47130E-03
        -0.47130E-03
        -0.13865E-02
        -0.22211E-02
        -0.29267E-02
        -0.34621E-02
        -0.37964E-02
        -0.39100E-02
        -0.37964E-02
        -0.34621E-02
        -0.29267E-02
        -0.22211E-02
        -0.13865E-02
        -0.47130E-03
         0.47130E-03
         0.13865E-02
         0.22211E-02
         0.29267E-02
         0.34621E-02
         0.37964E-02
         0.10354E-02
         0.17414E-02
         0.23151E-02
         0.16653E-02
         0.30372E-02
         0.27863E-02
         0.12829E-02
         0.64624E-03
         0.12206E-03
        -0.13211E-03
         0.93804E-03
         0.11255E-02
         0.17408E-02
         0.40474E-03
         0.39744E-03
        -0.77046E-03
        -0.86832E-03
         0.45179E-03
        -0.18362E-02
        -0.18420E-02
        -0.27232E-02
        -0.27970E-02
        -0.25397E-02
        -0.19377E-02
        -0.99061E-03
        -0.14453E-02
        -0.31153E-03
        -0.10995E-02
        -0.18834E-02
        -0.18686E-02
        -0.16449E-03
        -0.95345E-03
         0.77469E-03
         0.17202E-02
         0.32119E-02
         0.28041E-02
         0.23036E-02
        -0.40324E-03
        -0.12093E-02
        -0.19440E-02
        -0.25022E-02
        -0.26352E-02
        -0.27606E-02
        -0.21152E-02
        -0.16096E-02
        -0.11963E-02
        -0.59375E-03
         0.20059E-03
         0.10521E-02
         0.18422E-02
         0.24570E-02
         0.26037E-02
         0.37964E-02
         0.39100E-02
         0.34621E-02
         0.29267E-02
         0.22211E-02
         0.13865E-02
         0.47130E-03
        -0.47130E-03
        -0.13865E-02
        -0.22211E-02
        -0.29267E-02
        -0.34621E-02
        -0.37964E-02
        -0.39100E-02
        -0.37964E-02
        -0.34621E-02
        -0.29267E-02
        -0.22211E-02
        -0.13865E-02
        -0.47130E-03
         0.47130E-03
         0.13865E-02
         0.22211E-02
         0.29267E-02
         0.34621E-02
         0.37964E-02
         0.10352E-02
         0.17413E-02
         0.23150E-02
         0.16651E-02
         0.30371E-02
         0.27866E-02
         0.12827E-02
         0.64600E-03
         0.12180E-03
        -0.13230E-03
         0.93771E-03
         0.11252E-02
         0.17404E-02
         0.40469E-03
         0.39742E-03
        -0.77081E-03
        -0.86843E-03
         0.45134E-03
        -0.18365E-02
        -0.18419E-02
        -0.27232E-02
        -0.27968E-02
        -0.25399E-02
        -0.19382E-02
        -0.99046E-03
        -0.14457E-02
        -0.31133E-03
        -0.10992E-02
        -0.18834E-02
        -0.18685E-02
        -0.16476E-03
        -0.95405E-03
         0.77402E-03
         0.17202E-02
         0.32122E-02
         0.28041E-02
         0.23034E-02
        -0.40310E-03
        -0.12093E-02
        -0.19440E-02
        -0.25022E-02
        -0.26351E-02
        -0.27602E-02
        -0.21154E-02
        -0.16097E-02
        -0.11964E-02
        -0.59409E-03
         0.20018E-03
         0.10518E-02
         0.18422E-02
         0.24571E-02
         0.26038E-02
         0.37964E-02
         0.39100E-02
         0.34621E-02
         0.29267E-02
         0.22211E-02
         0.13865E-02
         0.47130E-03
        -0.47130E-03
        -0.13865E-02
        -0.22211E-02
        -0.29267E-02
        -0.34621E-02
        -0.37964E-02
        -0.39100E-02
        -0.37964E-02
        -0.34621E-02
        -0.29267E-02
        -0.22211E-02
        -0.13865E-02
        -0.47130E-03
         0.47130E-03
         0.13865E-02
         0.22211E-02
         0.29267E-02
         0.34621E-02
         0.37964E-02
         0.10351E-02
         0.17411E-02
         0.23149E-02
         0.16649E-02
         0.30371E-02
         0.27870E-02
         0.12826E-02
         0.64575E-03
         0.12154E-03
        -0.13248E-03
         0.93738E-03
         0.11249E-02
         0.17400E-02
         0.40463E-03
         0.39740E-03
        -0.77117E-03
        -0.86854E-03
         0.45089E-03
        -0.18368E-02
        -0.18418E-02
        -0.27232E-02
        -0.27965E-02
        -0.25400E-02
        -0.19386E-02
        -0.99032E-03
        -0.14460E-02
        -0.31113E-03
        -0.10988E-02
        -0.18833E-02
        -0.18683E-02
        -0.16504E-03
        -0.95465E-03
         0.77336E-03
         0.17201E-02
         0.32125E-02
         0.28041E-02
         0.23033E-02
        -0.40296E-03
        -0.12093E-02
        -0.19439E-02
        -0.25022E-02
        -0.26350E-02
        -0.27599E-02
        -0.21155E-02
        -0.16097E-02
        -0.11965E-02
        -0.59444E-03
         0.19977E-03
         0.10515E-02
         0.18423E-02
         0.24573E-02
         0.26039E-02
         0.37964E-02
         0.39100E-02
         0.34621E-02
         0.29267E-02
         0.22211E-02
         0.13865E-02
         0.47130E-03
        -0.47130E-03
        -0.13865E-02
        -0.22211E-02
        -0.29267E-02
        -0.34621E-02
        -0.37964E-02
        -0.39100E-02
        -0.37964E-02
        -0.34621E-02
        -0.29267E-02
        -0.22211E-02
        -0.13865E-02
        -0.47130E-03
         0.47130E-03
         0.13865E-02
         0.22211E-02
         0.29267E-02
         0.34621E-02
         0.37964E-02
  
SCALARS           initial_coordinate_y  double 1
LOOKUP_TABLE default
         0.67292E-03
         0.12308E-02
         0.59151E-03
        -0.33775E-03
         0.67237E-03
         0.12301E-02
         0.59098E-03
        -0.33851E-03
         0.14882E-03
        -0.67643E-03
         0.14846E-03
        -0.67692E-03
         0.18412E-02
         0.14576E-02
         0.18410E-02
         0.14566E-02
         0.29933E-03
         0.11672E-02
         0.29819E-03
         0.11655E-02
         0.22748E-02
         0.28286E-02
         0.24238E-02
         0.22746E-02
         0.28291E-02
         0.24236E-02
         0.21685E-02
         0.29366E-02
         0.21684E-02
         0.29369E-02
        -0.10033E-02
         0.78969E-04
        -0.70318E-03
        -0.10032E-02
         0.78160E-04
        -0.70391E-03
        -0.71196E-03
         0.82749E-04
        -0.71210E-03
         0.82626E-04
        -0.77865E-03
         0.40713E-04
        -0.77882E-03
         0.40439E-04
        -0.15195E-02
        -0.13230E-02
        -0.15195E-02
        -0.13231E-02
         0.98847E-03
         0.98712E-03
        -0.17325E-02
        -0.17325E-02
         0.20220E-02
         0.20217E-02
         0.18615E-02
         0.18616E-02
         0.17175E-02
         0.90940E-03
         0.17175E-02
         0.90916E-03
        -0.19800E-02
        -0.23489E-02
        -0.19800E-02
        -0.23489E-02
        -0.17074E-02
        -0.17074E-02
        -0.14894E-02
        -0.14892E-02
         0.76036E-03
         0.12477E-02
         0.75936E-03
         0.12473E-02
         0.18665E-02
         0.18664E-02
         0.29038E-02
         0.29049E-02
         0.27207E-02
         0.27212E-02
         0.24642E-02
         0.24645E-02
         0.22359E-02
         0.16503E-02
         0.22359E-02
         0.16503E-02
         0.87493E-03
         0.87466E-03
        -0.21373E-02
        -0.21373E-02
        -0.26931E-02
        -0.26931E-02
        -0.31291E-02
        -0.30382E-02
        -0.31291E-02
        -0.30382E-02
        -0.28748E-02
        -0.28748E-02
        -0.26423E-02
        -0.26420E-02
        -0.23707E-02
        -0.23705E-02
        -0.21445E-02
        -0.15105E-02
        -0.21439E-02
        -0.15106E-02
         0.93572E-03
         0.00000E+00
         0.93572E-03
         0.00000E+00
         0.18171E-02
         0.18171E-02
         0.25928E-02
         0.25928E-02
         0.32179E-02
         0.32179E-02
         0.36559E-02
         0.36559E-02
         0.38815E-02
         0.38815E-02
         0.38815E-02
         0.38815E-02
         0.36559E-02
         0.36559E-02
         0.32179E-02
         0.32179E-02
         0.25928E-02
         0.25928E-02
         0.18171E-02
         0.18171E-02
         0.93572E-03
         0.93572E-03
         0.22152E-17
        -0.47884E-18
        -0.93572E-03
        -0.93572E-03
        -0.18171E-02
        -0.18171E-02
        -0.25928E-02
        -0.25928E-02
        -0.32179E-02
        -0.32179E-02
        -0.36559E-02
        -0.36559E-02
        -0.38815E-02
        -0.38815E-02
        -0.38815E-02
        -0.38815E-02
        -0.36559E-02
        -0.36559E-02
        -0.32179E-02
        -0.32179E-02
        -0.25928E-02
        -0.25928E-02
        -0.18171E-02
        -0.18171E-02
        -0.93572E-03
        -0.93572E-03
         0.67348E-03
         0.12314E-02
         0.59203E-03
        -0.33700E-03
         0.14918E-03
        -0.67594E-03
         0.18414E-02
         0.14586E-02
         0.30048E-03
         0.11690E-02
         0.22749E-02
         0.28282E-02
         0.24239E-02
         0.21685E-02
         0.29364E-02
        -0.10035E-02
         0.79778E-04
        -0.70245E-03
        -0.71182E-03
         0.82873E-04
        -0.77848E-03
         0.40986E-04
        -0.15194E-02
        -0.13228E-02
         0.98983E-03
        -0.17324E-02
         0.20223E-02
         0.18614E-02
         0.17175E-02
         0.90964E-03
        -0.19800E-02
        -0.23489E-02
        -0.17074E-02
        -0.14896E-02
         0.76137E-03
         0.12481E-02
         0.18665E-02
         0.29027E-02
         0.27202E-02
         0.24640E-02
         0.22359E-02
         0.16503E-02
         0.87519E-03
        -0.21373E-02
        -0.26932E-02
        -0.31291E-02
        -0.30382E-02
        -0.28748E-02
        -0.26426E-02
        -0.23709E-02
        -0.21450E-02
        -0.15104E-02
         0.93572E-03
         0.00000E+00
         0.18171E-02
         0.25928E-02
         0.32179E-02
         0.36559E-02
         0.38815E-02
         0.38815E-02
         0.36559E-02
         0.32179E-02
         0.25928E-02
         0.18171E-02
         0.93572E-03
        -0.47884E-18
        -0.93572E-03
        -0.18171E-02
        -0.25928E-02
        -0.32179E-02
        -0.36559E-02
        -0.38815E-02
        -0.38815E-02
        -0.36559E-02
        -0.32179E-02
        -0.25928E-02
        -0.18171E-02
        -0.93572E-03
         0.67403E-03
         0.12321E-02
         0.59255E-03
        -0.33624E-03
         0.14955E-03
        -0.67544E-03
         0.18415E-02
         0.14596E-02
         0.30163E-03
         0.11707E-02
         0.22750E-02
         0.28277E-02
         0.24241E-02
         0.21685E-02
         0.29361E-02
        -0.10036E-02
         0.80588E-04
        -0.70173E-03
        -0.71168E-03
         0.82996E-04
        -0.77831E-03
         0.41259E-04
        -0.15194E-02
        -0.13227E-02
         0.99119E-03
        -0.17324E-02
         0.20226E-02
         0.18613E-02
         0.17175E-02
         0.90988E-03
        -0.19801E-02
        -0.23490E-02
        -0.17074E-02
        -0.14899E-02
         0.76237E-03
         0.12485E-02
         0.18666E-02
         0.29017E-02
         0.27198E-02
         0.24638E-02
         0.22359E-02
         0.16503E-02
         0.87545E-03
        -0.21374E-02
        -0.26932E-02
        -0.31291E-02
        -0.30382E-02
        -0.28748E-02
        -0.26428E-02
        -0.23711E-02
        -0.21456E-02
        -0.15103E-02
         0.93572E-03
         0.00000E+00
         0.18171E-02
         0.25928E-02
         0.32179E-02
         0.36559E-02
         0.38815E-02
         0.38815E-02
         0.36559E-02
         0.32179E-02
         0.25928E-02
         0.18171E-02
         0.93572E-03
         0.39516E-17
        -0.93572E-03
        -0.18171E-02
        -0.25928E-02
        -0.32179E-02
        -0.36559E-02
        -0.38815E-02
        -0.38815E-02
        -0.36559E-02
        -0.32179E-02
        -0.25928E-02
        -0.18171E-02
        -0.93572E-03
         0.67459E-03
         0.12328E-02
         0.59308E-03
        -0.33549E-03
         0.14991E-03
        -0.67495E-03
         0.18417E-02
         0.14606E-02
         0.30278E-03
         0.11725E-02
         0.22752E-02
         0.28273E-02
         0.24242E-02
         0.21686E-02
         0.29359E-02
        -0.10038E-02
         0.81397E-04
        -0.70100E-03
        -0.71154E-03
         0.83120E-04
        -0.77814E-03
         0.41533E-04
        -0.15193E-02
        -0.13227E-02
         0.99254E-03
        -0.17324E-02
         0.20228E-02
         0.18611E-02
         0.17175E-02
         0.91012E-03
        -0.19801E-02
        -0.23490E-02
        -0.17074E-02
        -0.14901E-02
         0.76338E-03
         0.12490E-02
         0.18666E-02
         0.29006E-02
         0.27193E-02
         0.24636E-02
         0.22359E-02
         0.16503E-02
         0.87571E-03
        -0.21374E-02
        -0.26932E-02
        -0.31291E-02
        -0.30382E-02
        -0.28748E-02
        -0.26431E-02
        -0.23713E-02
        -0.21461E-02
        -0.15102E-02
         0.93572E-03
         0.00000E+00
         0.18171E-02
         0.25928E-02
         0.32179E-02
         0.36559E-02
         0.38815E-02
         0.38815E-02
         0.36559E-02
         0.32179E-02
         0.25928E-02
         0.18171E-02
         0.93572E-03
        -0.47884E-18
        -0.93572E-03
        -0.18171E-02
        -0.25928E-02
        -0.32179E-02
        -0.36559E-02
        -0.38815E-02
        -0.38815E-02
        -0.36559E-02
        -0.32179E-02
        -0.25928E-02
        -0.18171E-02
        -0.93572E-03
         0.67514E-03
         0.12334E-02
         0.59360E-03
        -0.33474E-03
         0.15027E-03
        -0.67446E-03
         0.18419E-02
         0.14616E-02
         0.30393E-03
         0.11742E-02
         0.22753E-02
         0.28269E-02
         0.24244E-02
         0.21686E-02
         0.29356E-02
        -0.10039E-02
         0.82206E-04
        -0.70028E-03
        -0.71140E-03
         0.83243E-04
        -0.77797E-03
         0.41806E-04
        -0.15193E-02
        -0.13226E-02
         0.99390E-03
        -0.17323E-02
         0.20231E-02
         0.18610E-02
         0.17175E-02
         0.91036E-03
        -0.19801E-02
        -0.23490E-02
        -0.17074E-02
        -0.14904E-02
         0.76439E-03
         0.12494E-02
         0.18666E-02
         0.28995E-02
         0.27188E-02
         0.24633E-02
         0.22359E-02
         0.16503E-02
         0.87597E-03
        -0.21374E-02
        -0.26932E-02
        -0.31291E-02
        -0.30382E-02
        -0.28748E-02
        -0.26434E-02
        -0.23715E-02
        -0.21467E-02
        -0.15101E-02
         0.93572E-03
         0.00000E+00
         0.18171E-02
         0.25928E-02
         0.32179E-02
         0.36559E-02
         0.38815E-02
         0.38815E-02
         0.36559E-02
         0.32179E-02
         0.25928E-02
         0.18171E-02
         0.93572E-03
        -0.47884E-18
        -0.93572E-03
        -0.18171E-02
        -0.25928E-02
        -0.32179E-02
        -0.36559E-02
        -0.38815E-02
        -0.38815E-02
        -0.36559E-02
        -0.32179E-02
        -0.25928E-02
        -0.18171E-02
        -0.93572E-03
         0.67570E-03
         0.12341E-02
         0.59412E-03
        -0.33398E-03
         0.15064E-03
        -0.67396E-03
         0.18421E-02
         0.14626E-02
         0.30507E-03
         0.11760E-02
         0.22754E-02
         0.28264E-02
         0.24245E-02
         0.21686E-02
         0.29353E-02
        -0.10040E-02
         0.83015E-04
        -0.69955E-03
        -0.71126E-03
         0.83367E-04
        -0.77780E-03
         0.42080E-04
        -0.15192E-02
        -0.13224E-02
         0.99526E-03
        -0.17323E-02
         0.20234E-02
         0.18609E-02
         0.17175E-02
         0.91060E-03
        -0.19801E-02
        -0.23490E-02
        -0.17074E-02
        -0.14906E-02
         0.76539E-03
         0.12498E-02
         0.18667E-02
         0.28984E-02
         0.27184E-02
         0.24631E-02
         0.22359E-02
         0.16503E-02
         0.87623E-03
        -0.21374E-02
        -0.26932E-02
        -0.31291E-02
        -0.30382E-02
        -0.28748E-02
        -0.26436E-02
        -0.23717E-02
        -0.21472E-02
        -0.15100E-02
         0.93572E-03
         0.00000E+00
         0.18171E-02
         0.25928E-02
         0.32179E-02
         0.36559E-02
         0.38815E-02
         0.38815E-02
         0.36559E-02
         0.32179E-02
         0.25928E-02
         0.18171E-02
         0.93572E-03
        -0.47884E-18
        -0.93572E-03
        -0.18171E-02
        -0.25928E-02
        -0.32179E-02
        -0.36559E-02
        -0.38815E-02
        -0.38815E-02
        -0.36559E-02
        -0.32179E-02
        -0.25928E-02
        -0.18171E-02
        -0.93572E-03
         0.67625E-03
         0.12348E-02
         0.59465E-03
        -0.33323E-03
         0.15100E-03
        -0.67347E-03
         0.18423E-02
         0.14636E-02
         0.30622E-03
         0.11777E-02
         0.22755E-02
         0.28260E-02
         0.24247E-02
         0.21687E-02
         0.29351E-02
        -0.10042E-02
         0.83825E-04
        -0.69882E-03
        -0.71112E-03
         0.83490E-04
        -0.77763E-03
         0.42353E-04
        -0.15192E-02
        -0.13223E-02
         0.99661E-03
        -0.17322E-02
         0.20237E-02
         0.18607E-02
         0.17175E-02
         0.91084E-03
        -0.19801E-02
        -0.23491E-02
        -0.17074E-02
        -0.14909E-02
         0.76640E-03
         0.12503E-02
         0.18667E-02
         0.28974E-02
         0.27179E-02
         0.24629E-02
         0.22359E-02
         0.16503E-02
         0.87650E-03
        -0.21374E-02
        -0.26933E-02
        -0.31291E-02
        -0.30382E-02
        -0.28749E-02
        -0.26439E-02
        -0.23719E-02
        -0.21478E-02
        -0.15099E-02
         0.93572E-03
         0.00000E+00
         0.18171E-02
         0.25928E-02
         0.32179E-02
         0.36559E-02
         0.38815E-02
         0.38815E-02
         0.36559E-02
         0.32179E-02
         0.25928E-02
         0.18171E-02
         0.93572E-03
        -0.47884E-18
        -0.93572E-03
        -0.18171E-02
        -0.25928E-02
        -0.32179E-02
        -0.36559E-02
        -0.38815E-02
        -0.38815E-02
        -0.36559E-02
        -0.32179E-02
        -0.25928E-02
        -0.18171E-02
        -0.93572E-03
         0.67680E-03
         0.12354E-02
         0.59517E-03
        -0.33247E-03
         0.15136E-03
        -0.67298E-03
         0.18425E-02
         0.14646E-02
         0.30737E-03
         0.11795E-02
         0.22757E-02
         0.28255E-02
         0.24248E-02
         0.21687E-02
         0.29348E-02
        -0.10043E-02
         0.84634E-04
        -0.69810E-03
        -0.71098E-03
         0.83614E-04
        -0.77746E-03
         0.42626E-04
        -0.15191E-02
        -0.13223E-02
         0.99797E-03
        -0.17322E-02
         0.20240E-02
         0.18606E-02
         0.17175E-02
         0.91108E-03
        -0.19802E-02
        -0.23491E-02
        -0.17074E-02
        -0.14911E-02
         0.76740E-03
         0.12507E-02
         0.18668E-02
         0.28963E-02
         0.27174E-02
         0.24627E-02
         0.22358E-02
         0.16503E-02
         0.87676E-03
        -0.21374E-02
        -0.26933E-02
        -0.31291E-02
        -0.30382E-02
        -0.28749E-02
        -0.26442E-02
        -0.23721E-02
        -0.21483E-02
        -0.15097E-02
         0.93572E-03
         0.00000E+00
         0.18171E-02
         0.25928E-02
         0.32179E-02
         0.36559E-02
         0.38815E-02
         0.38815E-02
         0.36559E-02
         0.32179E-02
         0.25928E-02
         0.18171E-02
         0.93572E-03
        -0.47884E-18
        -0.93572E-03
        -0.18171E-02
        -0.25928E-02
        -0.32179E-02
        -0.36559E-02
        -0.38815E-02
        -0.38815E-02
        -0.36559E-02
        -0.32179E-02
        -0.25928E-02
        -0.18171E-02
        -0.93572E-03
         0.67736E-03
         0.12361E-02
         0.59570E-03
        -0.33172E-03
         0.15173E-03
        -0.67248E-03
         0.18427E-02
         0.14656E-02
         0.30852E-03
         0.11812E-02
         0.22758E-02
         0.28251E-02
         0.24249E-02
         0.21688E-02
         0.29345E-02
        -0.10044E-02
         0.85443E-04
        -0.69737E-03
        -0.71084E-03
         0.83737E-04
        -0.77729E-03
         0.42899E-04
        -0.15191E-02
        -0.13222E-02
         0.99932E-03
        -0.17322E-02
         0.20243E-02
         0.18605E-02
         0.17175E-02
         0.91132E-03
        -0.19802E-02
        -0.23491E-02
        -0.17074E-02
        -0.14914E-02
         0.76841E-03
         0.12511E-02
         0.18668E-02
         0.28952E-02
         0.27170E-02
         0.24624E-02
         0.22358E-02
         0.16503E-02
         0.87702E-03
        -0.21374E-02
        -0.26933E-02
        -0.31291E-02
        -0.30382E-02
        -0.28749E-02
        -0.26444E-02
        -0.23723E-02
        -0.21489E-02
        -0.15096E-02
         0.93572E-03
         0.00000E+00
         0.18171E-02
         0.25928E-02
         0.32179E-02
         0.36559E-02
         0.38815E-02
         0.38815E-02
         0.36559E-02
         0.32179E-02
         0.25928E-02
         0.18171E-02
         0.93572E-03
        -0.47884E-18
        -0.93572E-03
        -0.18171E-02
        -0.25928E-02
        -0.32179E-02
        -0.36559E-02
        -0.38815E-02
        -0.38815E-02
        -0.36559E-02
        -0.32179E-02
        -0.25928E-02
        -0.18171E-02
        -0.93572E-03
         0.67791E-03
         0.12368E-02
         0.59622E-03
        -0.33096E-03
         0.15209E-03
        -0.67199E-03
         0.18429E-02
         0.14666E-02
         0.30967E-03
         0.11830E-02
         0.22759E-02
         0.28247E-02
         0.24251E-02
         0.21688E-02
         0.29343E-02
        -0.10046E-02
         0.86253E-04
        -0.69665E-03
        -0.71070E-03
         0.83861E-04
        -0.77712E-03
         0.43173E-04
        -0.15190E-02
        -0.13220E-02
         0.10007E-02
        -0.17321E-02
         0.20245E-02
         0.18603E-02
         0.17175E-02
         0.91156E-03
        -0.19802E-02
        -0.23491E-02
        -0.17074E-02
        -0.14916E-02
         0.76941E-03
         0.12515E-02
         0.18668E-02
         0.28942E-02
         0.27165E-02
         0.24622E-02
         0.22358E-02
         0.16503E-02
         0.87728E-03
        -0.21374E-02
        -0.26933E-02
        -0.31291E-02
        -0.30382E-02
        -0.28749E-02
        -0.26447E-02
        -0.23725E-02
        -0.21494E-02
        -0.15095E-02
         0.93572E-03
         0.00000E+00
         0.18171E-02
         0.25928E-02
         0.32179E-02
         0.36559E-02
         0.38815E-02
         0.38815E-02
         0.36559E-02
         0.32179E-02
         0.25928E-02
         0.18171E-02
         0.93572E-03
        -0.47884E-18
        -0.93572E-03
        -0.18171E-02
        -0.25928E-02
        -0.32179E-02
        -0.36559E-02
        -0.38815E-02
        -0.38815E-02
        -0.36559E-02
        -0.32179E-02
        -0.25928E-02
        -0.18171E-02
        -0.93572E-03
         0.67847E-03
         0.12374E-02
         0.59674E-03
        -0.33021E-03
         0.15245E-03
        -0.67150E-03
         0.18430E-02
         0.14676E-02
         0.31081E-03
         0.11847E-02
         0.22761E-02
         0.28242E-02
         0.24252E-02
         0.21688E-02
         0.29340E-02
        -0.10047E-02
         0.87062E-04
        -0.69592E-03
        -0.71056E-03
         0.83985E-04
        -0.77695E-03
         0.43446E-04
        -0.15190E-02
        -0.13219E-02
         0.10020E-02
        -0.17321E-02
         0.20248E-02
         0.18602E-02
         0.17175E-02
         0.91180E-03
        -0.19803E-02
        -0.23491E-02
        -0.17073E-02
        -0.14919E-02
         0.77042E-03
         0.12520E-02
         0.18669E-02
         0.28931E-02
         0.27160E-02
         0.24620E-02
         0.22358E-02
         0.16503E-02
         0.87754E-03
        -0.21374E-02
        -0.26933E-02
        -0.31291E-02
        -0.30382E-02
        -0.28749E-02
        -0.26450E-02
        -0.23727E-02
        -0.21500E-02
        -0.15094E-02
         0.93572E-03
         0.00000E+00
         0.18171E-02
         0.25928E-02
         0.32179E-02
         0.36559E-02
         0.38815E-02
         0.38815E-02
         0.36559E-02
         0.32179E-02
         0.25928E-02
         0.18171E-02
         0.93572E-03
         0.39516E-17
        -0.93572E-03
        -0.18171E-02
        -0.25928E-02
        -0.32179E-02
        -0.36559E-02
        -0.38815E-02
        -0.38815E-02
        -0.36559E-02
        -0.32179E-02
        -0.25928E-02
        -0.18171E-02
        -0.93572E-03
         0.67902E-03
         0.12381E-02
         0.59727E-03
        -0.32945E-03
         0.15282E-03
        -0.67100E-03
         0.18432E-02
         0.14686E-02
         0.31196E-03
         0.11865E-02
         0.22762E-02
         0.28238E-02
         0.24254E-02
         0.21688E-02
         0.29337E-02
        -0.10049E-02
         0.87871E-04
        -0.69519E-03
        -0.71042E-03
         0.84108E-04
        -0.77678E-03
         0.43720E-04
        -0.15189E-02
        -0.13219E-02
         0.10034E-02
        -0.17320E-02
         0.20251E-02
         0.18601E-02
         0.17175E-02
         0.91204E-03
        -0.19803E-02
        -0.23492E-02
        -0.17073E-02
        -0.14921E-02
         0.77142E-03
         0.12524E-02
         0.18669E-02
         0.28920E-02
         0.27155E-02
         0.24618E-02
         0.22358E-02
         0.16503E-02
         0.87781E-03
        -0.21374E-02
        -0.26934E-02
        -0.31291E-02
        -0.30382E-02
        -0.28749E-02
        -0.26452E-02
        -0.23729E-02
        -0.21505E-02
        -0.15093E-02
         0.93572E-03
         0.00000E+00
         0.18171E-02
         0.25928E-02
         0.32179E-02
         0.36559E-02
         0.38815E-02
         0.38815E-02
         0.36559E-02
         0.32179E-02
         0.25928E-02
         0.18171E-02
         0.93572E-03
        -0.47884E-18
        -0.93572E-03
        -0.18171E-02
        -0.25928E-02
        -0.32179E-02
        -0.36559E-02
        -0.38815E-02
        -0.38815E-02
        -0.36559E-02
        -0.32179E-02
        -0.25928E-02
        -0.18171E-02
        -0.93572E-03
         0.67958E-03
         0.12387E-02
         0.59779E-03
        -0.32870E-03
         0.15318E-03
        -0.67051E-03
         0.18434E-02
         0.14696E-02
         0.31311E-03
         0.11882E-02
         0.22763E-02
         0.28233E-02
         0.24255E-02
         0.21689E-02
         0.29335E-02
        -0.10050E-02
         0.88681E-04
        -0.69447E-03
        -0.71028E-03
         0.84232E-04
        -0.77661E-03
         0.43993E-04
        -0.15189E-02
        -0.13218E-02
         0.10048E-02
        -0.17320E-02
         0.20254E-02
         0.18599E-02
         0.17175E-02
         0.91228E-03
        -0.19803E-02
        -0.23492E-02
        -0.17073E-02
        -0.14923E-02
         0.77243E-03
         0.12528E-02
         0.18670E-02
         0.28910E-02
         0.27151E-02
         0.24615E-02
         0.22358E-02
         0.16503E-02
         0.87807E-03
        -0.21374E-02
        -0.26934E-02
        -0.31291E-02
        -0.30382E-02
        -0.28749E-02
        -0.26455E-02
        -0.23732E-02
        -0.21511E-02
        -0.15092E-02
         0.93572E-03
         0.00000E+00
         0.18171E-02
         0.25928E-02
         0.32179E-02
         0.36559E-02
         0.38815E-02
         0.38815E-02
         0.36559E-02
         0.32179E-02
         0.25928E-02
         0.18171E-02
         0.93572E-03
         0.22152E-17
        -0.93572E-03
        -0.18171E-02
        -0.25928E-02
        -0.32179E-02
        -0.36559E-02
        -0.38815E-02
        -0.38815E-02
        -0.36559E-02
        -0.32179E-02
        -0.25928E-02
        -0.18171E-02
        -0.93572E-03
         0.68013E-03
         0.12394E-02
         0.59831E-03
        -0.32794E-03
         0.15354E-03
        -0.67002E-03
         0.18436E-02
         0.14706E-02
         0.31426E-03
         0.11900E-02
         0.22765E-02
         0.28229E-02
         0.24257E-02
         0.21689E-02
         0.29332E-02
        -0.10051E-02
         0.89490E-04
        -0.69374E-03
        -0.71013E-03
         0.84355E-04
        -0.77644E-03
         0.44266E-04
        -0.15188E-02
        -0.13216E-02
         0.10061E-02
        -0.17320E-02
         0.20257E-02
         0.18598E-02
         0.17175E-02
         0.91252E-03
        -0.19803E-02
        -0.23492E-02
        -0.17073E-02
        -0.14926E-02
         0.77343E-03
         0.12533E-02
         0.18670E-02
         0.28899E-02
         0.27146E-02
         0.24613E-02
         0.22358E-02
         0.16503E-02
         0.87833E-03
        -0.21374E-02
        -0.26934E-02
        -0.31291E-02
        -0.30382E-02
        -0.28750E-02
        -0.26458E-02
        -0.23734E-02
        -0.21516E-02
        -0.15091E-02
         0.93572E-03
         0.00000E+00
         0.18171E-02
         0.25928E-02
         0.32179E-02
         0.36559E-02
         0.38815E-02
         0.38815E-02
         0.36559E-02
         0.32179E-02
         0.25928E-02
         0.18171E-02
         0.93572E-03
        -0.47884E-18
        -0.93572E-03
        -0.18171E-02
        -0.25928E-02
        -0.32179E-02
        -0.36559E-02
        -0.38815E-02
        -0.38815E-02
        -0.36559E-02
        -0.32179E-02
        -0.25928E-02
        -0.18171E-02
        -0.93572E-03
         0.68068E-03
         0.12401E-02
         0.59884E-03
        -0.32719E-03
         0.15391E-03
        -0.66953E-03
         0.18438E-02
         0.14716E-02
         0.31541E-03
         0.11917E-02
         0.22766E-02
         0.28225E-02
         0.24258E-02
         0.21690E-02
         0.29330E-02
        -0.10053E-02
         0.90299E-04
        -0.69302E-03
        -0.70999E-03
         0.84479E-04
        -0.77627E-03
         0.44540E-04
        -0.15188E-02
        -0.13215E-02
         0.10075E-02
        -0.17319E-02
         0.20260E-02
         0.18597E-02
         0.17175E-02
         0.91276E-03
        -0.19804E-02
        -0.23493E-02
        -0.17073E-02
        -0.14928E-02
         0.77444E-03
         0.12537E-02
         0.18670E-02
         0.28888E-02
         0.27141E-02
         0.24611E-02
         0.22358E-02
         0.16503E-02
         0.87859E-03
        -0.21374E-02
        -0.26934E-02
        -0.31291E-02
        -0.30382E-02
        -0.28750E-02
        -0.26460E-02
        -0.23736E-02
        -0.21521E-02
        -0.15090E-02
         0.93572E-03
         0.00000E+00
         0.18171E-02
         0.25928E-02
         0.32179E-02
         0.36559E-02
         0.38815E-02
         0.38815E-02
         0.36559E-02
         0.32179E-02
         0.25928E-02
         0.18171E-02
         0.93572E-03
         0.22152E-17
        -0.93572E-03
        -0.18171E-02
        -0.25928E-02
        -0.32179E-02
        -0.36559E-02
        -0.38815E-02
        -0.38815E-02
        -0.36559E-02
        -0.32179E-02
        -0.25928E-02
        -0.18171E-02
        -0.93572E-03
         0.68124E-03
         0.12407E-02
         0.59936E-03
        -0.32643E-03
         0.15427E-03
        -0.66903E-03
         0.18440E-02
         0.14727E-02
         0.31656E-03
         0.11935E-02
         0.22767E-02
         0.28220E-02
         0.24260E-02
         0.21690E-02
         0.29327E-02
        -0.10054E-02
         0.91108E-04
        -0.69229E-03
        -0.70985E-03
         0.84602E-04
        -0.77610E-03
         0.44813E-04
        -0.15187E-02
        -0.13215E-02
         0.10088E-02
        -0.17319E-02
         0.20262E-02
         0.18595E-02
         0.17175E-02
         0.91300E-03
        -0.19804E-02
        -0.23493E-02
        -0.17073E-02
        -0.14931E-02
         0.77544E-03
         0.12541E-02
         0.18671E-02
         0.28877E-02
         0.27137E-02
         0.24609E-02
         0.22358E-02
         0.16503E-02
         0.87885E-03
        -0.21374E-02
        -0.26934E-02
        -0.31291E-02
        -0.30382E-02
        -0.28750E-02
        -0.26463E-02
        -0.23738E-02
        -0.21527E-02
        -0.15088E-02
         0.93572E-03
         0.00000E+00
         0.18171E-02
         0.25928E-02
         0.32179E-02
         0.36559E-02
         0.38815E-02
         0.38815E-02
         0.36559E-02
         0.32179E-02
         0.25928E-02
         0.18171E-02
         0.93572E-03
        -0.47884E-18
        -0.93572E-03
        -0.18171E-02
        -0.25928E-02
        -0.32179E-02
        -0.36559E-02
        -0.38815E-02
        -0.38815E-02
        -0.36559E-02
        -0.32179E-02
        -0.25928E-02
        -0.18171E-02
        -0.93572E-03
         0.68179E-03
         0.12414E-02
         0.59988E-03
        -0.32568E-03
         0.15463E-03
        -0.66854E-03
         0.18442E-02
         0.14736E-02
         0.31770E-03
         0.11952E-02
         0.22768E-02
         0.28216E-02
         0.24261E-02
         0.21690E-02
         0.29324E-02
        -0.10056E-02
         0.91918E-04
        -0.69156E-03
        -0.70971E-03
         0.84726E-04
        -0.77593E-03
         0.45086E-04
        -0.15187E-02
        -0.13213E-02
         0.10102E-02
        -0.17318E-02
         0.20265E-02
         0.18594E-02
         0.17175E-02
         0.91324E-03
        -0.19804E-02
        -0.23493E-02
        -0.17073E-02
        -0.14933E-02
         0.77645E-03
         0.12545E-02
         0.18671E-02
         0.28867E-02
         0.27132E-02
         0.24606E-02
         0.22358E-02
         0.16503E-02
         0.87912E-03
        -0.21374E-02
        -0.26935E-02
        -0.31291E-02
        -0.30381E-02
        -0.28750E-02
        -0.26466E-02
        -0.23740E-02
        -0.21533E-02
        -0.15087E-02
         0.93572E-03
         0.00000E+00
         0.18171E-02
         0.25928E-02
         0.32179E-02
         0.36559E-02
         0.38815E-02
         0.38815E-02
         0.36559E-02
         0.32179E-02
         0.25928E-02
         0.18171E-02
         0.93572E-03
        -0.47884E-18
        -0.93572E-03
        -0.18171E-02
        -0.25928E-02
        -0.32179E-02
        -0.36559E-02
        -0.38815E-02
        -0.38815E-02
        -0.36559E-02
        -0.32179E-02
        -0.25928E-02
        -0.18171E-02
        -0.93572E-03
         0.68235E-03
         0.12421E-02
         0.60041E-03
        -0.32493E-03
         0.15500E-03
        -0.66805E-03
         0.18444E-02
         0.14747E-02
         0.31885E-03
         0.11970E-02
         0.22770E-02
         0.28211E-02
         0.24262E-02
         0.21691E-02
         0.29322E-02
        -0.10057E-02
         0.92727E-04
        -0.69084E-03
        -0.70957E-03
         0.84849E-04
        -0.77576E-03
         0.45359E-04
        -0.15186E-02
        -0.13212E-02
         0.10115E-02
        -0.17318E-02
         0.20268E-02
         0.18593E-02
         0.17175E-02
         0.91347E-03
        -0.19804E-02
        -0.23493E-02
        -0.17073E-02
        -0.14936E-02
         0.77745E-03
         0.12550E-02
         0.18671E-02
         0.28856E-02
         0.27127E-02
         0.24604E-02
         0.22358E-02
         0.16503E-02
         0.87938E-03
        -0.21374E-02
        -0.26935E-02
        -0.31291E-02
        -0.30381E-02
        -0.28750E-02
        -0.26468E-02
        -0.23742E-02
        -0.21538E-02
        -0.15086E-02
         0.93572E-03
         0.00000E+00
         0.18171E-02
         0.25928E-02
         0.32179E-02
         0.36559E-02
         0.38815E-02
         0.38815E-02
         0.36559E-02
         0.32179E-02
         0.25928E-02
         0.18171E-02
         0.93572E-03
        -0.47884E-18
        -0.93572E-03
        -0.18171E-02
        -0.25928E-02
        -0.32179E-02
        -0.36559E-02
        -0.38815E-02
        -0.38815E-02
        -0.36559E-02
        -0.32179E-02
        -0.25928E-02
        -0.18171E-02
        -0.93572E-03
         0.68290E-03
         0.12427E-02
         0.60093E-03
        -0.32417E-03
         0.15536E-03
        -0.66755E-03
         0.18445E-02
         0.14757E-02
         0.32000E-03
         0.11987E-02
         0.22771E-02
         0.28207E-02
         0.24264E-02
         0.21691E-02
         0.29319E-02
        -0.10058E-02
         0.93536E-04
        -0.69011E-03
        -0.70943E-03
         0.84973E-04
        -0.77559E-03
         0.45633E-04
        -0.15186E-02
        -0.13212E-02
         0.10129E-02
        -0.17318E-02
         0.20271E-02
         0.18592E-02
         0.17175E-02
         0.91371E-03
        -0.19805E-02
        -0.23493E-02
        -0.17073E-02
        -0.14938E-02
         0.77846E-03
         0.12554E-02
         0.18672E-02
         0.28845E-02
         0.27122E-02
         0.24602E-02
         0.22358E-02
         0.16502E-02
         0.87964E-03
        -0.21374E-02
        -0.26935E-02
        -0.31291E-02
        -0.30381E-02
        -0.28750E-02
        -0.26471E-02
        -0.23744E-02
        -0.21543E-02
        -0.15085E-02
         0.93572E-03
         0.00000E+00
         0.18171E-02
         0.25928E-02
         0.32179E-02
         0.36559E-02
         0.38815E-02
         0.38815E-02
         0.36559E-02
         0.32179E-02
         0.25928E-02
         0.18171E-02
         0.93572E-03
        -0.47884E-18
        -0.93572E-03
        -0.18171E-02
        -0.25928E-02
        -0.32179E-02
        -0.36559E-02
        -0.38815E-02
        -0.38815E-02
        -0.36559E-02
        -0.32179E-02
        -0.25928E-02
        -0.18171E-02
        -0.93572E-03
         0.68346E-03
         0.12434E-02
         0.60145E-03
        -0.32342E-03
         0.15572E-03
        -0.66706E-03
         0.18447E-02
         0.14767E-02
         0.32115E-03
         0.12005E-02
         0.22772E-02
         0.28203E-02
         0.24265E-02
         0.21691E-02
         0.29316E-02
        -0.10060E-02
         0.94345E-04
        -0.68939E-03
        -0.70929E-03
         0.85096E-04
        -0.77542E-03
         0.45906E-04
        -0.15185E-02
        -0.13211E-02
         0.10142E-02
        -0.17317E-02
         0.20274E-02
         0.18590E-02
         0.17175E-02
         0.91395E-03
        -0.19805E-02
        -0.23494E-02
        -0.17073E-02
        -0.14941E-02
         0.77946E-03
         0.12558E-02
         0.18672E-02
         0.28835E-02
         0.27118E-02
         0.24600E-02
         0.22358E-02
         0.16502E-02
         0.87990E-03
        -0.21374E-02
        -0.26935E-02
        -0.31291E-02
        -0.30381E-02
        -0.28750E-02
        -0.26474E-02
        -0.23746E-02
        -0.21549E-02
        -0.15084E-02
         0.93572E-03
         0.00000E+00
         0.18171E-02
         0.25928E-02
         0.32179E-02
         0.36559E-02
         0.38815E-02
         0.38815E-02
         0.36559E-02
         0.32179E-02
         0.25928E-02
         0.18171E-02
         0.93572E-03
         0.22152E-17
        -0.93572E-03
        -0.18171E-02
        -0.25928E-02
        -0.32179E-02
        -0.36559E-02
        -0.38815E-02
        -0.38815E-02
        -0.36559E-02
        -0.32179E-02
        -0.25928E-02
        -0.18171E-02
        -0.93572E-03
         0.68401E-03
         0.12440E-02
         0.60198E-03
        -0.32266E-03
         0.15609E-03
        -0.66657E-03
         0.18449E-02
         0.14777E-02
         0.32230E-03
         0.12022E-02
         0.22774E-02
         0.28198E-02
         0.24267E-02
         0.21692E-02
         0.29314E-02
        -0.10061E-02
         0.95155E-04
        -0.68866E-03
        -0.70915E-03
         0.85220E-04
        -0.77525E-03
         0.46180E-04
        -0.15185E-02
        -0.13210E-02
         0.10156E-02
        -0.17317E-02
         0.20277E-02
         0.18589E-02
         0.17175E-02
         0.91419E-03
        -0.19805E-02
        -0.23494E-02
        -0.17073E-02
        -0.14943E-02
         0.78047E-03
         0.12563E-02
         0.18672E-02
         0.28824E-02
         0.27113E-02
         0.24597E-02
         0.22358E-02
         0.16502E-02
         0.88016E-03
        -0.21374E-02
        -0.26935E-02
        -0.31291E-02
        -0.30381E-02
        -0.28751E-02
        -0.26476E-02
        -0.23748E-02
        -0.21554E-02
        -0.15083E-02
         0.93572E-03
         0.00000E+00
         0.18171E-02
         0.25928E-02
         0.32179E-02
         0.36559E-02
         0.38815E-02
         0.38815E-02
         0.36559E-02
         0.32179E-02
         0.25928E-02
         0.18171E-02
         0.93572E-03
        -0.47884E-18
        -0.93572E-03
        -0.18171E-02
        -0.25928E-02
        -0.32179E-02
        -0.36559E-02
        -0.38815E-02
        -0.38815E-02
        -0.36559E-02
        -0.32179E-02
        -0.25928E-02
        -0.18171E-02
        -0.93572E-03
         0.68457E-03
         0.12447E-02
         0.60250E-03
        -0.32191E-03
         0.15645E-03
        -0.66607E-03
         0.18451E-02
         0.14787E-02
         0.32345E-03
         0.12040E-02
         0.22775E-02
         0.28194E-02
         0.24268E-02
         0.21692E-02
         0.29311E-02
        -0.10062E-02
         0.95964E-04
        -0.68793E-03
        -0.70901E-03
         0.85343E-04
        -0.77507E-03
         0.46453E-04
        -0.15184E-02
        -0.13209E-02
         0.10169E-02
        -0.17316E-02
         0.20280E-02
         0.18588E-02
         0.17175E-02
         0.91443E-03
        -0.19806E-02
        -0.23494E-02
        -0.17073E-02
        -0.14945E-02
         0.78148E-03
         0.12567E-02
         0.18673E-02
         0.28813E-02
         0.27108E-02
         0.24595E-02
         0.22358E-02
         0.16502E-02
         0.88043E-03
        -0.21374E-02
        -0.26936E-02
        -0.31291E-02
        -0.30381E-02
        -0.28751E-02
        -0.26479E-02
        -0.23750E-02
        -0.21560E-02
        -0.15082E-02
         0.93572E-03
         0.00000E+00
         0.18171E-02
         0.25928E-02
         0.32179E-02
         0.36559E-02
         0.38815E-02
         0.38815E-02
         0.36559E-02
         0.32179E-02
         0.25928E-02
         0.18171E-02
         0.93572E-03
        -0.47884E-18
        -0.93572E-03
        -0.18171E-02
        -0.25928E-02
        -0.32179E-02
        -0.36559E-02
        -0.38815E-02
        -0.38815E-02
        -0.36559E-02
        -0.32179E-02
        -0.25928E-02
        -0.18171E-02
        -0.93572E-03
         0.68512E-03
         0.12454E-02
         0.60302E-03
        -0.32115E-03
         0.15681E-03
        -0.66558E-03
         0.18453E-02
         0.14797E-02
         0.32459E-03
         0.12058E-02
         0.22776E-02
         0.28189E-02
         0.24270E-02
         0.21693E-02
         0.29308E-02
        -0.10064E-02
         0.96773E-04
        -0.68721E-03
        -0.70887E-03
         0.85467E-04
        -0.77490E-03
         0.46726E-04
        -0.15184E-02
        -0.13208E-02
         0.10183E-02
        -0.17316E-02
         0.20283E-02
         0.18586E-02
         0.17175E-02
         0.91467E-03
        -0.19806E-02
        -0.23494E-02
        -0.17073E-02
        -0.14948E-02
         0.78248E-03
         0.12571E-02
         0.18673E-02
         0.28802E-02
         0.27103E-02
         0.24593E-02
         0.22358E-02
         0.16502E-02
         0.88069E-03
        -0.21374E-02
        -0.26936E-02
        -0.31291E-02
        -0.30381E-02
        -0.28751E-02
        -0.26482E-02
        -0.23752E-02
        -0.21565E-02
        -0.15081E-02
         0.93572E-03
         0.00000E+00
         0.18171E-02
         0.25928E-02
         0.32179E-02
         0.36559E-02
         0.38815E-02
         0.38815E-02
         0.36559E-02
         0.32179E-02
         0.25928E-02
         0.18171E-02
         0.93572E-03
        -0.47884E-18
        -0.93572E-03
        -0.18171E-02
        -0.25928E-02
        -0.32179E-02
        -0.36559E-02
        -0.38815E-02
        -0.38815E-02
        -0.36559E-02
        -0.32179E-02
        -0.25928E-02
        -0.18171E-02
        -0.93572E-03
         0.68567E-03
         0.12460E-02
         0.60355E-03
        -0.32040E-03
         0.15718E-03
        -0.66509E-03
         0.18455E-02
         0.14807E-02
         0.32574E-03
         0.12075E-02
         0.22777E-02
         0.28185E-02
         0.24271E-02
         0.21693E-02
         0.29306E-02
        -0.10065E-02
         0.97583E-04
        -0.68648E-03
        -0.70873E-03
         0.85591E-04
        -0.77474E-03
         0.47000E-04
        -0.15183E-02
        -0.13207E-02
         0.10197E-02
        -0.17316E-02
         0.20285E-02
         0.18585E-02
         0.17175E-02
         0.91491E-03
        -0.19806E-02
        -0.23495E-02
        -0.17073E-02
        -0.14950E-02
         0.78348E-03
         0.12576E-02
         0.18674E-02
         0.28792E-02
         0.27099E-02
         0.24591E-02
         0.22358E-02
         0.16502E-02
         0.88095E-03
        -0.21374E-02
        -0.26936E-02
        -0.31290E-02
        -0.30381E-02
        -0.28751E-02
        -0.26484E-02
        -0.23754E-02
        -0.21571E-02
        -0.15080E-02
         0.93572E-03
         0.00000E+00
         0.18171E-02
         0.25928E-02
         0.32179E-02
         0.36559E-02
         0.38815E-02
         0.38815E-02
         0.36559E-02
         0.32179E-02
         0.25928E-02
         0.18171E-02
         0.93572E-03
         0.47884E-18
        -0.93572E-03
        -0.18171E-02
        -0.25928E-02
        -0.32179E-02
        -0.36559E-02
        -0.38815E-02
        -0.38815E-02
        -0.36559E-02
        -0.32179E-02
        -0.25928E-02
        -0.18171E-02
        -0.93572E-03
  
SCALARS           initial_coordinate_z  double 1
LOOKUP_TABLE default
        -0.10771E-01
        -0.10771E-01
        -0.10771E-01
        -0.10771E-01
        -0.11750E-01
        -0.11750E-01
        -0.11750E-01
        -0.11750E-01
        -0.10771E-01
        -0.10771E-01
        -0.11750E-01
        -0.11750E-01
        -0.10771E-01
        -0.10771E-01
        -0.11750E-01
        -0.11750E-01
        -0.10771E-01
        -0.10771E-01
        -0.11750E-01
        -0.11750E-01
        -0.10771E-01
        -0.10771E-01
        -0.10771E-01
        -0.11750E-01
        -0.11750E-01
        -0.11750E-01
        -0.10771E-01
        -0.10771E-01
        -0.11750E-01
        -0.11750E-01
        -0.10771E-01
        -0.10771E-01
        -0.10771E-01
        -0.11750E-01
        -0.11750E-01
        -0.11750E-01
        -0.10771E-01
        -0.10771E-01
        -0.11750E-01
        -0.11750E-01
        -0.10771E-01
        -0.10771E-01
        -0.11750E-01
        -0.11750E-01
        -0.10771E-01
        -0.10771E-01
        -0.11750E-01
        -0.11750E-01
        -0.10771E-01
        -0.11750E-01
        -0.10771E-01
        -0.11750E-01
        -0.10771E-01
        -0.11750E-01
        -0.10771E-01
        -0.11750E-01
        -0.10771E-01
        -0.10771E-01
        -0.11750E-01
        -0.11750E-01
        -0.10771E-01
        -0.10771E-01
        -0.11750E-01
        -0.11750E-01
        -0.10771E-01
        -0.11750E-01
        -0.10771E-01
        -0.11750E-01
        -0.10771E-01
        -0.10771E-01
        -0.11750E-01
        -0.11750E-01
        -0.10771E-01
        -0.11750E-01
        -0.10771E-01
        -0.11750E-01
        -0.10771E-01
        -0.11750E-01
        -0.10771E-01
        -0.11750E-01
        -0.10771E-01
        -0.10771E-01
        -0.11750E-01
        -0.11750E-01
        -0.10771E-01
        -0.11750E-01
        -0.10771E-01
        -0.11750E-01
        -0.10771E-01
        -0.11750E-01
        -0.10771E-01
        -0.10771E-01
        -0.11750E-01
        -0.11750E-01
        -0.10771E-01
        -0.11750E-01
        -0.10771E-01
        -0.11750E-01
        -0.10771E-01
        -0.11750E-01
        -0.10771E-01
        -0.10771E-01
        -0.11750E-01
        -0.11750E-01
        -0.10771E-01
        -0.10771E-01
        -0.11750E-01
        -0.11750E-01
        -0.10771E-01
        -0.11750E-01
        -0.10771E-01
        -0.11750E-01
        -0.10771E-01
        -0.11750E-01
        -0.10771E-01
        -0.11750E-01
        -0.10771E-01
        -0.11750E-01
        -0.10771E-01
        -0.11750E-01
        -0.10771E-01
        -0.11750E-01
        -0.10771E-01
        -0.11750E-01
        -0.10771E-01
        -0.11750E-01
        -0.10771E-01
        -0.11750E-01
        -0.10771E-01
        -0.11750E-01
        -0.10771E-01
        -0.11750E-01
        -0.10771E-01
        -0.11750E-01
        -0.10771E-01
        -0.11750E-01
        -0.10771E-01
        -0.11750E-01
        -0.10771E-01
        -0.11750E-01
        -0.10771E-01
        -0.11750E-01
        -0.10771E-01
        -0.11750E-01
        -0.10771E-01
        -0.11750E-01
        -0.10771E-01
        -0.11750E-01
        -0.10771E-01
        -0.11750E-01
        -0.10771E-01
        -0.11750E-01
        -0.10771E-01
        -0.11750E-01
        -0.10771E-01
        -0.11750E-01
        -0.97917E-02
        -0.97917E-02
        -0.97917E-02
        -0.97917E-02
        -0.97917E-02
        -0.97917E-02
        -0.97917E-02
        -0.97917E-02
        -0.97917E-02
        -0.97917E-02
        -0.97917E-02
        -0.97917E-02
        -0.97917E-02
        -0.97917E-02
        -0.97917E-02
        -0.97917E-02
        -0.97917E-02
        -0.97917E-02
        -0.97917E-02
        -0.97917E-02
        -0.97917E-02
        -0.97917E-02
        -0.97917E-02
        -0.97917E-02
        -0.97917E-02
        -0.97917E-02
        -0.97917E-02
        -0.97917E-02
        -0.97917E-02
        -0.97917E-02
        -0.97917E-02
        -0.97917E-02
        -0.97917E-02
        -0.97917E-02
        -0.97917E-02
        -0.97917E-02
        -0.97917E-02
        -0.97917E-02
        -0.97917E-02
        -0.97917E-02
        -0.97917E-02
        -0.97917E-02
        -0.97917E-02
        -0.97917E-02
        -0.97917E-02
        -0.97917E-02
        -0.97917E-02
        -0.97917E-02
        -0.97917E-02
        -0.97917E-02
        -0.97917E-02
        -0.97917E-02
        -0.97917E-02
        -0.97917E-02
        -0.97917E-02
        -0.97917E-02
        -0.97917E-02
        -0.97917E-02
        -0.97917E-02
        -0.97917E-02
        -0.97917E-02
        -0.97917E-02
        -0.97917E-02
        -0.97917E-02
        -0.97917E-02
        -0.97917E-02
        -0.97917E-02
        -0.97917E-02
        -0.97917E-02
        -0.97917E-02
        -0.97917E-02
        -0.97917E-02
        -0.97917E-02
        -0.97917E-02
        -0.97917E-02
        -0.97917E-02
        -0.97917E-02
        -0.97917E-02
        -0.88125E-02
        -0.88125E-02
        -0.88125E-02
        -0.88125E-02
        -0.88125E-02
        -0.88125E-02
        -0.88125E-02
        -0.88125E-02
        -0.88125E-02
        -0.88125E-02
        -0.88125E-02
        -0.88125E-02
        -0.88125E-02
        -0.88125E-02
        -0.88125E-02
        -0.88125E-02
        -0.88125E-02
        -0.88125E-02
        -0.88125E-02
        -0.88125E-02
        -0.88125E-02
        -0.88125E-02
        -0.88125E-02
        -0.88125E-02
        -0.88125E-02
        -0.88125E-02
        -0.88125E-02
        -0.88125E-02
        -0.88125E-02
        -0.88125E-02
        -0.88125E-02
        -0.88125E-02
        -0.88125E-02
        -0.88125E-02
        -0.88125E-02
        -0.88125E-02
        -0.88125E-02
        -0.88125E-02
        -0.88125E-02
        -0.88125E-02
        -0.88125E-02
        -0.88125E-02
        -0.88125E-02
        -0.88125E-02
        -0.88125E-02
        -0.88125E-02
        -0.88125E-02
        -0.88125E-02
        -0.88125E-02
        -0.88125E-02
        -0.88125E-02
        -0.88125E-02
        -0.88125E-02
        -0.88125E-02
        -0.88125E-02
        -0.88125E-02
        -0.88125E-02
        -0.88125E-02
        -0.88125E-02
        -0.88125E-02
        -0.88125E-02
        -0.88125E-02
        -0.88125E-02
        -0.88125E-02
        -0.88125E-02
        -0.88125E-02
        -0.88125E-02
        -0.88125E-02
        -0.88125E-02
        -0.88125E-02
        -0.88125E-02
        -0.88125E-02
        -0.88125E-02
        -0.88125E-02
        -0.88125E-02
        -0.88125E-02
        -0.88125E-02
        -0.88125E-02
        -0.78333E-02
        -0.78333E-02
        -0.78333E-02
        -0.78333E-02
        -0.78333E-02
        -0.78333E-02
        -0.78333E-02
        -0.78333E-02
        -0.78333E-02
        -0.78333E-02
        -0.78333E-02
        -0.78333E-02
        -0.78333E-02
        -0.78333E-02
        -0.78333E-02
        -0.78333E-02
        -0.78333E-02
        -0.78333E-02
        -0.78333E-02
        -0.78333E-02
        -0.78333E-02
        -0.78333E-02
        -0.78333E-02
        -0.78333E-02
        -0.78333E-02
        -0.78333E-02
        -0.78333E-02
        -0.78333E-02
        -0.78333E-02
        -0.78333E-02
        -0.78333E-02
        -0.78333E-02
        -0.78333E-02
        -0.78333E-02
        -0.78333E-02
        -0.78333E-02
        -0.78333E-02
        -0.78333E-02
        -0.78333E-02
        -0.78333E-02
        -0.78333E-02
        -0.78333E-02
        -0.78333E-02
        -0.78333E-02
        -0.78333E-02
        -0.78333E-02
        -0.78333E-02
        -0.78333E-02
        -0.78333E-02
        -0.78333E-02
        -0.78333E-02
        -0.78333E-02
        -0.78333E-02
        -0.78333E-02
        -0.78333E-02
        -0.78333E-02
        -0.78333E-02
        -0.78333E-02
        -0.78333E-02
        -0.78333E-02
        -0.78333E-02
        -0.78333E-02
        -0.78333E-02
        -0.78333E-02
        -0.78333E-02
        -0.78333E-02
        -0.78333E-02
        -0.78333E-02
        -0.78333E-02
        -0.78333E-02
        -0.78333E-02
        -0.78333E-02
        -0.78333E-02
        -0.78333E-02
        -0.78333E-02
        -0.78333E-02
        -0.78333E-02
        -0.78333E-02
        -0.68542E-02
        -0.68542E-02
        -0.68542E-02
        -0.68542E-02
        -0.68542E-02
        -0.68542E-02
        -0.68542E-02
        -0.68542E-02
        -0.68542E-02
        -0.68542E-02
        -0.68542E-02
        -0.68542E-02
        -0.68542E-02
        -0.68542E-02
        -0.68542E-02
        -0.68542E-02
        -0.68542E-02
        -0.68542E-02
        -0.68542E-02
        -0.68542E-02
        -0.68542E-02
        -0.68542E-02
        -0.68542E-02
        -0.68542E-02
        -0.68542E-02
        -0.68542E-02
        -0.68542E-02
        -0.68542E-02
        -0.68542E-02
        -0.68542E-02
        -0.68542E-02
        -0.68542E-02
        -0.68542E-02
        -0.68542E-02
        -0.68542E-02
        -0.68542E-02
        -0.68542E-02
        -0.68542E-02
        -0.68542E-02
        -0.68542E-02
        -0.68542E-02
        -0.68542E-02
        -0.68542E-02
        -0.68542E-02
        -0.68542E-02
        -0.68542E-02
        -0.68542E-02
        -0.68542E-02
        -0.68542E-02
        -0.68542E-02
        -0.68542E-02
        -0.68542E-02
        -0.68542E-02
        -0.68542E-02
        -0.68542E-02
        -0.68542E-02
        -0.68542E-02
        -0.68542E-02
        -0.68542E-02
        -0.68542E-02
        -0.68542E-02
        -0.68542E-02
        -0.68542E-02
        -0.68542E-02
        -0.68542E-02
        -0.68542E-02
        -0.68542E-02
        -0.68542E-02
        -0.68542E-02
        -0.68542E-02
        -0.68542E-02
        -0.68542E-02
        -0.68542E-02
        -0.68542E-02
        -0.68542E-02
        -0.68542E-02
        -0.68542E-02
        -0.68542E-02
        -0.58750E-02
        -0.58750E-02
        -0.58750E-02
        -0.58750E-02
        -0.58750E-02
        -0.58750E-02
        -0.58750E-02
        -0.58750E-02
        -0.58750E-02
        -0.58750E-02
        -0.58750E-02
        -0.58750E-02
        -0.58750E-02
        -0.58750E-02
        -0.58750E-02
        -0.58750E-02
        -0.58750E-02
        -0.58750E-02
        -0.58750E-02
        -0.58750E-02
        -0.58750E-02
        -0.58750E-02
        -0.58750E-02
        -0.58750E-02
        -0.58750E-02
        -0.58750E-02
        -0.58750E-02
        -0.58750E-02
        -0.58750E-02
        -0.58750E-02
        -0.58750E-02
        -0.58750E-02
        -0.58750E-02
        -0.58750E-02
        -0.58750E-02
        -0.58750E-02
        -0.58750E-02
        -0.58750E-02
        -0.58750E-02
        -0.58750E-02
        -0.58750E-02
        -0.58750E-02
        -0.58750E-02
        -0.58750E-02
        -0.58750E-02
        -0.58750E-02
        -0.58750E-02
        -0.58750E-02
        -0.58750E-02
        -0.58750E-02
        -0.58750E-02
        -0.58750E-02
        -0.58750E-02
        -0.58750E-02
        -0.58750E-02
        -0.58750E-02
        -0.58750E-02
        -0.58750E-02
        -0.58750E-02
        -0.58750E-02
        -0.58750E-02
        -0.58750E-02
        -0.58750E-02
        -0.58750E-02
        -0.58750E-02
        -0.58750E-02
        -0.58750E-02
        -0.58750E-02
        -0.58750E-02
        -0.58750E-02
        -0.58750E-02
        -0.58750E-02
        -0.58750E-02
        -0.58750E-02
        -0.58750E-02
        -0.58750E-02
        -0.58750E-02
        -0.58750E-02
        -0.48958E-02
        -0.48958E-02
        -0.48958E-02
        -0.48958E-02
        -0.48958E-02
        -0.48958E-02
        -0.48958E-02
        -0.48958E-02
        -0.48958E-02
        -0.48958E-02
        -0.48958E-02
        -0.48958E-02
        -0.48958E-02
        -0.48958E-02
        -0.48958E-02
        -0.48958E-02
        -0.48958E-02
        -0.48958E-02
        -0.48958E-02
        -0.48958E-02
        -0.48958E-02
        -0.48958E-02
        -0.48958E-02
        -0.48958E-02
        -0.48958E-02
        -0.48958E-02
        -0.48958E-02
        -0.48958E-02
        -0.48958E-02
        -0.48958E-02
        -0.48958E-02
        -0.48958E-02
        -0.48958E-02
        -0.48958E-02
        -0.48958E-02
        -0.48958E-02
        -0.48958E-02
        -0.48958E-02
        -0.48958E-02
        -0.48958E-02
        -0.48958E-02
        -0.48958E-02
        -0.48958E-02
        -0.48958E-02
        -0.48958E-02
        -0.48958E-02
        -0.48958E-02
        -0.48958E-02
        -0.48958E-02
        -0.48958E-02
        -0.48958E-02
        -0.48958E-02
        -0.48958E-02
        -0.48958E-02
        -0.48958E-02
        -0.48958E-02
        -0.48958E-02
        -0.48958E-02
        -0.48958E-02
        -0.48958E-02
        -0.48958E-02
        -0.48958E-02
        -0.48958E-02
        -0.48958E-02
        -0.48958E-02
        -0.48958E-02
        -0.48958E-02
        -0.48958E-02
        -0.48958E-02
        -0.48958E-02
        -0.48958E-02
        -0.48958E-02
        -0.48958E-02
        -0.48958E-02
        -0.48958E-02
        -0.48958E-02
        -0.48958E-02
        -0.48958E-02
        -0.39167E-02
        -0.39167E-02
        -0.39167E-02
        -0.39167E-02
        -0.39167E-02
        -0.39167E-02
        -0.39167E-02
        -0.39167E-02
        -0.39167E-02
        -0.39167E-02
        -0.39167E-02
        -0.39167E-02
        -0.39167E-02
        -0.39167E-02
        -0.39167E-02
        -0.39167E-02
        -0.39167E-02
        -0.39167E-02
        -0.39167E-02
        -0.39167E-02
        -0.39167E-02
        -0.39167E-02
        -0.39167E-02
        -0.39167E-02
        -0.39167E-02
        -0.39167E-02
        -0.39167E-02
        -0.39167E-02
        -0.39167E-02
        -0.39167E-02
        -0.39167E-02
        -0.39167E-02
        -0.39167E-02
        -0.39167E-02
        -0.39167E-02
        -0.39167E-02
        -0.39167E-02
        -0.39167E-02
        -0.39167E-02
        -0.39167E-02
        -0.39167E-02
        -0.39167E-02
        -0.39167E-02
        -0.39167E-02
        -0.39167E-02
        -0.39167E-02
        -0.39167E-02
        -0.39167E-02
        -0.39167E-02
        -0.39167E-02
        -0.39167E-02
        -0.39167E-02
        -0.39167E-02
        -0.39167E-02
        -0.39167E-02
        -0.39167E-02
        -0.39167E-02
        -0.39167E-02
        -0.39167E-02
        -0.39167E-02
        -0.39167E-02
        -0.39167E-02
        -0.39167E-02
        -0.39167E-02
        -0.39167E-02
        -0.39167E-02
        -0.39167E-02
        -0.39167E-02
        -0.39167E-02
        -0.39167E-02
        -0.39167E-02
        -0.39167E-02
        -0.39167E-02
        -0.39167E-02
        -0.39167E-02
        -0.39167E-02
        -0.39167E-02
        -0.39167E-02
        -0.29375E-02
        -0.29375E-02
        -0.29375E-02
        -0.29375E-02
        -0.29375E-02
        -0.29375E-02
        -0.29375E-02
        -0.29375E-02
        -0.29375E-02
        -0.29375E-02
        -0.29375E-02
        -0.29375E-02
        -0.29375E-02
        -0.29375E-02
        -0.29375E-02
        -0.29375E-02
        -0.29375E-02
        -0.29375E-02
        -0.29375E-02
        -0.29375E-02
        -0.29375E-02
        -0.29375E-02
        -0.29375E-02
        -0.29375E-02
        -0.29375E-02
        -0.29375E-02
        -0.29375E-02
        -0.29375E-02
        -0.29375E-02
        -0.29375E-02
        -0.29375E-02
        -0.29375E-02
        -0.29375E-02
        -0.29375E-02
        -0.29375E-02
        -0.29375E-02
        -0.29375E-02
        -0.29375E-02
        -0.29375E-02
        -0.29375E-02
        -0.29375E-02
        -0.29375E-02
        -0.29375E-02
        -0.29375E-02
        -0.29375E-02
        -0.29375E-02
        -0.29375E-02
        -0.29375E-02
        -0.29375E-02
        -0.29375E-02
        -0.29375E-02
        -0.29375E-02
        -0.29375E-02
        -0.29375E-02
        -0.29375E-02
        -0.29375E-02
        -0.29375E-02
        -0.29375E-02
        -0.29375E-02
        -0.29375E-02
        -0.29375E-02
        -0.29375E-02
        -0.29375E-02
        -0.29375E-02
        -0.29375E-02
        -0.29375E-02
        -0.29375E-02
        -0.29375E-02
        -0.29375E-02
        -0.29375E-02
        -0.29375E-02
        -0.29375E-02
        -0.29375E-02
        -0.29375E-02
        -0.29375E-02
        -0.29375E-02
        -0.29375E-02
        -0.29375E-02
        -0.19583E-02
        -0.19583E-02
        -0.19583E-02
        -0.19583E-02
        -0.19583E-02
        -0.19583E-02
        -0.19583E-02
        -0.19583E-02
        -0.19583E-02
        -0.19583E-02
        -0.19583E-02
        -0.19583E-02
        -0.19583E-02
        -0.19583E-02
        -0.19583E-02
        -0.19583E-02
        -0.19583E-02
        -0.19583E-02
        -0.19583E-02
        -0.19583E-02
        -0.19583E-02
        -0.19583E-02
        -0.19583E-02
        -0.19583E-02
        -0.19583E-02
        -0.19583E-02
        -0.19583E-02
        -0.19583E-02
        -0.19583E-02
        -0.19583E-02
        -0.19583E-02
        -0.19583E-02
        -0.19583E-02
        -0.19583E-02
        -0.19583E-02
        -0.19583E-02
        -0.19583E-02
        -0.19583E-02
        -0.19583E-02
        -0.19583E-02
        -0.19583E-02
        -0.19583E-02
        -0.19583E-02
        -0.19583E-02
        -0.19583E-02
        -0.19583E-02
        -0.19583E-02
        -0.19583E-02
        -0.19583E-02
        -0.19583E-02
        -0.19583E-02
        -0.19583E-02
        -0.19583E-02
        -0.19583E-02
        -0.19583E-02
        -0.19583E-02
        -0.19583E-02
        -0.19583E-02
        -0.19583E-02
        -0.19583E-02
        -0.19583E-02
        -0.19583E-02
        -0.19583E-02
        -0.19583E-02
        -0.19583E-02
        -0.19583E-02
        -0.19583E-02
        -0.19583E-02
        -0.19583E-02
        -0.19583E-02
        -0.19583E-02
        -0.19583E-02
        -0.19583E-02
        -0.19583E-02
        -0.19583E-02
        -0.19583E-02
        -0.19583E-02
        -0.19583E-02
        -0.97917E-03
        -0.97917E-03
        -0.97917E-03
        -0.97917E-03
        -0.97917E-03
        -0.97917E-03
        -0.97917E-03
        -0.97917E-03
        -0.97917E-03
        -0.97917E-03
        -0.97917E-03
        -0.97917E-03
        -0.97917E-03
        -0.97917E-03
        -0.97917E-03
        -0.97917E-03
        -0.97917E-03
        -0.97917E-03
        -0.97917E-03
        -0.97917E-03
        -0.97917E-03
        -0.97917E-03
        -0.97917E-03
        -0.97917E-03
        -0.97917E-03
        -0.97917E-03
        -0.97917E-03
        -0.97917E-03
        -0.97917E-03
        -0.97917E-03
        -0.97917E-03
        -0.97917E-03
        -0.97917E-03
        -0.97917E-03
        -0.97917E-03
        -0.97917E-03
        -0.97917E-03
        -0.97917E-03
        -0.97917E-03
        -0.97917E-03
        -0.97917E-03
        -0.97917E-03
        -0.97917E-03
        -0.97917E-03
        -0.97917E-03
        -0.97917E-03
        -0.97917E-03
        -0.97917E-03
        -0.97917E-03
        -0.97917E-03
        -0.97917E-03
        -0.97917E-03
        -0.97917E-03
        -0.97917E-03
        -0.97917E-03
        -0.97917E-03
        -0.97917E-03
        -0.97917E-03
        -0.97917E-03
        -0.97917E-03
        -0.97917E-03
        -0.97917E-03
        -0.97917E-03
        -0.97917E-03
        -0.97917E-03
        -0.97917E-03
        -0.97917E-03
        -0.97917E-03
        -0.97917E-03
        -0.97917E-03
        -0.97917E-03
        -0.97917E-03
        -0.97917E-03
        -0.97917E-03
        -0.97917E-03
        -0.97917E-03
        -0.97917E-03
        -0.97917E-03
         0.38917E-18
         0.44621E-18
         0.34485E-18
         0.23671E-18
         0.26613E-18
         0.16162E-18
         0.53980E-18
         0.50579E-18
         0.36337E-18
         0.48798E-18
         0.60712E-18
         0.67611E-18
         0.60634E-18
         0.60658E-18
         0.70997E-18
         0.20892E-18
         0.35894E-18
         0.21887E-18
         0.27638E-18
         0.38382E-18
         0.29058E-18
         0.40326E-18
         0.18564E-18
         0.19650E-18
         0.48570E-18
         0.12837E-18
         0.60589E-18
         0.60416E-18
         0.60524E-18
         0.49621E-18
         0.61582E-19
         0.32255E-19
         0.73874E-19
         0.78478E-19
         0.34514E-18
         0.42054E-18
         0.51644E-18
         0.72521E-18
         0.72233E-18
         0.70722E-18
         0.69126E-18
         0.61573E-18
         0.51484E-18
         0.91170E-19
         0.30347E-20
        -0.66516E-19
        -0.69988E-19
        -0.68643E-19
        -0.59779E-19
        -0.43507E-19
        -0.29471E-19
         0.53205E-19
         0.86819E-18
         0.00000E+00
         0.86819E-18
         0.86819E-18
         0.00000E+00
         0.00000E+00
         0.00000E+00
         0.17364E-17
         0.17364E-17
         0.17364E-17
         0.43410E-18
         0.43410E-18
         0.43410E-18
         0.00000E+00
         0.00000E+00
         0.00000E+00
         0.00000E+00
         0.00000E+00
         0.21705E-18
        -0.21705E-18
         0.00000E+00
         0.00000E+00
         0.00000E+00
        -0.32557E-18
         0.54262E-19
        -0.40697E-18
         0.97917E-03
         0.97917E-03
         0.97917E-03
         0.97917E-03
         0.97917E-03
         0.97917E-03
         0.97917E-03
         0.97917E-03
         0.97917E-03
         0.97917E-03
         0.97917E-03
         0.97917E-03
         0.97917E-03
         0.97917E-03
         0.97917E-03
         0.97917E-03
         0.97917E-03
         0.97917E-03
         0.97917E-03
         0.97917E-03
         0.97917E-03
         0.97917E-03
         0.97917E-03
         0.97917E-03
         0.97917E-03
         0.97917E-03
         0.97917E-03
         0.97917E-03
         0.97917E-03
         0.97917E-03
         0.97917E-03
         0.97917E-03
         0.97917E-03
         0.97917E-03
         0.97917E-03
         0.97917E-03
         0.97917E-03
         0.97917E-03
         0.97917E-03
         0.97917E-03
         0.97917E-03
         0.97917E-03
         0.97917E-03
         0.97917E-03
         0.97917E-03
         0.97917E-03
         0.97917E-03
         0.97917E-03
         0.97917E-03
         0.97917E-03
         0.97917E-03
         0.97917E-03
         0.97917E-03
         0.97917E-03
         0.97917E-03
         0.97917E-03
         0.97917E-03
         0.97917E-03
         0.97917E-03
         0.97917E-03
         0.97917E-03
         0.97917E-03
         0.97917E-03
         0.97917E-03
         0.97917E-03
         0.97917E-03
         0.97917E-03
         0.97917E-03
         0.97917E-03
         0.97917E-03
         0.97917E-03
         0.97917E-03
         0.97917E-03
         0.97917E-03
         0.97917E-03
         0.97917E-03
         0.97917E-03
         0.97917E-03
         0.19583E-02
         0.19583E-02
         0.19583E-02
         0.19583E-02
         0.19583E-02
         0.19583E-02
         0.19583E-02
         0.19583E-02
         0.19583E-02
         0.19583E-02
         0.19583E-02
         0.19583E-02
         0.19583E-02
         0.19583E-02
         0.19583E-02
         0.19583E-02
         0.19583E-02
         0.19583E-02
         0.19583E-02
         0.19583E-02
         0.19583E-02
         0.19583E-02
         0.19583E-02
         0.19583E-02
         0.19583E-02
         0.19583E-02
         0.19583E-02
         0.19583E-02
         0.19583E-02
         0.19583E-02
         0.19583E-02
         0.19583E-02
         0.19583E-02
         0.19583E-02
         0.19583E-02
         0.19583E-02
         0.19583E-02
         0.19583E-02
         0.19583E-02
         0.19583E-02
         0.19583E-02
         0.19583E-02
         0.19583E-02
         0.19583E-02
         0.19583E-02
         0.19583E-02
         0.19583E-02
         0.19583E-02
         0.19583E-02
         0.19583E-02
         0.19583E-02
         0.19583E-02
         0.19583E-02
         0.19583E-02
         0.19583E-02
         0.19583E-02
         0.19583E-02
         0.19583E-02
         0.19583E-02
         0.19583E-02
         0.19583E-02
         0.19583E-02
         0.19583E-02
         0.19583E-02
         0.19583E-02
         0.19583E-02
         0.19583E-02
         0.19583E-02
         0.19583E-02
         0.19583E-02
         0.19583E-02
         0.19583E-02
         0.19583E-02
         0.19583E-02
         0.19583E-02
         0.19583E-02
         0.19583E-02
         0.19583E-02
         0.29375E-02
         0.29375E-02
         0.29375E-02
         0.29375E-02
         0.29375E-02
         0.29375E-02
         0.29375E-02
         0.29375E-02
         0.29375E-02
         0.29375E-02
         0.29375E-02
         0.29375E-02
         0.29375E-02
         0.29375E-02
         0.29375E-02
         0.29375E-02
         0.29375E-02
         0.29375E-02
         0.29375E-02
         0.29375E-02
         0.29375E-02
         0.29375E-02
         0.29375E-02
         0.29375E-02
         0.29375E-02
         0.29375E-02
         0.29375E-02
         0.29375E-02
         0.29375E-02
         0.29375E-02
         0.29375E-02
         0.29375E-02
         0.29375E-02
         0.29375E-02
         0.29375E-02
         0.29375E-02
         0.29375E-02
         0.29375E-02
         0.29375E-02
         0.29375E-02
         0.29375E-02
         0.29375E-02
         0.29375E-02
         0.29375E-02
         0.29375E-02
         0.29375E-02
         0.29375E-02
         0.29375E-02
         0.29375E-02
         0.29375E-02
         0.29375E-02
         0.29375E-02
         0.29375E-02
         0.29375E-02
         0.29375E-02
         0.29375E-02
         0.29375E-02
         0.29375E-02
         0.29375E-02
         0.29375E-02
         0.29375E-02
         0.29375E-02
         0.29375E-02
         0.29375E-02
         0.29375E-02
         0.29375E-02
         0.29375E-02
         0.29375E-02
         0.29375E-02
         0.29375E-02
         0.29375E-02
         0.29375E-02
         0.29375E-02
         0.29375E-02
         0.29375E-02
         0.29375E-02
         0.29375E-02
         0.29375E-02
         0.39167E-02
         0.39167E-02
         0.39167E-02
         0.39167E-02
         0.39167E-02
         0.39167E-02
         0.39167E-02
         0.39167E-02
         0.39167E-02
         0.39167E-02
         0.39167E-02
         0.39167E-02
         0.39167E-02
         0.39167E-02
         0.39167E-02
         0.39167E-02
         0.39167E-02
         0.39167E-02
         0.39167E-02
         0.39167E-02
         0.39167E-02
         0.39167E-02
         0.39167E-02
         0.39167E-02
         0.39167E-02
         0.39167E-02
         0.39167E-02
         0.39167E-02
         0.39167E-02
         0.39167E-02
         0.39167E-02
         0.39167E-02
         0.39167E-02
         0.39167E-02
         0.39167E-02
         0.39167E-02
         0.39167E-02
         0.39167E-02
         0.39167E-02
         0.39167E-02
         0.39167E-02
         0.39167E-02
         0.39167E-02
         0.39167E-02
         0.39167E-02
         0.39167E-02
         0.39167E-02
         0.39167E-02
         0.39167E-02
         0.39167E-02
         0.39167E-02
         0.39167E-02
         0.39167E-02
         0.39167E-02
         0.39167E-02
         0.39167E-02
         0.39167E-02
         0.39167E-02
         0.39167E-02
         0.39167E-02
         0.39167E-02
         0.39167E-02
         0.39167E-02
         0.39167E-02
         0.39167E-02
         0.39167E-02
         0.39167E-02
         0.39167E-02
         0.39167E-02
         0.39167E-02
         0.39167E-02
         0.39167E-02
         0.39167E-02
         0.39167E-02
         0.39167E-02
         0.39167E-02
         0.39167E-02
         0.39167E-02
         0.48958E-02
         0.48958E-02
         0.48958E-02
         0.48958E-02
         0.48958E-02
         0.48958E-02
         0.48958E-02
         0.48958E-02
         0.48958E-02
         0.48958E-02
         0.48958E-02
         0.48958E-02
         0.48958E-02
         0.48958E-02
         0.48958E-02
         0.48958E-02
         0.48958E-02
         0.48958E-02
         0.48958E-02
         0.48958E-02
         0.48958E-02
         0.48958E-02
         0.48958E-02
         0.48958E-02
         0.48958E-02
         0.48958E-02
         0.48958E-02
         0.48958E-02
         0.48958E-02
         0.48958E-02
         0.48958E-02
         0.48958E-02
         0.48958E-02
         0.48958E-02
         0.48958E-02
         0.48958E-02
         0.48958E-02
         0.48958E-02
         0.48958E-02
         0.48958E-02
         0.48958E-02
         0.48958E-02
         0.48958E-02
         0.48958E-02
         0.48958E-02
         0.48958E-02
         0.48958E-02
         0.48958E-02
         0.48958E-02
         0.48958E-02
         0.48958E-02
         0.48958E-02
         0.48958E-02
         0.48958E-02
         0.48958E-02
         0.48958E-02
         0.48958E-02
         0.48958E-02
         0.48958E-02
         0.48958E-02
         0.48958E-02
         0.48958E-02
         0.48958E-02
         0.48958E-02
         0.48958E-02
         0.48958E-02
         0.48958E-02
         0.48958E-02
         0.48958E-02
         0.48958E-02
         0.48958E-02
         0.48958E-02
         0.48958E-02
         0.48958E-02
         0.48958E-02
         0.48958E-02
         0.48958E-02
         0.48958E-02
         0.58750E-02
         0.58750E-02
         0.58750E-02
         0.58750E-02
         0.58750E-02
         0.58750E-02
         0.58750E-02
         0.58750E-02
         0.58750E-02
         0.58750E-02
         0.58750E-02
         0.58750E-02
         0.58750E-02
         0.58750E-02
         0.58750E-02
         0.58750E-02
         0.58750E-02
         0.58750E-02
         0.58750E-02
         0.58750E-02
         0.58750E-02
         0.58750E-02
         0.58750E-02
         0.58750E-02
         0.58750E-02
         0.58750E-02
         0.58750E-02
         0.58750E-02
         0.58750E-02
         0.58750E-02
         0.58750E-02
         0.58750E-02
         0.58750E-02
         0.58750E-02
         0.58750E-02
         0.58750E-02
         0.58750E-02
         0.58750E-02
         0.58750E-02
         0.58750E-02
         0.58750E-02
         0.58750E-02
         0.58750E-02
         0.58750E-02
         0.58750E-02
         0.58750E-02
         0.58750E-02
         0.58750E-02
         0.58750E-02
         0.58750E-02
         0.58750E-02
         0.58750E-02
         0.58750E-02
         0.58750E-02
         0.58750E-02
         0.58750E-02
         0.58750E-02
         0.58750E-02
         0.58750E-02
         0.58750E-02
         0.58750E-02
         0.58750E-02
         0.58750E-02
         0.58750E-02
         0.58750E-02
         0.58750E-02
         0.58750E-02
         0.58750E-02
         0.58750E-02
         0.58750E-02
         0.58750E-02
         0.58750E-02
         0.58750E-02
         0.58750E-02
         0.58750E-02
         0.58750E-02
         0.58750E-02
         0.58750E-02
         0.68542E-02
         0.68542E-02
         0.68542E-02
         0.68542E-02
         0.68542E-02
         0.68542E-02
         0.68542E-02
         0.68542E-02
         0.68542E-02
         0.68542E-02
         0.68542E-02
         0.68542E-02
         0.68542E-02
         0.68542E-02
         0.68542E-02
         0.68542E-02
         0.68542E-02
         0.68542E-02
         0.68542E-02
         0.68542E-02
         0.68542E-02
         0.68542E-02
         0.68542E-02
         0.68542E-02
         0.68542E-02
         0.68542E-02
         0.68542E-02
         0.68542E-02
         0.68542E-02
         0.68542E-02
         0.68542E-02
         0.68542E-02
         0.68542E-02
         0.68542E-02
         0.68542E-02
         0.68542E-02
         0.68542E-02
         0.68542E-02
         0.68542E-02
         0.68542E-02
         0.68542E-02
         0.68542E-02
         0.68542E-02
         0.68542E-02
         0.68542E-02
         0.68542E-02
         0.68542E-02
         0.68542E-02
         0.68542E-02
         0.68542E-02
         0.68542E-02
         0.68542E-02
         0.68542E-02
         0.68542E-02
         0.68542E-02
         0.68542E-02
         0.68542E-02
         0.68542E-02
         0.68542E-02
         0.68542E-02
         0.68542E-02
         0.68542E-02
         0.68542E-02
         0.68542E-02
         0.68542E-02
         0.68542E-02
         0.68542E-02
         0.68542E-02
         0.68542E-02
         0.68542E-02
         0.68542E-02
         0.68542E-02
         0.68542E-02
         0.68542E-02
         0.68542E-02
         0.68542E-02
         0.68542E-02
         0.68542E-02
         0.78333E-02
         0.78333E-02
         0.78333E-02
         0.78333E-02
         0.78333E-02
         0.78333E-02
         0.78333E-02
         0.78333E-02
         0.78333E-02
         0.78333E-02
         0.78333E-02
         0.78333E-02
         0.78333E-02
         0.78333E-02
         0.78333E-02
         0.78333E-02
         0.78333E-02
         0.78333E-02
         0.78333E-02
         0.78333E-02
         0.78333E-02
         0.78333E-02
         0.78333E-02
         0.78333E-02
         0.78333E-02
         0.78333E-02
         0.78333E-02
         0.78333E-02
         0.78333E-02
         0.78333E-02
         0.78333E-02
         0.78333E-02
         0.78333E-02
         0.78333E-02
         0.78333E-02
         0.78333E-02
         0.78333E-02
         0.78333E-02
         0.78333E-02
         0.78333E-02
         0.78333E-02
         0.78333E-02
         0.78333E-02
         0.78333E-02
         0.78333E-02
         0.78333E-02
         0.78333E-02
         0.78333E-02
         0.78333E-02
         0.78333E-02
         0.78333E-02
         0.78333E-02
         0.78333E-02
         0.78333E-02
         0.78333E-02
         0.78333E-02
         0.78333E-02
         0.78333E-02
         0.78333E-02
         0.78333E-02
         0.78333E-02
         0.78333E-02
         0.78333E-02
         0.78333E-02
         0.78333E-02
         0.78333E-02
         0.78333E-02
         0.78333E-02
         0.78333E-02
         0.78333E-02
         0.78333E-02
         0.78333E-02
         0.78333E-02
         0.78333E-02
         0.78333E-02
         0.78333E-02
         0.78333E-02
         0.78333E-02
         0.88125E-02
         0.88125E-02
         0.88125E-02
         0.88125E-02
         0.88125E-02
         0.88125E-02
         0.88125E-02
         0.88125E-02
         0.88125E-02
         0.88125E-02
         0.88125E-02
         0.88125E-02
         0.88125E-02
         0.88125E-02
         0.88125E-02
         0.88125E-02
         0.88125E-02
         0.88125E-02
         0.88125E-02
         0.88125E-02
         0.88125E-02
         0.88125E-02
         0.88125E-02
         0.88125E-02
         0.88125E-02
         0.88125E-02
         0.88125E-02
         0.88125E-02
         0.88125E-02
         0.88125E-02
         0.88125E-02
         0.88125E-02
         0.88125E-02
         0.88125E-02
         0.88125E-02
         0.88125E-02
         0.88125E-02
         0.88125E-02
         0.88125E-02
         0.88125E-02
         0.88125E-02
         0.88125E-02
         0.88125E-02
         0.88125E-02
         0.88125E-02
         0.88125E-02
         0.88125E-02
         0.88125E-02
         0.88125E-02
         0.88125E-02
         0.88125E-02
         0.88125E-02
         0.88125E-02
         0.88125E-02
         0.88125E-02
         0.88125E-02
         0.88125E-02
         0.88125E-02
         0.88125E-02
         0.88125E-02
         0.88125E-02
         0.88125E-02
         0.88125E-02
         0.88125E-02
         0.88125E-02
         0.88125E-02
         0.88125E-02
         0.88125E-02
         0.88125E-02
         0.88125E-02
         0.88125E-02
         0.88125E-02
         0.88125E-02
         0.88125E-02
         0.88125E-02
         0.88125E-02
         0.88125E-02
         0.88125E-02
         0.97917E-02
         0.97917E-02
         0.97917E-02
         0.97917E-02
         0.97917E-02
         0.97917E-02
         0.97917E-02
         0.97917E-02
         0.97917E-02
         0.97917E-02
         0.97917E-02
         0.97917E-02
         0.97917E-02
         0.97917E-02
         0.97917E-02
         0.97917E-02
         0.97917E-02
         0.97917E-02
         0.97917E-02
         0.97917E-02
         0.97917E-02
         0.97917E-02
         0.97917E-02
         0.97917E-02
         0.97917E-02
         0.97917E-02
         0.97917E-02
         0.97917E-02
         0.97917E-02
         0.97917E-02
         0.97917E-02
         0.97917E-02
         0.97917E-02
         0.97917E-02
         0.97917E-02
         0.97917E-02
         0.97917E-02
         0.97917E-02
         0.97917E-02
         0.97917E-02
         0.97917E-02
         0.97917E-02
         0.97917E-02
         0.97917E-02
         0.97917E-02
         0.97917E-02
         0.97917E-02
         0.97917E-02
         0.97917E-02
         0.97917E-02
         0.97917E-02
         0.97917E-02
         0.97917E-02
         0.97917E-02
         0.97917E-02
         0.97917E-02
         0.97917E-02
         0.97917E-02
         0.97917E-02
         0.97917E-02
         0.97917E-02
         0.97917E-02
         0.97917E-02
         0.97917E-02
         0.97917E-02
         0.97917E-02
         0.97917E-02
         0.97917E-02
         0.97917E-02
         0.97917E-02
         0.97917E-02
         0.97917E-02
         0.97917E-02
         0.97917E-02
         0.97917E-02
         0.97917E-02
         0.97917E-02
         0.97917E-02
         0.10771E-01
         0.10771E-01
         0.10771E-01
         0.10771E-01
         0.10771E-01
         0.10771E-01
         0.10771E-01
         0.10771E-01
         0.10771E-01
         0.10771E-01
         0.10771E-01
         0.10771E-01
         0.10771E-01
         0.10771E-01
         0.10771E-01
         0.10771E-01
         0.10771E-01
         0.10771E-01
         0.10771E-01
         0.10771E-01
         0.10771E-01
         0.10771E-01
         0.10771E-01
         0.10771E-01
         0.10771E-01
         0.10771E-01
         0.10771E-01
         0.10771E-01
         0.10771E-01
         0.10771E-01
         0.10771E-01
         0.10771E-01
         0.10771E-01
         0.10771E-01
         0.10771E-01
         0.10771E-01
         0.10771E-01
         0.10771E-01
         0.10771E-01
         0.10771E-01
         0.10771E-01
         0.10771E-01
         0.10771E-01
         0.10771E-01
         0.10771E-01
         0.10771E-01
         0.10771E-01
         0.10771E-01
         0.10771E-01
         0.10771E-01
         0.10771E-01
         0.10771E-01
         0.10771E-01
         0.10771E-01
         0.10771E-01
         0.10771E-01
         0.10771E-01
         0.10771E-01
         0.10771E-01
         0.10771E-01
         0.10771E-01
         0.10771E-01
         0.10771E-01
         0.10771E-01
         0.10771E-01
         0.10771E-01
         0.10771E-01
         0.10771E-01
         0.10771E-01
         0.10771E-01
         0.10771E-01
         0.10771E-01
         0.10771E-01
         0.10771E-01
         0.10771E-01
         0.10771E-01
         0.10771E-01
         0.10771E-01
         0.11750E-01
         0.11750E-01
         0.11750E-01
         0.11750E-01
         0.11750E-01
         0.11750E-01
         0.11750E-01
         0.11750E-01
         0.11750E-01
         0.11750E-01
         0.11750E-01
         0.11750E-01
         0.11750E-01
         0.11750E-01
         0.11750E-01
         0.11750E-01
         0.11750E-01
         0.11750E-01
         0.11750E-01
         0.11750E-01
         0.11750E-01
         0.11750E-01
         0.11750E-01
         0.11750E-01
         0.11750E-01
         0.11750E-01
         0.11750E-01
         0.11750E-01
         0.11750E-01
         0.11750E-01
         0.11750E-01
         0.11750E-01
         0.11750E-01
         0.11750E-01
         0.11750E-01
         0.11750E-01
         0.11750E-01
         0.11750E-01
         0.11750E-01
         0.11750E-01
         0.11750E-01
         0.11750E-01
         0.11750E-01
         0.11750E-01
         0.11750E-01
         0.11750E-01
         0.11750E-01
         0.11750E-01
         0.11750E-01
         0.11750E-01
         0.11750E-01
         0.11750E-01
         0.11750E-01
         0.11750E-01
         0.11750E-01
         0.11750E-01
         0.11750E-01
         0.11750E-01
         0.11750E-01
         0.11750E-01
         0.11750E-01
         0.11750E-01
         0.11750E-01
         0.11750E-01
         0.11750E-01
         0.11750E-01
         0.11750E-01
         0.11750E-01
         0.11750E-01
         0.11750E-01
         0.11750E-01
         0.11750E-01
         0.11750E-01
         0.11750E-01
         0.11750E-01
         0.11750E-01
         0.11750E-01
         0.11750E-01
  
SCALARS                init_velocity_x  double 1
LOOKUP_TABLE default
         0.00000E+00
         0.00000E+00
         0.00000E+00
         0.00000E+00
         0.00000E+00
         0.00000E+00
         0.00000E+00
         0.00000E+00
         0.00000E+00
         0.00000E+00
         0.00000E+00
         0.00000E+00
         0.00000E+00
         0.00000E+00
         0.00000E+00
         0.00000E+00
         0.00000E+00
         0.00000E+00
         0.00000E+00
         0.00000E+00
         0.00000E+00
         0.00000E+00
         0.00000E+00
         0.00000E+00
         0.00000E+00
         0.00000E+00
         0.00000E+00
         0.00000E+00
         0.00000E+00
         0.00000E+00
         0.00000E+00
         0.00000E+00
         0.00000E+00
         0.00000E+00
         0.00000E+00
         0.00000E+00
         0.00000E+00
         0.00000E+00
         0.00000E+00
         0.00000E+00
         0.00000E+00
         0.00000E+00
         0.00000E+00
         0.00000E+00
         0.00000E+00
         0.00000E+00
         0.00000E+00
         0.00000E+00
         0.00000E+00
         0.00000E+00
         0.00000E+00
         0.00000E+00
         0.00000E+00
         0.00000E+00
         0.00000E+00
         0.00000E+00
         0.00000E+00
         0.00000E+00
         0.00000E+00
         0.00000E+00
         0.00000E+00
         0.00000E+00
         0.00000E+00
         0.00000E+00
         0.00000E+00
         0.00000E+00
         0.00000E+00
         0.00000E+00
         0.00000E+00
         0.00000E+00
         0.00000E+00
         0.00000E+00
         0.00000E+00
         0.00000E+00
         0.00000E+00
         0.00000E+00
         0.00000E+00
         0.00000E+00
         0.00000E+00
         0.00000E+00
         0.00000E+00
         0.00000E+00
         0.00000E+00
         0.00000E+00
         0.00000E+00
         0.00000E+00
         0.00000E+00
         0.00000E+00
         0.00000E+00
         0.00000E+00
         0.00000E+00
         0.00000E+00
         0.00000E+00
         0.00000E+00
         0.00000E+00
         0.00000E+00
         0.00000E+00
         0.00000E+00
         0.00000E+00
         0.00000E+00
         0.00000E+00
         0.00000E+00
         0.00000E+00
         0.00000E+00
         0.00000E+00
         0.00000E+00
         0.00000E+00
         0.00000E+00
         0.00000E+00
         0.00000E+00
         0.00000E+00
         0.00000E+00
         0.00000E+00
         0.00000E+00
         0.00000E+00
         0.00000E+00
         0.00000E+00
         0.00000E+00
         0.00000E+00
         0.00000E+00
         0.00000E+00
         0.00000E+00
         0.00000E+00
         0.00000E+00
         0.00000E+00
         0.00000E+00
         0.00000E+00
         0.00000E+00
         0.00000E+00
         0.00000E+00
         0.00000E+00
         0.00000E+00
         0.00000E+00
         0.00000E+00
         0.00000E+00
         0.00000E+00
         0.00000E+00
         0.00000E+00
         0.00000E+00
         0.00000E+00
         0.00000E+00
         0.00000E+00
         0.00000E+00
         0.00000E+00
         0.00000E+00
         0.00000E+00
         0.00000E+00
         0.00000E+00
         0.00000E+00
         0.00000E+00
         0.00000E+00
         0.00000E+00
         0.00000E+00
         0.00000E+00
         0.00000E+00
         0.00000E+00
         0.00000E+00
         0.00000E+00
         0.00000E+00
         0.00000E+00
         0.00000E+00
         0.00000E+00
         0.00000E+00
         0.00000E+00
         0.00000E+00
         0.00000E+00
         0.00000E+00
         0.00000E+00
         0.00000E+00
         0.00000E+00
         0.00000E+00
         0.00000E+00
         0.00000E+00
         0.00000E+00
         0.00000E+00
         0.00000E+00
         0.00000E+00
         0.00000E+00
         0.00000E+00
         0.00000E+00
         0.00000E+00
         0.00000E+00
         0.00000E+00
         0.00000E+00
         0.00000E+00
         0.00000E+00
         0.00000E+00
         0.00000E+00
         0.00000E+00
         0.00000E+00
         0.00000E+00
         0.00000E+00
         0.00000E+00
         0.00000E+00
         0.00000E+00
         0.00000E+00
         0.00000E+00
         0.00000E+00
         0.00000E+00
         0.00000E+00
         0.00000E+00
         0.00000E+00
         0.00000E+00
         0.00000E+00
         0.00000E+00
         0.00000E+00
         0.00000E+00
         0.00000E+00
         0.00000E+00
         0.00000E+00
         0.00000E+00
         0.00000E+00
         0.00000E+00
         0.00000E+00
         0.00000E+00
         0.00000E+00
         0.00000E+00
         0.00000E+00
         0.00000E+00
         0.00000E+00
         0.00000E+00
         0.00000E+00
         0.00000E+00
         0.00000E+00
         0.00000E+00
         0.00000E+00
         0.00000E+00
         0.00000E+00
         0.00000E+00
         0.00000E+00
         0.00000E+00
         0.00000E+00
         0.00000E+00
         0.00000E+00
         0.00000E+00
         0.00000E+00
         0.00000E+00
         0.00000E+00
         0.00000E+00
         0.00000E+00
         0.00000E+00
         0.00000E+00
         0.00000E+00
         0.00000E+00
         0.00000E+00
         0.00000E+00
         0.00000E+00
         0.00000E+00
         0.00000E+00
         0.00000E+00
         0.00000E+00
         0.00000E+00
         0.00000E+00
         0.00000E+00
         0.00000E+00
         0.00000E+00
         0.00000E+00
         0.00000E+00
         0.00000E+00
         0.00000E+00
         0.00000E+00
         0.00000E+00
         0.00000E+00
         0.00000E+00
         0.00000E+00
         0.00000E+00
         0.00000E+00
         0.00000E+00
         0.00000E+00
         0.00000E+00
         0.00000E+00
         0.00000E+00
         0.00000E+00
         0.00000E+00
         0.00000E+00
         0.00000E+00
         0.00000E+00
         0.00000E+00
         0.00000E+00
         0.00000E+00
         0.00000E+00
         0.00000E+00
         0.00000E+00
         0.00000E+00
         0.00000E+00
         0.00000E+00
         0.00000E+00
         0.00000E+00
         0.00000E+00
         0.00000E+00
         0.00000E+00
         0.00000E+00
         0.00000E+00
         0.00000E+00
         0.00000E+00
         0.00000E+00
         0.00000E+00
         0.00000E+00
         0.00000E+00
         0.00000E+00
         0.00000E+00
         0.00000E+00
         0.00000E+00
         0.00000E+00
         0.00000E+00
         0.00000E+00
         0.00000E+00
         0.00000E+00
         0.00000E+00
         0.00000E+00
         0.00000E+00
         0.00000E+00
         0.00000E+00
         0.00000E+00
         0.00000E+00
         0.00000E+00
         0.00000E+00
         0.00000E+00
         0.00000E+00
         0.00000E+00
         0.00000E+00
         0.00000E+00
         0.00000E+00
         0.00000E+00
         0.00000E+00
         0.00000E+00
         0.00000E+00
         0.00000E+00
         0.00000E+00
         0.00000E+00
         0.00000E+00
         0.00000E+00
         0.00000E+00
         0.00000E+00
         0.00000E+00
         0.00000E+00
         0.00000E+00
         0.00000E+00
         0.00000E+00
         0.00000E+00
         0.00000E+00
         0.00000E+00
         0.00000E+00
         0.00000E+00
         0.00000E+00
         0.00000E+00
         0.00000E+00
         0.00000E+00
         0.00000E+00
         0.00000E+00
         0.00000E+00
         0.00000E+00
         0.00000E+00
         0.00000E+00
         0.00000E+00
         0.00000E+00
         0.00000E+00
         0.00000E+00
         0.00000E+00
         0.00000E+00
         0.00000E+00
         0.00000E+00
         0.00000E+00
         0.00000E+00
         0.00000E+00
         0.00000E+00
         0.00000E+00
         0.00000E+00
         0.00000E+00
         0.00000E+00
         0.00000E+00
         0.00000E+00
         0.00000E+00
         0.00000E+00
         0.00000E+00
         0.00000E+00
         0.00000E+00
         0.00000E+00
         0.00000E+00
         0.00000E+00
         0.00000E+00
         0.00000E+00
         0.00000E+00
         0.00000E+00
         0.00000E+00
         0.00000E+00
         0.00000E+00
         0.00000E+00
         0.00000E+00
         0.00000E+00
         0.00000E+00
         0.00000E+00
         0.00000E+00
         0.00000E+00
         0.00000E+00
         0.00000E+00
         0.00000E+00
         0.00000E+00
         0.00000E+00
         0.00000E+00
         0.00000E+00
         0.00000E+00
         0.00000E+00
         0.00000E+00
         0.00000E+00
         0.00000E+00
         0.00000E+00
         0.00000E+00
         0.00000E+00
         0.00000E+00
         0.00000E+00
         0.00000E+00
         0.00000E+00
         0.00000E+00
         0.00000E+00
         0.00000E+00
         0.00000E+00
         0.00000E+00
         0.00000E+00
         0.00000E+00
         0.00000E+00
         0.00000E+00
         0.00000E+00
         0.00000E+00
         0.00000E+00
         0.00000E+00
         0.00000E+00
         0.00000E+00
         0.00000E+00
         0.00000E+00
         0.00000E+00
         0.00000E+00
         0.00000E+00
         0.00000E+00
         0.00000E+00
         0.00000E+00
         0.00000E+00
         0.00000E+00
         0.00000E+00
         0.00000E+00
         0.00000E+00
         0.00000E+00
         0.00000E+00
         0.00000E+00
         0.00000E+00
         0.00000E+00
         0.00000E+00
         0.00000E+00
         0.00000E+00
         0.00000E+00
         0.00000E+00
         0.00000E+00
         0.00000E+00
         0.00000E+00
         0.00000E+00
         0.00000E+00
         0.00000E+00
         0.00000E+00
         0.00000E+00
         0.00000E+00
         0.00000E+00
         0.00000E+00
         0.00000E+00
         0.00000E+00
         0.00000E+00
         0.00000E+00
         0.00000E+00
         0.00000E+00
         0.00000E+00
         0.00000E+00
         0.00000E+00
         0.00000E+00
         0.00000E+00
         0.00000E+00
         0.00000E+00
         0.00000E+00
         0.00000E+00
         0.00000E+00
         0.00000E+00
         0.00000E+00
         0.00000E+00
         0.00000E+00
         0.00000E+00
         0.00000E+00
         0.00000E+00
         0.00000E+00
         0.00000E+00
         0.00000E+00
         0.00000E+00
         0.00000E+00
         0.00000E+00
         0.00000E+00
         0.00000E+00
         0.00000E+00
         0.00000E+00
         0.00000E+00
         0.00000E+00
         0.00000E+00
         0.00000E+00
         0.00000E+00
         0.00000E+00
         0.00000E+00
         0.00000E+00
         0.00000E+00
         0.00000E+00
         0.00000E+00
         0.00000E+00
         0.00000E+00
         0.00000E+00
         0.00000E+00
         0.00000E+00
         0.00000E+00
         0.00000E+00
         0.00000E+00
         0.00000E+00
         0.00000E+00
         0.00000E+00
         0.00000E+00
         0.00000E+00
         0.00000E+00
         0.00000E+00
         0.00000E+00
         0.00000E+00
         0.00000E+00
         0.00000E+00
         0.00000E+00
         0.00000E+00
         0.00000E+00
         0.00000E+00
         0.00000E+00
         0.00000E+00
         0.00000E+00
         0.00000E+00
         0.00000E+00
         0.00000E+00
         0.00000E+00
         0.00000E+00
         0.00000E+00
         0.00000E+00
         0.00000E+00
         0.00000E+00
         0.00000E+00
         0.00000E+00
         0.00000E+00
         0.00000E+00
         0.00000E+00
         0.00000E+00
         0.00000E+00
         0.00000E+00
         0.00000E+00
         0.00000E+00
         0.00000E+00
         0.00000E+00
         0.00000E+00
         0.00000E+00
         0.00000E+00
         0.00000E+00
         0.00000E+00
         0.00000E+00
         0.00000E+00
         0.00000E+00
         0.00000E+00
         0.00000E+00
         0.00000E+00
         0.00000E+00
         0.00000E+00
         0.00000E+00
         0.00000E+00
         0.00000E+00
         0.00000E+00
         0.00000E+00
         0.00000E+00
         0.00000E+00
         0.00000E+00
         0.00000E+00
         0.00000E+00
         0.00000E+00
         0.00000E+00
         0.00000E+00
         0.00000E+00
         0.00000E+00
         0.00000E+00
         0.00000E+00
         0.00000E+00
         0.00000E+00
         0.00000E+00
         0.00000E+00
         0.00000E+00
         0.00000E+00
         0.00000E+00
         0.00000E+00
         0.00000E+00
         0.00000E+00
         0.00000E+00
         0.00000E+00
         0.00000E+00
         0.00000E+00
         0.00000E+00
         0.00000E+00
         0.00000E+00
         0.00000E+00
         0.00000E+00
         0.00000E+00
         0.00000E+00
         0.00000E+00
         0.00000E+00
         0.00000E+00
         0.00000E+00
         0.00000E+00
         0.00000E+00
         0.00000E+00
         0.00000E+00
         0.00000E+00
         0.00000E+00
         0.00000E+00
         0.00000E+00
         0.00000E+00
         0.00000E+00
         0.00000E+00
         0.00000E+00
         0.00000E+00
         0.00000E+00
         0.00000E+00
         0.00000E+00
         0.00000E+00
         0.00000E+00
         0.00000E+00
         0.00000E+00
         0.00000E+00
         0.00000E+00
         0.00000E+00
         0.00000E+00
         0.00000E+00
         0.00000E+00
         0.00000E+00
         0.00000E+00
         0.00000E+00
         0.00000E+00
         0.00000E+00
         0.00000E+00
         0.00000E+00
         0.00000E+00
         0.00000E+00
         0.00000E+00
         0.00000E+00
         0.00000E+00
         0.00000E+00
         0.00000E+00
         0.00000E+00
         0.00000E+00
         0.00000E+00
         0.00000E+00
         0.00000E+00
         0.00000E+00
         0.00000E+00
         0.00000E+00
         0.00000E+00
         0.00000E+00
         0.00000E+00
         0.00000E+00
         0.00000E+00
         0.00000E+00
         0.00000E+00
         0.00000E+00
         0.00000E+00
         0.00000E+00
         0.00000E+00
         0.00000E+00
         0.00000E+00
         0.00000E+00
         0.00000E+00
         0.00000E+00
         0.00000E+00
         0.00000E+00
         0.00000E+00
         0.00000E+00
         0.00000E+00
         0.00000E+00
         0.00000E+00
         0.00000E+00
         0.00000E+00
         0.00000E+00
         0.00000E+00
         0.00000E+00
         0.00000E+00
         0.00000E+00
         0.00000E+00
         0.00000E+00
         0.00000E+00
         0.00000E+00
         0.00000E+00
         0.00000E+00
         0.00000E+00
         0.00000E+00
         0.00000E+00
         0.00000E+00
         0.00000E+00
         0.00000E+00
         0.00000E+00
         0.00000E+00
         0.00000E+00
         0.00000E+00
         0.00000E+00
         0.00000E+00
         0.00000E+00
         0.00000E+00
         0.00000E+00
         0.00000E+00
         0.00000E+00
         0.00000E+00
         0.00000E+00
         0.00000E+00
         0.00000E+00
         0.00000E+00
         0.00000E+00
         0.00000E+00
         0.00000E+00
         0.00000E+00
         0.00000E+00
         0.00000E+00
         0.00000E+00
         0.00000E+00
         0.00000E+00
         0.00000E+00
         0.00000E+00
         0.00000E+00
         0.00000E+00
         0.00000E+00
         0.00000E+00
         0.00000E+00
         0.00000E+00
         0.00000E+00
         0.00000E+00
         0.00000E+00
         0.00000E+00
         0.00000E+00
         0.00000E+00
         0.00000E+00
         0.00000E+00
         0.00000E+00
         0.00000E+00
         0.00000E+00
         0.00000E+00
         0.00000E+00
         0.00000E+00
         0.00000E+00
         0.00000E+00
         0.00000E+00
         0.00000E+00
         0.00000E+00
         0.00000E+00
         0.00000E+00
         0.00000E+00
         0.00000E+00
         0.00000E+00
         0.00000E+00
         0.00000E+00
         0.00000E+00
         0.00000E+00
         0.00000E+00
         0.00000E+00
         0.00000E+00
         0.00000E+00
         0.00000E+00
         0.00000E+00
         0.00000E+00
         0.00000E+00
         0.00000E+00
         0.00000E+00
         0.00000E+00
         0.00000E+00
         0.00000E+00
         0.00000E+00
         0.00000E+00
         0.00000E+00
         0.00000E+00
         0.00000E+00
         0.00000E+00
         0.00000E+00
         0.00000E+00
         0.00000E+00
         0.00000E+00
         0.00000E+00
         0.00000E+00
         0.00000E+00
         0.00000E+00
         0.00000E+00
         0.00000E+00
         0.00000E+00
         0.00000E+00
         0.00000E+00
         0.00000E+00
         0.00000E+00
         0.00000E+00
         0.00000E+00
         0.00000E+00
         0.00000E+00
         0.00000E+00
         0.00000E+00
         0.00000E+00
         0.00000E+00
         0.00000E+00
         0.00000E+00
         0.00000E+00
         0.00000E+00
         0.00000E+00
         0.00000E+00
         0.00000E+00
         0.00000E+00
         0.00000E+00
         0.00000E+00
         0.00000E+00
         0.00000E+00
         0.00000E+00
         0.00000E+00
         0.00000E+00
         0.00000E+00
         0.00000E+00
         0.00000E+00
         0.00000E+00
         0.00000E+00
         0.00000E+00
         0.00000E+00
         0.00000E+00
         0.00000E+00
         0.00000E+00
         0.00000E+00
         0.00000E+00
         0.00000E+00
         0.00000E+00
         0.00000E+00
         0.00000E+00
         0.00000E+00
         0.00000E+00
         0.00000E+00
         0.00000E+00
         0.00000E+00
         0.00000E+00
         0.00000E+00
         0.00000E+00
         0.00000E+00
         0.00000E+00
         0.00000E+00
         0.00000E+00
         0.00000E+00
         0.00000E+00
         0.00000E+00
         0.00000E+00
         0.00000E+00
         0.00000E+00
         0.00000E+00
         0.00000E+00
         0.00000E+00
         0.00000E+00
         0.00000E+00
         0.00000E+00
         0.00000E+00
         0.00000E+00
         0.00000E+00
         0.00000E+00
         0.00000E+00
         0.00000E+00
         0.00000E+00
         0.00000E+00
         0.00000E+00
         0.00000E+00
         0.00000E+00
         0.00000E+00
         0.00000E+00
         0.00000E+00
         0.00000E+00
         0.00000E+00
         0.00000E+00
         0.00000E+00
         0.00000E+00
         0.00000E+00
         0.00000E+00
         0.00000E+00
         0.00000E+00
         0.00000E+00
         0.00000E+00
         0.00000E+00
         0.00000E+00
         0.00000E+00
         0.00000E+00
         0.00000E+00
         0.00000E+00
         0.00000E+00
         0.00000E+00
         0.00000E+00
         0.00000E+00
         0.00000E+00
         0.00000E+00
         0.00000E+00
         0.00000E+00
         0.00000E+00
         0.00000E+00
         0.00000E+00
         0.00000E+00
         0.00000E+00
         0.00000E+00
         0.00000E+00
         0.00000E+00
         0.00000E+00
         0.00000E+00
         0.00000E+00
         0.00000E+00
         0.00000E+00
         0.00000E+00
         0.00000E+00
         0.00000E+00
         0.00000E+00
         0.00000E+00
         0.00000E+00
         0.00000E+00
         0.00000E+00
         0.00000E+00
         0.00000E+00
         0.00000E+00
         0.00000E+00
         0.00000E+00
         0.00000E+00
         0.00000E+00
         0.00000E+00
         0.00000E+00
         0.00000E+00
         0.00000E+00
         0.00000E+00
         0.00000E+00
         0.00000E+00
         0.00000E+00
         0.00000E+00
         0.00000E+00
         0.00000E+00
         0.00000E+00
         0.00000E+00
         0.00000E+00
         0.00000E+00
         0.00000E+00
         0.00000E+00
         0.00000E+00
         0.00000E+00
         0.00000E+00
         0.00000E+00
         0.00000E+00
         0.00000E+00
         0.00000E+00
         0.00000E+00
         0.00000E+00
         0.00000E+00
         0.00000E+00
         0.00000E+00
         0.00000E+00
         0.00000E+00
         0.00000E+00
         0.00000E+00
         0.00000E+00
         0.00000E+00
         0.00000E+00
         0.00000E+00
         0.00000E+00
         0.00000E+00
         0.00000E+00
         0.00000E+00
         0.00000E+00
         0.00000E+00
         0.00000E+00
         0.00000E+00
         0.00000E+00
         0.00000E+00
         0.00000E+00
         0.00000E+00
         0.00000E+00
         0.00000E+00
         0.00000E+00
         0.00000E+00
         0.00000E+00
         0.00000E+00
         0.00000E+00
         0.00000E+00
         0.00000E+00
         0.00000E+00
         0.00000E+00
         0.00000E+00
         0.00000E+00
         0.00000E+00
         0.00000E+00
         0.00000E+00
         0.00000E+00
         0.00000E+00
         0.00000E+00
         0.00000E+00
         0.00000E+00
         0.00000E+00
         0.00000E+00
         0.00000E+00
         0.00000E+00
         0.00000E+00
         0.00000E+00
         0.00000E+00
         0.00000E+00
         0.00000E+00
         0.00000E+00
         0.00000E+00
         0.00000E+00
         0.00000E+00
         0.00000E+00
         0.00000E+00
         0.00000E+00
         0.00000E+00
         0.00000E+00
         0.00000E+00
         0.00000E+00
         0.00000E+00
         0.00000E+00
         0.00000E+00
         0.00000E+00
         0.00000E+00
         0.00000E+00
         0.00000E+00
         0.00000E+00
         0.00000E+00
         0.00000E+00
         0.00000E+00
         0.00000E+00
         0.00000E+00
         0.00000E+00
         0.00000E+00
         0.00000E+00
         0.00000E+00
         0.00000E+00
         0.00000E+00
         0.00000E+00
         0.00000E+00
         0.00000E+00
         0.00000E+00
         0.00000E+00
         0.00000E+00
         0.00000E+00
         0.00000E+00
         0.00000E+00
         0.00000E+00
         0.00000E+00
         0.00000E+00
         0.00000E+00
         0.00000E+00
         0.00000E+00
         0.00000E+00
         0.00000E+00
         0.00000E+00
         0.00000E+00
         0.00000E+00
         0.00000E+00
         0.00000E+00
         0.00000E+00
         0.00000E+00
         0.00000E+00
         0.00000E+00
         0.00000E+00
         0.00000E+00
         0.00000E+00
         0.00000E+00
         0.00000E+00
         0.00000E+00
         0.00000E+00
         0.00000E+00
         0.00000E+00
         0.00000E+00
         0.00000E+00
         0.00000E+00
         0.00000E+00
         0.00000E+00
         0.00000E+00
         0.00000E+00
         0.00000E+00
         0.00000E+00
         0.00000E+00
         0.00000E+00
         0.00000E+00
         0.00000E+00
         0.00000E+00
         0.00000E+00
         0.00000E+00
         0.00000E+00
         0.00000E+00
         0.00000E+00
         0.00000E+00
         0.00000E+00
         0.00000E+00
         0.00000E+00
         0.00000E+00
         0.00000E+00
         0.00000E+00
         0.00000E+00
         0.00000E+00
         0.00000E+00
         0.00000E+00
         0.00000E+00
         0.00000E+00
         0.00000E+00
         0.00000E+00
         0.00000E+00
         0.00000E+00
         0.00000E+00
         0.00000E+00
         0.00000E+00
         0.00000E+00
         0.00000E+00
         0.00000E+00
         0.00000E+00
         0.00000E+00
         0.00000E+00
         0.00000E+00
         0.00000E+00
         0.00000E+00
         0.00000E+00
         0.00000E+00
         0.00000E+00
         0.00000E+00
         0.00000E+00
         0.00000E+00
         0.00000E+00
         0.00000E+00
         0.00000E+00
         0.00000E+00
         0.00000E+00
         0.00000E+00
         0.00000E+00
         0.00000E+00
         0.00000E+00
         0.00000E+00
         0.00000E+00
         0.00000E+00
         0.00000E+00
         0.00000E+00
         0.00000E+00
         0.00000E+00
         0.00000E+00
         0.00000E+00
         0.00000E+00
         0.00000E+00
         0.00000E+00
         0.00000E+00
         0.00000E+00
         0.00000E+00
         0.00000E+00
         0.00000E+00
         0.00000E+00
         0.00000E+00
         0.00000E+00
         0.00000E+00
         0.00000E+00
         0.00000E+00
         0.00000E+00
         0.00000E+00
         0.00000E+00
         0.00000E+00
         0.00000E+00
         0.00000E+00
         0.00000E+00
         0.00000E+00
         0.00000E+00
         0.00000E+00
         0.00000E+00
         0.00000E+00
         0.00000E+00
         0.00000E+00
         0.00000E+00
         0.00000E+00
         0.00000E+00
         0.00000E+00
         0.00000E+00
         0.00000E+00
         0.00000E+00
         0.00000E+00
         0.00000E+00
         0.00000E+00
         0.00000E+00
         0.00000E+00
         0.00000E+00
         0.00000E+00
         0.00000E+00
         0.00000E+00
         0.00000E+00
         0.00000E+00
         0.00000E+00
         0.00000E+00
         0.00000E+00
         0.00000E+00
         0.00000E+00
         0.00000E+00
         0.00000E+00
         0.00000E+00
         0.00000E+00
         0.00000E+00
         0.00000E+00
         0.00000E+00
         0.00000E+00
         0.00000E+00
         0.00000E+00
         0.00000E+00
         0.00000E+00
         0.00000E+00
         0.00000E+00
         0.00000E+00
         0.00000E+00
         0.00000E+00
         0.00000E+00
         0.00000E+00
         0.00000E+00
         0.00000E+00
         0.00000E+00
         0.00000E+00
         0.00000E+00
         0.00000E+00
         0.00000E+00
         0.00000E+00
         0.00000E+00
         0.00000E+00
         0.00000E+00
         0.00000E+00
         0.00000E+00
         0.00000E+00
         0.00000E+00
         0.00000E+00
         0.00000E+00
         0.00000E+00
         0.00000E+00
         0.00000E+00
         0.00000E+00
         0.00000E+00
         0.00000E+00
         0.00000E+00
         0.00000E+00
         0.00000E+00
         0.00000E+00
         0.00000E+00
         0.00000E+00
         0.00000E+00
         0.00000E+00
         0.00000E+00
         0.00000E+00
         0.00000E+00
         0.00000E+00
         0.00000E+00
         0.00000E+00
         0.00000E+00
         0.00000E+00
         0.00000E+00
         0.00000E+00
         0.00000E+00
         0.00000E+00
         0.00000E+00
         0.00000E+00
         0.00000E+00
         0.00000E+00
         0.00000E+00
         0.00000E+00
         0.00000E+00
         0.00000E+00
         0.00000E+00
         0.00000E+00
         0.00000E+00
         0.00000E+00
         0.00000E+00
         0.00000E+00
         0.00000E+00
         0.00000E+00
         0.00000E+00
         0.00000E+00
         0.00000E+00
         0.00000E+00
         0.00000E+00
         0.00000E+00
         0.00000E+00
         0.00000E+00
         0.00000E+00
         0.00000E+00
         0.00000E+00
         0.00000E+00
         0.00000E+00
         0.00000E+00
         0.00000E+00
         0.00000E+00
         0.00000E+00
         0.00000E+00
         0.00000E+00
         0.00000E+00
         0.00000E+00
         0.00000E+00
         0.00000E+00
         0.00000E+00
         0.00000E+00
         0.00000E+00
         0.00000E+00
         0.00000E+00
         0.00000E+00
         0.00000E+00
         0.00000E+00
         0.00000E+00
         0.00000E+00
         0.00000E+00
         0.00000E+00
         0.00000E+00
         0.00000E+00
         0.00000E+00
         0.00000E+00
         0.00000E+00
         0.00000E+00
         0.00000E+00
         0.00000E+00
         0.00000E+00
         0.00000E+00
         0.00000E+00
         0.00000E+00
         0.00000E+00
         0.00000E+00
         0.00000E+00
         0.00000E+00
         0.00000E+00
         0.00000E+00
         0.00000E+00
         0.00000E+00
         0.00000E+00
         0.00000E+00
         0.00000E+00
         0.00000E+00
         0.00000E+00
         0.00000E+00
         0.00000E+00
         0.00000E+00
         0.00000E+00
         0.00000E+00
         0.00000E+00
         0.00000E+00
         0.00000E+00
         0.00000E+00
         0.00000E+00
         0.00000E+00
         0.00000E+00
         0.00000E+00
         0.00000E+00
         0.00000E+00
         0.00000E+00
         0.00000E+00
         0.00000E+00
         0.00000E+00
         0.00000E+00
         0.00000E+00
         0.00000E+00
         0.00000E+00
         0.00000E+00
         0.00000E+00
         0.00000E+00
         0.00000E+00
         0.00000E+00
         0.00000E+00
         0.00000E+00
         0.00000E+00
         0.00000E+00
         0.00000E+00
         0.00000E+00
         0.00000E+00
         0.00000E+00
         0.00000E+00
         0.00000E+00
         0.00000E+00
         0.00000E+00
         0.00000E+00
         0.00000E+00
         0.00000E+00
         0.00000E+00
         0.00000E+00
         0.00000E+00
         0.00000E+00
         0.00000E+00
         0.00000E+00
         0.00000E+00
         0.00000E+00
         0.00000E+00
         0.00000E+00
         0.00000E+00
         0.00000E+00
         0.00000E+00
         0.00000E+00
         0.00000E+00
         0.00000E+00
         0.00000E+00
         0.00000E+00
         0.00000E+00
         0.00000E+00
         0.00000E+00
         0.00000E+00
         0.00000E+00
         0.00000E+00
         0.00000E+00
         0.00000E+00
         0.00000E+00
         0.00000E+00
         0.00000E+00
         0.00000E+00
         0.00000E+00
         0.00000E+00
         0.00000E+00
         0.00000E+00
         0.00000E+00
         0.00000E+00
         0.00000E+00
         0.00000E+00
         0.00000E+00
         0.00000E+00
         0.00000E+00
         0.00000E+00
         0.00000E+00
         0.00000E+00
         0.00000E+00
         0.00000E+00
         0.00000E+00
         0.00000E+00
         0.00000E+00
         0.00000E+00
         0.00000E+00
         0.00000E+00
         0.00000E+00
         0.00000E+00
         0.00000E+00
         0.00000E+00
         0.00000E+00
         0.00000E+00
         0.00000E+00
         0.00000E+00
         0.00000E+00
         0.00000E+00
         0.00000E+00
         0.00000E+00
         0.00000E+00
         0.00000E+00
         0.00000E+00
         0.00000E+00
         0.00000E+00
         0.00000E+00
         0.00000E+00
         0.00000E+00
         0.00000E+00
         0.00000E+00
         0.00000E+00
         0.00000E+00
         0.00000E+00
         0.00000E+00
         0.00000E+00
         0.00000E+00
         0.00000E+00
         0.00000E+00
         0.00000E+00
         0.00000E+00
         0.00000E+00
         0.00000E+00
         0.00000E+00
         0.00000E+00
         0.00000E+00
         0.00000E+00
         0.00000E+00
         0.00000E+00
         0.00000E+00
         0.00000E+00
         0.00000E+00
         0.00000E+00
         0.00000E+00
         0.00000E+00
         0.00000E+00
         0.00000E+00
         0.00000E+00
         0.00000E+00
         0.00000E+00
         0.00000E+00
         0.00000E+00
         0.00000E+00
         0.00000E+00
         0.00000E+00
         0.00000E+00
         0.00000E+00
         0.00000E+00
         0.00000E+00
         0.00000E+00
         0.00000E+00
         0.00000E+00
         0.00000E+00
         0.00000E+00
         0.00000E+00
         0.00000E+00
         0.00000E+00
         0.00000E+00
         0.00000E+00
         0.00000E+00
         0.00000E+00
         0.00000E+00
         0.00000E+00
         0.00000E+00
         0.00000E+00
         0.00000E+00
         0.00000E+00
         0.00000E+00
         0.00000E+00
         0.00000E+00
         0.00000E+00
         0.00000E+00
         0.00000E+00
         0.00000E+00
         0.00000E+00
         0.00000E+00
         0.00000E+00
         0.00000E+00
         0.00000E+00
         0.00000E+00
         0.00000E+00
         0.00000E+00
         0.00000E+00
         0.00000E+00
         0.00000E+00
         0.00000E+00
         0.00000E+00
         0.00000E+00
         0.00000E+00
         0.00000E+00
         0.00000E+00
         0.00000E+00
         0.00000E+00
         0.00000E+00
         0.00000E+00
         0.00000E+00
         0.00000E+00
         0.00000E+00
         0.00000E+00
         0.00000E+00
         0.00000E+00
         0.00000E+00
         0.00000E+00
         0.00000E+00
         0.00000E+00
         0.00000E+00
         0.00000E+00
         0.00000E+00
         0.00000E+00
         0.00000E+00
         0.00000E+00
         0.00000E+00
         0.00000E+00
         0.00000E+00
         0.00000E+00
         0.00000E+00
         0.00000E+00
         0.00000E+00
         0.00000E+00
         0.00000E+00
         0.00000E+00
         0.00000E+00
         0.00000E+00
         0.00000E+00
         0.00000E+00
         0.00000E+00
         0.00000E+00
         0.00000E+00
         0.00000E+00
         0.00000E+00
         0.00000E+00
         0.00000E+00
         0.00000E+00
         0.00000E+00
         0.00000E+00
         0.00000E+00
         0.00000E+00
         0.00000E+00
         0.00000E+00
         0.00000E+00
         0.00000E+00
         0.00000E+00
         0.00000E+00
         0.00000E+00
         0.00000E+00
         0.00000E+00
         0.00000E+00
         0.00000E+00
         0.00000E+00
         0.00000E+00
         0.00000E+00
         0.00000E+00
         0.00000E+00
         0.00000E+00
         0.00000E+00
         0.00000E+00
         0.00000E+00
         0.00000E+00
         0.00000E+00
         0.00000E+00
         0.00000E+00
         0.00000E+00
         0.00000E+00
         0.00000E+00
         0.00000E+00
         0.00000E+00
         0.00000E+00
         0.00000E+00
         0.00000E+00
         0.00000E+00
         0.00000E+00
         0.00000E+00
         0.00000E+00
         0.00000E+00
         0.00000E+00
         0.00000E+00
         0.00000E+00
         0.00000E+00
         0.00000E+00
         0.00000E+00
         0.00000E+00
         0.00000E+00
         0.00000E+00
         0.00000E+00
         0.00000E+00
         0.00000E+00
         0.00000E+00
         0.00000E+00
         0.00000E+00
         0.00000E+00
         0.00000E+00
         0.00000E+00
         0.00000E+00
         0.00000E+00
         0.00000E+00
         0.00000E+00
         0.00000E+00
         0.00000E+00
         0.00000E+00
         0.00000E+00
         0.00000E+00
         0.00000E+00
         0.00000E+00
         0.00000E+00
         0.00000E+00
         0.00000E+00
         0.00000E+00
         0.00000E+00
         0.00000E+00
         0.00000E+00
         0.00000E+00
         0.00000E+00
         0.00000E+00
         0.00000E+00
         0.00000E+00
         0.00000E+00
         0.00000E+00
         0.00000E+00
         0.00000E+00
         0.00000E+00
         0.00000E+00
         0.00000E+00
         0.00000E+00
         0.00000E+00
         0.00000E+00
         0.00000E+00
         0.00000E+00
         0.00000E+00
         0.00000E+00
         0.00000E+00
         0.00000E+00
         0.00000E+00
         0.00000E+00
         0.00000E+00
         0.00000E+00
         0.00000E+00
         0.00000E+00
         0.00000E+00
         0.00000E+00
         0.00000E+00
         0.00000E+00
         0.00000E+00
         0.00000E+00
         0.00000E+00
         0.00000E+00
         0.00000E+00
         0.00000E+00
         0.00000E+00
         0.00000E+00
         0.00000E+00
         0.00000E+00
         0.00000E+00
         0.00000E+00
         0.00000E+00
         0.00000E+00
         0.00000E+00
         0.00000E+00
         0.00000E+00
         0.00000E+00
         0.00000E+00
         0.00000E+00
         0.00000E+00
         0.00000E+00
         0.00000E+00
         0.00000E+00
         0.00000E+00
         0.00000E+00
         0.00000E+00
         0.00000E+00
         0.00000E+00
         0.00000E+00
         0.00000E+00
         0.00000E+00
         0.00000E+00
         0.00000E+00
         0.00000E+00
         0.00000E+00
         0.00000E+00
         0.00000E+00
         0.00000E+00
         0.00000E+00
         0.00000E+00
         0.00000E+00
         0.00000E+00
         0.00000E+00
         0.00000E+00
         0.00000E+00
         0.00000E+00
         0.00000E+00
         0.00000E+00
         0.00000E+00
         0.00000E+00
         0.00000E+00
         0.00000E+00
         0.00000E+00
         0.00000E+00
         0.00000E+00
         0.00000E+00
         0.00000E+00
         0.00000E+00
         0.00000E+00
         0.00000E+00
         0.00000E+00
         0.00000E+00
         0.00000E+00
         0.00000E+00
         0.00000E+00
         0.00000E+00
         0.00000E+00
         0.00000E+00
         0.00000E+00
         0.00000E+00
         0.00000E+00
         0.00000E+00
         0.00000E+00
         0.00000E+00
         0.00000E+00
         0.00000E+00
         0.00000E+00
         0.00000E+00
         0.00000E+00
         0.00000E+00
         0.00000E+00
         0.00000E+00
         0.00000E+00
         0.00000E+00
         0.00000E+00
         0.00000E+00
         0.00000E+00
         0.00000E+00
         0.00000E+00
         0.00000E+00
         0.00000E+00
         0.00000E+00
         0.00000E+00
         0.00000E+00
         0.00000E+00
         0.00000E+00
         0.00000E+00
         0.00000E+00
         0.00000E+00
         0.00000E+00
         0.00000E+00
         0.00000E+00
         0.00000E+00
         0.00000E+00
         0.00000E+00
         0.00000E+00
         0.00000E+00
         0.00000E+00
         0.00000E+00
         0.00000E+00
         0.00000E+00
         0.00000E+00
         0.00000E+00
         0.00000E+00
         0.00000E+00
         0.00000E+00
         0.00000E+00
         0.00000E+00
         0.00000E+00
         0.00000E+00
         0.00000E+00
         0.00000E+00
         0.00000E+00
         0.00000E+00
         0.00000E+00
         0.00000E+00
         0.00000E+00
         0.00000E+00
         0.00000E+00
         0.00000E+00
         0.00000E+00
         0.00000E+00
         0.00000E+00
         0.00000E+00
         0.00000E+00
         0.00000E+00
         0.00000E+00
         0.00000E+00
         0.00000E+00
         0.00000E+00
         0.00000E+00
         0.00000E+00
         0.00000E+00
         0.00000E+00
         0.00000E+00
         0.00000E+00
         0.00000E+00
         0.00000E+00
         0.00000E+00
         0.00000E+00
         0.00000E+00
         0.00000E+00
         0.00000E+00
         0.00000E+00
         0.00000E+00
         0.00000E+00
         0.00000E+00
         0.00000E+00
         0.00000E+00
         0.00000E+00
         0.00000E+00
         0.00000E+00
         0.00000E+00
         0.00000E+00
         0.00000E+00
         0.00000E+00
         0.00000E+00
         0.00000E+00
         0.00000E+00
         0.00000E+00
         0.00000E+00
         0.00000E+00
         0.00000E+00
         0.00000E+00
         0.00000E+00
         0.00000E+00
         0.00000E+00
         0.00000E+00
         0.00000E+00
         0.00000E+00
         0.00000E+00
         0.00000E+00
         0.00000E+00
         0.00000E+00
         0.00000E+00
         0.00000E+00
         0.00000E+00
         0.00000E+00
         0.00000E+00
         0.00000E+00
         0.00000E+00
         0.00000E+00
         0.00000E+00
         0.00000E+00
         0.00000E+00
         0.00000E+00
         0.00000E+00
         0.00000E+00
         0.00000E+00
         0.00000E+00
         0.00000E+00
         0.00000E+00
         0.00000E+00
         0.00000E+00
         0.00000E+00
         0.00000E+00
         0.00000E+00
         0.00000E+00
         0.00000E+00
         0.00000E+00
         0.00000E+00
         0.00000E+00
         0.00000E+00
         0.00000E+00
         0.00000E+00
         0.00000E+00
         0.00000E+00
         0.00000E+00
         0.00000E+00
         0.00000E+00
         0.00000E+00
         0.00000E+00
         0.00000E+00
         0.00000E+00
         0.00000E+00
         0.00000E+00
         0.00000E+00
         0.00000E+00
         0.00000E+00
         0.00000E+00
         0.00000E+00
         0.00000E+00
         0.00000E+00
         0.00000E+00
         0.00000E+00
         0.00000E+00
         0.00000E+00
         0.00000E+00
         0.00000E+00
         0.00000E+00
         0.00000E+00
         0.00000E+00
         0.00000E+00
         0.00000E+00
         0.00000E+00
         0.00000E+00
         0.00000E+00
         0.00000E+00
         0.00000E+00
         0.00000E+00
         0.00000E+00
         0.00000E+00
         0.00000E+00
         0.00000E+00
         0.00000E+00
         0.00000E+00
         0.00000E+00
         0.00000E+00
         0.00000E+00
         0.00000E+00
         0.00000E+00
         0.00000E+00
         0.00000E+00
         0.00000E+00
         0.00000E+00
         0.00000E+00
         0.00000E+00
         0.00000E+00
         0.00000E+00
         0.00000E+00
         0.00000E+00
         0.00000E+00
         0.00000E+00
         0.00000E+00
  
SCALARS                init_velocity_y  double 1
LOOKUP_TABLE default
         0.00000E+00
         0.00000E+00
         0.00000E+00
         0.00000E+00
         0.00000E+00
         0.00000E+00
         0.00000E+00
         0.00000E+00
         0.00000E+00
         0.00000E+00
         0.00000E+00
         0.00000E+00
         0.00000E+00
         0.00000E+00
         0.00000E+00
         0.00000E+00
         0.00000E+00
         0.00000E+00
         0.00000E+00
         0.00000E+00
         0.00000E+00
         0.00000E+00
         0.00000E+00
         0.00000E+00
         0.00000E+00
         0.00000E+00
         0.00000E+00
         0.00000E+00
         0.00000E+00
         0.00000E+00
         0.00000E+00
         0.00000E+00
         0.00000E+00
         0.00000E+00
         0.00000E+00
         0.00000E+00
         0.00000E+00
         0.00000E+00
         0.00000E+00
         0.00000E+00
         0.00000E+00
         0.00000E+00
         0.00000E+00
         0.00000E+00
         0.00000E+00
         0.00000E+00
         0.00000E+00
         0.00000E+00
         0.00000E+00
         0.00000E+00
         0.00000E+00
         0.00000E+00
         0.00000E+00
         0.00000E+00
         0.00000E+00
         0.00000E+00
         0.00000E+00
         0.00000E+00
         0.00000E+00
         0.00000E+00
         0.00000E+00
         0.00000E+00
         0.00000E+00
         0.00000E+00
         0.00000E+00
         0.00000E+00
         0.00000E+00
         0.00000E+00
         0.00000E+00
         0.00000E+00
         0.00000E+00
         0.00000E+00
         0.00000E+00
         0.00000E+00
         0.00000E+00
         0.00000E+00
         0.00000E+00
         0.00000E+00
         0.00000E+00
         0.00000E+00
         0.00000E+00
         0.00000E+00
         0.00000E+00
         0.00000E+00
         0.00000E+00
         0.00000E+00
         0.00000E+00
         0.00000E+00
         0.00000E+00
         0.00000E+00
         0.00000E+00
         0.00000E+00
         0.00000E+00
         0.00000E+00
         0.00000E+00
         0.00000E+00
         0.00000E+00
         0.00000E+00
         0.00000E+00
         0.00000E+00
         0.00000E+00
         0.00000E+00
         0.00000E+00
         0.00000E+00
         0.00000E+00
         0.00000E+00
         0.00000E+00
         0.00000E+00
         0.00000E+00
         0.00000E+00
         0.00000E+00
         0.00000E+00
         0.00000E+00
         0.00000E+00
         0.00000E+00
         0.00000E+00
         0.00000E+00
         0.00000E+00
         0.00000E+00
         0.00000E+00
         0.00000E+00
         0.00000E+00
         0.00000E+00
         0.00000E+00
         0.00000E+00
         0.00000E+00
         0.00000E+00
         0.00000E+00
         0.00000E+00
         0.00000E+00
         0.00000E+00
         0.00000E+00
         0.00000E+00
         0.00000E+00
         0.00000E+00
         0.00000E+00
         0.00000E+00
         0.00000E+00
         0.00000E+00
         0.00000E+00
         0.00000E+00
         0.00000E+00
         0.00000E+00
         0.00000E+00
         0.00000E+00
         0.00000E+00
         0.00000E+00
         0.00000E+00
         0.00000E+00
         0.00000E+00
         0.00000E+00
         0.00000E+00
         0.00000E+00
         0.00000E+00
         0.00000E+00
         0.00000E+00
         0.00000E+00
         0.00000E+00
         0.00000E+00
         0.00000E+00
         0.00000E+00
         0.00000E+00
         0.00000E+00
         0.00000E+00
         0.00000E+00
         0.00000E+00
         0.00000E+00
         0.00000E+00
         0.00000E+00
         0.00000E+00
         0.00000E+00
         0.00000E+00
         0.00000E+00
         0.00000E+00
         0.00000E+00
         0.00000E+00
         0.00000E+00
         0.00000E+00
         0.00000E+00
         0.00000E+00
         0.00000E+00
         0.00000E+00
         0.00000E+00
         0.00000E+00
         0.00000E+00
         0.00000E+00
         0.00000E+00
         0.00000E+00
         0.00000E+00
         0.00000E+00
         0.00000E+00
         0.00000E+00
         0.00000E+00
         0.00000E+00
         0.00000E+00
         0.00000E+00
         0.00000E+00
         0.00000E+00
         0.00000E+00
         0.00000E+00
         0.00000E+00
         0.00000E+00
         0.00000E+00
         0.00000E+00
         0.00000E+00
         0.00000E+00
         0.00000E+00
         0.00000E+00
         0.00000E+00
         0.00000E+00
         0.00000E+00
         0.00000E+00
         0.00000E+00
         0.00000E+00
         0.00000E+00
         0.00000E+00
         0.00000E+00
         0.00000E+00
         0.00000E+00
         0.00000E+00
         0.00000E+00
         0.00000E+00
         0.00000E+00
         0.00000E+00
         0.00000E+00
         0.00000E+00
         0.00000E+00
         0.00000E+00
         0.00000E+00
         0.00000E+00
         0.00000E+00
         0.00000E+00
         0.00000E+00
         0.00000E+00
         0.00000E+00
         0.00000E+00
         0.00000E+00
         0.00000E+00
         0.00000E+00
         0.00000E+00
         0.00000E+00
         0.00000E+00
         0.00000E+00
         0.00000E+00
         0.00000E+00
         0.00000E+00
         0.00000E+00
         0.00000E+00
         0.00000E+00
         0.00000E+00
         0.00000E+00
         0.00000E+00
         0.00000E+00
         0.00000E+00
         0.00000E+00
         0.00000E+00
         0.00000E+00
         0.00000E+00
         0.00000E+00
         0.00000E+00
         0.00000E+00
         0.00000E+00
         0.00000E+00
         0.00000E+00
         0.00000E+00
         0.00000E+00
         0.00000E+00
         0.00000E+00
         0.00000E+00
         0.00000E+00
         0.00000E+00
         0.00000E+00
         0.00000E+00
         0.00000E+00
         0.00000E+00
         0.00000E+00
         0.00000E+00
         0.00000E+00
         0.00000E+00
         0.00000E+00
         0.00000E+00
         0.00000E+00
         0.00000E+00
         0.00000E+00
         0.00000E+00
         0.00000E+00
         0.00000E+00
         0.00000E+00
         0.00000E+00
         0.00000E+00
         0.00000E+00
         0.00000E+00
         0.00000E+00
         0.00000E+00
         0.00000E+00
         0.00000E+00
         0.00000E+00
         0.00000E+00
         0.00000E+00
         0.00000E+00
         0.00000E+00
         0.00000E+00
         0.00000E+00
         0.00000E+00
         0.00000E+00
         0.00000E+00
         0.00000E+00
         0.00000E+00
         0.00000E+00
         0.00000E+00
         0.00000E+00
         0.00000E+00
         0.00000E+00
         0.00000E+00
         0.00000E+00
         0.00000E+00
         0.00000E+00
         0.00000E+00
         0.00000E+00
         0.00000E+00
         0.00000E+00
         0.00000E+00
         0.00000E+00
         0.00000E+00
         0.00000E+00
         0.00000E+00
         0.00000E+00
         0.00000E+00
         0.00000E+00
         0.00000E+00
         0.00000E+00
         0.00000E+00
         0.00000E+00
         0.00000E+00
         0.00000E+00
         0.00000E+00
         0.00000E+00
         0.00000E+00
         0.00000E+00
         0.00000E+00
         0.00000E+00
         0.00000E+00
         0.00000E+00
         0.00000E+00
         0.00000E+00
         0.00000E+00
         0.00000E+00
         0.00000E+00
         0.00000E+00
         0.00000E+00
         0.00000E+00
         0.00000E+00
         0.00000E+00
         0.00000E+00
         0.00000E+00
         0.00000E+00
         0.00000E+00
         0.00000E+00
         0.00000E+00
         0.00000E+00
         0.00000E+00
         0.00000E+00
         0.00000E+00
         0.00000E+00
         0.00000E+00
         0.00000E+00
         0.00000E+00
         0.00000E+00
         0.00000E+00
         0.00000E+00
         0.00000E+00
         0.00000E+00
         0.00000E+00
         0.00000E+00
         0.00000E+00
         0.00000E+00
         0.00000E+00
         0.00000E+00
         0.00000E+00
         0.00000E+00
         0.00000E+00
         0.00000E+00
         0.00000E+00
         0.00000E+00
         0.00000E+00
         0.00000E+00
         0.00000E+00
         0.00000E+00
         0.00000E+00
         0.00000E+00
         0.00000E+00
         0.00000E+00
         0.00000E+00
         0.00000E+00
         0.00000E+00
         0.00000E+00
         0.00000E+00
         0.00000E+00
         0.00000E+00
         0.00000E+00
         0.00000E+00
         0.00000E+00
         0.00000E+00
         0.00000E+00
         0.00000E+00
         0.00000E+00
         0.00000E+00
         0.00000E+00
         0.00000E+00
         0.00000E+00
         0.00000E+00
         0.00000E+00
         0.00000E+00
         0.00000E+00
         0.00000E+00
         0.00000E+00
         0.00000E+00
         0.00000E+00
         0.00000E+00
         0.00000E+00
         0.00000E+00
         0.00000E+00
         0.00000E+00
         0.00000E+00
         0.00000E+00
         0.00000E+00
         0.00000E+00
         0.00000E+00
         0.00000E+00
         0.00000E+00
         0.00000E+00
         0.00000E+00
         0.00000E+00
         0.00000E+00
         0.00000E+00
         0.00000E+00
         0.00000E+00
         0.00000E+00
         0.00000E+00
         0.00000E+00
         0.00000E+00
         0.00000E+00
         0.00000E+00
         0.00000E+00
         0.00000E+00
         0.00000E+00
         0.00000E+00
         0.00000E+00
         0.00000E+00
         0.00000E+00
         0.00000E+00
         0.00000E+00
         0.00000E+00
         0.00000E+00
         0.00000E+00
         0.00000E+00
         0.00000E+00
         0.00000E+00
         0.00000E+00
         0.00000E+00
         0.00000E+00
         0.00000E+00
         0.00000E+00
         0.00000E+00
         0.00000E+00
         0.00000E+00
         0.00000E+00
         0.00000E+00
         0.00000E+00
         0.00000E+00
         0.00000E+00
         0.00000E+00
         0.00000E+00
         0.00000E+00
         0.00000E+00
         0.00000E+00
         0.00000E+00
         0.00000E+00
         0.00000E+00
         0.00000E+00
         0.00000E+00
         0.00000E+00
         0.00000E+00
         0.00000E+00
         0.00000E+00
         0.00000E+00
         0.00000E+00
         0.00000E+00
         0.00000E+00
         0.00000E+00
         0.00000E+00
         0.00000E+00
         0.00000E+00
         0.00000E+00
         0.00000E+00
         0.00000E+00
         0.00000E+00
         0.00000E+00
         0.00000E+00
         0.00000E+00
         0.00000E+00
         0.00000E+00
         0.00000E+00
         0.00000E+00
         0.00000E+00
         0.00000E+00
         0.00000E+00
         0.00000E+00
         0.00000E+00
         0.00000E+00
         0.00000E+00
         0.00000E+00
         0.00000E+00
         0.00000E+00
         0.00000E+00
         0.00000E+00
         0.00000E+00
         0.00000E+00
         0.00000E+00
         0.00000E+00
         0.00000E+00
         0.00000E+00
         0.00000E+00
         0.00000E+00
         0.00000E+00
         0.00000E+00
         0.00000E+00
         0.00000E+00
         0.00000E+00
         0.00000E+00
         0.00000E+00
         0.00000E+00
         0.00000E+00
         0.00000E+00
         0.00000E+00
         0.00000E+00
         0.00000E+00
         0.00000E+00
         0.00000E+00
         0.00000E+00
         0.00000E+00
         0.00000E+00
         0.00000E+00
         0.00000E+00
         0.00000E+00
         0.00000E+00
         0.00000E+00
         0.00000E+00
         0.00000E+00
         0.00000E+00
         0.00000E+00
         0.00000E+00
         0.00000E+00
         0.00000E+00
         0.00000E+00
         0.00000E+00
         0.00000E+00
         0.00000E+00
         0.00000E+00
         0.00000E+00
         0.00000E+00
         0.00000E+00
         0.00000E+00
         0.00000E+00
         0.00000E+00
         0.00000E+00
         0.00000E+00
         0.00000E+00
         0.00000E+00
         0.00000E+00
         0.00000E+00
         0.00000E+00
         0.00000E+00
         0.00000E+00
         0.00000E+00
         0.00000E+00
         0.00000E+00
         0.00000E+00
         0.00000E+00
         0.00000E+00
         0.00000E+00
         0.00000E+00
         0.00000E+00
         0.00000E+00
         0.00000E+00
         0.00000E+00
         0.00000E+00
         0.00000E+00
         0.00000E+00
         0.00000E+00
         0.00000E+00
         0.00000E+00
         0.00000E+00
         0.00000E+00
         0.00000E+00
         0.00000E+00
         0.00000E+00
         0.00000E+00
         0.00000E+00
         0.00000E+00
         0.00000E+00
         0.00000E+00
         0.00000E+00
         0.00000E+00
         0.00000E+00
         0.00000E+00
         0.00000E+00
         0.00000E+00
         0.00000E+00
         0.00000E+00
         0.00000E+00
         0.00000E+00
         0.00000E+00
         0.00000E+00
         0.00000E+00
         0.00000E+00
         0.00000E+00
         0.00000E+00
         0.00000E+00
         0.00000E+00
         0.00000E+00
         0.00000E+00
         0.00000E+00
         0.00000E+00
         0.00000E+00
         0.00000E+00
         0.00000E+00
         0.00000E+00
         0.00000E+00
         0.00000E+00
         0.00000E+00
         0.00000E+00
         0.00000E+00
         0.00000E+00
         0.00000E+00
         0.00000E+00
         0.00000E+00
         0.00000E+00
         0.00000E+00
         0.00000E+00
         0.00000E+00
         0.00000E+00
         0.00000E+00
         0.00000E+00
         0.00000E+00
         0.00000E+00
         0.00000E+00
         0.00000E+00
         0.00000E+00
         0.00000E+00
         0.00000E+00
         0.00000E+00
         0.00000E+00
         0.00000E+00
         0.00000E+00
         0.00000E+00
         0.00000E+00
         0.00000E+00
         0.00000E+00
         0.00000E+00
         0.00000E+00
         0.00000E+00
         0.00000E+00
         0.00000E+00
         0.00000E+00
         0.00000E+00
         0.00000E+00
         0.00000E+00
         0.00000E+00
         0.00000E+00
         0.00000E+00
         0.00000E+00
         0.00000E+00
         0.00000E+00
         0.00000E+00
         0.00000E+00
         0.00000E+00
         0.00000E+00
         0.00000E+00
         0.00000E+00
         0.00000E+00
         0.00000E+00
         0.00000E+00
         0.00000E+00
         0.00000E+00
         0.00000E+00
         0.00000E+00
         0.00000E+00
         0.00000E+00
         0.00000E+00
         0.00000E+00
         0.00000E+00
         0.00000E+00
         0.00000E+00
         0.00000E+00
         0.00000E+00
         0.00000E+00
         0.00000E+00
         0.00000E+00
         0.00000E+00
         0.00000E+00
         0.00000E+00
         0.00000E+00
         0.00000E+00
         0.00000E+00
         0.00000E+00
         0.00000E+00
         0.00000E+00
         0.00000E+00
         0.00000E+00
         0.00000E+00
         0.00000E+00
         0.00000E+00
         0.00000E+00
         0.00000E+00
         0.00000E+00
         0.00000E+00
         0.00000E+00
         0.00000E+00
         0.00000E+00
         0.00000E+00
         0.00000E+00
         0.00000E+00
         0.00000E+00
         0.00000E+00
         0.00000E+00
         0.00000E+00
         0.00000E+00
         0.00000E+00
         0.00000E+00
         0.00000E+00
         0.00000E+00
         0.00000E+00
         0.00000E+00
         0.00000E+00
         0.00000E+00
         0.00000E+00
         0.00000E+00
         0.00000E+00
         0.00000E+00
         0.00000E+00
         0.00000E+00
         0.00000E+00
         0.00000E+00
         0.00000E+00
         0.00000E+00
         0.00000E+00
         0.00000E+00
         0.00000E+00
         0.00000E+00
         0.00000E+00
         0.00000E+00
         0.00000E+00
         0.00000E+00
         0.00000E+00
         0.00000E+00
         0.00000E+00
         0.00000E+00
         0.00000E+00
         0.00000E+00
         0.00000E+00
         0.00000E+00
         0.00000E+00
         0.00000E+00
         0.00000E+00
         0.00000E+00
         0.00000E+00
         0.00000E+00
         0.00000E+00
         0.00000E+00
         0.00000E+00
         0.00000E+00
         0.00000E+00
         0.00000E+00
         0.00000E+00
         0.00000E+00
         0.00000E+00
         0.00000E+00
         0.00000E+00
         0.00000E+00
         0.00000E+00
         0.00000E+00
         0.00000E+00
         0.00000E+00
         0.00000E+00
         0.00000E+00
         0.00000E+00
         0.00000E+00
         0.00000E+00
         0.00000E+00
         0.00000E+00
         0.00000E+00
         0.00000E+00
         0.00000E+00
         0.00000E+00
         0.00000E+00
         0.00000E+00
         0.00000E+00
         0.00000E+00
         0.00000E+00
         0.00000E+00
         0.00000E+00
         0.00000E+00
         0.00000E+00
         0.00000E+00
         0.00000E+00
         0.00000E+00
         0.00000E+00
         0.00000E+00
         0.00000E+00
         0.00000E+00
         0.00000E+00
         0.00000E+00
         0.00000E+00
         0.00000E+00
         0.00000E+00
         0.00000E+00
         0.00000E+00
         0.00000E+00
         0.00000E+00
         0.00000E+00
         0.00000E+00
         0.00000E+00
         0.00000E+00
         0.00000E+00
         0.00000E+00
         0.00000E+00
         0.00000E+00
         0.00000E+00
         0.00000E+00
         0.00000E+00
         0.00000E+00
         0.00000E+00
         0.00000E+00
         0.00000E+00
         0.00000E+00
         0.00000E+00
         0.00000E+00
         0.00000E+00
         0.00000E+00
         0.00000E+00
         0.00000E+00
         0.00000E+00
         0.00000E+00
         0.00000E+00
         0.00000E+00
         0.00000E+00
         0.00000E+00
         0.00000E+00
         0.00000E+00
         0.00000E+00
         0.00000E+00
         0.00000E+00
         0.00000E+00
         0.00000E+00
         0.00000E+00
         0.00000E+00
         0.00000E+00
         0.00000E+00
         0.00000E+00
         0.00000E+00
         0.00000E+00
         0.00000E+00
         0.00000E+00
         0.00000E+00
         0.00000E+00
         0.00000E+00
         0.00000E+00
         0.00000E+00
         0.00000E+00
         0.00000E+00
         0.00000E+00
         0.00000E+00
         0.00000E+00
         0.00000E+00
         0.00000E+00
         0.00000E+00
         0.00000E+00
         0.00000E+00
         0.00000E+00
         0.00000E+00
         0.00000E+00
         0.00000E+00
         0.00000E+00
         0.00000E+00
         0.00000E+00
         0.00000E+00
         0.00000E+00
         0.00000E+00
         0.00000E+00
         0.00000E+00
         0.00000E+00
         0.00000E+00
         0.00000E+00
         0.00000E+00
         0.00000E+00
         0.00000E+00
         0.00000E+00
         0.00000E+00
         0.00000E+00
         0.00000E+00
         0.00000E+00
         0.00000E+00
         0.00000E+00
         0.00000E+00
         0.00000E+00
         0.00000E+00
         0.00000E+00
         0.00000E+00
         0.00000E+00
         0.00000E+00
         0.00000E+00
         0.00000E+00
         0.00000E+00
         0.00000E+00
         0.00000E+00
         0.00000E+00
         0.00000E+00
         0.00000E+00
         0.00000E+00
         0.00000E+00
         0.00000E+00
         0.00000E+00
         0.00000E+00
         0.00000E+00
         0.00000E+00
         0.00000E+00
         0.00000E+00
         0.00000E+00
         0.00000E+00
         0.00000E+00
         0.00000E+00
         0.00000E+00
         0.00000E+00
         0.00000E+00
         0.00000E+00
         0.00000E+00
         0.00000E+00
         0.00000E+00
         0.00000E+00
         0.00000E+00
         0.00000E+00
         0.00000E+00
         0.00000E+00
         0.00000E+00
         0.00000E+00
         0.00000E+00
         0.00000E+00
         0.00000E+00
         0.00000E+00
         0.00000E+00
         0.00000E+00
         0.00000E+00
         0.00000E+00
         0.00000E+00
         0.00000E+00
         0.00000E+00
         0.00000E+00
         0.00000E+00
         0.00000E+00
         0.00000E+00
         0.00000E+00
         0.00000E+00
         0.00000E+00
         0.00000E+00
         0.00000E+00
         0.00000E+00
         0.00000E+00
         0.00000E+00
         0.00000E+00
         0.00000E+00
         0.00000E+00
         0.00000E+00
         0.00000E+00
         0.00000E+00
         0.00000E+00
         0.00000E+00
         0.00000E+00
         0.00000E+00
         0.00000E+00
         0.00000E+00
         0.00000E+00
         0.00000E+00
         0.00000E+00
         0.00000E+00
         0.00000E+00
         0.00000E+00
         0.00000E+00
         0.00000E+00
         0.00000E+00
         0.00000E+00
         0.00000E+00
         0.00000E+00
         0.00000E+00
         0.00000E+00
         0.00000E+00
         0.00000E+00
         0.00000E+00
         0.00000E+00
         0.00000E+00
         0.00000E+00
         0.00000E+00
         0.00000E+00
         0.00000E+00
         0.00000E+00
         0.00000E+00
         0.00000E+00
         0.00000E+00
         0.00000E+00
         0.00000E+00
         0.00000E+00
         0.00000E+00
         0.00000E+00
         0.00000E+00
         0.00000E+00
         0.00000E+00
         0.00000E+00
         0.00000E+00
         0.00000E+00
         0.00000E+00
         0.00000E+00
         0.00000E+00
         0.00000E+00
         0.00000E+00
         0.00000E+00
         0.00000E+00
         0.00000E+00
         0.00000E+00
         0.00000E+00
         0.00000E+00
         0.00000E+00
         0.00000E+00
         0.00000E+00
         0.00000E+00
         0.00000E+00
         0.00000E+00
         0.00000E+00
         0.00000E+00
         0.00000E+00
         0.00000E+00
         0.00000E+00
         0.00000E+00
         0.00000E+00
         0.00000E+00
         0.00000E+00
         0.00000E+00
         0.00000E+00
         0.00000E+00
         0.00000E+00
         0.00000E+00
         0.00000E+00
         0.00000E+00
         0.00000E+00
         0.00000E+00
         0.00000E+00
         0.00000E+00
         0.00000E+00
         0.00000E+00
         0.00000E+00
         0.00000E+00
         0.00000E+00
         0.00000E+00
         0.00000E+00
         0.00000E+00
         0.00000E+00
         0.00000E+00
         0.00000E+00
         0.00000E+00
         0.00000E+00
         0.00000E+00
         0.00000E+00
         0.00000E+00
         0.00000E+00
         0.00000E+00
         0.00000E+00
         0.00000E+00
         0.00000E+00
         0.00000E+00
         0.00000E+00
         0.00000E+00
         0.00000E+00
         0.00000E+00
         0.00000E+00
         0.00000E+00
         0.00000E+00
         0.00000E+00
         0.00000E+00
         0.00000E+00
         0.00000E+00
         0.00000E+00
         0.00000E+00
         0.00000E+00
         0.00000E+00
         0.00000E+00
         0.00000E+00
         0.00000E+00
         0.00000E+00
         0.00000E+00
         0.00000E+00
         0.00000E+00
         0.00000E+00
         0.00000E+00
         0.00000E+00
         0.00000E+00
         0.00000E+00
         0.00000E+00
         0.00000E+00
         0.00000E+00
         0.00000E+00
         0.00000E+00
         0.00000E+00
         0.00000E+00
         0.00000E+00
         0.00000E+00
         0.00000E+00
         0.00000E+00
         0.00000E+00
         0.00000E+00
         0.00000E+00
         0.00000E+00
         0.00000E+00
         0.00000E+00
         0.00000E+00
         0.00000E+00
         0.00000E+00
         0.00000E+00
         0.00000E+00
         0.00000E+00
         0.00000E+00
         0.00000E+00
         0.00000E+00
         0.00000E+00
         0.00000E+00
         0.00000E+00
         0.00000E+00
         0.00000E+00
         0.00000E+00
         0.00000E+00
         0.00000E+00
         0.00000E+00
         0.00000E+00
         0.00000E+00
         0.00000E+00
         0.00000E+00
         0.00000E+00
         0.00000E+00
         0.00000E+00
         0.00000E+00
         0.00000E+00
         0.00000E+00
         0.00000E+00
         0.00000E+00
         0.00000E+00
         0.00000E+00
         0.00000E+00
         0.00000E+00
         0.00000E+00
         0.00000E+00
         0.00000E+00
         0.00000E+00
         0.00000E+00
         0.00000E+00
         0.00000E+00
         0.00000E+00
         0.00000E+00
         0.00000E+00
         0.00000E+00
         0.00000E+00
         0.00000E+00
         0.00000E+00
         0.00000E+00
         0.00000E+00
         0.00000E+00
         0.00000E+00
         0.00000E+00
         0.00000E+00
         0.00000E+00
         0.00000E+00
         0.00000E+00
         0.00000E+00
         0.00000E+00
         0.00000E+00
         0.00000E+00
         0.00000E+00
         0.00000E+00
         0.00000E+00
         0.00000E+00
         0.00000E+00
         0.00000E+00
         0.00000E+00
         0.00000E+00
         0.00000E+00
         0.00000E+00
         0.00000E+00
         0.00000E+00
         0.00000E+00
         0.00000E+00
         0.00000E+00
         0.00000E+00
         0.00000E+00
         0.00000E+00
         0.00000E+00
         0.00000E+00
         0.00000E+00
         0.00000E+00
         0.00000E+00
         0.00000E+00
         0.00000E+00
         0.00000E+00
         0.00000E+00
         0.00000E+00
         0.00000E+00
         0.00000E+00
         0.00000E+00
         0.00000E+00
         0.00000E+00
         0.00000E+00
         0.00000E+00
         0.00000E+00
         0.00000E+00
         0.00000E+00
         0.00000E+00
         0.00000E+00
         0.00000E+00
         0.00000E+00
         0.00000E+00
         0.00000E+00
         0.00000E+00
         0.00000E+00
         0.00000E+00
         0.00000E+00
         0.00000E+00
         0.00000E+00
         0.00000E+00
         0.00000E+00
         0.00000E+00
         0.00000E+00
         0.00000E+00
         0.00000E+00
         0.00000E+00
         0.00000E+00
         0.00000E+00
         0.00000E+00
         0.00000E+00
         0.00000E+00
         0.00000E+00
         0.00000E+00
         0.00000E+00
         0.00000E+00
         0.00000E+00
         0.00000E+00
         0.00000E+00
         0.00000E+00
         0.00000E+00
         0.00000E+00
         0.00000E+00
         0.00000E+00
         0.00000E+00
         0.00000E+00
         0.00000E+00
         0.00000E+00
         0.00000E+00
         0.00000E+00
         0.00000E+00
         0.00000E+00
         0.00000E+00
         0.00000E+00
         0.00000E+00
         0.00000E+00
         0.00000E+00
         0.00000E+00
         0.00000E+00
         0.00000E+00
         0.00000E+00
         0.00000E+00
         0.00000E+00
         0.00000E+00
         0.00000E+00
         0.00000E+00
         0.00000E+00
         0.00000E+00
         0.00000E+00
         0.00000E+00
         0.00000E+00
         0.00000E+00
         0.00000E+00
         0.00000E+00
         0.00000E+00
         0.00000E+00
         0.00000E+00
         0.00000E+00
         0.00000E+00
         0.00000E+00
         0.00000E+00
         0.00000E+00
         0.00000E+00
         0.00000E+00
         0.00000E+00
         0.00000E+00
         0.00000E+00
         0.00000E+00
         0.00000E+00
         0.00000E+00
         0.00000E+00
         0.00000E+00
         0.00000E+00
         0.00000E+00
         0.00000E+00
         0.00000E+00
         0.00000E+00
         0.00000E+00
         0.00000E+00
         0.00000E+00
         0.00000E+00
         0.00000E+00
         0.00000E+00
         0.00000E+00
         0.00000E+00
         0.00000E+00
         0.00000E+00
         0.00000E+00
         0.00000E+00
         0.00000E+00
         0.00000E+00
         0.00000E+00
         0.00000E+00
         0.00000E+00
         0.00000E+00
         0.00000E+00
         0.00000E+00
         0.00000E+00
         0.00000E+00
         0.00000E+00
         0.00000E+00
         0.00000E+00
         0.00000E+00
         0.00000E+00
         0.00000E+00
         0.00000E+00
         0.00000E+00
         0.00000E+00
         0.00000E+00
         0.00000E+00
         0.00000E+00
         0.00000E+00
         0.00000E+00
         0.00000E+00
         0.00000E+00
         0.00000E+00
         0.00000E+00
         0.00000E+00
         0.00000E+00
         0.00000E+00
         0.00000E+00
         0.00000E+00
         0.00000E+00
         0.00000E+00
         0.00000E+00
         0.00000E+00
         0.00000E+00
         0.00000E+00
         0.00000E+00
         0.00000E+00
         0.00000E+00
         0.00000E+00
         0.00000E+00
         0.00000E+00
         0.00000E+00
         0.00000E+00
         0.00000E+00
         0.00000E+00
         0.00000E+00
         0.00000E+00
         0.00000E+00
         0.00000E+00
         0.00000E+00
         0.00000E+00
         0.00000E+00
         0.00000E+00
         0.00000E+00
         0.00000E+00
         0.00000E+00
         0.00000E+00
         0.00000E+00
         0.00000E+00
         0.00000E+00
         0.00000E+00
         0.00000E+00
         0.00000E+00
         0.00000E+00
         0.00000E+00
         0.00000E+00
         0.00000E+00
         0.00000E+00
         0.00000E+00
         0.00000E+00
         0.00000E+00
         0.00000E+00
         0.00000E+00
         0.00000E+00
         0.00000E+00
         0.00000E+00
         0.00000E+00
         0.00000E+00
         0.00000E+00
         0.00000E+00
         0.00000E+00
         0.00000E+00
         0.00000E+00
         0.00000E+00
         0.00000E+00
         0.00000E+00
         0.00000E+00
         0.00000E+00
         0.00000E+00
         0.00000E+00
         0.00000E+00
         0.00000E+00
         0.00000E+00
         0.00000E+00
         0.00000E+00
         0.00000E+00
         0.00000E+00
         0.00000E+00
         0.00000E+00
         0.00000E+00
         0.00000E+00
         0.00000E+00
         0.00000E+00
         0.00000E+00
         0.00000E+00
         0.00000E+00
         0.00000E+00
         0.00000E+00
         0.00000E+00
         0.00000E+00
         0.00000E+00
         0.00000E+00
         0.00000E+00
         0.00000E+00
         0.00000E+00
         0.00000E+00
         0.00000E+00
         0.00000E+00
         0.00000E+00
         0.00000E+00
         0.00000E+00
         0.00000E+00
         0.00000E+00
         0.00000E+00
         0.00000E+00
         0.00000E+00
         0.00000E+00
         0.00000E+00
         0.00000E+00
         0.00000E+00
         0.00000E+00
         0.00000E+00
         0.00000E+00
         0.00000E+00
         0.00000E+00
         0.00000E+00
         0.00000E+00
         0.00000E+00
         0.00000E+00
         0.00000E+00
         0.00000E+00
         0.00000E+00
         0.00000E+00
         0.00000E+00
         0.00000E+00
         0.00000E+00
         0.00000E+00
         0.00000E+00
         0.00000E+00
         0.00000E+00
         0.00000E+00
         0.00000E+00
         0.00000E+00
         0.00000E+00
         0.00000E+00
         0.00000E+00
         0.00000E+00
         0.00000E+00
         0.00000E+00
         0.00000E+00
         0.00000E+00
         0.00000E+00
         0.00000E+00
         0.00000E+00
         0.00000E+00
         0.00000E+00
         0.00000E+00
         0.00000E+00
         0.00000E+00
         0.00000E+00
         0.00000E+00
         0.00000E+00
         0.00000E+00
         0.00000E+00
         0.00000E+00
         0.00000E+00
         0.00000E+00
         0.00000E+00
         0.00000E+00
         0.00000E+00
         0.00000E+00
         0.00000E+00
         0.00000E+00
         0.00000E+00
         0.00000E+00
         0.00000E+00
         0.00000E+00
         0.00000E+00
         0.00000E+00
         0.00000E+00
         0.00000E+00
         0.00000E+00
         0.00000E+00
         0.00000E+00
         0.00000E+00
         0.00000E+00
         0.00000E+00
         0.00000E+00
         0.00000E+00
         0.00000E+00
         0.00000E+00
         0.00000E+00
         0.00000E+00
         0.00000E+00
         0.00000E+00
         0.00000E+00
         0.00000E+00
         0.00000E+00
         0.00000E+00
         0.00000E+00
         0.00000E+00
         0.00000E+00
         0.00000E+00
         0.00000E+00
         0.00000E+00
         0.00000E+00
         0.00000E+00
         0.00000E+00
         0.00000E+00
         0.00000E+00
         0.00000E+00
         0.00000E+00
         0.00000E+00
         0.00000E+00
         0.00000E+00
         0.00000E+00
         0.00000E+00
         0.00000E+00
         0.00000E+00
         0.00000E+00
         0.00000E+00
         0.00000E+00
         0.00000E+00
         0.00000E+00
         0.00000E+00
         0.00000E+00
         0.00000E+00
         0.00000E+00
         0.00000E+00
         0.00000E+00
         0.00000E+00
         0.00000E+00
         0.00000E+00
         0.00000E+00
         0.00000E+00
         0.00000E+00
         0.00000E+00
         0.00000E+00
         0.00000E+00
         0.00000E+00
         0.00000E+00
         0.00000E+00
         0.00000E+00
         0.00000E+00
         0.00000E+00
         0.00000E+00
         0.00000E+00
         0.00000E+00
         0.00000E+00
         0.00000E+00
         0.00000E+00
         0.00000E+00
         0.00000E+00
         0.00000E+00
         0.00000E+00
         0.00000E+00
         0.00000E+00
         0.00000E+00
         0.00000E+00
         0.00000E+00
         0.00000E+00
         0.00000E+00
         0.00000E+00
         0.00000E+00
         0.00000E+00
         0.00000E+00
         0.00000E+00
         0.00000E+00
         0.00000E+00
         0.00000E+00
         0.00000E+00
         0.00000E+00
         0.00000E+00
         0.00000E+00
         0.00000E+00
         0.00000E+00
         0.00000E+00
         0.00000E+00
         0.00000E+00
         0.00000E+00
         0.00000E+00
         0.00000E+00
         0.00000E+00
         0.00000E+00
         0.00000E+00
         0.00000E+00
         0.00000E+00
         0.00000E+00
         0.00000E+00
         0.00000E+00
         0.00000E+00
         0.00000E+00
         0.00000E+00
         0.00000E+00
         0.00000E+00
         0.00000E+00
         0.00000E+00
         0.00000E+00
         0.00000E+00
         0.00000E+00
         0.00000E+00
         0.00000E+00
         0.00000E+00
         0.00000E+00
         0.00000E+00
         0.00000E+00
         0.00000E+00
         0.00000E+00
         0.00000E+00
         0.00000E+00
         0.00000E+00
         0.00000E+00
         0.00000E+00
         0.00000E+00
         0.00000E+00
         0.00000E+00
         0.00000E+00
         0.00000E+00
         0.00000E+00
         0.00000E+00
         0.00000E+00
         0.00000E+00
         0.00000E+00
         0.00000E+00
         0.00000E+00
         0.00000E+00
         0.00000E+00
         0.00000E+00
         0.00000E+00
         0.00000E+00
         0.00000E+00
         0.00000E+00
         0.00000E+00
         0.00000E+00
         0.00000E+00
         0.00000E+00
         0.00000E+00
         0.00000E+00
         0.00000E+00
         0.00000E+00
         0.00000E+00
         0.00000E+00
         0.00000E+00
         0.00000E+00
         0.00000E+00
         0.00000E+00
         0.00000E+00
         0.00000E+00
         0.00000E+00
         0.00000E+00
         0.00000E+00
         0.00000E+00
         0.00000E+00
         0.00000E+00
         0.00000E+00
         0.00000E+00
         0.00000E+00
         0.00000E+00
         0.00000E+00
         0.00000E+00
         0.00000E+00
         0.00000E+00
         0.00000E+00
         0.00000E+00
         0.00000E+00
         0.00000E+00
         0.00000E+00
         0.00000E+00
         0.00000E+00
         0.00000E+00
         0.00000E+00
         0.00000E+00
         0.00000E+00
         0.00000E+00
         0.00000E+00
         0.00000E+00
         0.00000E+00
         0.00000E+00
         0.00000E+00
         0.00000E+00
         0.00000E+00
         0.00000E+00
         0.00000E+00
         0.00000E+00
         0.00000E+00
         0.00000E+00
         0.00000E+00
         0.00000E+00
         0.00000E+00
         0.00000E+00
         0.00000E+00
         0.00000E+00
         0.00000E+00
         0.00000E+00
         0.00000E+00
         0.00000E+00
         0.00000E+00
         0.00000E+00
         0.00000E+00
         0.00000E+00
         0.00000E+00
         0.00000E+00
         0.00000E+00
         0.00000E+00
         0.00000E+00
         0.00000E+00
         0.00000E+00
         0.00000E+00
         0.00000E+00
         0.00000E+00
         0.00000E+00
         0.00000E+00
         0.00000E+00
         0.00000E+00
         0.00000E+00
         0.00000E+00
         0.00000E+00
         0.00000E+00
         0.00000E+00
         0.00000E+00
         0.00000E+00
         0.00000E+00
         0.00000E+00
         0.00000E+00
         0.00000E+00
         0.00000E+00
         0.00000E+00
         0.00000E+00
         0.00000E+00
         0.00000E+00
         0.00000E+00
         0.00000E+00
         0.00000E+00
         0.00000E+00
         0.00000E+00
         0.00000E+00
         0.00000E+00
         0.00000E+00
         0.00000E+00
         0.00000E+00
         0.00000E+00
         0.00000E+00
         0.00000E+00
         0.00000E+00
         0.00000E+00
         0.00000E+00
         0.00000E+00
         0.00000E+00
         0.00000E+00
         0.00000E+00
         0.00000E+00
         0.00000E+00
         0.00000E+00
         0.00000E+00
         0.00000E+00
         0.00000E+00
         0.00000E+00
         0.00000E+00
         0.00000E+00
         0.00000E+00
         0.00000E+00
         0.00000E+00
         0.00000E+00
         0.00000E+00
         0.00000E+00
         0.00000E+00
         0.00000E+00
         0.00000E+00
         0.00000E+00
         0.00000E+00
         0.00000E+00
         0.00000E+00
         0.00000E+00
         0.00000E+00
         0.00000E+00
         0.00000E+00
         0.00000E+00
         0.00000E+00
         0.00000E+00
         0.00000E+00
         0.00000E+00
         0.00000E+00
         0.00000E+00
         0.00000E+00
         0.00000E+00
         0.00000E+00
         0.00000E+00
         0.00000E+00
         0.00000E+00
         0.00000E+00
         0.00000E+00
         0.00000E+00
         0.00000E+00
         0.00000E+00
         0.00000E+00
         0.00000E+00
         0.00000E+00
         0.00000E+00
         0.00000E+00
         0.00000E+00
         0.00000E+00
         0.00000E+00
         0.00000E+00
         0.00000E+00
         0.00000E+00
         0.00000E+00
         0.00000E+00
         0.00000E+00
         0.00000E+00
         0.00000E+00
         0.00000E+00
         0.00000E+00
         0.00000E+00
         0.00000E+00
         0.00000E+00
         0.00000E+00
         0.00000E+00
         0.00000E+00
         0.00000E+00
         0.00000E+00
         0.00000E+00
         0.00000E+00
         0.00000E+00
         0.00000E+00
         0.00000E+00
         0.00000E+00
         0.00000E+00
         0.00000E+00
         0.00000E+00
         0.00000E+00
         0.00000E+00
         0.00000E+00
         0.00000E+00
         0.00000E+00
         0.00000E+00
         0.00000E+00
         0.00000E+00
         0.00000E+00
         0.00000E+00
         0.00000E+00
         0.00000E+00
         0.00000E+00
         0.00000E+00
         0.00000E+00
         0.00000E+00
         0.00000E+00
         0.00000E+00
         0.00000E+00
         0.00000E+00
         0.00000E+00
         0.00000E+00
         0.00000E+00
         0.00000E+00
         0.00000E+00
         0.00000E+00
         0.00000E+00
         0.00000E+00
         0.00000E+00
         0.00000E+00
         0.00000E+00
         0.00000E+00
         0.00000E+00
         0.00000E+00
         0.00000E+00
         0.00000E+00
         0.00000E+00
         0.00000E+00
         0.00000E+00
         0.00000E+00
         0.00000E+00
         0.00000E+00
         0.00000E+00
         0.00000E+00
         0.00000E+00
         0.00000E+00
         0.00000E+00
         0.00000E+00
         0.00000E+00
         0.00000E+00
         0.00000E+00
         0.00000E+00
         0.00000E+00
         0.00000E+00
         0.00000E+00
         0.00000E+00
         0.00000E+00
         0.00000E+00
         0.00000E+00
         0.00000E+00
         0.00000E+00
         0.00000E+00
         0.00000E+00
         0.00000E+00
         0.00000E+00
         0.00000E+00
         0.00000E+00
         0.00000E+00
         0.00000E+00
         0.00000E+00
         0.00000E+00
         0.00000E+00
         0.00000E+00
         0.00000E+00
         0.00000E+00
         0.00000E+00
         0.00000E+00
         0.00000E+00
         0.00000E+00
         0.00000E+00
         0.00000E+00
         0.00000E+00
         0.00000E+00
         0.00000E+00
         0.00000E+00
  
SCALARS                init_velocity_z  double 1
LOOKUP_TABLE default
        -0.37300E+03
        -0.37300E+03
        -0.37300E+03
        -0.37300E+03
        -0.37300E+03
        -0.37300E+03
        -0.37300E+03
        -0.37300E+03
        -0.37300E+03
        -0.37300E+03
        -0.37300E+03
        -0.37300E+03
        -0.37300E+03
        -0.37300E+03
        -0.37300E+03
        -0.37300E+03
        -0.37300E+03
        -0.37300E+03
        -0.37300E+03
        -0.37300E+03
        -0.37300E+03
        -0.37300E+03
        -0.37300E+03
        -0.37300E+03
        -0.37300E+03
        -0.37300E+03
        -0.37300E+03
        -0.37300E+03
        -0.37300E+03
        -0.37300E+03
        -0.37300E+03
        -0.37300E+03
        -0.37300E+03
        -0.37300E+03
        -0.37300E+03
        -0.37300E+03
        -0.37300E+03
        -0.37300E+03
        -0.37300E+03
        -0.37300E+03
        -0.37300E+03
        -0.37300E+03
        -0.37300E+03
        -0.37300E+03
        -0.37300E+03
        -0.37300E+03
        -0.37300E+03
        -0.37300E+03
        -0.37300E+03
        -0.37300E+03
        -0.37300E+03
        -0.37300E+03
        -0.37300E+03
        -0.37300E+03
        -0.37300E+03
        -0.37300E+03
        -0.37300E+03
        -0.37300E+03
        -0.37300E+03
        -0.37300E+03
        -0.37300E+03
        -0.37300E+03
        -0.37300E+03
        -0.37300E+03
        -0.37300E+03
        -0.37300E+03
        -0.37300E+03
        -0.37300E+03
        -0.37300E+03
        -0.37300E+03
        -0.37300E+03
        -0.37300E+03
        -0.37300E+03
        -0.37300E+03
        -0.37300E+03
        -0.37300E+03
        -0.37300E+03
        -0.37300E+03
        -0.37300E+03
        -0.37300E+03
        -0.37300E+03
        -0.37300E+03
        -0.37300E+03
        -0.37300E+03
        -0.37300E+03
        -0.37300E+03
        -0.37300E+03
        -0.37300E+03
        -0.37300E+03
        -0.37300E+03
        -0.37300E+03
        -0.37300E+03
        -0.37300E+03
        -0.37300E+03
        -0.37300E+03
        -0.37300E+03
        -0.37300E+03
        -0.37300E+03
        -0.37300E+03
        -0.37300E+03
        -0.37300E+03
        -0.37300E+03
        -0.37300E+03
        -0.37300E+03
        -0.37300E+03
        -0.37300E+03
        -0.37300E+03
        -0.37300E+03
        -0.37300E+03
        -0.37300E+03
        -0.37300E+03
        -0.37300E+03
        -0.37300E+03
        -0.37300E+03
        -0.37300E+03
        -0.37300E+03
        -0.37300E+03
        -0.37300E+03
        -0.37300E+03
        -0.37300E+03
        -0.37300E+03
        -0.37300E+03
        -0.37300E+03
        -0.37300E+03
        -0.37300E+03
        -0.37300E+03
        -0.37300E+03
        -0.37300E+03
        -0.37300E+03
        -0.37300E+03
        -0.37300E+03
        -0.37300E+03
        -0.37300E+03
        -0.37300E+03
        -0.37300E+03
        -0.37300E+03
        -0.37300E+03
        -0.37300E+03
        -0.37300E+03
        -0.37300E+03
        -0.37300E+03
        -0.37300E+03
        -0.37300E+03
        -0.37300E+03
        -0.37300E+03
        -0.37300E+03
        -0.37300E+03
        -0.37300E+03
        -0.37300E+03
        -0.37300E+03
        -0.37300E+03
        -0.37300E+03
        -0.37300E+03
        -0.37300E+03
        -0.37300E+03
        -0.37300E+03
        -0.37300E+03
        -0.37300E+03
        -0.37300E+03
        -0.37300E+03
        -0.37300E+03
        -0.37300E+03
        -0.37300E+03
        -0.37300E+03
        -0.37300E+03
        -0.37300E+03
        -0.37300E+03
        -0.37300E+03
        -0.37300E+03
        -0.37300E+03
        -0.37300E+03
        -0.37300E+03
        -0.37300E+03
        -0.37300E+03
        -0.37300E+03
        -0.37300E+03
        -0.37300E+03
        -0.37300E+03
        -0.37300E+03
        -0.37300E+03
        -0.37300E+03
        -0.37300E+03
        -0.37300E+03
        -0.37300E+03
        -0.37300E+03
        -0.37300E+03
        -0.37300E+03
        -0.37300E+03
        -0.37300E+03
        -0.37300E+03
        -0.37300E+03
        -0.37300E+03
        -0.37300E+03
        -0.37300E+03
        -0.37300E+03
        -0.37300E+03
        -0.37300E+03
        -0.37300E+03
        -0.37300E+03
        -0.37300E+03
        -0.37300E+03
        -0.37300E+03
        -0.37300E+03
        -0.37300E+03
        -0.37300E+03
        -0.37300E+03
        -0.37300E+03
        -0.37300E+03
        -0.37300E+03
        -0.37300E+03
        -0.37300E+03
        -0.37300E+03
        -0.37300E+03
        -0.37300E+03
        -0.37300E+03
        -0.37300E+03
        -0.37300E+03
        -0.37300E+03
        -0.37300E+03
        -0.37300E+03
        -0.37300E+03
        -0.37300E+03
        -0.37300E+03
        -0.37300E+03
        -0.37300E+03
        -0.37300E+03
        -0.37300E+03
        -0.37300E+03
        -0.37300E+03
        -0.37300E+03
        -0.37300E+03
        -0.37300E+03
        -0.37300E+03
        -0.37300E+03
        -0.37300E+03
        -0.37300E+03
        -0.37300E+03
        -0.37300E+03
        -0.37300E+03
        -0.37300E+03
        -0.37300E+03
        -0.37300E+03
        -0.37300E+03
        -0.37300E+03
        -0.37300E+03
        -0.37300E+03
        -0.37300E+03
        -0.37300E+03
        -0.37300E+03
        -0.37300E+03
        -0.37300E+03
        -0.37300E+03
        -0.37300E+03
        -0.37300E+03
        -0.37300E+03
        -0.37300E+03
        -0.37300E+03
        -0.37300E+03
        -0.37300E+03
        -0.37300E+03
        -0.37300E+03
        -0.37300E+03
        -0.37300E+03
        -0.37300E+03
        -0.37300E+03
        -0.37300E+03
        -0.37300E+03
        -0.37300E+03
        -0.37300E+03
        -0.37300E+03
        -0.37300E+03
        -0.37300E+03
        -0.37300E+03
        -0.37300E+03
        -0.37300E+03
        -0.37300E+03
        -0.37300E+03
        -0.37300E+03
        -0.37300E+03
        -0.37300E+03
        -0.37300E+03
        -0.37300E+03
        -0.37300E+03
        -0.37300E+03
        -0.37300E+03
        -0.37300E+03
        -0.37300E+03
        -0.37300E+03
        -0.37300E+03
        -0.37300E+03
        -0.37300E+03
        -0.37300E+03
        -0.37300E+03
        -0.37300E+03
        -0.37300E+03
        -0.37300E+03
        -0.37300E+03
        -0.37300E+03
        -0.37300E+03
        -0.37300E+03
        -0.37300E+03
        -0.37300E+03
        -0.37300E+03
        -0.37300E+03
        -0.37300E+03
        -0.37300E+03
        -0.37300E+03
        -0.37300E+03
        -0.37300E+03
        -0.37300E+03
        -0.37300E+03
        -0.37300E+03
        -0.37300E+03
        -0.37300E+03
        -0.37300E+03
        -0.37300E+03
        -0.37300E+03
        -0.37300E+03
        -0.37300E+03
        -0.37300E+03
        -0.37300E+03
        -0.37300E+03
        -0.37300E+03
        -0.37300E+03
        -0.37300E+03
        -0.37300E+03
        -0.37300E+03
        -0.37300E+03
        -0.37300E+03
        -0.37300E+03
        -0.37300E+03
        -0.37300E+03
        -0.37300E+03
        -0.37300E+03
        -0.37300E+03
        -0.37300E+03
        -0.37300E+03
        -0.37300E+03
        -0.37300E+03
        -0.37300E+03
        -0.37300E+03
        -0.37300E+03
        -0.37300E+03
        -0.37300E+03
        -0.37300E+03
        -0.37300E+03
        -0.37300E+03
        -0.37300E+03
        -0.37300E+03
        -0.37300E+03
        -0.37300E+03
        -0.37300E+03
        -0.37300E+03
        -0.37300E+03
        -0.37300E+03
        -0.37300E+03
        -0.37300E+03
        -0.37300E+03
        -0.37300E+03
        -0.37300E+03
        -0.37300E+03
        -0.37300E+03
        -0.37300E+03
        -0.37300E+03
        -0.37300E+03
        -0.37300E+03
        -0.37300E+03
        -0.37300E+03
        -0.37300E+03
        -0.37300E+03
        -0.37300E+03
        -0.37300E+03
        -0.37300E+03
        -0.37300E+03
        -0.37300E+03
        -0.37300E+03
        -0.37300E+03
        -0.37300E+03
        -0.37300E+03
        -0.37300E+03
        -0.37300E+03
        -0.37300E+03
        -0.37300E+03
        -0.37300E+03
        -0.37300E+03
        -0.37300E+03
        -0.37300E+03
        -0.37300E+03
        -0.37300E+03
        -0.37300E+03
        -0.37300E+03
        -0.37300E+03
        -0.37300E+03
        -0.37300E+03
        -0.37300E+03
        -0.37300E+03
        -0.37300E+03
        -0.37300E+03
        -0.37300E+03
        -0.37300E+03
        -0.37300E+03
        -0.37300E+03
        -0.37300E+03
        -0.37300E+03
        -0.37300E+03
        -0.37300E+03
        -0.37300E+03
        -0.37300E+03
        -0.37300E+03
        -0.37300E+03
        -0.37300E+03
        -0.37300E+03
        -0.37300E+03
        -0.37300E+03
        -0.37300E+03
        -0.37300E+03
        -0.37300E+03
        -0.37300E+03
        -0.37300E+03
        -0.37300E+03
        -0.37300E+03
        -0.37300E+03
        -0.37300E+03
        -0.37300E+03
        -0.37300E+03
        -0.37300E+03
        -0.37300E+03
        -0.37300E+03
        -0.37300E+03
        -0.37300E+03
        -0.37300E+03
        -0.37300E+03
        -0.37300E+03
        -0.37300E+03
        -0.37300E+03
        -0.37300E+03
        -0.37300E+03
        -0.37300E+03
        -0.37300E+03
        -0.37300E+03
        -0.37300E+03
        -0.37300E+03
        -0.37300E+03
        -0.37300E+03
        -0.37300E+03
        -0.37300E+03
        -0.37300E+03
        -0.37300E+03
        -0.37300E+03
        -0.37300E+03
        -0.37300E+03
        -0.37300E+03
        -0.37300E+03
        -0.37300E+03
        -0.37300E+03
        -0.37300E+03
        -0.37300E+03
        -0.37300E+03
        -0.37300E+03
        -0.37300E+03
        -0.37300E+03
        -0.37300E+03
        -0.37300E+03
        -0.37300E+03
        -0.37300E+03
        -0.37300E+03
        -0.37300E+03
        -0.37300E+03
        -0.37300E+03
        -0.37300E+03
        -0.37300E+03
        -0.37300E+03
        -0.37300E+03
        -0.37300E+03
        -0.37300E+03
        -0.37300E+03
        -0.37300E+03
        -0.37300E+03
        -0.37300E+03
        -0.37300E+03
        -0.37300E+03
        -0.37300E+03
        -0.37300E+03
        -0.37300E+03
        -0.37300E+03
        -0.37300E+03
        -0.37300E+03
        -0.37300E+03
        -0.37300E+03
        -0.37300E+03
        -0.37300E+03
        -0.37300E+03
        -0.37300E+03
        -0.37300E+03
        -0.37300E+03
        -0.37300E+03
        -0.37300E+03
        -0.37300E+03
        -0.37300E+03
        -0.37300E+03
        -0.37300E+03
        -0.37300E+03
        -0.37300E+03
        -0.37300E+03
        -0.37300E+03
        -0.37300E+03
        -0.37300E+03
        -0.37300E+03
        -0.37300E+03
        -0.37300E+03
        -0.37300E+03
        -0.37300E+03
        -0.37300E+03
        -0.37300E+03
        -0.37300E+03
        -0.37300E+03
        -0.37300E+03
        -0.37300E+03
        -0.37300E+03
        -0.37300E+03
        -0.37300E+03
        -0.37300E+03
        -0.37300E+03
        -0.37300E+03
        -0.37300E+03
        -0.37300E+03
        -0.37300E+03
        -0.37300E+03
        -0.37300E+03
        -0.37300E+03
        -0.37300E+03
        -0.37300E+03
        -0.37300E+03
        -0.37300E+03
        -0.37300E+03
        -0.37300E+03
        -0.37300E+03
        -0.37300E+03
        -0.37300E+03
        -0.37300E+03
        -0.37300E+03
        -0.37300E+03
        -0.37300E+03
        -0.37300E+03
        -0.37300E+03
        -0.37300E+03
        -0.37300E+03
        -0.37300E+03
        -0.37300E+03
        -0.37300E+03
        -0.37300E+03
        -0.37300E+03
        -0.37300E+03
        -0.37300E+03
        -0.37300E+03
        -0.37300E+03
        -0.37300E+03
        -0.37300E+03
        -0.37300E+03
        -0.37300E+03
        -0.37300E+03
        -0.37300E+03
        -0.37300E+03
        -0.37300E+03
        -0.37300E+03
        -0.37300E+03
        -0.37300E+03
        -0.37300E+03
        -0.37300E+03
        -0.37300E+03
        -0.37300E+03
        -0.37300E+03
        -0.37300E+03
        -0.37300E+03
        -0.37300E+03
        -0.37300E+03
        -0.37300E+03
        -0.37300E+03
        -0.37300E+03
        -0.37300E+03
        -0.37300E+03
        -0.37300E+03
        -0.37300E+03
        -0.37300E+03
        -0.37300E+03
        -0.37300E+03
        -0.37300E+03
        -0.37300E+03
        -0.37300E+03
        -0.37300E+03
        -0.37300E+03
        -0.37300E+03
        -0.37300E+03
        -0.37300E+03
        -0.37300E+03
        -0.37300E+03
        -0.37300E+03
        -0.37300E+03
        -0.37300E+03
        -0.37300E+03
        -0.37300E+03
        -0.37300E+03
        -0.37300E+03
        -0.37300E+03
        -0.37300E+03
        -0.37300E+03
        -0.37300E+03
        -0.37300E+03
        -0.37300E+03
        -0.37300E+03
        -0.37300E+03
        -0.37300E+03
        -0.37300E+03
        -0.37300E+03
        -0.37300E+03
        -0.37300E+03
        -0.37300E+03
        -0.37300E+03
        -0.37300E+03
        -0.37300E+03
        -0.37300E+03
        -0.37300E+03
        -0.37300E+03
        -0.37300E+03
        -0.37300E+03
        -0.37300E+03
        -0.37300E+03
        -0.37300E+03
        -0.37300E+03
        -0.37300E+03
        -0.37300E+03
        -0.37300E+03
        -0.37300E+03
        -0.37300E+03
        -0.37300E+03
        -0.37300E+03
        -0.37300E+03
        -0.37300E+03
        -0.37300E+03
        -0.37300E+03
        -0.37300E+03
        -0.37300E+03
        -0.37300E+03
        -0.37300E+03
        -0.37300E+03
        -0.37300E+03
        -0.37300E+03
        -0.37300E+03
        -0.37300E+03
        -0.37300E+03
        -0.37300E+03
        -0.37300E+03
        -0.37300E+03
        -0.37300E+03
        -0.37300E+03
        -0.37300E+03
        -0.37300E+03
        -0.37300E+03
        -0.37300E+03
        -0.37300E+03
        -0.37300E+03
        -0.37300E+03
        -0.37300E+03
        -0.37300E+03
        -0.37300E+03
        -0.37300E+03
        -0.37300E+03
        -0.37300E+03
        -0.37300E+03
        -0.37300E+03
        -0.37300E+03
        -0.37300E+03
        -0.37300E+03
        -0.37300E+03
        -0.37300E+03
        -0.37300E+03
        -0.37300E+03
        -0.37300E+03
        -0.37300E+03
        -0.37300E+03
        -0.37300E+03
        -0.37300E+03
        -0.37300E+03
        -0.37300E+03
        -0.37300E+03
        -0.37300E+03
        -0.37300E+03
        -0.37300E+03
        -0.37300E+03
        -0.37300E+03
        -0.37300E+03
        -0.37300E+03
        -0.37300E+03
        -0.37300E+03
        -0.37300E+03
        -0.37300E+03
        -0.37300E+03
        -0.37300E+03
        -0.37300E+03
        -0.37300E+03
        -0.37300E+03
        -0.37300E+03
        -0.37300E+03
        -0.37300E+03
        -0.37300E+03
        -0.37300E+03
        -0.37300E+03
        -0.37300E+03
        -0.37300E+03
        -0.37300E+03
        -0.37300E+03
        -0.37300E+03
        -0.37300E+03
        -0.37300E+03
        -0.37300E+03
        -0.37300E+03
        -0.37300E+03
        -0.37300E+03
        -0.37300E+03
        -0.37300E+03
        -0.37300E+03
        -0.37300E+03
        -0.37300E+03
        -0.37300E+03
        -0.37300E+03
        -0.37300E+03
        -0.37300E+03
        -0.37300E+03
        -0.37300E+03
        -0.37300E+03
        -0.37300E+03
        -0.37300E+03
        -0.37300E+03
        -0.37300E+03
        -0.37300E+03
        -0.37300E+03
        -0.37300E+03
        -0.37300E+03
        -0.37300E+03
        -0.37300E+03
        -0.37300E+03
        -0.37300E+03
        -0.37300E+03
        -0.37300E+03
        -0.37300E+03
        -0.37300E+03
        -0.37300E+03
        -0.37300E+03
        -0.37300E+03
        -0.37300E+03
        -0.37300E+03
        -0.37300E+03
        -0.37300E+03
        -0.37300E+03
        -0.37300E+03
        -0.37300E+03
        -0.37300E+03
        -0.37300E+03
        -0.37300E+03
        -0.37300E+03
        -0.37300E+03
        -0.37300E+03
        -0.37300E+03
        -0.37300E+03
        -0.37300E+03
        -0.37300E+03
        -0.37300E+03
        -0.37300E+03
        -0.37300E+03
        -0.37300E+03
        -0.37300E+03
        -0.37300E+03
        -0.37300E+03
        -0.37300E+03
        -0.37300E+03
        -0.37300E+03
        -0.37300E+03
        -0.37300E+03
        -0.37300E+03
        -0.37300E+03
        -0.37300E+03
        -0.37300E+03
        -0.37300E+03
        -0.37300E+03
        -0.37300E+03
        -0.37300E+03
        -0.37300E+03
        -0.37300E+03
        -0.37300E+03
        -0.37300E+03
        -0.37300E+03
        -0.37300E+03
        -0.37300E+03
        -0.37300E+03
        -0.37300E+03
        -0.37300E+03
        -0.37300E+03
        -0.37300E+03
        -0.37300E+03
        -0.37300E+03
        -0.37300E+03
        -0.37300E+03
        -0.37300E+03
        -0.37300E+03
        -0.37300E+03
        -0.37300E+03
        -0.37300E+03
        -0.37300E+03
        -0.37300E+03
        -0.37300E+03
        -0.37300E+03
        -0.37300E+03
        -0.37300E+03
        -0.37300E+03
        -0.37300E+03
        -0.37300E+03
        -0.37300E+03
        -0.37300E+03
        -0.37300E+03
        -0.37300E+03
        -0.37300E+03
        -0.37300E+03
        -0.37300E+03
        -0.37300E+03
        -0.37300E+03
        -0.37300E+03
        -0.37300E+03
        -0.37300E+03
        -0.37300E+03
        -0.37300E+03
        -0.37300E+03
        -0.37300E+03
        -0.37300E+03
        -0.37300E+03
        -0.37300E+03
        -0.37300E+03
        -0.37300E+03
        -0.37300E+03
        -0.37300E+03
        -0.37300E+03
        -0.37300E+03
        -0.37300E+03
        -0.37300E+03
        -0.37300E+03
        -0.37300E+03
        -0.37300E+03
        -0.37300E+03
        -0.37300E+03
        -0.37300E+03
        -0.37300E+03
        -0.37300E+03
        -0.37300E+03
        -0.37300E+03
        -0.37300E+03
        -0.37300E+03
        -0.37300E+03
        -0.37300E+03
        -0.37300E+03
        -0.37300E+03
        -0.37300E+03
        -0.37300E+03
        -0.37300E+03
        -0.37300E+03
        -0.37300E+03
        -0.37300E+03
        -0.37300E+03
        -0.37300E+03
        -0.37300E+03
        -0.37300E+03
        -0.37300E+03
        -0.37300E+03
        -0.37300E+03
        -0.37300E+03
        -0.37300E+03
        -0.37300E+03
        -0.37300E+03
        -0.37300E+03
        -0.37300E+03
        -0.37300E+03
        -0.37300E+03
        -0.37300E+03
        -0.37300E+03
        -0.37300E+03
        -0.37300E+03
        -0.37300E+03
        -0.37300E+03
        -0.37300E+03
        -0.37300E+03
        -0.37300E+03
        -0.37300E+03
        -0.37300E+03
        -0.37300E+03
        -0.37300E+03
        -0.37300E+03
        -0.37300E+03
        -0.37300E+03
        -0.37300E+03
        -0.37300E+03
        -0.37300E+03
        -0.37300E+03
        -0.37300E+03
        -0.37300E+03
        -0.37300E+03
        -0.37300E+03
        -0.37300E+03
        -0.37300E+03
        -0.37300E+03
        -0.37300E+03
        -0.37300E+03
        -0.37300E+03
        -0.37300E+03
        -0.37300E+03
        -0.37300E+03
        -0.37300E+03
        -0.37300E+03
        -0.37300E+03
        -0.37300E+03
        -0.37300E+03
        -0.37300E+03
        -0.37300E+03
        -0.37300E+03
        -0.37300E+03
        -0.37300E+03
        -0.37300E+03
        -0.37300E+03
        -0.37300E+03
        -0.37300E+03
        -0.37300E+03
        -0.37300E+03
        -0.37300E+03
        -0.37300E+03
        -0.37300E+03
        -0.37300E+03
        -0.37300E+03
        -0.37300E+03
        -0.37300E+03
        -0.37300E+03
        -0.37300E+03
        -0.37300E+03
        -0.37300E+03
        -0.37300E+03
        -0.37300E+03
        -0.37300E+03
        -0.37300E+03
        -0.37300E+03
        -0.37300E+03
        -0.37300E+03
        -0.37300E+03
        -0.37300E+03
        -0.37300E+03
        -0.37300E+03
        -0.37300E+03
        -0.37300E+03
        -0.37300E+03
        -0.37300E+03
        -0.37300E+03
        -0.37300E+03
        -0.37300E+03
        -0.37300E+03
        -0.37300E+03
        -0.37300E+03
        -0.37300E+03
        -0.37300E+03
        -0.37300E+03
        -0.37300E+03
        -0.37300E+03
        -0.37300E+03
        -0.37300E+03
        -0.37300E+03
        -0.37300E+03
        -0.37300E+03
        -0.37300E+03
        -0.37300E+03
        -0.37300E+03
        -0.37300E+03
        -0.37300E+03
        -0.37300E+03
        -0.37300E+03
        -0.37300E+03
        -0.37300E+03
        -0.37300E+03
        -0.37300E+03
        -0.37300E+03
        -0.37300E+03
        -0.37300E+03
        -0.37300E+03
        -0.37300E+03
        -0.37300E+03
        -0.37300E+03
        -0.37300E+03
        -0.37300E+03
        -0.37300E+03
        -0.37300E+03
        -0.37300E+03
        -0.37300E+03
        -0.37300E+03
        -0.37300E+03
        -0.37300E+03
        -0.37300E+03
        -0.37300E+03
        -0.37300E+03
        -0.37300E+03
        -0.37300E+03
        -0.37300E+03
        -0.37300E+03
        -0.37300E+03
        -0.37300E+03
        -0.37300E+03
        -0.37300E+03
        -0.37300E+03
        -0.37300E+03
        -0.37300E+03
        -0.37300E+03
        -0.37300E+03
        -0.37300E+03
        -0.37300E+03
        -0.37300E+03
        -0.37300E+03
        -0.37300E+03
        -0.37300E+03
        -0.37300E+03
        -0.37300E+03
        -0.37300E+03
        -0.37300E+03
        -0.37300E+03
        -0.37300E+03
        -0.37300E+03
        -0.37300E+03
        -0.37300E+03
        -0.37300E+03
        -0.37300E+03
        -0.37300E+03
        -0.37300E+03
        -0.37300E+03
        -0.37300E+03
        -0.37300E+03
        -0.37300E+03
        -0.37300E+03
        -0.37300E+03
        -0.37300E+03
        -0.37300E+03
        -0.37300E+03
        -0.37300E+03
        -0.37300E+03
        -0.37300E+03
        -0.37300E+03
        -0.37300E+03
        -0.37300E+03
        -0.37300E+03
        -0.37300E+03
        -0.37300E+03
        -0.37300E+03
        -0.37300E+03
        -0.37300E+03
        -0.37300E+03
        -0.37300E+03
        -0.37300E+03
        -0.37300E+03
        -0.37300E+03
        -0.37300E+03
        -0.37300E+03
        -0.37300E+03
        -0.37300E+03
        -0.37300E+03
        -0.37300E+03
        -0.37300E+03
        -0.37300E+03
        -0.37300E+03
        -0.37300E+03
        -0.37300E+03
        -0.37300E+03
        -0.37300E+03
        -0.37300E+03
        -0.37300E+03
        -0.37300E+03
        -0.37300E+03
        -0.37300E+03
        -0.37300E+03
        -0.37300E+03
        -0.37300E+03
        -0.37300E+03
        -0.37300E+03
        -0.37300E+03
        -0.37300E+03
        -0.37300E+03
        -0.37300E+03
        -0.37300E+03
        -0.37300E+03
        -0.37300E+03
        -0.37300E+03
        -0.37300E+03
        -0.37300E+03
        -0.37300E+03
        -0.37300E+03
        -0.37300E+03
        -0.37300E+03
        -0.37300E+03
        -0.37300E+03
        -0.37300E+03
        -0.37300E+03
        -0.37300E+03
        -0.37300E+03
        -0.37300E+03
        -0.37300E+03
        -0.37300E+03
        -0.37300E+03
        -0.37300E+03
        -0.37300E+03
        -0.37300E+03
        -0.37300E+03
        -0.37300E+03
        -0.37300E+03
        -0.37300E+03
        -0.37300E+03
        -0.37300E+03
        -0.37300E+03
        -0.37300E+03
        -0.37300E+03
        -0.37300E+03
        -0.37300E+03
        -0.37300E+03
        -0.37300E+03
        -0.37300E+03
        -0.37300E+03
        -0.37300E+03
        -0.37300E+03
        -0.37300E+03
        -0.37300E+03
        -0.37300E+03
        -0.37300E+03
        -0.37300E+03
        -0.37300E+03
        -0.37300E+03
        -0.37300E+03
        -0.37300E+03
        -0.37300E+03
        -0.37300E+03
        -0.37300E+03
        -0.37300E+03
        -0.37300E+03
        -0.37300E+03
        -0.37300E+03
        -0.37300E+03
        -0.37300E+03
        -0.37300E+03
        -0.37300E+03
        -0.37300E+03
        -0.37300E+03
        -0.37300E+03
        -0.37300E+03
        -0.37300E+03
        -0.37300E+03
        -0.37300E+03
        -0.37300E+03
        -0.37300E+03
        -0.37300E+03
        -0.37300E+03
        -0.37300E+03
        -0.37300E+03
        -0.37300E+03
        -0.37300E+03
        -0.37300E+03
        -0.37300E+03
        -0.37300E+03
        -0.37300E+03
        -0.37300E+03
        -0.37300E+03
        -0.37300E+03
        -0.37300E+03
        -0.37300E+03
        -0.37300E+03
        -0.37300E+03
        -0.37300E+03
        -0.37300E+03
        -0.37300E+03
        -0.37300E+03
        -0.37300E+03
        -0.37300E+03
        -0.37300E+03
        -0.37300E+03
        -0.37300E+03
        -0.37300E+03
        -0.37300E+03
        -0.37300E+03
        -0.37300E+03
        -0.37300E+03
        -0.37300E+03
        -0.37300E+03
        -0.37300E+03
        -0.37300E+03
        -0.37300E+03
        -0.37300E+03
        -0.37300E+03
        -0.37300E+03
        -0.37300E+03
        -0.37300E+03
        -0.37300E+03
        -0.37300E+03
        -0.37300E+03
        -0.37300E+03
        -0.37300E+03
        -0.37300E+03
        -0.37300E+03
        -0.37300E+03
        -0.37300E+03
        -0.37300E+03
        -0.37300E+03
        -0.37300E+03
        -0.37300E+03
        -0.37300E+03
        -0.37300E+03
        -0.37300E+03
        -0.37300E+03
        -0.37300E+03
        -0.37300E+03
        -0.37300E+03
        -0.37300E+03
        -0.37300E+03
        -0.37300E+03
        -0.37300E+03
        -0.37300E+03
        -0.37300E+03
        -0.37300E+03
        -0.37300E+03
        -0.37300E+03
        -0.37300E+03
        -0.37300E+03
        -0.37300E+03
        -0.37300E+03
        -0.37300E+03
        -0.37300E+03
        -0.37300E+03
        -0.37300E+03
        -0.37300E+03
        -0.37300E+03
        -0.37300E+03
        -0.37300E+03
        -0.37300E+03
        -0.37300E+03
        -0.37300E+03
        -0.37300E+03
        -0.37300E+03
        -0.37300E+03
        -0.37300E+03
        -0.37300E+03
        -0.37300E+03
        -0.37300E+03
        -0.37300E+03
        -0.37300E+03
        -0.37300E+03
        -0.37300E+03
        -0.37300E+03
        -0.37300E+03
        -0.37300E+03
        -0.37300E+03
        -0.37300E+03
        -0.37300E+03
        -0.37300E+03
        -0.37300E+03
        -0.37300E+03
        -0.37300E+03
        -0.37300E+03
        -0.37300E+03
        -0.37300E+03
        -0.37300E+03
        -0.37300E+03
        -0.37300E+03
        -0.37300E+03
        -0.37300E+03
        -0.37300E+03
        -0.37300E+03
        -0.37300E+03
        -0.37300E+03
        -0.37300E+03
        -0.37300E+03
        -0.37300E+03
        -0.37300E+03
        -0.37300E+03
        -0.37300E+03
        -0.37300E+03
        -0.37300E+03
        -0.37300E+03
        -0.37300E+03
        -0.37300E+03
        -0.37300E+03
        -0.37300E+03
        -0.37300E+03
        -0.37300E+03
        -0.37300E+03
        -0.37300E+03
        -0.37300E+03
        -0.37300E+03
        -0.37300E+03
        -0.37300E+03
        -0.37300E+03
        -0.37300E+03
        -0.37300E+03
        -0.37300E+03
        -0.37300E+03
        -0.37300E+03
        -0.37300E+03
        -0.37300E+03
        -0.37300E+03
        -0.37300E+03
        -0.37300E+03
        -0.37300E+03
        -0.37300E+03
        -0.37300E+03
        -0.37300E+03
        -0.37300E+03
        -0.37300E+03
        -0.37300E+03
        -0.37300E+03
        -0.37300E+03
        -0.37300E+03
        -0.37300E+03
        -0.37300E+03
        -0.37300E+03
        -0.37300E+03
        -0.37300E+03
        -0.37300E+03
        -0.37300E+03
        -0.37300E+03
        -0.37300E+03
        -0.37300E+03
        -0.37300E+03
        -0.37300E+03
        -0.37300E+03
        -0.37300E+03
        -0.37300E+03
        -0.37300E+03
        -0.37300E+03
        -0.37300E+03
        -0.37300E+03
        -0.37300E+03
        -0.37300E+03
        -0.37300E+03
        -0.37300E+03
        -0.37300E+03
        -0.37300E+03
        -0.37300E+03
        -0.37300E+03
        -0.37300E+03
        -0.37300E+03
        -0.37300E+03
        -0.37300E+03
        -0.37300E+03
        -0.37300E+03
        -0.37300E+03
        -0.37300E+03
        -0.37300E+03
        -0.37300E+03
        -0.37300E+03
        -0.37300E+03
        -0.37300E+03
        -0.37300E+03
        -0.37300E+03
        -0.37300E+03
        -0.37300E+03
        -0.37300E+03
        -0.37300E+03
        -0.37300E+03
        -0.37300E+03
        -0.37300E+03
        -0.37300E+03
        -0.37300E+03
        -0.37300E+03
        -0.37300E+03
        -0.37300E+03
        -0.37300E+03
        -0.37300E+03
        -0.37300E+03
        -0.37300E+03
        -0.37300E+03
        -0.37300E+03
        -0.37300E+03
        -0.37300E+03
        -0.37300E+03
        -0.37300E+03
        -0.37300E+03
        -0.37300E+03
        -0.37300E+03
        -0.37300E+03
        -0.37300E+03
        -0.37300E+03
        -0.37300E+03
        -0.37300E+03
        -0.37300E+03
        -0.37300E+03
        -0.37300E+03
        -0.37300E+03
        -0.37300E+03
        -0.37300E+03
        -0.37300E+03
        -0.37300E+03
        -0.37300E+03
        -0.37300E+03
        -0.37300E+03
        -0.37300E+03
        -0.37300E+03
        -0.37300E+03
        -0.37300E+03
        -0.37300E+03
        -0.37300E+03
        -0.37300E+03
        -0.37300E+03
        -0.37300E+03
        -0.37300E+03
        -0.37300E+03
        -0.37300E+03
        -0.37300E+03
        -0.37300E+03
        -0.37300E+03
        -0.37300E+03
        -0.37300E+03
        -0.37300E+03
        -0.37300E+03
        -0.37300E+03
        -0.37300E+03
        -0.37300E+03
        -0.37300E+03
        -0.37300E+03
        -0.37300E+03
        -0.37300E+03
        -0.37300E+03
        -0.37300E+03
        -0.37300E+03
        -0.37300E+03
        -0.37300E+03
        -0.37300E+03
        -0.37300E+03
        -0.37300E+03
        -0.37300E+03
        -0.37300E+03
        -0.37300E+03
        -0.37300E+03
        -0.37300E+03
        -0.37300E+03
        -0.37300E+03
        -0.37300E+03
        -0.37300E+03
        -0.37300E+03
        -0.37300E+03
        -0.37300E+03
        -0.37300E+03
        -0.37300E+03
        -0.37300E+03
        -0.37300E+03
        -0.37300E+03
        -0.37300E+03
        -0.37300E+03
        -0.37300E+03
        -0.37300E+03
        -0.37300E+03
        -0.37300E+03
        -0.37300E+03
        -0.37300E+03
        -0.37300E+03
        -0.37300E+03
        -0.37300E+03
        -0.37300E+03
        -0.37300E+03
        -0.37300E+03
        -0.37300E+03
        -0.37300E+03
        -0.37300E+03
        -0.37300E+03
        -0.37300E+03
        -0.37300E+03
        -0.37300E+03
        -0.37300E+03
        -0.37300E+03
        -0.37300E+03
        -0.37300E+03
        -0.37300E+03
        -0.37300E+03
        -0.37300E+03
        -0.37300E+03
        -0.37300E+03
        -0.37300E+03
        -0.37300E+03
        -0.37300E+03
        -0.37300E+03
        -0.37300E+03
        -0.37300E+03
        -0.37300E+03
        -0.37300E+03
        -0.37300E+03
        -0.37300E+03
        -0.37300E+03
        -0.37300E+03
        -0.37300E+03
        -0.37300E+03
        -0.37300E+03
        -0.37300E+03
        -0.37300E+03
        -0.37300E+03
        -0.37300E+03
        -0.37300E+03
        -0.37300E+03
        -0.37300E+03
        -0.37300E+03
        -0.37300E+03
        -0.37300E+03
        -0.37300E+03
        -0.37300E+03
        -0.37300E+03
        -0.37300E+03
        -0.37300E+03
        -0.37300E+03
        -0.37300E+03
        -0.37300E+03
        -0.37300E+03
        -0.37300E+03
        -0.37300E+03
        -0.37300E+03
        -0.37300E+03
        -0.37300E+03
        -0.37300E+03
        -0.37300E+03
        -0.37300E+03
        -0.37300E+03
        -0.37300E+03
        -0.37300E+03
        -0.37300E+03
        -0.37300E+03
        -0.37300E+03
        -0.37300E+03
        -0.37300E+03
        -0.37300E+03
        -0.37300E+03
        -0.37300E+03
        -0.37300E+03
        -0.37300E+03
        -0.37300E+03
        -0.37300E+03
        -0.37300E+03
        -0.37300E+03
        -0.37300E+03
        -0.37300E+03
        -0.37300E+03
        -0.37300E+03
        -0.37300E+03
        -0.37300E+03
        -0.37300E+03
        -0.37300E+03
        -0.37300E+03
        -0.37300E+03
        -0.37300E+03
        -0.37300E+03
        -0.37300E+03
        -0.37300E+03
        -0.37300E+03
        -0.37300E+03
        -0.37300E+03
        -0.37300E+03
        -0.37300E+03
        -0.37300E+03
        -0.37300E+03
        -0.37300E+03
        -0.37300E+03
        -0.37300E+03
        -0.37300E+03
        -0.37300E+03
        -0.37300E+03
        -0.37300E+03
        -0.37300E+03
        -0.37300E+03
        -0.37300E+03
        -0.37300E+03
        -0.37300E+03
        -0.37300E+03
        -0.37300E+03
        -0.37300E+03
        -0.37300E+03
        -0.37300E+03
        -0.37300E+03
        -0.37300E+03
        -0.37300E+03
        -0.37300E+03
        -0.37300E+03
        -0.37300E+03
        -0.37300E+03
        -0.37300E+03
        -0.37300E+03
        -0.37300E+03
        -0.37300E+03
        -0.37300E+03
        -0.37300E+03
        -0.37300E+03
        -0.37300E+03
        -0.37300E+03
        -0.37300E+03
        -0.37300E+03
        -0.37300E+03
        -0.37300E+03
        -0.37300E+03
        -0.37300E+03
        -0.37300E+03
        -0.37300E+03
        -0.37300E+03
        -0.37300E+03
        -0.37300E+03
        -0.37300E+03
        -0.37300E+03
        -0.37300E+03
        -0.37300E+03
        -0.37300E+03
        -0.37300E+03
        -0.37300E+03
        -0.37300E+03
        -0.37300E+03
        -0.37300E+03
        -0.37300E+03
        -0.37300E+03
        -0.37300E+03
        -0.37300E+03
        -0.37300E+03
        -0.37300E+03
        -0.37300E+03
        -0.37300E+03
        -0.37300E+03
        -0.37300E+03
        -0.37300E+03
        -0.37300E+03
        -0.37300E+03
        -0.37300E+03
        -0.37300E+03
        -0.37300E+03
        -0.37300E+03
        -0.37300E+03
        -0.37300E+03
        -0.37300E+03
        -0.37300E+03
        -0.37300E+03
        -0.37300E+03
        -0.37300E+03
        -0.37300E+03
        -0.37300E+03
        -0.37300E+03
        -0.37300E+03
        -0.37300E+03
        -0.37300E+03
        -0.37300E+03
        -0.37300E+03
        -0.37300E+03
        -0.37300E+03
        -0.37300E+03
        -0.37300E+03
        -0.37300E+03
        -0.37300E+03
        -0.37300E+03
        -0.37300E+03
        -0.37300E+03
        -0.37300E+03
        -0.37300E+03
        -0.37300E+03
        -0.37300E+03
        -0.37300E+03
        -0.37300E+03
        -0.37300E+03
        -0.37300E+03
        -0.37300E+03
        -0.37300E+03
        -0.37300E+03
        -0.37300E+03
        -0.37300E+03
        -0.37300E+03
        -0.37300E+03
        -0.37300E+03
        -0.37300E+03
        -0.37300E+03
        -0.37300E+03
        -0.37300E+03
        -0.37300E+03
        -0.37300E+03
        -0.37300E+03
        -0.37300E+03
        -0.37300E+03
        -0.37300E+03
        -0.37300E+03
        -0.37300E+03
        -0.37300E+03
        -0.37300E+03
        -0.37300E+03
        -0.37300E+03
        -0.37300E+03
        -0.37300E+03
        -0.37300E+03
        -0.37300E+03
        -0.37300E+03
        -0.37300E+03
        -0.37300E+03
        -0.37300E+03
        -0.37300E+03
        -0.37300E+03
        -0.37300E+03
        -0.37300E+03
        -0.37300E+03
        -0.37300E+03
        -0.37300E+03
        -0.37300E+03
        -0.37300E+03
        -0.37300E+03
        -0.37300E+03
        -0.37300E+03
        -0.37300E+03
        -0.37300E+03
        -0.37300E+03
        -0.37300E+03
        -0.37300E+03
        -0.37300E+03
        -0.37300E+03
        -0.37300E+03
        -0.37300E+03
        -0.37300E+03
        -0.37300E+03
        -0.37300E+03
        -0.37300E+03
        -0.37300E+03
        -0.37300E+03
        -0.37300E+03
        -0.37300E+03
        -0.37300E+03
        -0.37300E+03
        -0.37300E+03
        -0.37300E+03
        -0.37300E+03
        -0.37300E+03
        -0.37300E+03
        -0.37300E+03
        -0.37300E+03
        -0.37300E+03
        -0.37300E+03
        -0.37300E+03
        -0.37300E+03
        -0.37300E+03
        -0.37300E+03
        -0.37300E+03
        -0.37300E+03
        -0.37300E+03
        -0.37300E+03
        -0.37300E+03
        -0.37300E+03
        -0.37300E+03
        -0.37300E+03
        -0.37300E+03
        -0.37300E+03
        -0.37300E+03
        -0.37300E+03
        -0.37300E+03
        -0.37300E+03
        -0.37300E+03
        -0.37300E+03
        -0.37300E+03
        -0.37300E+03
        -0.37300E+03
        -0.37300E+03
        -0.37300E+03
        -0.37300E+03
        -0.37300E+03
        -0.37300E+03
        -0.37300E+03
        -0.37300E+03
        -0.37300E+03
        -0.37300E+03
        -0.37300E+03
        -0.37300E+03
        -0.37300E+03
        -0.37300E+03
        -0.37300E+03
        -0.37300E+03
        -0.37300E+03
        -0.37300E+03
        -0.37300E+03
        -0.37300E+03
        -0.37300E+03
        -0.37300E+03
        -0.37300E+03
        -0.37300E+03
        -0.37300E+03
        -0.37300E+03
        -0.37300E+03
        -0.37300E+03
        -0.37300E+03
        -0.37300E+03
        -0.37300E+03
        -0.37300E+03
        -0.37300E+03
        -0.37300E+03
        -0.37300E+03
        -0.37300E+03
        -0.37300E+03
        -0.37300E+03
        -0.37300E+03
        -0.37300E+03
        -0.37300E+03
        -0.37300E+03
        -0.37300E+03
        -0.37300E+03
        -0.37300E+03
        -0.37300E+03
        -0.37300E+03
        -0.37300E+03
        -0.37300E+03
        -0.37300E+03
        -0.37300E+03
        -0.37300E+03
        -0.37300E+03
        -0.37300E+03
        -0.37300E+03
        -0.37300E+03
        -0.37300E+03
        -0.37300E+03
        -0.37300E+03
        -0.37300E+03
        -0.37300E+03
        -0.37300E+03
        -0.37300E+03
        -0.37300E+03
        -0.37300E+03
        -0.37300E+03
        -0.37300E+03
        -0.37300E+03
        -0.37300E+03
        -0.37300E+03
        -0.37300E+03
        -0.37300E+03
        -0.37300E+03
        -0.37300E+03
        -0.37300E+03
        -0.37300E+03
        -0.37300E+03
        -0.37300E+03
        -0.37300E+03
        -0.37300E+03
        -0.37300E+03
        -0.37300E+03
        -0.37300E+03
        -0.37300E+03
        -0.37300E+03
        -0.37300E+03
        -0.37300E+03
        -0.37300E+03
        -0.37300E+03
        -0.37300E+03
        -0.37300E+03
        -0.37300E+03
        -0.37300E+03
        -0.37300E+03
        -0.37300E+03
        -0.37300E+03
        -0.37300E+03
        -0.37300E+03
        -0.37300E+03
        -0.37300E+03
        -0.37300E+03
        -0.37300E+03
        -0.37300E+03
        -0.37300E+03
        -0.37300E+03
        -0.37300E+03
        -0.37300E+03
        -0.37300E+03
        -0.37300E+03
        -0.37300E+03
        -0.37300E+03
        -0.37300E+03
        -0.37300E+03
        -0.37300E+03
        -0.37300E+03
        -0.37300E+03
        -0.37300E+03
        -0.37300E+03
        -0.37300E+03
        -0.37300E+03
        -0.37300E+03
        -0.37300E+03
        -0.37300E+03
        -0.37300E+03
        -0.37300E+03
        -0.37300E+03
        -0.37300E+03
        -0.37300E+03
        -0.37300E+03
        -0.37300E+03
        -0.37300E+03
        -0.37300E+03
        -0.37300E+03
        -0.37300E+03
        -0.37300E+03
        -0.37300E+03
        -0.37300E+03
        -0.37300E+03
        -0.37300E+03
        -0.37300E+03
        -0.37300E+03
        -0.37300E+03
        -0.37300E+03
        -0.37300E+03
        -0.37300E+03
        -0.37300E+03
        -0.37300E+03
        -0.37300E+03
        -0.37300E+03
        -0.37300E+03
        -0.37300E+03
        -0.37300E+03
        -0.37300E+03
        -0.37300E+03
        -0.37300E+03
        -0.37300E+03
        -0.37300E+03
        -0.37300E+03
        -0.37300E+03
        -0.37300E+03
        -0.37300E+03
        -0.37300E+03
        -0.37300E+03
        -0.37300E+03
        -0.37300E+03
        -0.37300E+03
        -0.37300E+03
        -0.37300E+03
        -0.37300E+03
        -0.37300E+03
        -0.37300E+03
        -0.37300E+03
        -0.37300E+03
        -0.37300E+03
        -0.37300E+03
        -0.37300E+03
        -0.37300E+03
        -0.37300E+03
        -0.37300E+03
        -0.37300E+03
        -0.37300E+03
        -0.37300E+03
        -0.37300E+03
        -0.37300E+03
        -0.37300E+03
        -0.37300E+03
        -0.37300E+03
        -0.37300E+03
        -0.37300E+03
        -0.37300E+03
        -0.37300E+03
        -0.37300E+03
        -0.37300E+03
        -0.37300E+03
  
SCALARS              normalized_window  double 1
LOOKUP_TABLE default
         0.27500E+01
         0.27500E+01
         0.27500E+01
         0.27500E+01
         0.27500E+01
         0.27500E+01
         0.27500E+01
         0.27500E+01
         0.27500E+01
         0.27500E+01
         0.27500E+01
         0.27500E+01
         0.27500E+01
         0.27500E+01
         0.27500E+01
         0.27500E+01
         0.27500E+01
         0.27500E+01
         0.27500E+01
         0.27500E+01
         0.27500E+01
         0.27500E+01
         0.27500E+01
         0.27500E+01
         0.27500E+01
         0.27500E+01
         0.27500E+01
         0.27500E+01
         0.27500E+01
         0.27500E+01
         0.27500E+01
         0.27500E+01
         0.27500E+01
         0.27500E+01
         0.27500E+01
         0.27500E+01
         0.27500E+01
         0.27500E+01
         0.27500E+01
         0.27500E+01
         0.27500E+01
         0.27500E+01
         0.27500E+01
         0.27500E+01
         0.27500E+01
         0.27500E+01
         0.27500E+01
         0.27500E+01
         0.27500E+01
         0.27500E+01
         0.27500E+01
         0.27500E+01
         0.27500E+01
         0.27500E+01
         0.27500E+01
         0.27500E+01
         0.27500E+01
         0.27500E+01
         0.27500E+01
         0.27500E+01
         0.27500E+01
         0.27500E+01
         0.27500E+01
         0.27500E+01
         0.27500E+01
         0.27500E+01
         0.27500E+01
         0.27500E+01
         0.27500E+01
         0.27500E+01
         0.27500E+01
         0.27500E+01
         0.27500E+01
         0.27500E+01
         0.27500E+01
         0.27500E+01
         0.27500E+01
         0.27500E+01
         0.27500E+01
         0.27500E+01
         0.27500E+01
         0.27500E+01
         0.27500E+01
         0.27500E+01
         0.27500E+01
         0.27500E+01
         0.27500E+01
         0.27500E+01
         0.27500E+01
         0.27500E+01
         0.27500E+01
         0.27500E+01
         0.27500E+01
         0.27500E+01
         0.27500E+01
         0.27500E+01
         0.27500E+01
         0.27500E+01
         0.27500E+01
         0.27500E+01
         0.27500E+01
         0.27500E+01
         0.27500E+01
         0.27500E+01
         0.27500E+01
         0.27500E+01
         0.27500E+01
         0.27500E+01
         0.27500E+01
         0.27500E+01
         0.27500E+01
         0.27500E+01
         0.27500E+01
         0.27500E+01
         0.27500E+01
         0.27500E+01
         0.27500E+01
         0.27500E+01
         0.27500E+01
         0.27500E+01
         0.27500E+01
         0.27500E+01
         0.27500E+01
         0.27500E+01
         0.27500E+01
         0.27500E+01
         0.27500E+01
         0.27500E+01
         0.27500E+01
         0.27500E+01
         0.27500E+01
         0.27500E+01
         0.27500E+01
         0.27500E+01
         0.27500E+01
         0.27500E+01
         0.27500E+01
         0.27500E+01
         0.27500E+01
         0.27500E+01
         0.27500E+01
         0.27500E+01
         0.27500E+01
         0.27500E+01
         0.27500E+01
         0.27500E+01
         0.27500E+01
         0.27500E+01
         0.27500E+01
         0.27500E+01
         0.27500E+01
         0.27500E+01
         0.27500E+01
         0.27500E+01
         0.27500E+01
         0.27500E+01
         0.27500E+01
         0.27500E+01
         0.27500E+01
         0.27500E+01
         0.27500E+01
         0.27500E+01
         0.27500E+01
         0.27500E+01
         0.27500E+01
         0.27500E+01
         0.27500E+01
         0.27500E+01
         0.27500E+01
         0.27500E+01
         0.27500E+01
         0.27500E+01
         0.27500E+01
         0.27500E+01
         0.27500E+01
         0.27500E+01
         0.27500E+01
         0.27500E+01
         0.27500E+01
         0.27500E+01
         0.27500E+01
         0.27500E+01
         0.27500E+01
         0.27500E+01
         0.27500E+01
         0.27500E+01
         0.27500E+01
         0.27500E+01
         0.27500E+01
         0.27500E+01
         0.27500E+01
         0.27500E+01
         0.27500E+01
         0.27500E+01
         0.27500E+01
         0.27500E+01
         0.27500E+01
         0.27500E+01
         0.27500E+01
         0.27500E+01
         0.27500E+01
         0.27500E+01
         0.27500E+01
         0.27500E+01
         0.27500E+01
         0.27500E+01
         0.27500E+01
         0.27500E+01
         0.27500E+01
         0.27500E+01
         0.27500E+01
         0.27500E+01
         0.27500E+01
         0.27500E+01
         0.27500E+01
         0.27500E+01
         0.27500E+01
         0.27500E+01
         0.27500E+01
         0.27500E+01
         0.27500E+01
         0.27500E+01
         0.27500E+01
         0.27500E+01
         0.27500E+01
         0.27500E+01
         0.27500E+01
         0.27500E+01
         0.27500E+01
         0.27500E+01
         0.27500E+01
         0.27500E+01
         0.27500E+01
         0.27500E+01
         0.27500E+01
         0.27500E+01
         0.27500E+01
         0.27500E+01
         0.27500E+01
         0.27500E+01
         0.27500E+01
         0.27500E+01
         0.27500E+01
         0.27500E+01
         0.27500E+01
         0.27500E+01
         0.27500E+01
         0.27500E+01
         0.27500E+01
         0.27500E+01
         0.27500E+01
         0.27500E+01
         0.27500E+01
         0.27500E+01
         0.27500E+01
         0.27500E+01
         0.27500E+01
         0.27500E+01
         0.27500E+01
         0.27500E+01
         0.27500E+01
         0.27500E+01
         0.27500E+01
         0.27500E+01
         0.27500E+01
         0.27500E+01
         0.27500E+01
         0.27500E+01
         0.27500E+01
         0.27500E+01
         0.27500E+01
         0.27500E+01
         0.27500E+01
         0.27500E+01
         0.27500E+01
         0.27500E+01
         0.27500E+01
         0.27500E+01
         0.27500E+01
         0.27500E+01
         0.27500E+01
         0.27500E+01
         0.27500E+01
         0.27500E+01
         0.27500E+01
         0.27500E+01
         0.27500E+01
         0.27500E+01
         0.27500E+01
         0.27500E+01
         0.27500E+01
         0.27500E+01
         0.27500E+01
         0.27500E+01
         0.27500E+01
         0.27500E+01
         0.27500E+01
         0.27500E+01
         0.27500E+01
         0.27500E+01
         0.27500E+01
         0.27500E+01
         0.27500E+01
         0.27500E+01
         0.27500E+01
         0.27500E+01
         0.27500E+01
         0.27500E+01
         0.27500E+01
         0.27500E+01
         0.27500E+01
         0.27500E+01
         0.27500E+01
         0.27500E+01
         0.27500E+01
         0.27500E+01
         0.27500E+01
         0.27500E+01
         0.27500E+01
         0.27500E+01
         0.27500E+01
         0.27500E+01
         0.27500E+01
         0.27500E+01
         0.27500E+01
         0.27500E+01
         0.27500E+01
         0.27500E+01
         0.27500E+01
         0.27500E+01
         0.27500E+01
         0.27500E+01
         0.27500E+01
         0.27500E+01
         0.27500E+01
         0.27500E+01
         0.27500E+01
         0.27500E+01
         0.27500E+01
         0.27500E+01
         0.27500E+01
         0.27500E+01
         0.27500E+01
         0.27500E+01
         0.27500E+01
         0.27500E+01
         0.27500E+01
         0.27500E+01
         0.27500E+01
         0.27500E+01
         0.27500E+01
         0.27500E+01
         0.27500E+01
         0.27500E+01
         0.27500E+01
         0.27500E+01
         0.27500E+01
         0.27500E+01
         0.27500E+01
         0.27500E+01
         0.27500E+01
         0.27500E+01
         0.27500E+01
         0.27500E+01
         0.27500E+01
         0.27500E+01
         0.27500E+01
         0.27500E+01
         0.27500E+01
         0.27500E+01
         0.27500E+01
         0.27500E+01
         0.27500E+01
         0.27500E+01
         0.27500E+01
         0.27500E+01
         0.27500E+01
         0.27500E+01
         0.27500E+01
         0.27500E+01
         0.27500E+01
         0.27500E+01
         0.27500E+01
         0.27500E+01
         0.27500E+01
         0.27500E+01
         0.27500E+01
         0.27500E+01
         0.27500E+01
         0.27500E+01
         0.27500E+01
         0.27500E+01
         0.27500E+01
         0.27500E+01
         0.27500E+01
         0.27500E+01
         0.27500E+01
         0.27500E+01
         0.27500E+01
         0.27500E+01
         0.27500E+01
         0.27500E+01
         0.27500E+01
         0.27500E+01
         0.27500E+01
         0.27500E+01
         0.27500E+01
         0.27500E+01
         0.27500E+01
         0.27500E+01
         0.27500E+01
         0.27500E+01
         0.27500E+01
         0.27500E+01
         0.27500E+01
         0.27500E+01
         0.27500E+01
         0.27500E+01
         0.27500E+01
         0.27500E+01
         0.27500E+01
         0.27500E+01
         0.27500E+01
         0.27500E+01
         0.27500E+01
         0.27500E+01
         0.27500E+01
         0.27500E+01
         0.27500E+01
         0.27500E+01
         0.27500E+01
         0.27500E+01
         0.27500E+01
         0.27500E+01
         0.27500E+01
         0.27500E+01
         0.27500E+01
         0.27500E+01
         0.27500E+01
         0.27500E+01
         0.27500E+01
         0.27500E+01
         0.27500E+01
         0.27500E+01
         0.27500E+01
         0.27500E+01
         0.27500E+01
         0.27500E+01
         0.27500E+01
         0.27500E+01
         0.27500E+01
         0.27500E+01
         0.27500E+01
         0.27500E+01
         0.27500E+01
         0.27500E+01
         0.27500E+01
         0.27500E+01
         0.27500E+01
         0.27500E+01
         0.27500E+01
         0.27500E+01
         0.27500E+01
         0.27500E+01
         0.27500E+01
         0.27500E+01
         0.27500E+01
         0.27500E+01
         0.27500E+01
         0.27500E+01
         0.27500E+01
         0.27500E+01
         0.27500E+01
         0.27500E+01
         0.27500E+01
         0.27500E+01
         0.27500E+01
         0.27500E+01
         0.27500E+01
         0.27500E+01
         0.27500E+01
         0.27500E+01
         0.27500E+01
         0.27500E+01
         0.27500E+01
         0.27500E+01
         0.27500E+01
         0.27500E+01
         0.27500E+01
         0.27500E+01
         0.27500E+01
         0.27500E+01
         0.27500E+01
         0.27500E+01
         0.27500E+01
         0.27500E+01
         0.27500E+01
         0.27500E+01
         0.27500E+01
         0.27500E+01
         0.27500E+01
         0.27500E+01
         0.27500E+01
         0.27500E+01
         0.27500E+01
         0.27500E+01
         0.27500E+01
         0.27500E+01
         0.27500E+01
         0.27500E+01
         0.27500E+01
         0.27500E+01
         0.27500E+01
         0.27500E+01
         0.27500E+01
         0.27500E+01
         0.27500E+01
         0.27500E+01
         0.27500E+01
         0.27500E+01
         0.27500E+01
         0.27500E+01
         0.27500E+01
         0.27500E+01
         0.27500E+01
         0.27500E+01
         0.27500E+01
         0.27500E+01
         0.27500E+01
         0.27500E+01
         0.27500E+01
         0.27500E+01
         0.27500E+01
         0.27500E+01
         0.27500E+01
         0.27500E+01
         0.27500E+01
         0.27500E+01
         0.27500E+01
         0.27500E+01
         0.27500E+01
         0.27500E+01
         0.27500E+01
         0.27500E+01
         0.27500E+01
         0.27500E+01
         0.27500E+01
         0.27500E+01
         0.27500E+01
         0.27500E+01
         0.27500E+01
         0.27500E+01
         0.27500E+01
         0.27500E+01
         0.27500E+01
         0.27500E+01
         0.27500E+01
         0.27500E+01
         0.27500E+01
         0.27500E+01
         0.27500E+01
         0.27500E+01
         0.27500E+01
         0.27500E+01
         0.27500E+01
         0.27500E+01
         0.27500E+01
         0.27500E+01
         0.27500E+01
         0.27500E+01
         0.27500E+01
         0.27500E+01
         0.27500E+01
         0.27500E+01
         0.27500E+01
         0.27500E+01
         0.27500E+01
         0.27500E+01
         0.27500E+01
         0.27500E+01
         0.27500E+01
         0.27500E+01
         0.27500E+01
         0.27500E+01
         0.27500E+01
         0.27500E+01
         0.27500E+01
         0.27500E+01
         0.27500E+01
         0.27500E+01
         0.27500E+01
         0.27500E+01
         0.27500E+01
         0.27500E+01
         0.27500E+01
         0.27500E+01
         0.27500E+01
         0.27500E+01
         0.27500E+01
         0.27500E+01
         0.27500E+01
         0.27500E+01
         0.27500E+01
         0.27500E+01
         0.27500E+01
         0.27500E+01
         0.27500E+01
         0.27500E+01
         0.27500E+01
         0.27500E+01
         0.27500E+01
         0.27500E+01
         0.27500E+01
         0.27500E+01
         0.27500E+01
         0.27500E+01
         0.27500E+01
         0.27500E+01
         0.27500E+01
         0.27500E+01
         0.27500E+01
         0.27500E+01
         0.27500E+01
         0.27500E+01
         0.27500E+01
         0.27500E+01
         0.27500E+01
         0.27500E+01
         0.27500E+01
         0.27500E+01
         0.27500E+01
         0.27500E+01
         0.27500E+01
         0.27500E+01
         0.27500E+01
         0.27500E+01
         0.27500E+01
         0.27500E+01
         0.27500E+01
         0.27500E+01
         0.27500E+01
         0.27500E+01
         0.27500E+01
         0.27500E+01
         0.27500E+01
         0.27500E+01
         0.27500E+01
         0.27500E+01
         0.27500E+01
         0.27500E+01
         0.27500E+01
         0.27500E+01
         0.27500E+01
         0.27500E+01
         0.27500E+01
         0.27500E+01
         0.27500E+01
         0.27500E+01
         0.27500E+01
         0.27500E+01
         0.27500E+01
         0.27500E+01
         0.27500E+01
         0.27500E+01
         0.27500E+01
         0.27500E+01
         0.27500E+01
         0.27500E+01
         0.27500E+01
         0.27500E+01
         0.27500E+01
         0.27500E+01
         0.27500E+01
         0.27500E+01
         0.27500E+01
         0.27500E+01
         0.27500E+01
         0.27500E+01
         0.27500E+01
         0.27500E+01
         0.27500E+01
         0.27500E+01
         0.27500E+01
         0.27500E+01
         0.27500E+01
         0.27500E+01
         0.27500E+01
         0.27500E+01
         0.27500E+01
         0.27500E+01
         0.27500E+01
         0.27500E+01
         0.27500E+01
         0.27500E+01
         0.27500E+01
         0.27500E+01
         0.27500E+01
         0.27500E+01
         0.27500E+01
         0.27500E+01
         0.27500E+01
         0.27500E+01
         0.27500E+01
         0.27500E+01
         0.27500E+01
         0.27500E+01
         0.27500E+01
         0.27500E+01
         0.27500E+01
         0.27500E+01
         0.27500E+01
         0.27500E+01
         0.27500E+01
         0.27500E+01
         0.27500E+01
         0.27500E+01
         0.27500E+01
         0.27500E+01
         0.27500E+01
         0.27500E+01
         0.27500E+01
         0.27500E+01
         0.27500E+01
         0.27500E+01
         0.27500E+01
         0.27500E+01
         0.27500E+01
         0.27500E+01
         0.27500E+01
         0.27500E+01
         0.27500E+01
         0.27500E+01
         0.27500E+01
         0.27500E+01
         0.27500E+01
         0.27500E+01
         0.27500E+01
         0.27500E+01
         0.27500E+01
         0.27500E+01
         0.27500E+01
         0.27500E+01
         0.27500E+01
         0.27500E+01
         0.27500E+01
         0.27500E+01
         0.27500E+01
         0.27500E+01
         0.27500E+01
         0.27500E+01
         0.27500E+01
         0.27500E+01
         0.27500E+01
         0.27500E+01
         0.27500E+01
         0.27500E+01
         0.27500E+01
         0.27500E+01
         0.27500E+01
         0.27500E+01
         0.27500E+01
         0.27500E+01
         0.27500E+01
         0.27500E+01
         0.27500E+01
         0.27500E+01
         0.27500E+01
         0.27500E+01
         0.27500E+01
         0.27500E+01
         0.27500E+01
         0.27500E+01
         0.27500E+01
         0.27500E+01
         0.27500E+01
         0.27500E+01
         0.27500E+01
         0.27500E+01
         0.27500E+01
         0.27500E+01
         0.27500E+01
         0.27500E+01
         0.27500E+01
         0.27500E+01
         0.27500E+01
         0.27500E+01
         0.27500E+01
         0.27500E+01
         0.27500E+01
         0.27500E+01
         0.27500E+01
         0.27500E+01
         0.27500E+01
         0.27500E+01
         0.27500E+01
         0.27500E+01
         0.27500E+01
         0.27500E+01
         0.27500E+01
         0.27500E+01
         0.27500E+01
         0.27500E+01
         0.27500E+01
         0.27500E+01
         0.27500E+01
         0.27500E+01
         0.27500E+01
         0.27500E+01
         0.27500E+01
         0.27500E+01
         0.27500E+01
         0.27500E+01
         0.27500E+01
         0.27500E+01
         0.27500E+01
         0.27500E+01
         0.27500E+01
         0.27500E+01
         0.27500E+01
         0.27500E+01
         0.27500E+01
         0.27500E+01
         0.27500E+01
         0.27500E+01
         0.27500E+01
         0.27500E+01
         0.27500E+01
         0.27500E+01
         0.27500E+01
         0.27500E+01
         0.27500E+01
         0.27500E+01
         0.27500E+01
         0.27500E+01
         0.27500E+01
         0.27500E+01
         0.27500E+01
         0.27500E+01
         0.27500E+01
         0.27500E+01
         0.27500E+01
         0.27500E+01
         0.27500E+01
         0.27500E+01
         0.27500E+01
         0.27500E+01
         0.27500E+01
         0.27500E+01
         0.27500E+01
         0.27500E+01
         0.27500E+01
         0.27500E+01
         0.27500E+01
         0.27500E+01
         0.27500E+01
         0.27500E+01
         0.27500E+01
         0.27500E+01
         0.27500E+01
         0.27500E+01
         0.27500E+01
         0.27500E+01
         0.27500E+01
         0.27500E+01
         0.27500E+01
         0.27500E+01
         0.27500E+01
         0.27500E+01
         0.27500E+01
         0.27500E+01
         0.27500E+01
         0.27500E+01
         0.27500E+01
         0.27500E+01
         0.27500E+01
         0.27500E+01
         0.27500E+01
         0.27500E+01
         0.27500E+01
         0.27500E+01
         0.27500E+01
         0.27500E+01
         0.27500E+01
         0.27500E+01
         0.27500E+01
         0.27500E+01
         0.27500E+01
         0.27500E+01
         0.27500E+01
         0.27500E+01
         0.27500E+01
         0.27500E+01
         0.27500E+01
         0.27500E+01
         0.27500E+01
         0.27500E+01
         0.27500E+01
         0.27500E+01
         0.27500E+01
         0.27500E+01
         0.27500E+01
         0.27500E+01
         0.27500E+01
         0.27500E+01
         0.27500E+01
         0.27500E+01
         0.27500E+01
         0.27500E+01
         0.27500E+01
         0.27500E+01
         0.27500E+01
         0.27500E+01
         0.27500E+01
         0.27500E+01
         0.27500E+01
         0.27500E+01
         0.27500E+01
         0.27500E+01
         0.27500E+01
         0.27500E+01
         0.27500E+01
         0.27500E+01
         0.27500E+01
         0.27500E+01
         0.27500E+01
         0.27500E+01
         0.27500E+01
         0.27500E+01
         0.27500E+01
         0.27500E+01
         0.27500E+01
         0.27500E+01
         0.27500E+01
         0.27500E+01
         0.27500E+01
         0.27500E+01
         0.27500E+01
         0.27500E+01
         0.27500E+01
         0.27500E+01
         0.27500E+01
         0.27500E+01
         0.27500E+01
         0.27500E+01
         0.27500E+01
         0.27500E+01
         0.27500E+01
         0.27500E+01
         0.27500E+01
         0.27500E+01
         0.27500E+01
         0.27500E+01
         0.27500E+01
         0.27500E+01
         0.27500E+01
         0.27500E+01
         0.27500E+01
         0.27500E+01
         0.27500E+01
         0.27500E+01
         0.27500E+01
         0.27500E+01
         0.27500E+01
         0.27500E+01
         0.27500E+01
         0.27500E+01
         0.27500E+01
         0.27500E+01
         0.27500E+01
         0.27500E+01
         0.27500E+01
         0.27500E+01
         0.27500E+01
         0.27500E+01
         0.27500E+01
         0.27500E+01
         0.27500E+01
         0.27500E+01
         0.27500E+01
         0.27500E+01
         0.27500E+01
         0.27500E+01
         0.27500E+01
         0.27500E+01
         0.27500E+01
         0.27500E+01
         0.27500E+01
         0.27500E+01
         0.27500E+01
         0.27500E+01
         0.27500E+01
         0.27500E+01
         0.27500E+01
         0.27500E+01
         0.27500E+01
         0.27500E+01
         0.27500E+01
         0.27500E+01
         0.27500E+01
         0.27500E+01
         0.27500E+01
         0.27500E+01
         0.27500E+01
         0.27500E+01
         0.27500E+01
         0.27500E+01
         0.27500E+01
         0.27500E+01
         0.27500E+01
         0.27500E+01
         0.27500E+01
         0.27500E+01
         0.27500E+01
         0.27500E+01
         0.27500E+01
         0.27500E+01
         0.27500E+01
         0.27500E+01
         0.27500E+01
         0.27500E+01
         0.27500E+01
         0.27500E+01
         0.27500E+01
         0.27500E+01
         0.27500E+01
         0.27500E+01
         0.27500E+01
         0.27500E+01
         0.27500E+01
         0.27500E+01
         0.27500E+01
         0.27500E+01
         0.27500E+01
         0.27500E+01
         0.27500E+01
         0.27500E+01
         0.27500E+01
         0.27500E+01
         0.27500E+01
         0.27500E+01
         0.27500E+01
         0.27500E+01
         0.27500E+01
         0.27500E+01
         0.27500E+01
         0.27500E+01
         0.27500E+01
         0.27500E+01
         0.27500E+01
         0.27500E+01
         0.27500E+01
         0.27500E+01
         0.27500E+01
         0.27500E+01
         0.27500E+01
         0.27500E+01
         0.27500E+01
         0.27500E+01
         0.27500E+01
         0.27500E+01
         0.27500E+01
         0.27500E+01
         0.27500E+01
         0.27500E+01
         0.27500E+01
         0.27500E+01
         0.27500E+01
         0.27500E+01
         0.27500E+01
         0.27500E+01
         0.27500E+01
         0.27500E+01
         0.27500E+01
         0.27500E+01
         0.27500E+01
         0.27500E+01
         0.27500E+01
         0.27500E+01
         0.27500E+01
         0.27500E+01
         0.27500E+01
         0.27500E+01
         0.27500E+01
         0.27500E+01
         0.27500E+01
         0.27500E+01
         0.27500E+01
         0.27500E+01
         0.27500E+01
         0.27500E+01
         0.27500E+01
         0.27500E+01
         0.27500E+01
         0.27500E+01
         0.27500E+01
         0.27500E+01
         0.27500E+01
         0.27500E+01
         0.27500E+01
         0.27500E+01
         0.27500E+01
         0.27500E+01
         0.27500E+01
         0.27500E+01
         0.27500E+01
         0.27500E+01
         0.27500E+01
         0.27500E+01
         0.27500E+01
         0.27500E+01
         0.27500E+01
         0.27500E+01
         0.27500E+01
         0.27500E+01
         0.27500E+01
         0.27500E+01
         0.27500E+01
         0.27500E+01
         0.27500E+01
         0.27500E+01
         0.27500E+01
         0.27500E+01
         0.27500E+01
         0.27500E+01
         0.27500E+01
         0.27500E+01
         0.27500E+01
         0.27500E+01
         0.27500E+01
         0.27500E+01
         0.27500E+01
         0.27500E+01
         0.27500E+01
         0.27500E+01
         0.27500E+01
         0.27500E+01
         0.27500E+01
         0.27500E+01
         0.27500E+01
         0.27500E+01
         0.27500E+01
         0.27500E+01
         0.27500E+01
         0.27500E+01
         0.27500E+01
         0.27500E+01
         0.27500E+01
         0.27500E+01
         0.27500E+01
         0.27500E+01
         0.27500E+01
         0.27500E+01
         0.27500E+01
         0.27500E+01
         0.27500E+01
         0.27500E+01
         0.27500E+01
         0.27500E+01
         0.27500E+01
         0.27500E+01
         0.27500E+01
         0.27500E+01
         0.27500E+01
         0.27500E+01
         0.27500E+01
         0.27500E+01
         0.27500E+01
         0.27500E+01
         0.27500E+01
         0.27500E+01
         0.27500E+01
         0.27500E+01
         0.27500E+01
         0.27500E+01
         0.27500E+01
         0.27500E+01
         0.27500E+01
         0.27500E+01
         0.27500E+01
         0.27500E+01
         0.27500E+01
         0.27500E+01
         0.27500E+01
         0.27500E+01
         0.27500E+01
         0.27500E+01
         0.27500E+01
         0.27500E+01
         0.27500E+01
         0.27500E+01
         0.27500E+01
         0.27500E+01
         0.27500E+01
         0.27500E+01
         0.27500E+01
         0.27500E+01
         0.27500E+01
         0.27500E+01
         0.27500E+01
         0.27500E+01
         0.27500E+01
         0.27500E+01
         0.27500E+01
         0.27500E+01
         0.27500E+01
         0.27500E+01
         0.27500E+01
         0.27500E+01
         0.27500E+01
         0.27500E+01
         0.27500E+01
         0.27500E+01
         0.27500E+01
         0.27500E+01
         0.27500E+01
         0.27500E+01
         0.27500E+01
         0.27500E+01
         0.27500E+01
         0.27500E+01
         0.27500E+01
         0.27500E+01
         0.27500E+01
         0.27500E+01
         0.27500E+01
         0.27500E+01
         0.27500E+01
         0.27500E+01
         0.27500E+01
         0.27500E+01
         0.27500E+01
         0.27500E+01
         0.27500E+01
         0.27500E+01
         0.27500E+01
         0.27500E+01
         0.27500E+01
         0.27500E+01
         0.27500E+01
         0.27500E+01
         0.27500E+01
         0.27500E+01
         0.27500E+01
         0.27500E+01
         0.27500E+01
         0.27500E+01
         0.27500E+01
         0.27500E+01
         0.27500E+01
         0.27500E+01
         0.27500E+01
         0.27500E+01
         0.27500E+01
         0.27500E+01
         0.27500E+01
         0.27500E+01
         0.27500E+01
         0.27500E+01
         0.27500E+01
         0.27500E+01
         0.27500E+01
         0.27500E+01
         0.27500E+01
         0.27500E+01
         0.27500E+01
         0.27500E+01
         0.27500E+01
         0.27500E+01
         0.27500E+01
         0.27500E+01
         0.27500E+01
         0.27500E+01
         0.27500E+01
         0.27500E+01
         0.27500E+01
         0.27500E+01
         0.27500E+01
         0.27500E+01
         0.27500E+01
         0.27500E+01
         0.27500E+01
         0.27500E+01
         0.27500E+01
         0.27500E+01
         0.27500E+01
         0.27500E+01
         0.27500E+01
         0.27500E+01
         0.27500E+01
         0.27500E+01
         0.27500E+01
         0.27500E+01
         0.27500E+01
         0.27500E+01
         0.27500E+01
         0.27500E+01
         0.27500E+01
         0.27500E+01
         0.27500E+01
         0.27500E+01
         0.27500E+01
         0.27500E+01
         0.27500E+01
         0.27500E+01
         0.27500E+01
         0.27500E+01
         0.27500E+01
         0.27500E+01
         0.27500E+01
         0.27500E+01
         0.27500E+01
         0.27500E+01
         0.27500E+01
         0.27500E+01
         0.27500E+01
         0.27500E+01
         0.27500E+01
         0.27500E+01
         0.27500E+01
         0.27500E+01
         0.27500E+01
         0.27500E+01
         0.27500E+01
         0.27500E+01
         0.27500E+01
         0.27500E+01
         0.27500E+01
         0.27500E+01
         0.27500E+01
         0.27500E+01
         0.27500E+01
         0.27500E+01
         0.27500E+01
         0.27500E+01
         0.27500E+01
         0.27500E+01
         0.27500E+01
         0.27500E+01
         0.27500E+01
         0.27500E+01
         0.27500E+01
         0.27500E+01
         0.27500E+01
         0.27500E+01
         0.27500E+01
         0.27500E+01
         0.27500E+01
         0.27500E+01
         0.27500E+01
         0.27500E+01
         0.27500E+01
         0.27500E+01
         0.27500E+01
         0.27500E+01
         0.27500E+01
         0.27500E+01
         0.27500E+01
         0.27500E+01
         0.27500E+01
         0.27500E+01
         0.27500E+01
         0.27500E+01
         0.27500E+01
         0.27500E+01
         0.27500E+01
         0.27500E+01
         0.27500E+01
         0.27500E+01
         0.27500E+01
         0.27500E+01
         0.27500E+01
         0.27500E+01
         0.27500E+01
         0.27500E+01
         0.27500E+01
         0.27500E+01
         0.27500E+01
         0.27500E+01
         0.27500E+01
         0.27500E+01
         0.27500E+01
         0.27500E+01
         0.27500E+01
         0.27500E+01
         0.27500E+01
         0.27500E+01
         0.27500E+01
         0.27500E+01
         0.27500E+01
         0.27500E+01
         0.27500E+01
         0.27500E+01
         0.27500E+01
         0.27500E+01
         0.27500E+01
         0.27500E+01
         0.27500E+01
         0.27500E+01
         0.27500E+01
         0.27500E+01
         0.27500E+01
         0.27500E+01
         0.27500E+01
         0.27500E+01
         0.27500E+01
         0.27500E+01
         0.27500E+01
         0.27500E+01
         0.27500E+01
         0.27500E+01
         0.27500E+01
         0.27500E+01
         0.27500E+01
         0.27500E+01
         0.27500E+01
         0.27500E+01
         0.27500E+01
         0.27500E+01
         0.27500E+01
         0.27500E+01
         0.27500E+01
         0.27500E+01
         0.27500E+01
         0.27500E+01
         0.27500E+01
         0.27500E+01
         0.27500E+01
         0.27500E+01
         0.27500E+01
         0.27500E+01
         0.27500E+01
         0.27500E+01
         0.27500E+01
         0.27500E+01
         0.27500E+01
         0.27500E+01
         0.27500E+01
         0.27500E+01
         0.27500E+01
         0.27500E+01
         0.27500E+01
         0.27500E+01
         0.27500E+01
         0.27500E+01
         0.27500E+01
         0.27500E+01
         0.27500E+01
         0.27500E+01
         0.27500E+01
         0.27500E+01
         0.27500E+01
         0.27500E+01
         0.27500E+01
         0.27500E+01
         0.27500E+01
         0.27500E+01
         0.27500E+01
         0.27500E+01
         0.27500E+01
         0.27500E+01
         0.27500E+01
         0.27500E+01
         0.27500E+01
         0.27500E+01
         0.27500E+01
         0.27500E+01
         0.27500E+01
         0.27500E+01
         0.27500E+01
         0.27500E+01
         0.27500E+01
         0.27500E+01
         0.27500E+01
         0.27500E+01
         0.27500E+01
         0.27500E+01
         0.27500E+01
         0.27500E+01
         0.27500E+01
         0.27500E+01
         0.27500E+01
         0.27500E+01
         0.27500E+01
         0.27500E+01
         0.27500E+01
         0.27500E+01
         0.27500E+01
         0.27500E+01
         0.27500E+01
         0.27500E+01
         0.27500E+01
         0.27500E+01
         0.27500E+01
         0.27500E+01
         0.27500E+01
         0.27500E+01
         0.27500E+01
         0.27500E+01
         0.27500E+01
         0.27500E+01
         0.27500E+01
         0.27500E+01
         0.27500E+01
         0.27500E+01
         0.27500E+01
         0.27500E+01
         0.27500E+01
         0.27500E+01
         0.27500E+01
         0.27500E+01
         0.27500E+01
         0.27500E+01
         0.27500E+01
         0.27500E+01
         0.27500E+01
         0.27500E+01
         0.27500E+01
         0.27500E+01
         0.27500E+01
         0.27500E+01
         0.27500E+01
         0.27500E+01
         0.27500E+01
         0.27500E+01
         0.27500E+01
         0.27500E+01
         0.27500E+01
         0.27500E+01
         0.27500E+01
         0.27500E+01
         0.27500E+01
         0.27500E+01
         0.27500E+01
         0.27500E+01
         0.27500E+01
         0.27500E+01
         0.27500E+01
         0.27500E+01
         0.27500E+01
         0.27500E+01
         0.27500E+01
         0.27500E+01
         0.27500E+01
         0.27500E+01
         0.27500E+01
         0.27500E+01
         0.27500E+01
         0.27500E+01
         0.27500E+01
         0.27500E+01
         0.27500E+01
         0.27500E+01
         0.27500E+01
         0.27500E+01
         0.27500E+01
         0.27500E+01
         0.27500E+01
         0.27500E+01
         0.27500E+01
         0.27500E+01
         0.27500E+01
         0.27500E+01
         0.27500E+01
         0.27500E+01
         0.27500E+01
         0.27500E+01
         0.27500E+01
         0.27500E+01
         0.27500E+01
         0.27500E+01
         0.27500E+01
         0.27500E+01
         0.27500E+01
         0.27500E+01
         0.27500E+01
         0.27500E+01
         0.27500E+01
         0.27500E+01
         0.27500E+01
         0.27500E+01
         0.27500E+01
         0.27500E+01
         0.27500E+01
         0.27500E+01
         0.27500E+01
         0.27500E+01
         0.27500E+01
         0.27500E+01
         0.27500E+01
         0.27500E+01
         0.27500E+01
         0.27500E+01
         0.27500E+01
         0.27500E+01
         0.27500E+01
         0.27500E+01
         0.27500E+01
         0.27500E+01
         0.27500E+01
         0.27500E+01
         0.27500E+01
         0.27500E+01
         0.27500E+01
         0.27500E+01
         0.27500E+01
         0.27500E+01
         0.27500E+01
         0.27500E+01
         0.27500E+01
         0.27500E+01
         0.27500E+01
         0.27500E+01
         0.27500E+01
         0.27500E+01
         0.27500E+01
         0.27500E+01
         0.27500E+01
         0.27500E+01
         0.27500E+01
         0.27500E+01
         0.27500E+01
         0.27500E+01
         0.27500E+01
         0.27500E+01
         0.27500E+01
         0.27500E+01
         0.27500E+01
         0.27500E+01
         0.27500E+01
         0.27500E+01
         0.27500E+01
         0.27500E+01
         0.27500E+01
         0.27500E+01
         0.27500E+01
         0.27500E+01
         0.27500E+01
         0.27500E+01
         0.27500E+01
         0.27500E+01
         0.27500E+01
         0.27500E+01
         0.27500E+01
         0.27500E+01
         0.27500E+01
         0.27500E+01
         0.27500E+01
         0.27500E+01
         0.27500E+01
         0.27500E+01
         0.27500E+01
         0.27500E+01
         0.27500E+01
         0.27500E+01
         0.27500E+01
         0.27500E+01
         0.27500E+01
         0.27500E+01
         0.27500E+01
         0.27500E+01
         0.27500E+01
         0.27500E+01
         0.27500E+01
         0.27500E+01
         0.27500E+01
         0.27500E+01
         0.27500E+01
         0.27500E+01
         0.27500E+01
         0.27500E+01
         0.27500E+01
         0.27500E+01
         0.27500E+01
         0.27500E+01
         0.27500E+01
         0.27500E+01
         0.27500E+01
         0.27500E+01
         0.27500E+01
         0.27500E+01
         0.27500E+01
         0.27500E+01
         0.27500E+01
         0.27500E+01
         0.27500E+01
         0.27500E+01
         0.27500E+01
         0.27500E+01
         0.27500E+01
         0.27500E+01
         0.27500E+01
         0.27500E+01
         0.27500E+01
         0.27500E+01
         0.27500E+01
         0.27500E+01
         0.27500E+01
         0.27500E+01
         0.27500E+01
         0.27500E+01
         0.27500E+01
         0.27500E+01
         0.27500E+01
         0.27500E+01
         0.27500E+01
         0.27500E+01
         0.27500E+01
         0.27500E+01
         0.27500E+01
         0.27500E+01
         0.27500E+01
         0.27500E+01
         0.27500E+01
         0.27500E+01
         0.27500E+01
         0.27500E+01
         0.27500E+01
         0.27500E+01
         0.27500E+01
         0.27500E+01
         0.27500E+01
         0.27500E+01
         0.27500E+01
         0.27500E+01
         0.27500E+01
         0.27500E+01
         0.27500E+01
         0.27500E+01
         0.27500E+01
         0.27500E+01
         0.27500E+01
         0.27500E+01
         0.27500E+01
         0.27500E+01
         0.27500E+01
         0.27500E+01
         0.27500E+01
         0.27500E+01
         0.27500E+01
         0.27500E+01
         0.27500E+01
         0.27500E+01
         0.27500E+01
         0.27500E+01
         0.27500E+01
         0.27500E+01
         0.27500E+01
         0.27500E+01
         0.27500E+01
         0.27500E+01
         0.27500E+01
         0.27500E+01
         0.27500E+01
         0.27500E+01
         0.27500E+01
         0.27500E+01
         0.27500E+01
         0.27500E+01
         0.27500E+01
         0.27500E+01
         0.27500E+01
         0.27500E+01
         0.27500E+01
         0.27500E+01
         0.27500E+01
         0.27500E+01
         0.27500E+01
         0.27500E+01
         0.27500E+01
         0.27500E+01
         0.27500E+01
         0.27500E+01
         0.27500E+01
         0.27500E+01
         0.27500E+01
         0.27500E+01
         0.27500E+01
         0.27500E+01
         0.27500E+01
         0.27500E+01
         0.27500E+01
         0.27500E+01
         0.27500E+01
         0.27500E+01
         0.27500E+01
         0.27500E+01
         0.27500E+01
         0.27500E+01
         0.27500E+01
         0.27500E+01
         0.27500E+01
         0.27500E+01
         0.27500E+01
         0.27500E+01
         0.27500E+01
         0.27500E+01
         0.27500E+01
         0.27500E+01
         0.27500E+01
         0.27500E+01
         0.27500E+01
         0.27500E+01
         0.27500E+01
         0.27500E+01
         0.27500E+01
         0.27500E+01
         0.27500E+01
         0.27500E+01
         0.27500E+01
         0.27500E+01
         0.27500E+01
         0.27500E+01
         0.27500E+01
         0.27500E+01
         0.27500E+01
         0.27500E+01
         0.27500E+01
         0.27500E+01
         0.27500E+01
         0.27500E+01
         0.27500E+01
         0.27500E+01
         0.27500E+01
         0.27500E+01
         0.27500E+01
         0.27500E+01
         0.27500E+01
         0.27500E+01
         0.27500E+01
         0.27500E+01
         0.27500E+01
         0.27500E+01
         0.27500E+01
         0.27500E+01
         0.27500E+01
         0.27500E+01
         0.27500E+01
         0.27500E+01
         0.27500E+01
         0.27500E+01
         0.27500E+01
         0.27500E+01
         0.27500E+01
         0.27500E+01
         0.27500E+01
         0.27500E+01
         0.27500E+01
         0.27500E+01
         0.27500E+01
         0.27500E+01
         0.27500E+01
         0.27500E+01
         0.27500E+01
         0.27500E+01
         0.27500E+01
         0.27500E+01
         0.27500E+01
         0.27500E+01
         0.27500E+01
         0.27500E+01
         0.27500E+01
         0.27500E+01
         0.27500E+01
         0.27500E+01
         0.27500E+01
         0.27500E+01
         0.27500E+01
         0.27500E+01
         0.27500E+01
         0.27500E+01
         0.27500E+01
         0.27500E+01
         0.27500E+01
         0.27500E+01
         0.27500E+01
         0.27500E+01
         0.27500E+01
         0.27500E+01
         0.27500E+01
         0.27500E+01
         0.27500E+01
         0.27500E+01
         0.27500E+01
         0.27500E+01
         0.27500E+01
         0.27500E+01
         0.27500E+01
         0.27500E+01
         0.27500E+01
         0.27500E+01
         0.27500E+01
         0.27500E+01
         0.27500E+01
         0.27500E+01
         0.27500E+01
         0.27500E+01
         0.27500E+01
         0.27500E+01
         0.27500E+01
         0.27500E+01
         0.27500E+01
         0.27500E+01
         0.27500E+01
         0.27500E+01
         0.27500E+01
         0.27500E+01
         0.27500E+01
         0.27500E+01
         0.27500E+01
         0.27500E+01
         0.27500E+01
         0.27500E+01
         0.27500E+01
         0.27500E+01
         0.27500E+01
         0.27500E+01
         0.27500E+01
         0.27500E+01
         0.27500E+01
         0.27500E+01
         0.27500E+01
         0.27500E+01
         0.27500E+01
         0.27500E+01
         0.27500E+01
         0.27500E+01
         0.27500E+01
         0.27500E+01
         0.27500E+01
         0.27500E+01
         0.27500E+01
         0.27500E+01
         0.27500E+01
         0.27500E+01
         0.27500E+01
         0.27500E+01
         0.27500E+01
         0.27500E+01
         0.27500E+01
         0.27500E+01
         0.27500E+01
         0.27500E+01
         0.27500E+01
         0.27500E+01
         0.27500E+01
         0.27500E+01
         0.27500E+01
         0.27500E+01
         0.27500E+01
         0.27500E+01
  
SCALARS              physical_window_x  double 1
LOOKUP_TABLE default
         0.42419E-02
         0.35201E-02
         0.37624E-02
         0.42419E-02
         0.42417E-02
         0.35201E-02
         0.37618E-02
         0.42417E-02
         0.37624E-02
         0.37624E-02
         0.37618E-02
         0.37618E-02
         0.30086E-02
         0.32069E-02
         0.30084E-02
         0.32067E-02
         0.42419E-02
         0.32069E-02
         0.42417E-02
         0.32067E-02
         0.24180E-02
         0.29942E-02
         0.32396E-02
         0.24180E-02
         0.29933E-02
         0.32385E-02
         0.26608E-02
         0.27190E-02
         0.26608E-02
         0.27190E-02
         0.42687E-02
         0.36511E-02
         0.42687E-02
         0.42687E-02
         0.36511E-02
         0.42687E-02
         0.32069E-02
         0.29739E-02
         0.32066E-02
         0.29739E-02
         0.34652E-02
         0.32621E-02
         0.34652E-02
         0.32621E-02
         0.37123E-02
         0.32069E-02
         0.37123E-02
         0.32066E-02
         0.30844E-02
         0.30844E-02
         0.35191E-02
         0.35189E-02
         0.26925E-02
         0.26925E-02
         0.26925E-02
         0.26925E-02
         0.24643E-02
         0.27651E-02
         0.24643E-02
         0.27651E-02
         0.42687E-02
         0.35191E-02
         0.42687E-02
         0.35189E-02
         0.42687E-02
         0.42687E-02
         0.34658E-02
         0.34648E-02
         0.27274E-02
         0.31799E-02
         0.27273E-02
         0.31796E-02
         0.32396E-02
         0.32385E-02
         0.26964E-02
         0.26960E-02
         0.27828E-02
         0.27828E-02
         0.27828E-02
         0.27828E-02
         0.27004E-02
         0.31883E-02
         0.27003E-02
         0.31880E-02
         0.31883E-02
         0.31880E-02
         0.37123E-02
         0.37123E-02
         0.36245E-02
         0.36245E-02
         0.28253E-02
         0.31642E-02
         0.28253E-02
         0.31636E-02
         0.33485E-02
         0.33485E-02
         0.33485E-02
         0.33485E-02
         0.31978E-02
         0.31969E-02
         0.29849E-02
         0.32843E-02
         0.29849E-02
         0.32843E-02
         0.27274E-02
         0.31109E-02
         0.27273E-02
         0.31109E-02
         0.31799E-02
         0.31796E-02
         0.32396E-02
         0.32385E-02
         0.32396E-02
         0.32385E-02
         0.29942E-02
         0.29933E-02
         0.27190E-02
         0.27190E-02
         0.26964E-02
         0.26960E-02
         0.27828E-02
         0.27828E-02
         0.27828E-02
         0.27828E-02
         0.27004E-02
         0.27003E-02
         0.31883E-02
         0.31880E-02
         0.31883E-02
         0.31880E-02
         0.32621E-02
         0.32621E-02
         0.34652E-02
         0.34652E-02
         0.37123E-02
         0.37123E-02
         0.37123E-02
         0.37123E-02
         0.36245E-02
         0.36245E-02
         0.28253E-02
         0.28253E-02
         0.29097E-02
         0.29087E-02
         0.32389E-02
         0.32378E-02
         0.32389E-02
         0.32378E-02
         0.31978E-02
         0.31969E-02
         0.29849E-02
         0.29849E-02
         0.32843E-02
         0.32843E-02
         0.32843E-02
         0.32843E-02
         0.42420E-02
         0.35201E-02
         0.37629E-02
         0.42420E-02
         0.37629E-02
         0.37629E-02
         0.30087E-02
         0.32071E-02
         0.42420E-02
         0.32071E-02
         0.24178E-02
         0.29952E-02
         0.32407E-02
         0.26596E-02
         0.27191E-02
         0.42679E-02
         0.36502E-02
         0.42679E-02
         0.32071E-02
         0.29727E-02
         0.34648E-02
         0.32622E-02
         0.37119E-02
         0.32071E-02
         0.30833E-02
         0.35193E-02
         0.26910E-02
         0.26910E-02
         0.24638E-02
         0.27644E-02
         0.42679E-02
         0.35193E-02
         0.42679E-02
         0.34670E-02
         0.27274E-02
         0.31802E-02
         0.32407E-02
         0.26968E-02
         0.27828E-02
         0.27828E-02
         0.27005E-02
         0.31885E-02
         0.31885E-02
         0.37119E-02
         0.36244E-02
         0.28250E-02
         0.31647E-02
         0.33484E-02
         0.33484E-02
         0.31986E-02
         0.29848E-02
         0.32841E-02
         0.27274E-02
         0.31099E-02
         0.31802E-02
         0.32407E-02
         0.32407E-02
         0.29952E-02
         0.27191E-02
         0.26968E-02
         0.27828E-02
         0.27828E-02
         0.27005E-02
         0.31885E-02
         0.31885E-02
         0.32622E-02
         0.34648E-02
         0.37119E-02
         0.37119E-02
         0.36244E-02
         0.28250E-02
         0.29106E-02
         0.32401E-02
         0.32401E-02
         0.31986E-02
         0.29848E-02
         0.32841E-02
         0.32841E-02
         0.42421E-02
         0.35201E-02
         0.37634E-02
         0.42421E-02
         0.37634E-02
         0.37634E-02
         0.30089E-02
         0.32073E-02
         0.42421E-02
         0.32073E-02
         0.24177E-02
         0.29961E-02
         0.32418E-02
         0.26584E-02
         0.27191E-02
         0.42670E-02
         0.36493E-02
         0.42670E-02
         0.32073E-02
         0.29714E-02
         0.34644E-02
         0.32623E-02
         0.37115E-02
         0.32073E-02
         0.30822E-02
         0.35195E-02
         0.26896E-02
         0.26896E-02
         0.24633E-02
         0.27638E-02
         0.42670E-02
         0.35195E-02
         0.42670E-02
         0.34681E-02
         0.27275E-02
         0.31805E-02
         0.32418E-02
         0.26972E-02
         0.27828E-02
         0.27828E-02
         0.27006E-02
         0.31888E-02
         0.31888E-02
         0.37115E-02
         0.36243E-02
         0.28247E-02
         0.31652E-02
         0.33483E-02
         0.33483E-02
         0.31995E-02
         0.29847E-02
         0.32839E-02
         0.27275E-02
         0.31090E-02
         0.31805E-02
         0.32418E-02
         0.32418E-02
         0.29961E-02
         0.27191E-02
         0.26972E-02
         0.27828E-02
         0.27828E-02
         0.27006E-02
         0.31888E-02
         0.31888E-02
         0.32623E-02
         0.34644E-02
         0.37115E-02
         0.37115E-02
         0.36243E-02
         0.28247E-02
         0.29116E-02
         0.32412E-02
         0.32412E-02
         0.31995E-02
         0.29847E-02
         0.32839E-02
         0.32839E-02
         0.42423E-02
         0.35200E-02
         0.37639E-02
         0.42423E-02
         0.37639E-02
         0.37639E-02
         0.30091E-02
         0.32075E-02
         0.42423E-02
         0.32075E-02
         0.24176E-02
         0.29970E-02
         0.32428E-02
         0.26572E-02
         0.27192E-02
         0.42662E-02
         0.36483E-02
         0.42662E-02
         0.32075E-02
         0.29702E-02
         0.34639E-02
         0.32624E-02
         0.37111E-02
         0.32075E-02
         0.30811E-02
         0.35197E-02
         0.26881E-02
         0.26881E-02
         0.24628E-02
         0.27631E-02
         0.42662E-02
         0.35197E-02
         0.42662E-02
         0.34692E-02
         0.27276E-02
         0.31808E-02
         0.32428E-02
         0.26975E-02
         0.27828E-02
         0.27828E-02
         0.27007E-02
         0.31890E-02
         0.31890E-02
         0.37111E-02
         0.36242E-02
         0.28243E-02
         0.31658E-02
         0.33482E-02
         0.33482E-02
         0.32003E-02
         0.29846E-02
         0.32837E-02
         0.27276E-02
         0.31081E-02
         0.31808E-02
         0.32428E-02
         0.32428E-02
         0.29970E-02
         0.27192E-02
         0.26975E-02
         0.27828E-02
         0.27828E-02
         0.27007E-02
         0.31890E-02
         0.31890E-02
         0.32624E-02
         0.34639E-02
         0.37111E-02
         0.37111E-02
         0.36242E-02
         0.28243E-02
         0.29125E-02
         0.32423E-02
         0.32423E-02
         0.32003E-02
         0.29846E-02
         0.32837E-02
         0.32837E-02
         0.42424E-02
         0.35200E-02
         0.37644E-02
         0.42424E-02
         0.37644E-02
         0.37644E-02
         0.30093E-02
         0.32077E-02
         0.42424E-02
         0.32077E-02
         0.24174E-02
         0.29979E-02
         0.32439E-02
         0.26559E-02
         0.27192E-02
         0.42653E-02
         0.36474E-02
         0.42653E-02
         0.32077E-02
         0.29690E-02
         0.34635E-02
         0.32624E-02
         0.37108E-02
         0.32077E-02
         0.30799E-02
         0.35199E-02
         0.26867E-02
         0.26867E-02
         0.24623E-02
         0.27625E-02
         0.42653E-02
         0.35199E-02
         0.42653E-02
         0.34703E-02
         0.27276E-02
         0.31812E-02
         0.32439E-02
         0.26979E-02
         0.27828E-02
         0.27828E-02
         0.27008E-02
         0.31893E-02
         0.31893E-02
         0.37108E-02
         0.36241E-02
         0.28240E-02
         0.31663E-02
         0.33481E-02
         0.33481E-02
         0.32012E-02
         0.29844E-02
         0.32835E-02
         0.27276E-02
         0.31071E-02
         0.31812E-02
         0.32439E-02
         0.32439E-02
         0.29979E-02
         0.27192E-02
         0.26979E-02
         0.27828E-02
         0.27828E-02
         0.27008E-02
         0.31893E-02
         0.31893E-02
         0.32624E-02
         0.34635E-02
         0.37108E-02
         0.37108E-02
         0.36241E-02
         0.28240E-02
         0.29135E-02
         0.32434E-02
         0.32434E-02
         0.32012E-02
         0.29844E-02
         0.32835E-02
         0.32835E-02
         0.42425E-02
         0.35200E-02
         0.37649E-02
         0.42425E-02
         0.37649E-02
         0.37649E-02
         0.30095E-02
         0.32079E-02
         0.42425E-02
         0.32079E-02
         0.24173E-02
         0.29989E-02
         0.32450E-02
         0.26547E-02
         0.27193E-02
         0.42645E-02
         0.36465E-02
         0.42645E-02
         0.32079E-02
         0.29677E-02
         0.34631E-02
         0.32625E-02
         0.37104E-02
         0.32079E-02
         0.30788E-02
         0.35201E-02
         0.26852E-02
         0.26852E-02
         0.24618E-02
         0.27618E-02
         0.42645E-02
         0.35201E-02
         0.42645E-02
         0.34715E-02
         0.27277E-02
         0.31815E-02
         0.32450E-02
         0.26983E-02
         0.27828E-02
         0.27828E-02
         0.27009E-02
         0.31895E-02
         0.31895E-02
         0.37104E-02
         0.36239E-02
         0.28237E-02
         0.31668E-02
         0.33480E-02
         0.33480E-02
         0.32020E-02
         0.29843E-02
         0.32833E-02
         0.27277E-02
         0.31062E-02
         0.31815E-02
         0.32450E-02
         0.32450E-02
         0.29989E-02
         0.27193E-02
         0.26983E-02
         0.27828E-02
         0.27828E-02
         0.27009E-02
         0.31895E-02
         0.31895E-02
         0.32625E-02
         0.34631E-02
         0.37104E-02
         0.37104E-02
         0.36239E-02
         0.28237E-02
         0.29145E-02
         0.32445E-02
         0.32445E-02
         0.32020E-02
         0.29843E-02
         0.32833E-02
         0.32833E-02
         0.42427E-02
         0.35200E-02
         0.37654E-02
         0.42427E-02
         0.37654E-02
         0.37654E-02
         0.30097E-02
         0.32081E-02
         0.42427E-02
         0.32081E-02
         0.24171E-02
         0.29998E-02
         0.32461E-02
         0.26535E-02
         0.27193E-02
         0.42636E-02
         0.36455E-02
         0.42636E-02
         0.32081E-02
         0.29665E-02
         0.34626E-02
         0.32626E-02
         0.37100E-02
         0.32081E-02
         0.30777E-02
         0.35203E-02
         0.26838E-02
         0.26838E-02
         0.24613E-02
         0.27611E-02
         0.42636E-02
         0.35203E-02
         0.42636E-02
         0.34726E-02
         0.27278E-02
         0.31818E-02
         0.32461E-02
         0.26987E-02
         0.27827E-02
         0.27827E-02
         0.27010E-02
         0.31898E-02
         0.31898E-02
         0.37100E-02
         0.36238E-02
         0.28234E-02
         0.31673E-02
         0.33479E-02
         0.33479E-02
         0.32029E-02
         0.29842E-02
         0.32831E-02
         0.27278E-02
         0.31052E-02
         0.31818E-02
         0.32461E-02
         0.32461E-02
         0.29998E-02
         0.27193E-02
         0.26987E-02
         0.27827E-02
         0.27827E-02
         0.27010E-02
         0.31898E-02
         0.31898E-02
         0.32626E-02
         0.34626E-02
         0.37100E-02
         0.37100E-02
         0.36238E-02
         0.28234E-02
         0.29154E-02
         0.32457E-02
         0.32457E-02
         0.32029E-02
         0.29842E-02
         0.32831E-02
         0.32831E-02
         0.42428E-02
         0.35199E-02
         0.37660E-02
         0.42428E-02
         0.37660E-02
         0.37660E-02
         0.30099E-02
         0.32083E-02
         0.42428E-02
         0.32083E-02
         0.24170E-02
         0.30007E-02
         0.32471E-02
         0.26523E-02
         0.27194E-02
         0.42628E-02
         0.36446E-02
         0.42628E-02
         0.32083E-02
         0.29652E-02
         0.34622E-02
         0.32627E-02
         0.37096E-02
         0.32083E-02
         0.30766E-02
         0.35205E-02
         0.26823E-02
         0.26823E-02
         0.24608E-02
         0.27605E-02
         0.42628E-02
         0.35205E-02
         0.42628E-02
         0.34737E-02
         0.27279E-02
         0.31821E-02
         0.32471E-02
         0.26991E-02
         0.27827E-02
         0.27827E-02
         0.27011E-02
         0.31900E-02
         0.31900E-02
         0.37096E-02
         0.36237E-02
         0.28231E-02
         0.31679E-02
         0.33478E-02
         0.33478E-02
         0.32038E-02
         0.29841E-02
         0.32829E-02
         0.27279E-02
         0.31043E-02
         0.31821E-02
         0.32471E-02
         0.32471E-02
         0.30007E-02
         0.27194E-02
         0.26991E-02
         0.27827E-02
         0.27827E-02
         0.27011E-02
         0.31900E-02
         0.31900E-02
         0.32627E-02
         0.34622E-02
         0.37096E-02
         0.37096E-02
         0.36237E-02
         0.28231E-02
         0.29164E-02
         0.32468E-02
         0.32468E-02
         0.32038E-02
         0.29841E-02
         0.32829E-02
         0.32829E-02
         0.42429E-02
         0.35199E-02
         0.37665E-02
         0.42429E-02
         0.37665E-02
         0.37665E-02
         0.30101E-02
         0.32085E-02
         0.42429E-02
         0.32085E-02
         0.24168E-02
         0.30017E-02
         0.32482E-02
         0.26510E-02
         0.27194E-02
         0.42619E-02
         0.36437E-02
         0.42619E-02
         0.32085E-02
         0.29640E-02
         0.34618E-02
         0.32627E-02
         0.37092E-02
         0.32085E-02
         0.30755E-02
         0.35207E-02
         0.26808E-02
         0.26808E-02
         0.24603E-02
         0.27599E-02
         0.42619E-02
         0.35207E-02
         0.42619E-02
         0.34748E-02
         0.27279E-02
         0.31824E-02
         0.32482E-02
         0.26994E-02
         0.27827E-02
         0.27827E-02
         0.27012E-02
         0.31902E-02
         0.31902E-02
         0.37092E-02
         0.36236E-02
         0.28227E-02
         0.31684E-02
         0.33477E-02
         0.33477E-02
         0.32046E-02
         0.29840E-02
         0.32827E-02
         0.27279E-02
         0.31034E-02
         0.31824E-02
         0.32482E-02
         0.32482E-02
         0.30017E-02
         0.27194E-02
         0.26994E-02
         0.27827E-02
         0.27827E-02
         0.27012E-02
         0.31902E-02
         0.31902E-02
         0.32627E-02
         0.34618E-02
         0.37092E-02
         0.37092E-02
         0.36236E-02
         0.28227E-02
         0.29173E-02
         0.32479E-02
         0.32479E-02
         0.32046E-02
         0.29840E-02
         0.32827E-02
         0.32827E-02
         0.42431E-02
         0.35199E-02
         0.37670E-02
         0.42431E-02
         0.37670E-02
         0.37670E-02
         0.30102E-02
         0.32087E-02
         0.42431E-02
         0.32087E-02
         0.24167E-02
         0.30026E-02
         0.32493E-02
         0.26498E-02
         0.27194E-02
         0.42611E-02
         0.36427E-02
         0.42611E-02
         0.32087E-02
         0.29628E-02
         0.34613E-02
         0.32628E-02
         0.37089E-02
         0.32087E-02
         0.30744E-02
         0.35209E-02
         0.26794E-02
         0.26794E-02
         0.24598E-02
         0.27592E-02
         0.42611E-02
         0.35209E-02
         0.42611E-02
         0.34759E-02
         0.27280E-02
         0.31827E-02
         0.32493E-02
         0.26998E-02
         0.27827E-02
         0.27827E-02
         0.27013E-02
         0.31905E-02
         0.31905E-02
         0.37089E-02
         0.36235E-02
         0.28224E-02
         0.31689E-02
         0.33476E-02
         0.33476E-02
         0.32055E-02
         0.29839E-02
         0.32825E-02
         0.27280E-02
         0.31024E-02
         0.31827E-02
         0.32493E-02
         0.32493E-02
         0.30026E-02
         0.27194E-02
         0.26998E-02
         0.27827E-02
         0.27827E-02
         0.27013E-02
         0.31905E-02
         0.31905E-02
         0.32628E-02
         0.34613E-02
         0.37089E-02
         0.37089E-02
         0.36235E-02
         0.28224E-02
         0.29183E-02
         0.32490E-02
         0.32490E-02
         0.32055E-02
         0.29839E-02
         0.32825E-02
         0.32825E-02
         0.42432E-02
         0.35199E-02
         0.37675E-02
         0.42432E-02
         0.37675E-02
         0.37675E-02
         0.30104E-02
         0.32089E-02
         0.42432E-02
         0.32089E-02
         0.24166E-02
         0.30035E-02
         0.32504E-02
         0.26486E-02
         0.27195E-02
         0.42603E-02
         0.36418E-02
         0.42603E-02
         0.32089E-02
         0.29615E-02
         0.34609E-02
         0.32629E-02
         0.37085E-02
         0.32089E-02
         0.30732E-02
         0.35211E-02
         0.26779E-02
         0.26779E-02
         0.24593E-02
         0.27585E-02
         0.42603E-02
         0.35211E-02
         0.42603E-02
         0.34771E-02
         0.27281E-02
         0.31830E-02
         0.32504E-02
         0.27002E-02
         0.27827E-02
         0.27827E-02
         0.27014E-02
         0.31907E-02
         0.31907E-02
         0.37085E-02
         0.36233E-02
         0.28221E-02
         0.31694E-02
         0.33475E-02
         0.33475E-02
         0.32063E-02
         0.29838E-02
         0.32823E-02
         0.27281E-02
         0.31015E-02
         0.31830E-02
         0.32504E-02
         0.32504E-02
         0.30035E-02
         0.27195E-02
         0.27002E-02
         0.27827E-02
         0.27827E-02
         0.27014E-02
         0.31907E-02
         0.31907E-02
         0.32629E-02
         0.34609E-02
         0.37085E-02
         0.37085E-02
         0.36233E-02
         0.28221E-02
         0.29193E-02
         0.32501E-02
         0.32501E-02
         0.32063E-02
         0.29838E-02
         0.32823E-02
         0.32823E-02
         0.42433E-02
         0.35199E-02
         0.37680E-02
         0.42433E-02
         0.37680E-02
         0.37680E-02
         0.30106E-02
         0.32091E-02
         0.42433E-02
         0.32091E-02
         0.24164E-02
         0.30045E-02
         0.32514E-02
         0.26474E-02
         0.27195E-02
         0.42594E-02
         0.36409E-02
         0.42594E-02
         0.32091E-02
         0.29603E-02
         0.34605E-02
         0.32630E-02
         0.37081E-02
         0.32091E-02
         0.30721E-02
         0.35213E-02
         0.26765E-02
         0.26765E-02
         0.24588E-02
         0.27579E-02
         0.42594E-02
         0.35213E-02
         0.42594E-02
         0.34782E-02
         0.27281E-02
         0.31833E-02
         0.32514E-02
         0.27006E-02
         0.27826E-02
         0.27826E-02
         0.27015E-02
         0.31910E-02
         0.31910E-02
         0.37081E-02
         0.36232E-02
         0.28218E-02
         0.31700E-02
         0.33474E-02
         0.33474E-02
         0.32072E-02
         0.29836E-02
         0.32821E-02
         0.27281E-02
         0.31005E-02
         0.31833E-02
         0.32514E-02
         0.32514E-02
         0.30045E-02
         0.27195E-02
         0.27006E-02
         0.27826E-02
         0.27826E-02
         0.27015E-02
         0.31910E-02
         0.31910E-02
         0.32630E-02
         0.34605E-02
         0.37081E-02
         0.37081E-02
         0.36232E-02
         0.28218E-02
         0.29202E-02
         0.32512E-02
         0.32512E-02
         0.32072E-02
         0.29836E-02
         0.32821E-02
         0.32821E-02
         0.42435E-02
         0.35199E-02
         0.37685E-02
         0.42435E-02
         0.37685E-02
         0.37685E-02
         0.30108E-02
         0.32093E-02
         0.42435E-02
         0.32093E-02
         0.24163E-02
         0.30054E-02
         0.32525E-02
         0.26461E-02
         0.27196E-02
         0.42586E-02
         0.36399E-02
         0.42586E-02
         0.32093E-02
         0.29591E-02
         0.34601E-02
         0.32630E-02
         0.37077E-02
         0.32093E-02
         0.30710E-02
         0.35215E-02
         0.26750E-02
         0.26750E-02
         0.24583E-02
         0.27572E-02
         0.42586E-02
         0.35215E-02
         0.42586E-02
         0.34793E-02
         0.27282E-02
         0.31836E-02
         0.32525E-02
         0.27010E-02
         0.27826E-02
         0.27826E-02
         0.27016E-02
         0.31912E-02
         0.31912E-02
         0.37077E-02
         0.36231E-02
         0.28215E-02
         0.31705E-02
         0.33473E-02
         0.33473E-02
         0.32080E-02
         0.29835E-02
         0.32819E-02
         0.27282E-02
         0.30996E-02
         0.31836E-02
         0.32525E-02
         0.32525E-02
         0.30054E-02
         0.27196E-02
         0.27010E-02
         0.27826E-02
         0.27826E-02
         0.27016E-02
         0.31912E-02
         0.31912E-02
         0.32630E-02
         0.34601E-02
         0.37077E-02
         0.37077E-02
         0.36231E-02
         0.28215E-02
         0.29212E-02
         0.32524E-02
         0.32524E-02
         0.32080E-02
         0.29835E-02
         0.32819E-02
         0.32819E-02
         0.42436E-02
         0.35198E-02
         0.37690E-02
         0.42436E-02
         0.37690E-02
         0.37690E-02
         0.30110E-02
         0.32095E-02
         0.42436E-02
         0.32095E-02
         0.24162E-02
         0.30064E-02
         0.32536E-02
         0.26449E-02
         0.27196E-02
         0.42577E-02
         0.36390E-02
         0.42577E-02
         0.32096E-02
         0.29578E-02
         0.34596E-02
         0.32631E-02
         0.37074E-02
         0.32096E-02
         0.30699E-02
         0.35217E-02
         0.26735E-02
         0.26735E-02
         0.24578E-02
         0.27566E-02
         0.42577E-02
         0.35217E-02
         0.42577E-02
         0.34804E-02
         0.27283E-02
         0.31839E-02
         0.32536E-02
         0.27013E-02
         0.27826E-02
         0.27826E-02
         0.27017E-02
         0.31915E-02
         0.31915E-02
         0.37074E-02
         0.36230E-02
         0.28211E-02
         0.31710E-02
         0.33472E-02
         0.33472E-02
         0.32089E-02
         0.29834E-02
         0.32817E-02
         0.27283E-02
         0.30986E-02
         0.31839E-02
         0.32536E-02
         0.32536E-02
         0.30064E-02
         0.27196E-02
         0.27013E-02
         0.27826E-02
         0.27826E-02
         0.27017E-02
         0.31915E-02
         0.31915E-02
         0.32631E-02
         0.34596E-02
         0.37074E-02
         0.37074E-02
         0.36230E-02
         0.28211E-02
         0.29221E-02
         0.32535E-02
         0.32535E-02
         0.32089E-02
         0.29834E-02
         0.32817E-02
         0.32817E-02
         0.42437E-02
         0.35198E-02
         0.37695E-02
         0.42437E-02
         0.37695E-02
         0.37695E-02
         0.30112E-02
         0.32097E-02
         0.42437E-02
         0.32097E-02
         0.24160E-02
         0.30073E-02
         0.32547E-02
         0.26437E-02
         0.27197E-02
         0.42569E-02
         0.36381E-02
         0.42569E-02
         0.32098E-02
         0.29566E-02
         0.34592E-02
         0.32632E-02
         0.37070E-02
         0.32098E-02
         0.30688E-02
         0.35219E-02
         0.26721E-02
         0.26721E-02
         0.24573E-02
         0.27560E-02
         0.42569E-02
         0.35219E-02
         0.42569E-02
         0.34815E-02
         0.27284E-02
         0.31843E-02
         0.32547E-02
         0.27017E-02
         0.27826E-02
         0.27826E-02
         0.27018E-02
         0.31917E-02
         0.31917E-02
         0.37070E-02
         0.36229E-02
         0.28208E-02
         0.31716E-02
         0.33471E-02
         0.33471E-02
         0.32097E-02
         0.29833E-02
         0.32815E-02
         0.27284E-02
         0.30977E-02
         0.31843E-02
         0.32547E-02
         0.32547E-02
         0.30073E-02
         0.27197E-02
         0.27017E-02
         0.27826E-02
         0.27826E-02
         0.27018E-02
         0.31917E-02
         0.31917E-02
         0.32632E-02
         0.34592E-02
         0.37070E-02
         0.37070E-02
         0.36229E-02
         0.28208E-02
         0.29231E-02
         0.32546E-02
         0.32546E-02
         0.32097E-02
         0.29833E-02
         0.32815E-02
         0.32815E-02
         0.42439E-02
         0.35198E-02
         0.37701E-02
         0.42439E-02
         0.37701E-02
         0.37701E-02
         0.30113E-02
         0.32099E-02
         0.42439E-02
         0.32099E-02
         0.24159E-02
         0.30082E-02
         0.32558E-02
         0.26425E-02
         0.27197E-02
         0.42560E-02
         0.36371E-02
         0.42560E-02
         0.32100E-02
         0.29554E-02
         0.34588E-02
         0.32633E-02
         0.37066E-02
         0.32100E-02
         0.30677E-02
         0.35221E-02
         0.26706E-02
         0.26706E-02
         0.24568E-02
         0.27553E-02
         0.42560E-02
         0.35221E-02
         0.42560E-02
         0.34827E-02
         0.27284E-02
         0.31846E-02
         0.32558E-02
         0.27021E-02
         0.27826E-02
         0.27826E-02
         0.27019E-02
         0.31920E-02
         0.31920E-02
         0.37066E-02
         0.36227E-02
         0.28205E-02
         0.31721E-02
         0.33470E-02
         0.33470E-02
         0.32106E-02
         0.29831E-02
         0.32813E-02
         0.27284E-02
         0.30968E-02
         0.31846E-02
         0.32558E-02
         0.32558E-02
         0.30082E-02
         0.27197E-02
         0.27021E-02
         0.27826E-02
         0.27826E-02
         0.27019E-02
         0.31920E-02
         0.31920E-02
         0.32633E-02
         0.34588E-02
         0.37066E-02
         0.37066E-02
         0.36227E-02
         0.28205E-02
         0.29241E-02
         0.32557E-02
         0.32557E-02
         0.32106E-02
         0.29831E-02
         0.32813E-02
         0.32813E-02
         0.42440E-02
         0.35198E-02
         0.37706E-02
         0.42440E-02
         0.37706E-02
         0.37706E-02
         0.30115E-02
         0.32101E-02
         0.42440E-02
         0.32101E-02
         0.24158E-02
         0.30091E-02
         0.32568E-02
         0.26412E-02
         0.27198E-02
         0.42552E-02
         0.36362E-02
         0.42552E-02
         0.32102E-02
         0.29541E-02
         0.34583E-02
         0.32633E-02
         0.37062E-02
         0.32102E-02
         0.30665E-02
         0.35223E-02
         0.26692E-02
         0.26692E-02
         0.24563E-02
         0.27546E-02
         0.42552E-02
         0.35223E-02
         0.42552E-02
         0.34838E-02
         0.27285E-02
         0.31849E-02
         0.32568E-02
         0.27025E-02
         0.27826E-02
         0.27826E-02
         0.27020E-02
         0.31922E-02
         0.31922E-02
         0.37062E-02
         0.36226E-02
         0.28202E-02
         0.31726E-02
         0.33469E-02
         0.33469E-02
         0.32114E-02
         0.29830E-02
         0.32811E-02
         0.27285E-02
         0.30958E-02
         0.31849E-02
         0.32568E-02
         0.32568E-02
         0.30091E-02
         0.27198E-02
         0.27025E-02
         0.27826E-02
         0.27826E-02
         0.27020E-02
         0.31922E-02
         0.31922E-02
         0.32633E-02
         0.34583E-02
         0.37062E-02
         0.37062E-02
         0.36226E-02
         0.28202E-02
         0.29250E-02
         0.32568E-02
         0.32568E-02
         0.32114E-02
         0.29830E-02
         0.32811E-02
         0.32811E-02
         0.42441E-02
         0.35198E-02
         0.37711E-02
         0.42441E-02
         0.37711E-02
         0.37711E-02
         0.30117E-02
         0.32103E-02
         0.42441E-02
         0.32103E-02
         0.24156E-02
         0.30101E-02
         0.32579E-02
         0.26400E-02
         0.27198E-02
         0.42543E-02
         0.36353E-02
         0.42543E-02
         0.32104E-02
         0.29529E-02
         0.34579E-02
         0.32634E-02
         0.37058E-02
         0.32104E-02
         0.30654E-02
         0.35225E-02
         0.26677E-02
         0.26677E-02
         0.24558E-02
         0.27540E-02
         0.42543E-02
         0.35225E-02
         0.42543E-02
         0.34849E-02
         0.27286E-02
         0.31852E-02
         0.32579E-02
         0.27029E-02
         0.27826E-02
         0.27826E-02
         0.27021E-02
         0.31924E-02
         0.31924E-02
         0.37058E-02
         0.36225E-02
         0.28198E-02
         0.31731E-02
         0.33468E-02
         0.33468E-02
         0.32123E-02
         0.29829E-02
         0.32809E-02
         0.27286E-02
         0.30949E-02
         0.31852E-02
         0.32579E-02
         0.32579E-02
         0.30101E-02
         0.27198E-02
         0.27029E-02
         0.27826E-02
         0.27826E-02
         0.27021E-02
         0.31924E-02
         0.31924E-02
         0.32634E-02
         0.34579E-02
         0.37058E-02
         0.37058E-02
         0.36225E-02
         0.28198E-02
         0.29260E-02
         0.32579E-02
         0.32579E-02
         0.32123E-02
         0.29829E-02
         0.32809E-02
         0.32809E-02
         0.42443E-02
         0.35197E-02
         0.37716E-02
         0.42443E-02
         0.37716E-02
         0.37716E-02
         0.30119E-02
         0.32105E-02
         0.42443E-02
         0.32105E-02
         0.24155E-02
         0.30110E-02
         0.32590E-02
         0.26388E-02
         0.27199E-02
         0.42535E-02
         0.36343E-02
         0.42535E-02
         0.32106E-02
         0.29517E-02
         0.34575E-02
         0.32635E-02
         0.37055E-02
         0.32106E-02
         0.30643E-02
         0.35227E-02
         0.26663E-02
         0.26663E-02
         0.24553E-02
         0.27533E-02
         0.42535E-02
         0.35227E-02
         0.42535E-02
         0.34860E-02
         0.27286E-02
         0.31855E-02
         0.32590E-02
         0.27032E-02
         0.27826E-02
         0.27826E-02
         0.27022E-02
         0.31927E-02
         0.31927E-02
         0.37055E-02
         0.36224E-02
         0.28195E-02
         0.31737E-02
         0.33467E-02
         0.33467E-02
         0.32132E-02
         0.29828E-02
         0.32807E-02
         0.27286E-02
         0.30939E-02
         0.31855E-02
         0.32590E-02
         0.32590E-02
         0.30110E-02
         0.27199E-02
         0.27032E-02
         0.27826E-02
         0.27826E-02
         0.27022E-02
         0.31927E-02
         0.31927E-02
         0.32635E-02
         0.34575E-02
         0.37055E-02
         0.37055E-02
         0.36224E-02
         0.28195E-02
         0.29269E-02
         0.32591E-02
         0.32591E-02
         0.32132E-02
         0.29828E-02
         0.32807E-02
         0.32807E-02
         0.42444E-02
         0.35197E-02
         0.37721E-02
         0.42444E-02
         0.37721E-02
         0.37721E-02
         0.30121E-02
         0.32107E-02
         0.42444E-02
         0.32107E-02
         0.24154E-02
         0.30119E-02
         0.32601E-02
         0.26376E-02
         0.27199E-02
         0.42527E-02
         0.36334E-02
         0.42527E-02
         0.32108E-02
         0.29504E-02
         0.34571E-02
         0.32636E-02
         0.37051E-02
         0.32108E-02
         0.30632E-02
         0.35229E-02
         0.26648E-02
         0.26648E-02
         0.24552E-02
         0.27527E-02
         0.42527E-02
         0.35229E-02
         0.42527E-02
         0.34871E-02
         0.27287E-02
         0.31858E-02
         0.32601E-02
         0.27036E-02
         0.27825E-02
         0.27825E-02
         0.27023E-02
         0.31929E-02
         0.31929E-02
         0.37051E-02
         0.36223E-02
         0.28192E-02
         0.31742E-02
         0.33466E-02
         0.33466E-02
         0.32140E-02
         0.29827E-02
         0.32805E-02
         0.27287E-02
         0.30930E-02
         0.31858E-02
         0.32601E-02
         0.32601E-02
         0.30119E-02
         0.27199E-02
         0.27036E-02
         0.27825E-02
         0.27825E-02
         0.27023E-02
         0.31929E-02
         0.31929E-02
         0.32636E-02
         0.34571E-02
         0.37051E-02
         0.37051E-02
         0.36223E-02
         0.28192E-02
         0.29279E-02
         0.32602E-02
         0.32602E-02
         0.32140E-02
         0.29827E-02
         0.32805E-02
         0.32805E-02
         0.42445E-02
         0.35197E-02
         0.37726E-02
         0.42445E-02
         0.37726E-02
         0.37726E-02
         0.30123E-02
         0.32108E-02
         0.42445E-02
         0.32108E-02
         0.24152E-02
         0.30129E-02
         0.32611E-02
         0.26363E-02
         0.27200E-02
         0.42518E-02
         0.36325E-02
         0.42518E-02
         0.32110E-02
         0.29492E-02
         0.34566E-02
         0.32636E-02
         0.37047E-02
         0.32110E-02
         0.30621E-02
         0.35231E-02
         0.26633E-02
         0.26633E-02
         0.24554E-02
         0.27520E-02
         0.42518E-02
         0.35231E-02
         0.42518E-02
         0.34882E-02
         0.27288E-02
         0.31861E-02
         0.32611E-02
         0.27040E-02
         0.27825E-02
         0.27825E-02
         0.27024E-02
         0.31932E-02
         0.31932E-02
         0.37047E-02
         0.36222E-02
         0.28189E-02
         0.31747E-02
         0.33465E-02
         0.33465E-02
         0.32149E-02
         0.29826E-02
         0.32803E-02
         0.27288E-02
         0.30921E-02
         0.31861E-02
         0.32611E-02
         0.32611E-02
         0.30129E-02
         0.27200E-02
         0.27040E-02
         0.27825E-02
         0.27825E-02
         0.27024E-02
         0.31932E-02
         0.31932E-02
         0.32636E-02
         0.34566E-02
         0.37047E-02
         0.37047E-02
         0.36222E-02
         0.28189E-02
         0.29289E-02
         0.32613E-02
         0.32613E-02
         0.32149E-02
         0.29826E-02
         0.32803E-02
         0.32803E-02
         0.42447E-02
         0.35196E-02
         0.37732E-02
         0.42447E-02
         0.37732E-02
         0.37732E-02
         0.30125E-02
         0.32111E-02
         0.42447E-02
         0.32111E-02
         0.24151E-02
         0.30138E-02
         0.32622E-02
         0.26351E-02
         0.27200E-02
         0.42510E-02
         0.36315E-02
         0.42510E-02
         0.32112E-02
         0.29480E-02
         0.34562E-02
         0.32637E-02
         0.37043E-02
         0.32112E-02
         0.30610E-02
         0.35233E-02
         0.26619E-02
         0.26619E-02
         0.24557E-02
         0.27514E-02
         0.42510E-02
         0.35233E-02
         0.42510E-02
         0.34894E-02
         0.27289E-02
         0.31864E-02
         0.32622E-02
         0.27044E-02
         0.27825E-02
         0.27825E-02
         0.27025E-02
         0.31934E-02
         0.31934E-02
         0.37043E-02
         0.36220E-02
         0.28186E-02
         0.31753E-02
         0.33464E-02
         0.33464E-02
         0.32157E-02
         0.29824E-02
         0.32801E-02
         0.27289E-02
         0.30911E-02
         0.31864E-02
         0.32622E-02
         0.32622E-02
         0.30138E-02
         0.27200E-02
         0.27044E-02
         0.27825E-02
         0.27825E-02
         0.27025E-02
         0.31934E-02
         0.31934E-02
         0.32637E-02
         0.34562E-02
         0.37043E-02
         0.37043E-02
         0.36220E-02
         0.28186E-02
         0.29298E-02
         0.32624E-02
         0.32624E-02
         0.32157E-02
         0.29824E-02
         0.32801E-02
         0.32801E-02
         0.42448E-02
         0.35196E-02
         0.37737E-02
         0.42448E-02
         0.37737E-02
         0.37737E-02
         0.30126E-02
         0.32112E-02
         0.42448E-02
         0.32112E-02
         0.24150E-02
         0.30147E-02
         0.32633E-02
         0.26339E-02
         0.27200E-02
         0.42501E-02
         0.36306E-02
         0.42501E-02
         0.32114E-02
         0.29467E-02
         0.34558E-02
         0.32638E-02
         0.37039E-02
         0.32114E-02
         0.30598E-02
         0.35235E-02
         0.26604E-02
         0.26604E-02
         0.24559E-02
         0.27507E-02
         0.42501E-02
         0.35235E-02
         0.42501E-02
         0.34905E-02
         0.27289E-02
         0.31867E-02
         0.32633E-02
         0.27048E-02
         0.27825E-02
         0.27825E-02
         0.27026E-02
         0.31937E-02
         0.31937E-02
         0.37039E-02
         0.36219E-02
         0.28183E-02
         0.31758E-02
         0.33463E-02
         0.33463E-02
         0.32166E-02
         0.29823E-02
         0.32799E-02
         0.27289E-02
         0.30902E-02
         0.31867E-02
         0.32633E-02
         0.32633E-02
         0.30147E-02
         0.27200E-02
         0.27048E-02
         0.27825E-02
         0.27825E-02
         0.27026E-02
         0.31937E-02
         0.31937E-02
         0.32638E-02
         0.34558E-02
         0.37039E-02
         0.37039E-02
         0.36219E-02
         0.28183E-02
         0.29308E-02
         0.32635E-02
         0.32635E-02
         0.32166E-02
         0.29823E-02
         0.32799E-02
         0.32799E-02
         0.42448E-02
         0.35196E-02
         0.37737E-02
         0.42448E-02
         0.37737E-02
         0.37737E-02
         0.30126E-02
         0.32112E-02
         0.42448E-02
         0.32112E-02
         0.24148E-02
         0.30147E-02
         0.32633E-02
         0.26327E-02
         0.27200E-02
         0.42493E-02
         0.36297E-02
         0.42493E-02
         0.32114E-02
         0.29455E-02
         0.34553E-02
         0.32638E-02
         0.37036E-02
         0.32114E-02
         0.30587E-02
         0.35235E-02
         0.26590E-02
         0.26590E-02
         0.24559E-02
         0.27501E-02
         0.42493E-02
         0.35235E-02
         0.42493E-02
         0.34905E-02
         0.27289E-02
         0.31867E-02
         0.32633E-02
         0.27048E-02
         0.27825E-02
         0.27825E-02
         0.27026E-02
         0.31937E-02
         0.31937E-02
         0.37036E-02
         0.36218E-02
         0.28180E-02
         0.31758E-02
         0.33462E-02
         0.33462E-02
         0.32166E-02
         0.29822E-02
         0.32797E-02
         0.27289E-02
         0.30892E-02
         0.31867E-02
         0.32633E-02
         0.32633E-02
         0.30147E-02
         0.27200E-02
         0.27048E-02
         0.27825E-02
         0.27825E-02
         0.27026E-02
         0.31937E-02
         0.31937E-02
         0.32638E-02
         0.34553E-02
         0.37036E-02
         0.37036E-02
         0.36218E-02
         0.28180E-02
         0.29308E-02
         0.32635E-02
         0.32635E-02
         0.32166E-02
         0.29822E-02
         0.32797E-02
         0.32797E-02
  
SCALARS              physical_window_y  double 1
LOOKUP_TABLE default
         0.43155E-02
         0.43155E-02
         0.43155E-02
         0.43155E-02
         0.43155E-02
         0.43155E-02
         0.43155E-02
         0.43155E-02
         0.34883E-02
         0.34883E-02
         0.34882E-02
         0.34882E-02
         0.32826E-02
         0.32142E-02
         0.32826E-02
         0.32142E-02
         0.37863E-02
         0.31884E-02
         0.37863E-02
         0.31884E-02
         0.27172E-02
         0.33887E-02
         0.37164E-02
         0.27172E-02
         0.33887E-02
         0.37164E-02
         0.27582E-02
         0.28966E-02
         0.27582E-02
         0.28954E-02
         0.37007E-02
         0.35859E-02
         0.37863E-02
         0.37007E-02
         0.35824E-02
         0.37863E-02
         0.29875E-02
         0.29875E-02
         0.29867E-02
         0.29867E-02
         0.28561E-02
         0.26860E-02
         0.28556E-02
         0.26852E-02
         0.29518E-02
         0.28068E-02
         0.29517E-02
         0.28066E-02
         0.29975E-02
         0.29949E-02
         0.37007E-02
         0.37007E-02
         0.28693E-02
         0.28693E-02
         0.28693E-02
         0.28693E-02
         0.27602E-02
         0.26193E-02
         0.27602E-02
         0.26193E-02
         0.37007E-02
         0.37007E-02
         0.37007E-02
         0.37007E-02
         0.37685E-02
         0.37665E-02
         0.37685E-02
         0.37665E-02
         0.30230E-02
         0.37003E-02
         0.30229E-02
         0.37003E-02
         0.37164E-02
         0.37164E-02
         0.31934E-02
         0.31921E-02
         0.32777E-02
         0.32771E-02
         0.32777E-02
         0.32771E-02
         0.27006E-02
         0.25920E-02
         0.27006E-02
         0.25920E-02
         0.25916E-02
         0.25916E-02
         0.29715E-02
         0.29715E-02
         0.29715E-02
         0.29715E-02
         0.26477E-02
         0.29102E-02
         0.26477E-02
         0.29102E-02
         0.34085E-02
         0.34085E-02
         0.35350E-02
         0.35350E-02
         0.35350E-02
         0.35350E-02
         0.29766E-02
         0.32272E-02
         0.29763E-02
         0.32254E-02
         0.29087E-02
         0.29835E-02
         0.29087E-02
         0.29825E-02
         0.37003E-02
         0.37003E-02
         0.37164E-02
         0.37164E-02
         0.37164E-02
         0.37164E-02
         0.33887E-02
         0.33887E-02
         0.28966E-02
         0.28954E-02
         0.31934E-02
         0.31921E-02
         0.32777E-02
         0.32771E-02
         0.32777E-02
         0.32771E-02
         0.27006E-02
         0.27006E-02
         0.25920E-02
         0.25920E-02
         0.25916E-02
         0.25916E-02
         0.26860E-02
         0.26852E-02
         0.28561E-02
         0.28556E-02
         0.29518E-02
         0.29517E-02
         0.29715E-02
         0.29715E-02
         0.29715E-02
         0.29715E-02
         0.26477E-02
         0.26477E-02
         0.27685E-02
         0.27685E-02
         0.34085E-02
         0.34085E-02
         0.35350E-02
         0.35350E-02
         0.35350E-02
         0.35350E-02
         0.29766E-02
         0.29763E-02
         0.31381E-02
         0.31368E-02
         0.31381E-02
         0.31368E-02
         0.43153E-02
         0.43153E-02
         0.43153E-02
         0.43153E-02
         0.34883E-02
         0.34883E-02
         0.32812E-02
         0.32132E-02
         0.37858E-02
         0.31880E-02
         0.27155E-02
         0.33883E-02
         0.37163E-02
         0.27535E-02
         0.28978E-02
         0.37004E-02
         0.35894E-02
         0.37858E-02
         0.29882E-02
         0.29882E-02
         0.28566E-02
         0.26867E-02
         0.29519E-02
         0.28071E-02
         0.30001E-02
         0.37004E-02
         0.28667E-02
         0.28667E-02
         0.27589E-02
         0.26183E-02
         0.37004E-02
         0.37004E-02
         0.37706E-02
         0.37706E-02
         0.30232E-02
         0.36991E-02
         0.37163E-02
         0.31947E-02
         0.32784E-02
         0.32784E-02
         0.27006E-02
         0.25920E-02
         0.25909E-02
         0.29715E-02
         0.29715E-02
         0.26476E-02
         0.29101E-02
         0.34078E-02
         0.35344E-02
         0.35344E-02
         0.29769E-02
         0.32290E-02
         0.29059E-02
         0.29845E-02
         0.36991E-02
         0.37163E-02
         0.37163E-02
         0.33883E-02
         0.28978E-02
         0.31947E-02
         0.32784E-02
         0.32784E-02
         0.27006E-02
         0.25920E-02
         0.25909E-02
         0.26867E-02
         0.28566E-02
         0.29519E-02
         0.29715E-02
         0.29715E-02
         0.26476E-02
         0.27685E-02
         0.34078E-02
         0.35344E-02
         0.35344E-02
         0.29769E-02
         0.31395E-02
         0.31395E-02
         0.43150E-02
         0.43150E-02
         0.43150E-02
         0.43150E-02
         0.34884E-02
         0.34884E-02
         0.32798E-02
         0.32122E-02
         0.37853E-02
         0.31876E-02
         0.27137E-02
         0.33879E-02
         0.37162E-02
         0.27488E-02
         0.28990E-02
         0.37001E-02
         0.35930E-02
         0.37853E-02
         0.29889E-02
         0.29889E-02
         0.28571E-02
         0.26875E-02
         0.29521E-02
         0.28074E-02
         0.30027E-02
         0.37001E-02
         0.28641E-02
         0.28641E-02
         0.27576E-02
         0.26173E-02
         0.37001E-02
         0.37001E-02
         0.37727E-02
         0.37727E-02
         0.30234E-02
         0.36979E-02
         0.37162E-02
         0.31960E-02
         0.32790E-02
         0.32790E-02
         0.27006E-02
         0.25920E-02
         0.25902E-02
         0.29715E-02
         0.29715E-02
         0.26476E-02
         0.29100E-02
         0.34071E-02
         0.35339E-02
         0.35339E-02
         0.29772E-02
         0.32307E-02
         0.29032E-02
         0.29855E-02
         0.36979E-02
         0.37162E-02
         0.37162E-02
         0.33879E-02
         0.28990E-02
         0.31960E-02
         0.32790E-02
         0.32790E-02
         0.27006E-02
         0.25920E-02
         0.25902E-02
         0.26875E-02
         0.28571E-02
         0.29521E-02
         0.29715E-02
         0.29715E-02
         0.26476E-02
         0.27684E-02
         0.34071E-02
         0.35339E-02
         0.35339E-02
         0.29772E-02
         0.31408E-02
         0.31408E-02
         0.43148E-02
         0.43148E-02
         0.43148E-02
         0.43148E-02
         0.34885E-02
         0.34885E-02
         0.32783E-02
         0.32112E-02
         0.37849E-02
         0.31872E-02
         0.27120E-02
         0.33875E-02
         0.37161E-02
         0.27441E-02
         0.29003E-02
         0.36998E-02
         0.35965E-02
         0.37849E-02
         0.29896E-02
         0.29896E-02
         0.28575E-02
         0.26882E-02
         0.29522E-02
         0.28077E-02
         0.30053E-02
         0.36998E-02
         0.28615E-02
         0.28615E-02
         0.27563E-02
         0.26163E-02
         0.36998E-02
         0.36998E-02
         0.37747E-02
         0.37747E-02
         0.30236E-02
         0.36967E-02
         0.37161E-02
         0.31973E-02
         0.32796E-02
         0.32796E-02
         0.27006E-02
         0.25920E-02
         0.25895E-02
         0.29714E-02
         0.29714E-02
         0.26475E-02
         0.29099E-02
         0.34063E-02
         0.35333E-02
         0.35333E-02
         0.29775E-02
         0.32325E-02
         0.29004E-02
         0.29865E-02
         0.36967E-02
         0.37161E-02
         0.37161E-02
         0.33875E-02
         0.29003E-02
         0.31973E-02
         0.32796E-02
         0.32796E-02
         0.27006E-02
         0.25920E-02
         0.25895E-02
         0.26882E-02
         0.28575E-02
         0.29522E-02
         0.29714E-02
         0.29714E-02
         0.26475E-02
         0.27684E-02
         0.34063E-02
         0.35333E-02
         0.35333E-02
         0.29775E-02
         0.31422E-02
         0.31422E-02
         0.43145E-02
         0.43145E-02
         0.43145E-02
         0.43145E-02
         0.34886E-02
         0.34886E-02
         0.32769E-02
         0.32102E-02
         0.37844E-02
         0.31868E-02
         0.27103E-02
         0.33871E-02
         0.37160E-02
         0.27394E-02
         0.29015E-02
         0.36995E-02
         0.36000E-02
         0.37844E-02
         0.29903E-02
         0.29903E-02
         0.28580E-02
         0.26890E-02
         0.29523E-02
         0.28079E-02
         0.30079E-02
         0.36995E-02
         0.28589E-02
         0.28589E-02
         0.27550E-02
         0.26152E-02
         0.36995E-02
         0.36995E-02
         0.37768E-02
         0.37768E-02
         0.30238E-02
         0.36956E-02
         0.37160E-02
         0.31986E-02
         0.32802E-02
         0.32802E-02
         0.27006E-02
         0.25920E-02
         0.25887E-02
         0.29714E-02
         0.29714E-02
         0.26475E-02
         0.29098E-02
         0.34056E-02
         0.35327E-02
         0.35327E-02
         0.29778E-02
         0.32342E-02
         0.28977E-02
         0.29875E-02
         0.36956E-02
         0.37160E-02
         0.37160E-02
         0.33871E-02
         0.29015E-02
         0.31986E-02
         0.32802E-02
         0.32802E-02
         0.27006E-02
         0.25920E-02
         0.25887E-02
         0.26890E-02
         0.28580E-02
         0.29523E-02
         0.29714E-02
         0.29714E-02
         0.26475E-02
         0.27683E-02
         0.34056E-02
         0.35327E-02
         0.35327E-02
         0.29778E-02
         0.31435E-02
         0.31435E-02
         0.43143E-02
         0.43143E-02
         0.43143E-02
         0.43143E-02
         0.34887E-02
         0.34887E-02
         0.32755E-02
         0.32091E-02
         0.37839E-02
         0.31864E-02
         0.27086E-02
         0.33867E-02
         0.37159E-02
         0.27347E-02
         0.29027E-02
         0.36991E-02
         0.36036E-02
         0.37839E-02
         0.29920E-02
         0.29920E-02
         0.28585E-02
         0.26897E-02
         0.29525E-02
         0.28082E-02
         0.30105E-02
         0.36991E-02
         0.28563E-02
         0.28563E-02
         0.27537E-02
         0.26142E-02
         0.36991E-02
         0.36991E-02
         0.37789E-02
         0.37789E-02
         0.30240E-02
         0.36944E-02
         0.37159E-02
         0.31999E-02
         0.32808E-02
         0.32808E-02
         0.27006E-02
         0.25920E-02
         0.25880E-02
         0.29714E-02
         0.29714E-02
         0.26474E-02
         0.29097E-02
         0.34049E-02
         0.35322E-02
         0.35322E-02
         0.29781E-02
         0.32360E-02
         0.28949E-02
         0.29885E-02
         0.36944E-02
         0.37159E-02
         0.37159E-02
         0.33867E-02
         0.29027E-02
         0.31999E-02
         0.32808E-02
         0.32808E-02
         0.27006E-02
         0.25920E-02
         0.25880E-02
         0.26897E-02
         0.28585E-02
         0.29525E-02
         0.29714E-02
         0.29714E-02
         0.26474E-02
         0.27683E-02
         0.34049E-02
         0.35322E-02
         0.35322E-02
         0.29781E-02
         0.31449E-02
         0.31449E-02
         0.43140E-02
         0.43140E-02
         0.43140E-02
         0.43140E-02
         0.34888E-02
         0.34888E-02
         0.32740E-02
         0.32081E-02
         0.37834E-02
         0.31860E-02
         0.27069E-02
         0.33863E-02
         0.37158E-02
         0.27299E-02
         0.29039E-02
         0.36988E-02
         0.36071E-02
         0.37834E-02
         0.29946E-02
         0.29946E-02
         0.28589E-02
         0.26905E-02
         0.29526E-02
         0.28085E-02
         0.30131E-02
         0.36988E-02
         0.28538E-02
         0.28538E-02
         0.27524E-02
         0.26132E-02
         0.36988E-02
         0.36988E-02
         0.37809E-02
         0.37809E-02
         0.30241E-02
         0.36932E-02
         0.37158E-02
         0.32012E-02
         0.32814E-02
         0.32814E-02
         0.27006E-02
         0.25920E-02
         0.25873E-02
         0.29714E-02
         0.29714E-02
         0.26473E-02
         0.29097E-02
         0.34041E-02
         0.35316E-02
         0.35316E-02
         0.29784E-02
         0.32378E-02
         0.28921E-02
         0.29895E-02
         0.36932E-02
         0.37158E-02
         0.37158E-02
         0.33863E-02
         0.29039E-02
         0.32012E-02
         0.32814E-02
         0.32814E-02
         0.27006E-02
         0.25920E-02
         0.25873E-02
         0.26905E-02
         0.28589E-02
         0.29526E-02
         0.29714E-02
         0.29714E-02
         0.26473E-02
         0.27683E-02
         0.34041E-02
         0.35316E-02
         0.35316E-02
         0.29784E-02
         0.31463E-02
         0.31463E-02
         0.43138E-02
         0.43138E-02
         0.43138E-02
         0.43138E-02
         0.34888E-02
         0.34888E-02
         0.32726E-02
         0.32071E-02
         0.37830E-02
         0.31856E-02
         0.27051E-02
         0.33859E-02
         0.37157E-02
         0.27252E-02
         0.29051E-02
         0.36985E-02
         0.36106E-02
         0.37830E-02
         0.29972E-02
         0.29972E-02
         0.28594E-02
         0.26912E-02
         0.29528E-02
         0.28087E-02
         0.30156E-02
         0.36985E-02
         0.28512E-02
         0.28512E-02
         0.27512E-02
         0.26122E-02
         0.36985E-02
         0.36985E-02
         0.37830E-02
         0.37830E-02
         0.30243E-02
         0.36920E-02
         0.37157E-02
         0.32025E-02
         0.32821E-02
         0.32821E-02
         0.27006E-02
         0.25920E-02
         0.25866E-02
         0.29714E-02
         0.29714E-02
         0.26473E-02
         0.29096E-02
         0.34034E-02
         0.35310E-02
         0.35310E-02
         0.29787E-02
         0.32396E-02
         0.28894E-02
         0.29905E-02
         0.36920E-02
         0.37157E-02
         0.37157E-02
         0.33859E-02
         0.29051E-02
         0.32025E-02
         0.32821E-02
         0.32821E-02
         0.27006E-02
         0.25920E-02
         0.25866E-02
         0.26912E-02
         0.28594E-02
         0.29528E-02
         0.29714E-02
         0.29714E-02
         0.26473E-02
         0.27682E-02
         0.34034E-02
         0.35310E-02
         0.35310E-02
         0.29787E-02
         0.31476E-02
         0.31476E-02
         0.43135E-02
         0.43135E-02
         0.43135E-02
         0.43135E-02
         0.34889E-02
         0.34889E-02
         0.32712E-02
         0.32061E-02
         0.37825E-02
         0.31852E-02
         0.27034E-02
         0.33856E-02
         0.37156E-02
         0.27205E-02
         0.29063E-02
         0.36982E-02
         0.36142E-02
         0.37851E-02
         0.29998E-02
         0.29998E-02
         0.28599E-02
         0.26920E-02
         0.29529E-02
         0.28090E-02
         0.30182E-02
         0.36982E-02
         0.28486E-02
         0.28486E-02
         0.27499E-02
         0.26112E-02
         0.36982E-02
         0.36982E-02
         0.37851E-02
         0.37851E-02
         0.30245E-02
         0.36908E-02
         0.37156E-02
         0.32038E-02
         0.32827E-02
         0.32827E-02
         0.27006E-02
         0.25920E-02
         0.25859E-02
         0.29714E-02
         0.29714E-02
         0.26472E-02
         0.29095E-02
         0.34027E-02
         0.35304E-02
         0.35304E-02
         0.29790E-02
         0.32413E-02
         0.28866E-02
         0.29915E-02
         0.36908E-02
         0.37156E-02
         0.37156E-02
         0.33856E-02
         0.29063E-02
         0.32038E-02
         0.32827E-02
         0.32827E-02
         0.27006E-02
         0.25920E-02
         0.25859E-02
         0.26920E-02
         0.28599E-02
         0.29529E-02
         0.29714E-02
         0.29714E-02
         0.26472E-02
         0.27682E-02
         0.34027E-02
         0.35304E-02
         0.35304E-02
         0.29790E-02
         0.31490E-02
         0.31490E-02
         0.43133E-02
         0.43133E-02
         0.43133E-02
         0.43133E-02
         0.34890E-02
         0.34890E-02
         0.32698E-02
         0.32051E-02
         0.37820E-02
         0.31848E-02
         0.27017E-02
         0.33851E-02
         0.37155E-02
         0.27158E-02
         0.29075E-02
         0.36979E-02
         0.36177E-02
         0.37871E-02
         0.30024E-02
         0.30024E-02
         0.28603E-02
         0.26927E-02
         0.29530E-02
         0.28093E-02
         0.30208E-02
         0.36979E-02
         0.28460E-02
         0.28460E-02
         0.27486E-02
         0.26101E-02
         0.36979E-02
         0.36979E-02
         0.37871E-02
         0.37871E-02
         0.30247E-02
         0.36896E-02
         0.37155E-02
         0.32051E-02
         0.32833E-02
         0.32833E-02
         0.27006E-02
         0.25920E-02
         0.25851E-02
         0.29714E-02
         0.29714E-02
         0.26472E-02
         0.29094E-02
         0.34019E-02
         0.35299E-02
         0.35299E-02
         0.29793E-02
         0.32431E-02
         0.28838E-02
         0.29925E-02
         0.36896E-02
         0.37155E-02
         0.37155E-02
         0.33851E-02
         0.29075E-02
         0.32051E-02
         0.32833E-02
         0.32833E-02
         0.27006E-02
         0.25920E-02
         0.25851E-02
         0.26927E-02
         0.28603E-02
         0.29530E-02
         0.29714E-02
         0.29714E-02
         0.26472E-02
         0.27681E-02
         0.34019E-02
         0.35299E-02
         0.35299E-02
         0.29793E-02
         0.31503E-02
         0.31503E-02
         0.43130E-02
         0.43130E-02
         0.43130E-02
         0.43130E-02
         0.34891E-02
         0.34891E-02
         0.32683E-02
         0.32041E-02
         0.37816E-02
         0.31844E-02
         0.27000E-02
         0.33848E-02
         0.37154E-02
         0.27111E-02
         0.29087E-02
         0.36976E-02
         0.36213E-02
         0.37892E-02
         0.30050E-02
         0.30050E-02
         0.28608E-02
         0.26935E-02
         0.29532E-02
         0.28096E-02
         0.30234E-02
         0.36976E-02
         0.28434E-02
         0.28434E-02
         0.27472E-02
         0.26091E-02
         0.36976E-02
         0.36976E-02
         0.37892E-02
         0.37892E-02
         0.30249E-02
         0.36885E-02
         0.37154E-02
         0.32064E-02
         0.32839E-02
         0.32839E-02
         0.27006E-02
         0.25920E-02
         0.25844E-02
         0.29714E-02
         0.29714E-02
         0.26471E-02
         0.29094E-02
         0.34012E-02
         0.35293E-02
         0.35293E-02
         0.29797E-02
         0.32449E-02
         0.28811E-02
         0.29935E-02
         0.36885E-02
         0.37154E-02
         0.37154E-02
         0.33848E-02
         0.29087E-02
         0.32064E-02
         0.32839E-02
         0.32839E-02
         0.27006E-02
         0.25920E-02
         0.25844E-02
         0.26935E-02
         0.28608E-02
         0.29532E-02
         0.29714E-02
         0.29714E-02
         0.26471E-02
         0.27681E-02
         0.34012E-02
         0.35293E-02
         0.35293E-02
         0.29797E-02
         0.31517E-02
         0.31517E-02
         0.43128E-02
         0.43128E-02
         0.43128E-02
         0.43128E-02
         0.34892E-02
         0.34892E-02
         0.32669E-02
         0.32031E-02
         0.37811E-02
         0.31840E-02
         0.26982E-02
         0.33844E-02
         0.37152E-02
         0.27063E-02
         0.29099E-02
         0.36973E-02
         0.36248E-02
         0.37913E-02
         0.30076E-02
         0.30076E-02
         0.28613E-02
         0.26942E-02
         0.29533E-02
         0.28099E-02
         0.30260E-02
         0.36973E-02
         0.28408E-02
         0.28408E-02
         0.27460E-02
         0.26081E-02
         0.36973E-02
         0.36973E-02
         0.37913E-02
         0.37913E-02
         0.30250E-02
         0.36873E-02
         0.37152E-02
         0.32077E-02
         0.32845E-02
         0.32845E-02
         0.27006E-02
         0.25920E-02
         0.25837E-02
         0.29714E-02
         0.29714E-02
         0.26471E-02
         0.29093E-02
         0.34005E-02
         0.35287E-02
         0.35287E-02
         0.29800E-02
         0.32467E-02
         0.28783E-02
         0.29945E-02
         0.36873E-02
         0.37152E-02
         0.37152E-02
         0.33844E-02
         0.29099E-02
         0.32077E-02
         0.32845E-02
         0.32845E-02
         0.27006E-02
         0.25920E-02
         0.25837E-02
         0.26942E-02
         0.28613E-02
         0.29533E-02
         0.29714E-02
         0.29714E-02
         0.26471E-02
         0.27681E-02
         0.34005E-02
         0.35287E-02
         0.35287E-02
         0.29800E-02
         0.31530E-02
         0.31530E-02
         0.43125E-02
         0.43125E-02
         0.43125E-02
         0.43125E-02
         0.34893E-02
         0.34893E-02
         0.32655E-02
         0.32021E-02
         0.37806E-02
         0.31836E-02
         0.26965E-02
         0.33840E-02
         0.37151E-02
         0.27016E-02
         0.29111E-02
         0.36969E-02
         0.36283E-02
         0.37933E-02
         0.30102E-02
         0.30102E-02
         0.28617E-02
         0.26950E-02
         0.29535E-02
         0.28101E-02
         0.30286E-02
         0.36969E-02
         0.28382E-02
         0.28382E-02
         0.27447E-02
         0.26071E-02
         0.36969E-02
         0.36969E-02
         0.37933E-02
         0.37933E-02
         0.30252E-02
         0.36861E-02
         0.37151E-02
         0.32090E-02
         0.32852E-02
         0.32852E-02
         0.27006E-02
         0.25920E-02
         0.25830E-02
         0.29714E-02
         0.29714E-02
         0.26470E-02
         0.29092E-02
         0.33997E-02
         0.35282E-02
         0.35282E-02
         0.29803E-02
         0.32484E-02
         0.28755E-02
         0.29955E-02
         0.36861E-02
         0.37151E-02
         0.37151E-02
         0.33840E-02
         0.29111E-02
         0.32090E-02
         0.32852E-02
         0.32852E-02
         0.27006E-02
         0.25920E-02
         0.25830E-02
         0.26950E-02
         0.28617E-02
         0.29535E-02
         0.29714E-02
         0.29714E-02
         0.26470E-02
         0.27680E-02
         0.33997E-02
         0.35282E-02
         0.35282E-02
         0.29803E-02
         0.31544E-02
         0.31544E-02
         0.43123E-02
         0.43123E-02
         0.43123E-02
         0.43123E-02
         0.34893E-02
         0.34893E-02
         0.32640E-02
         0.32011E-02
         0.37801E-02
         0.31832E-02
         0.26948E-02
         0.33836E-02
         0.37150E-02
         0.26969E-02
         0.29123E-02
         0.36966E-02
         0.36319E-02
         0.37954E-02
         0.30128E-02
         0.30128E-02
         0.28622E-02
         0.26957E-02
         0.29536E-02
         0.28104E-02
         0.30312E-02
         0.36966E-02
         0.28357E-02
         0.28357E-02
         0.27434E-02
         0.26061E-02
         0.36966E-02
         0.36966E-02
         0.37954E-02
         0.37954E-02
         0.30254E-02
         0.36849E-02
         0.37150E-02
         0.32103E-02
         0.32858E-02
         0.32858E-02
         0.27006E-02
         0.25920E-02
         0.25823E-02
         0.29714E-02
         0.29714E-02
         0.26470E-02
         0.29091E-02
         0.33990E-02
         0.35276E-02
         0.35276E-02
         0.29806E-02
         0.32502E-02
         0.28728E-02
         0.29965E-02
         0.36849E-02
         0.37150E-02
         0.37150E-02
         0.33836E-02
         0.29123E-02
         0.32103E-02
         0.32858E-02
         0.32858E-02
         0.27006E-02
         0.25920E-02
         0.25823E-02
         0.26957E-02
         0.28622E-02
         0.29536E-02
         0.29714E-02
         0.29714E-02
         0.26470E-02
         0.27680E-02
         0.33990E-02
         0.35276E-02
         0.35276E-02
         0.29806E-02
         0.31557E-02
         0.31557E-02
         0.43120E-02
         0.43120E-02
         0.43120E-02
         0.43120E-02
         0.34894E-02
         0.34894E-02
         0.32626E-02
         0.32001E-02
         0.37797E-02
         0.31828E-02
         0.26931E-02
         0.33832E-02
         0.37149E-02
         0.26922E-02
         0.29135E-02
         0.36963E-02
         0.36354E-02
         0.37975E-02
         0.30154E-02
         0.30154E-02
         0.28627E-02
         0.26965E-02
         0.29537E-02
         0.28107E-02
         0.30338E-02
         0.36963E-02
         0.28331E-02
         0.28331E-02
         0.27421E-02
         0.26051E-02
         0.36963E-02
         0.36963E-02
         0.37975E-02
         0.37975E-02
         0.30256E-02
         0.36838E-02
         0.37149E-02
         0.32116E-02
         0.32864E-02
         0.32864E-02
         0.27006E-02
         0.25920E-02
         0.25815E-02
         0.29714E-02
         0.29714E-02
         0.26469E-02
         0.29090E-02
         0.33983E-02
         0.35270E-02
         0.35270E-02
         0.29809E-02
         0.32519E-02
         0.28700E-02
         0.29975E-02
         0.36838E-02
         0.37149E-02
         0.37149E-02
         0.33832E-02
         0.29135E-02
         0.32116E-02
         0.32864E-02
         0.32864E-02
         0.27006E-02
         0.25920E-02
         0.25815E-02
         0.26965E-02
         0.28627E-02
         0.29537E-02
         0.29714E-02
         0.29714E-02
         0.26469E-02
         0.27680E-02
         0.33983E-02
         0.35270E-02
         0.35270E-02
         0.29809E-02
         0.31571E-02
         0.31571E-02
         0.43118E-02
         0.43118E-02
         0.43118E-02
         0.43118E-02
         0.34895E-02
         0.34895E-02
         0.32612E-02
         0.31990E-02
         0.37792E-02
         0.31824E-02
         0.26913E-02
         0.33828E-02
         0.37148E-02
         0.26875E-02
         0.29148E-02
         0.36960E-02
         0.36390E-02
         0.37995E-02
         0.30180E-02
         0.30180E-02
         0.28631E-02
         0.26972E-02
         0.29539E-02
         0.28110E-02
         0.30364E-02
         0.36960E-02
         0.28305E-02
         0.28305E-02
         0.27408E-02
         0.26040E-02
         0.36960E-02
         0.36960E-02
         0.37995E-02
         0.37995E-02
         0.30258E-02
         0.36826E-02
         0.37148E-02
         0.32129E-02
         0.32870E-02
         0.32870E-02
         0.27006E-02
         0.25920E-02
         0.25808E-02
         0.29713E-02
         0.29713E-02
         0.26468E-02
         0.29089E-02
         0.33975E-02
         0.35264E-02
         0.35264E-02
         0.29812E-02
         0.32537E-02
         0.28672E-02
         0.29985E-02
         0.36826E-02
         0.37148E-02
         0.37148E-02
         0.33828E-02
         0.29148E-02
         0.32129E-02
         0.32870E-02
         0.32870E-02
         0.27006E-02
         0.25920E-02
         0.25808E-02
         0.26972E-02
         0.28631E-02
         0.29539E-02
         0.29713E-02
         0.29713E-02
         0.26468E-02
         0.27679E-02
         0.33975E-02
         0.35264E-02
         0.35264E-02
         0.29812E-02
         0.31585E-02
         0.31585E-02
         0.43115E-02
         0.43115E-02
         0.43115E-02
         0.43115E-02
         0.34896E-02
         0.34896E-02
         0.32597E-02
         0.31980E-02
         0.37787E-02
         0.31820E-02
         0.26896E-02
         0.33824E-02
         0.37147E-02
         0.26827E-02
         0.29160E-02
         0.36957E-02
         0.36425E-02
         0.38016E-02
         0.30206E-02
         0.30206E-02
         0.28636E-02
         0.26980E-02
         0.29540E-02
         0.28112E-02
         0.30390E-02
         0.36957E-02
         0.28279E-02
         0.28279E-02
         0.27395E-02
         0.26030E-02
         0.36957E-02
         0.36957E-02
         0.38016E-02
         0.38016E-02
         0.30260E-02
         0.36814E-02
         0.37147E-02
         0.32141E-02
         0.32876E-02
         0.32876E-02
         0.27006E-02
         0.25920E-02
         0.25801E-02
         0.29713E-02
         0.29713E-02
         0.26468E-02
         0.29089E-02
         0.33968E-02
         0.35259E-02
         0.35259E-02
         0.29815E-02
         0.32555E-02
         0.28645E-02
         0.29995E-02
         0.36814E-02
         0.37147E-02
         0.37147E-02
         0.33824E-02
         0.29160E-02
         0.32141E-02
         0.32876E-02
         0.32876E-02
         0.27006E-02
         0.25920E-02
         0.25801E-02
         0.26980E-02
         0.28636E-02
         0.29540E-02
         0.29713E-02
         0.29713E-02
         0.26468E-02
         0.27679E-02
         0.33968E-02
         0.35259E-02
         0.35259E-02
         0.29815E-02
         0.31598E-02
         0.31598E-02
         0.43113E-02
         0.43113E-02
         0.43113E-02
         0.43113E-02
         0.34897E-02
         0.34897E-02
         0.32583E-02
         0.31970E-02
         0.37783E-02
         0.31816E-02
         0.26879E-02
         0.33820E-02
         0.37146E-02
         0.26780E-02
         0.29172E-02
         0.36954E-02
         0.36460E-02
         0.38037E-02
         0.30232E-02
         0.30232E-02
         0.28641E-02
         0.26987E-02
         0.29542E-02
         0.28115E-02
         0.30416E-02
         0.36954E-02
         0.28253E-02
         0.28253E-02
         0.27382E-02
         0.26020E-02
         0.36954E-02
         0.36954E-02
         0.38037E-02
         0.38037E-02
         0.30261E-02
         0.36802E-02
         0.37146E-02
         0.32154E-02
         0.32882E-02
         0.32882E-02
         0.27006E-02
         0.25921E-02
         0.25794E-02
         0.29713E-02
         0.29713E-02
         0.26467E-02
         0.29088E-02
         0.33961E-02
         0.35253E-02
         0.35253E-02
         0.29818E-02
         0.32573E-02
         0.28617E-02
         0.30005E-02
         0.36802E-02
         0.37146E-02
         0.37146E-02
         0.33820E-02
         0.29172E-02
         0.32154E-02
         0.32882E-02
         0.32882E-02
         0.27006E-02
         0.25921E-02
         0.25794E-02
         0.26987E-02
         0.28641E-02
         0.29542E-02
         0.29713E-02
         0.29713E-02
         0.26467E-02
         0.27678E-02
         0.33961E-02
         0.35253E-02
         0.35253E-02
         0.29818E-02
         0.31612E-02
         0.31612E-02
         0.43110E-02
         0.43110E-02
         0.43110E-02
         0.43110E-02
         0.34898E-02
         0.34898E-02
         0.32569E-02
         0.31960E-02
         0.37778E-02
         0.31812E-02
         0.26862E-02
         0.33816E-02
         0.37145E-02
         0.26733E-02
         0.29184E-02
         0.36950E-02
         0.36495E-02
         0.38057E-02
         0.30258E-02
         0.30258E-02
         0.28645E-02
         0.26995E-02
         0.29543E-02
         0.28118E-02
         0.30442E-02
         0.36950E-02
         0.28227E-02
         0.28227E-02
         0.27369E-02
         0.26010E-02
         0.36950E-02
         0.36950E-02
         0.38057E-02
         0.38057E-02
         0.30263E-02
         0.36790E-02
         0.37145E-02
         0.32167E-02
         0.32889E-02
         0.32889E-02
         0.27006E-02
         0.25921E-02
         0.25787E-02
         0.29713E-02
         0.29713E-02
         0.26467E-02
         0.29087E-02
         0.33953E-02
         0.35247E-02
         0.35247E-02
         0.29821E-02
         0.32590E-02
         0.28589E-02
         0.30015E-02
         0.36790E-02
         0.37145E-02
         0.37145E-02
         0.33816E-02
         0.29184E-02
         0.32167E-02
         0.32889E-02
         0.32889E-02
         0.27006E-02
         0.25921E-02
         0.25787E-02
         0.26995E-02
         0.28645E-02
         0.29543E-02
         0.29713E-02
         0.29713E-02
         0.26467E-02
         0.27678E-02
         0.33953E-02
         0.35247E-02
         0.35247E-02
         0.29821E-02
         0.31625E-02
         0.31625E-02
         0.43108E-02
         0.43108E-02
         0.43108E-02
         0.43108E-02
         0.34898E-02
         0.34898E-02
         0.32555E-02
         0.31950E-02
         0.37773E-02
         0.31808E-02
         0.26845E-02
         0.33812E-02
         0.37144E-02
         0.26686E-02
         0.29196E-02
         0.36948E-02
         0.36531E-02
         0.38078E-02
         0.30285E-02
         0.30285E-02
         0.28650E-02
         0.27002E-02
         0.29544E-02
         0.28120E-02
         0.30467E-02
         0.36948E-02
         0.28201E-02
         0.28201E-02
         0.27356E-02
         0.26000E-02
         0.36948E-02
         0.36948E-02
         0.38078E-02
         0.38078E-02
         0.30265E-02
         0.36779E-02
         0.37144E-02
         0.32181E-02
         0.32895E-02
         0.32895E-02
         0.27006E-02
         0.25921E-02
         0.25779E-02
         0.29713E-02
         0.29713E-02
         0.26466E-02
         0.29086E-02
         0.33946E-02
         0.35242E-02
         0.35242E-02
         0.29824E-02
         0.32608E-02
         0.28562E-02
         0.30025E-02
         0.36779E-02
         0.37144E-02
         0.37144E-02
         0.33812E-02
         0.29196E-02
         0.32181E-02
         0.32895E-02
         0.32895E-02
         0.27006E-02
         0.25921E-02
         0.25779E-02
         0.27002E-02
         0.28650E-02
         0.29544E-02
         0.29713E-02
         0.29713E-02
         0.26466E-02
         0.27678E-02
         0.33946E-02
         0.35242E-02
         0.35242E-02
         0.29824E-02
         0.31639E-02
         0.31639E-02
         0.43105E-02
         0.43105E-02
         0.43105E-02
         0.43105E-02
         0.34899E-02
         0.34899E-02
         0.32540E-02
         0.31940E-02
         0.37768E-02
         0.31804E-02
         0.26827E-02
         0.33808E-02
         0.37143E-02
         0.26639E-02
         0.29208E-02
         0.36944E-02
         0.36566E-02
         0.38099E-02
         0.30311E-02
         0.30311E-02
         0.28655E-02
         0.27010E-02
         0.29546E-02
         0.28123E-02
         0.30493E-02
         0.36944E-02
         0.28175E-02
         0.28175E-02
         0.27343E-02
         0.25990E-02
         0.36944E-02
         0.36944E-02
         0.38099E-02
         0.38099E-02
         0.30267E-02
         0.36767E-02
         0.37143E-02
         0.32193E-02
         0.32901E-02
         0.32901E-02
         0.27006E-02
         0.25921E-02
         0.25772E-02
         0.29713E-02
         0.29713E-02
         0.26466E-02
         0.29085E-02
         0.33939E-02
         0.35236E-02
         0.35236E-02
         0.29827E-02
         0.32626E-02
         0.28534E-02
         0.30035E-02
         0.36767E-02
         0.37143E-02
         0.37143E-02
         0.33808E-02
         0.29208E-02
         0.32193E-02
         0.32901E-02
         0.32901E-02
         0.27006E-02
         0.25921E-02
         0.25772E-02
         0.27010E-02
         0.28655E-02
         0.29546E-02
         0.29713E-02
         0.29713E-02
         0.26466E-02
         0.27677E-02
         0.33939E-02
         0.35236E-02
         0.35236E-02
         0.29827E-02
         0.31652E-02
         0.31652E-02
         0.43103E-02
         0.43103E-02
         0.43103E-02
         0.43103E-02
         0.34900E-02
         0.34900E-02
         0.32526E-02
         0.31930E-02
         0.37764E-02
         0.31800E-02
         0.26810E-02
         0.33804E-02
         0.37142E-02
         0.26591E-02
         0.29220E-02
         0.36941E-02
         0.36602E-02
         0.38119E-02
         0.30337E-02
         0.30337E-02
         0.28660E-02
         0.27017E-02
         0.29547E-02
         0.28126E-02
         0.30519E-02
         0.36941E-02
         0.28150E-02
         0.28150E-02
         0.27330E-02
         0.25979E-02
         0.36941E-02
         0.36941E-02
         0.38119E-02
         0.38119E-02
         0.30269E-02
         0.36755E-02
         0.37142E-02
         0.32206E-02
         0.32907E-02
         0.32907E-02
         0.27006E-02
         0.25921E-02
         0.25765E-02
         0.29713E-02
         0.29713E-02
         0.26465E-02
         0.29085E-02
         0.33931E-02
         0.35230E-02
         0.35230E-02
         0.29830E-02
         0.32643E-02
         0.28507E-02
         0.30045E-02
         0.36755E-02
         0.37142E-02
         0.37142E-02
         0.33804E-02
         0.29220E-02
         0.32206E-02
         0.32907E-02
         0.32907E-02
         0.27006E-02
         0.25921E-02
         0.25765E-02
         0.27017E-02
         0.28660E-02
         0.29547E-02
         0.29713E-02
         0.29713E-02
         0.26465E-02
         0.27677E-02
         0.33931E-02
         0.35230E-02
         0.35230E-02
         0.29830E-02
         0.31666E-02
         0.31666E-02
         0.43100E-02
         0.43100E-02
         0.43100E-02
         0.43100E-02
         0.34901E-02
         0.34901E-02
         0.32512E-02
         0.31920E-02
         0.37759E-02
         0.31796E-02
         0.26793E-02
         0.33800E-02
         0.37141E-02
         0.26544E-02
         0.29232E-02
         0.36938E-02
         0.36637E-02
         0.38140E-02
         0.30363E-02
         0.30363E-02
         0.28664E-02
         0.27025E-02
         0.29548E-02
         0.28129E-02
         0.30545E-02
         0.36938E-02
         0.28124E-02
         0.28124E-02
         0.27317E-02
         0.25969E-02
         0.36938E-02
         0.36938E-02
         0.38140E-02
         0.38140E-02
         0.30271E-02
         0.36743E-02
         0.37141E-02
         0.32219E-02
         0.32913E-02
         0.32913E-02
         0.27006E-02
         0.25921E-02
         0.25758E-02
         0.29713E-02
         0.29713E-02
         0.26465E-02
         0.29084E-02
         0.33924E-02
         0.35224E-02
         0.35224E-02
         0.29833E-02
         0.32661E-02
         0.28479E-02
         0.30055E-02
         0.36743E-02
         0.37141E-02
         0.37141E-02
         0.33800E-02
         0.29232E-02
         0.32219E-02
         0.32913E-02
         0.32913E-02
         0.27006E-02
         0.25921E-02
         0.25758E-02
         0.27025E-02
         0.28664E-02
         0.29548E-02
         0.29713E-02
         0.29713E-02
         0.26465E-02
         0.27677E-02
         0.33924E-02
         0.35224E-02
         0.35224E-02
         0.29833E-02
         0.31680E-02
         0.31680E-02
         0.43098E-02
         0.43098E-02
         0.43098E-02
         0.43098E-02
         0.34901E-02
         0.34901E-02
         0.32498E-02
         0.31910E-02
         0.37754E-02
         0.31792E-02
         0.26776E-02
         0.33796E-02
         0.37140E-02
         0.26497E-02
         0.29232E-02
         0.36935E-02
         0.36637E-02
         0.38140E-02
         0.30363E-02
         0.30363E-02
         0.28664E-02
         0.27025E-02
         0.29548E-02
         0.28129E-02
         0.30545E-02
         0.36935E-02
         0.28098E-02
         0.28098E-02
         0.27304E-02
         0.25959E-02
         0.36935E-02
         0.36935E-02
         0.38140E-02
         0.38140E-02
         0.30271E-02
         0.36731E-02
         0.37140E-02
         0.32219E-02
         0.32913E-02
         0.32913E-02
         0.27006E-02
         0.25921E-02
         0.25751E-02
         0.29713E-02
         0.29713E-02
         0.26464E-02
         0.29083E-02
         0.33916E-02
         0.35219E-02
         0.35219E-02
         0.29833E-02
         0.32661E-02
         0.28451E-02
         0.30055E-02
         0.36731E-02
         0.37140E-02
         0.37140E-02
         0.33796E-02
         0.29232E-02
         0.32219E-02
         0.32913E-02
         0.32913E-02
         0.27006E-02
         0.25921E-02
         0.25751E-02
         0.27025E-02
         0.28664E-02
         0.29548E-02
         0.29713E-02
         0.29713E-02
         0.26464E-02
         0.27676E-02
         0.33916E-02
         0.35219E-02
         0.35219E-02
         0.29833E-02
         0.31680E-02
         0.31680E-02
  
SCALARS              physical_window_z  double 1
LOOKUP_TABLE default
         0.26928E-02
         0.26928E-02
         0.26928E-02
         0.26928E-02
         0.26928E-02
         0.26928E-02
         0.26928E-02
         0.26928E-02
         0.26928E-02
         0.26928E-02
         0.26928E-02
         0.26928E-02
         0.26928E-02
         0.26928E-02
         0.26928E-02
         0.26928E-02
         0.26928E-02
         0.26928E-02
         0.26928E-02
         0.26928E-02
         0.26928E-02
         0.26928E-02
         0.26928E-02
         0.26928E-02
         0.26928E-02
         0.26928E-02
         0.26928E-02
         0.26928E-02
         0.26928E-02
         0.26928E-02
         0.26928E-02
         0.26928E-02
         0.26928E-02
         0.26928E-02
         0.26928E-02
         0.26928E-02
         0.26928E-02
         0.26928E-02
         0.26928E-02
         0.26928E-02
         0.26928E-02
         0.26928E-02
         0.26928E-02
         0.26928E-02
         0.26928E-02
         0.26928E-02
         0.26928E-02
         0.26928E-02
         0.26928E-02
         0.26928E-02
         0.26928E-02
         0.26928E-02
         0.26928E-02
         0.26928E-02
         0.26928E-02
         0.26928E-02
         0.26928E-02
         0.26928E-02
         0.26928E-02
         0.26928E-02
         0.26928E-02
         0.26928E-02
         0.26928E-02
         0.26928E-02
         0.26928E-02
         0.26928E-02
         0.26928E-02
         0.26928E-02
         0.26928E-02
         0.26928E-02
         0.26928E-02
         0.26928E-02
         0.26928E-02
         0.26928E-02
         0.26928E-02
         0.26928E-02
         0.26928E-02
         0.26928E-02
         0.26928E-02
         0.26928E-02
         0.26928E-02
         0.26928E-02
         0.26928E-02
         0.26928E-02
         0.26928E-02
         0.26928E-02
         0.26928E-02
         0.26928E-02
         0.26928E-02
         0.26928E-02
         0.26928E-02
         0.26928E-02
         0.26928E-02
         0.26928E-02
         0.26928E-02
         0.26928E-02
         0.26928E-02
         0.26928E-02
         0.26928E-02
         0.26928E-02
         0.26928E-02
         0.26928E-02
         0.26928E-02
         0.26928E-02
         0.26928E-02
         0.26928E-02
         0.26928E-02
         0.26928E-02
         0.26928E-02
         0.26928E-02
         0.26928E-02
         0.26928E-02
         0.26928E-02
         0.26928E-02
         0.26928E-02
         0.26928E-02
         0.26928E-02
         0.26928E-02
         0.26928E-02
         0.26928E-02
         0.26928E-02
         0.26928E-02
         0.26928E-02
         0.26928E-02
         0.26928E-02
         0.26928E-02
         0.26928E-02
         0.26928E-02
         0.26928E-02
         0.26928E-02
         0.26928E-02
         0.26928E-02
         0.26928E-02
         0.26928E-02
         0.26928E-02
         0.26928E-02
         0.26928E-02
         0.26928E-02
         0.26928E-02
         0.26928E-02
         0.26928E-02
         0.26928E-02
         0.26928E-02
         0.26928E-02
         0.26928E-02
         0.26928E-02
         0.26928E-02
         0.26928E-02
         0.26928E-02
         0.26928E-02
         0.26928E-02
         0.26928E-02
         0.26928E-02
         0.26928E-02
         0.26928E-02
         0.26928E-02
         0.26927E-02
         0.26927E-02
         0.26927E-02
         0.26927E-02
         0.26927E-02
         0.26927E-02
         0.26927E-02
         0.26927E-02
         0.26927E-02
         0.26927E-02
         0.26927E-02
         0.26927E-02
         0.26927E-02
         0.26927E-02
         0.26927E-02
         0.26927E-02
         0.26927E-02
         0.26927E-02
         0.26927E-02
         0.26927E-02
         0.26927E-02
         0.26927E-02
         0.26927E-02
         0.26927E-02
         0.26927E-02
         0.26927E-02
         0.26927E-02
         0.26927E-02
         0.26927E-02
         0.26927E-02
         0.26927E-02
         0.26927E-02
         0.26927E-02
         0.26927E-02
         0.26927E-02
         0.26927E-02
         0.26927E-02
         0.26927E-02
         0.26927E-02
         0.26927E-02
         0.26927E-02
         0.26927E-02
         0.26927E-02
         0.26927E-02
         0.26927E-02
         0.26927E-02
         0.26927E-02
         0.26927E-02
         0.26927E-02
         0.26927E-02
         0.26927E-02
         0.26927E-02
         0.26927E-02
         0.26927E-02
         0.26927E-02
         0.26927E-02
         0.26927E-02
         0.26927E-02
         0.26927E-02
         0.26927E-02
         0.26927E-02
         0.26927E-02
         0.26927E-02
         0.26927E-02
         0.26927E-02
         0.26927E-02
         0.26927E-02
         0.26927E-02
         0.26927E-02
         0.26927E-02
         0.26927E-02
         0.26927E-02
         0.26927E-02
         0.26927E-02
         0.26927E-02
         0.26927E-02
         0.26927E-02
         0.26927E-02
         0.26927E-02
         0.26927E-02
         0.26927E-02
         0.26927E-02
         0.26927E-02
         0.26927E-02
         0.26927E-02
         0.26927E-02
         0.26927E-02
         0.26927E-02
         0.26927E-02
         0.26927E-02
         0.26927E-02
         0.26927E-02
         0.26927E-02
         0.26927E-02
         0.26927E-02
         0.26927E-02
         0.26927E-02
         0.26927E-02
         0.26927E-02
         0.26927E-02
         0.26927E-02
         0.26927E-02
         0.26927E-02
         0.26927E-02
         0.26927E-02
         0.26927E-02
         0.26927E-02
         0.26927E-02
         0.26927E-02
         0.26927E-02
         0.26927E-02
         0.26927E-02
         0.26927E-02
         0.26927E-02
         0.26927E-02
         0.26927E-02
         0.26927E-02
         0.26927E-02
         0.26927E-02
         0.26927E-02
         0.26927E-02
         0.26927E-02
         0.26927E-02
         0.26927E-02
         0.26927E-02
         0.26927E-02
         0.26927E-02
         0.26927E-02
         0.26927E-02
         0.26927E-02
         0.26927E-02
         0.26927E-02
         0.26927E-02
         0.26927E-02
         0.26927E-02
         0.26927E-02
         0.26927E-02
         0.26927E-02
         0.26927E-02
         0.26927E-02
         0.26927E-02
         0.26927E-02
         0.26927E-02
         0.26927E-02
         0.26927E-02
         0.26927E-02
         0.26927E-02
         0.26927E-02
         0.26927E-02
         0.26927E-02
         0.26927E-02
         0.26927E-02
         0.26927E-02
         0.26927E-02
         0.26927E-02
         0.26927E-02
         0.26927E-02
         0.26927E-02
         0.26927E-02
         0.26927E-02
         0.26927E-02
         0.26927E-02
         0.26927E-02
         0.26927E-02
         0.26927E-02
         0.26927E-02
         0.26927E-02
         0.26927E-02
         0.26927E-02
         0.26927E-02
         0.26927E-02
         0.26927E-02
         0.26927E-02
         0.26927E-02
         0.26927E-02
         0.26927E-02
         0.26927E-02
         0.26927E-02
         0.26927E-02
         0.26927E-02
         0.26927E-02
         0.26927E-02
         0.26927E-02
         0.26927E-02
         0.26927E-02
         0.26927E-02
         0.26927E-02
         0.26927E-02
         0.26927E-02
         0.26927E-02
         0.26927E-02
         0.26927E-02
         0.26927E-02
         0.26927E-02
         0.26927E-02
         0.26927E-02
         0.26927E-02
         0.26927E-02
         0.26927E-02
         0.26927E-02
         0.26927E-02
         0.26927E-02
         0.26927E-02
         0.26927E-02
         0.26927E-02
         0.26927E-02
         0.26927E-02
         0.26927E-02
         0.26927E-02
         0.26927E-02
         0.26927E-02
         0.26927E-02
         0.26927E-02
         0.26927E-02
         0.26927E-02
         0.26927E-02
         0.26927E-02
         0.26927E-02
         0.26927E-02
         0.26927E-02
         0.26927E-02
         0.26927E-02
         0.26927E-02
         0.26927E-02
         0.26927E-02
         0.26927E-02
         0.26927E-02
         0.26927E-02
         0.26927E-02
         0.26927E-02
         0.26927E-02
         0.26927E-02
         0.26927E-02
         0.26927E-02
         0.26927E-02
         0.26927E-02
         0.26927E-02
         0.26927E-02
         0.26927E-02
         0.26927E-02
         0.26927E-02
         0.26927E-02
         0.26927E-02
         0.26927E-02
         0.26927E-02
         0.26927E-02
         0.26927E-02
         0.26927E-02
         0.26927E-02
         0.26927E-02
         0.26927E-02
         0.26927E-02
         0.26927E-02
         0.26927E-02
         0.26927E-02
         0.26927E-02
         0.26927E-02
         0.26927E-02
         0.26927E-02
         0.26927E-02
         0.26927E-02
         0.26927E-02
         0.26927E-02
         0.26927E-02
         0.26927E-02
         0.26927E-02
         0.26927E-02
         0.26927E-02
         0.26927E-02
         0.26927E-02
         0.26927E-02
         0.26927E-02
         0.26927E-02
         0.26927E-02
         0.26927E-02
         0.26927E-02
         0.26927E-02
         0.26927E-02
         0.26927E-02
         0.26927E-02
         0.26927E-02
         0.26927E-02
         0.26927E-02
         0.26927E-02
         0.26927E-02
         0.26927E-02
         0.26927E-02
         0.26927E-02
         0.26927E-02
         0.26927E-02
         0.26927E-02
         0.26927E-02
         0.26927E-02
         0.26927E-02
         0.26927E-02
         0.26927E-02
         0.26927E-02
         0.26927E-02
         0.26927E-02
         0.26927E-02
         0.26927E-02
         0.26927E-02
         0.26927E-02
         0.26927E-02
         0.26927E-02
         0.26927E-02
         0.26927E-02
         0.26927E-02
         0.26927E-02
         0.26927E-02
         0.26927E-02
         0.26927E-02
         0.26927E-02
         0.26927E-02
         0.26927E-02
         0.26927E-02
         0.26927E-02
         0.26927E-02
         0.26927E-02
         0.26927E-02
         0.26927E-02
         0.26927E-02
         0.26927E-02
         0.26927E-02
         0.26927E-02
         0.26927E-02
         0.26927E-02
         0.26927E-02
         0.26927E-02
         0.26927E-02
         0.26927E-02
         0.26927E-02
         0.26927E-02
         0.26927E-02
         0.26927E-02
         0.26927E-02
         0.26927E-02
         0.26927E-02
         0.26927E-02
         0.26927E-02
         0.26927E-02
         0.26927E-02
         0.26927E-02
         0.26927E-02
         0.26927E-02
         0.26927E-02
         0.26927E-02
         0.26927E-02
         0.26927E-02
         0.26927E-02
         0.26927E-02
         0.26927E-02
         0.26927E-02
         0.26927E-02
         0.26927E-02
         0.26927E-02
         0.26927E-02
         0.26927E-02
         0.26927E-02
         0.26927E-02
         0.26927E-02
         0.26927E-02
         0.26927E-02
         0.26927E-02
         0.26927E-02
         0.26927E-02
         0.26927E-02
         0.26927E-02
         0.26927E-02
         0.26927E-02
         0.26927E-02
         0.26927E-02
         0.26927E-02
         0.26927E-02
         0.26927E-02
         0.26927E-02
         0.26927E-02
         0.26927E-02
         0.26927E-02
         0.26927E-02
         0.26927E-02
         0.26927E-02
         0.26927E-02
         0.26927E-02
         0.26927E-02
         0.26927E-02
         0.26927E-02
         0.26927E-02
         0.26927E-02
         0.26927E-02
         0.26927E-02
         0.26927E-02
         0.26927E-02
         0.26927E-02
         0.26927E-02
         0.26927E-02
         0.26927E-02
         0.26927E-02
         0.26927E-02
         0.26927E-02
         0.26927E-02
         0.26927E-02
         0.26927E-02
         0.26927E-02
         0.26927E-02
         0.26927E-02
         0.26927E-02
         0.26927E-02
         0.26927E-02
         0.26927E-02
         0.26927E-02
         0.26927E-02
         0.26927E-02
         0.26927E-02
         0.26927E-02
         0.26927E-02
         0.26927E-02
         0.26927E-02
         0.26927E-02
         0.26927E-02
         0.26927E-02
         0.26927E-02
         0.26927E-02
         0.26927E-02
         0.26927E-02
         0.26927E-02
         0.26927E-02
         0.26927E-02
         0.26927E-02
         0.26927E-02
         0.26927E-02
         0.26927E-02
         0.26927E-02
         0.26927E-02
         0.26927E-02
         0.26927E-02
         0.26927E-02
         0.26927E-02
         0.26927E-02
         0.26927E-02
         0.26927E-02
         0.26927E-02
         0.26927E-02
         0.26927E-02
         0.26927E-02
         0.26927E-02
         0.26927E-02
         0.26927E-02
         0.26927E-02
         0.26927E-02
         0.26927E-02
         0.26927E-02
         0.26927E-02
         0.26927E-02
         0.26927E-02
         0.26927E-02
         0.26927E-02
         0.26927E-02
         0.26927E-02
         0.26927E-02
         0.26927E-02
         0.26927E-02
         0.26927E-02
         0.26927E-02
         0.26927E-02
         0.26927E-02
         0.26927E-02
         0.26927E-02
         0.26927E-02
         0.26927E-02
         0.26927E-02
         0.26927E-02
         0.26927E-02
         0.26927E-02
         0.26927E-02
         0.26927E-02
         0.26927E-02
         0.26927E-02
         0.26927E-02
         0.26927E-02
         0.26927E-02
         0.26927E-02
         0.26927E-02
         0.26927E-02
         0.26927E-02
         0.26927E-02
         0.26927E-02
         0.26927E-02
         0.26927E-02
         0.26927E-02
         0.26927E-02
         0.26927E-02
         0.26927E-02
         0.26927E-02
         0.26927E-02
         0.26927E-02
         0.26927E-02
         0.26927E-02
         0.26927E-02
         0.26927E-02
         0.26927E-02
         0.26927E-02
         0.26927E-02
         0.26927E-02
         0.26927E-02
         0.26927E-02
         0.26927E-02
         0.26927E-02
         0.26927E-02
         0.26927E-02
         0.26927E-02
         0.26927E-02
         0.26927E-02
         0.26927E-02
         0.26927E-02
         0.26927E-02
         0.26927E-02
         0.26927E-02
         0.26927E-02
         0.26927E-02
         0.26927E-02
         0.26927E-02
         0.26927E-02
         0.26927E-02
         0.26927E-02
         0.26927E-02
         0.26927E-02
         0.26927E-02
         0.26927E-02
         0.26927E-02
         0.26927E-02
         0.26927E-02
         0.26927E-02
         0.26927E-02
         0.26927E-02
         0.26927E-02
         0.26927E-02
         0.26927E-02
         0.26927E-02
         0.26927E-02
         0.26927E-02
         0.26927E-02
         0.26927E-02
         0.26927E-02
         0.26927E-02
         0.26927E-02
         0.26927E-02
         0.26927E-02
         0.26927E-02
         0.26927E-02
         0.26927E-02
         0.26927E-02
         0.26927E-02
         0.26927E-02
         0.26927E-02
         0.26927E-02
         0.26927E-02
         0.26927E-02
         0.26927E-02
         0.26927E-02
         0.26927E-02
         0.26927E-02
         0.26927E-02
         0.26927E-02
         0.26927E-02
         0.26927E-02
         0.26927E-02
         0.26927E-02
         0.26927E-02
         0.26927E-02
         0.26927E-02
         0.26927E-02
         0.26927E-02
         0.26927E-02
         0.26927E-02
         0.26927E-02
         0.26927E-02
         0.26927E-02
         0.26927E-02
         0.26927E-02
         0.26927E-02
         0.26927E-02
         0.26927E-02
         0.26927E-02
         0.26927E-02
         0.26927E-02
         0.26927E-02
         0.26927E-02
         0.26927E-02
         0.26927E-02
         0.26927E-02
         0.26927E-02
         0.26927E-02
         0.26927E-02
         0.26927E-02
         0.26927E-02
         0.26927E-02
         0.26927E-02
         0.26927E-02
         0.26927E-02
         0.26927E-02
         0.26927E-02
         0.26927E-02
         0.26927E-02
         0.26927E-02
         0.26927E-02
         0.26927E-02
         0.26927E-02
         0.26927E-02
         0.26927E-02
         0.26927E-02
         0.26927E-02
         0.26927E-02
         0.26927E-02
         0.26927E-02
         0.26927E-02
         0.26927E-02
         0.26927E-02
         0.26927E-02
         0.26927E-02
         0.26927E-02
         0.26927E-02
         0.26927E-02
         0.26927E-02
         0.26927E-02
         0.26927E-02
         0.26927E-02
         0.26927E-02
         0.26927E-02
         0.26927E-02
         0.26927E-02
         0.26927E-02
         0.26927E-02
         0.26927E-02
         0.26927E-02
         0.26927E-02
         0.26927E-02
         0.26927E-02
         0.26927E-02
         0.26927E-02
         0.26927E-02
         0.26927E-02
         0.26927E-02
         0.26927E-02
         0.26927E-02
         0.26927E-02
         0.26927E-02
         0.26927E-02
         0.26927E-02
         0.26927E-02
         0.26927E-02
         0.26927E-02
         0.26927E-02
         0.26927E-02
         0.26927E-02
         0.26927E-02
         0.26927E-02
         0.26927E-02
         0.26927E-02
         0.26927E-02
         0.26927E-02
         0.26927E-02
         0.26927E-02
         0.26927E-02
         0.26927E-02
         0.26927E-02
         0.26927E-02
         0.26927E-02
         0.26927E-02
         0.26927E-02
         0.26927E-02
         0.26927E-02
         0.26927E-02
         0.26927E-02
         0.26927E-02
         0.26927E-02
         0.26927E-02
         0.26927E-02
         0.26927E-02
         0.26927E-02
         0.26927E-02
         0.26927E-02
         0.26927E-02
         0.26927E-02
         0.26927E-02
         0.26927E-02
         0.26927E-02
         0.26927E-02
         0.26927E-02
         0.26927E-02
         0.26927E-02
         0.26927E-02
         0.26927E-02
         0.26927E-02
         0.26927E-02
         0.26927E-02
         0.26927E-02
         0.26927E-02
         0.26927E-02
         0.26927E-02
         0.26927E-02
         0.26927E-02
         0.26927E-02
         0.26927E-02
         0.26927E-02
         0.26927E-02
         0.26927E-02
         0.26927E-02
         0.26927E-02
         0.26927E-02
         0.26927E-02
         0.26927E-02
         0.26927E-02
         0.26927E-02
         0.26927E-02
         0.26927E-02
         0.26927E-02
         0.26927E-02
         0.26927E-02
         0.26927E-02
         0.26927E-02
         0.26927E-02
         0.26927E-02
         0.26927E-02
         0.26927E-02
         0.26927E-02
         0.26927E-02
         0.26927E-02
         0.26927E-02
         0.26927E-02
         0.26927E-02
         0.26927E-02
         0.26927E-02
         0.26927E-02
         0.26927E-02
         0.26927E-02
         0.26927E-02
         0.26927E-02
         0.26927E-02
         0.26927E-02
         0.26927E-02
         0.26927E-02
         0.26927E-02
         0.26927E-02
         0.26927E-02
         0.26927E-02
         0.26927E-02
         0.26927E-02
         0.26927E-02
         0.26927E-02
         0.26927E-02
         0.26927E-02
         0.26927E-02
         0.26927E-02
         0.26927E-02
         0.26927E-02
         0.26927E-02
         0.26927E-02
         0.26927E-02
         0.26927E-02
         0.26927E-02
         0.26927E-02
         0.26927E-02
         0.26927E-02
         0.26927E-02
         0.26927E-02
         0.26927E-02
         0.26927E-02
         0.26927E-02
         0.26927E-02
         0.26927E-02
         0.26927E-02
         0.26927E-02
         0.26927E-02
         0.26927E-02
         0.26927E-02
         0.26927E-02
         0.26927E-02
         0.26927E-02
         0.26927E-02
         0.26927E-02
         0.26927E-02
         0.26927E-02
         0.26927E-02
         0.26927E-02
         0.26927E-02
         0.26927E-02
         0.26927E-02
         0.26927E-02
         0.26927E-02
         0.26927E-02
         0.26927E-02
         0.26927E-02
         0.26927E-02
         0.26927E-02
         0.26927E-02
         0.26927E-02
         0.26927E-02
         0.26927E-02
         0.26927E-02
         0.26927E-02
         0.26927E-02
         0.26927E-02
         0.26927E-02
         0.26927E-02
         0.26927E-02
         0.26927E-02
         0.26927E-02
         0.26927E-02
         0.26927E-02
         0.26927E-02
         0.26927E-02
         0.26927E-02
         0.26927E-02
         0.26927E-02
         0.26927E-02
         0.26927E-02
         0.26927E-02
         0.26927E-02
         0.26927E-02
         0.26927E-02
         0.26927E-02
         0.26927E-02
         0.26927E-02
         0.26927E-02
         0.26927E-02
         0.26927E-02
         0.26927E-02
         0.26927E-02
         0.26927E-02
         0.26927E-02
         0.26927E-02
         0.26927E-02
         0.26927E-02
         0.26927E-02
         0.26927E-02
         0.26927E-02
         0.26927E-02
         0.26927E-02
         0.26927E-02
         0.26927E-02
         0.26927E-02
         0.26927E-02
         0.26927E-02
         0.26927E-02
         0.26927E-02
         0.26927E-02
         0.26927E-02
         0.26927E-02
         0.26927E-02
         0.26927E-02
         0.26927E-02
         0.26927E-02
         0.26927E-02
         0.26927E-02
         0.26927E-02
         0.26927E-02
         0.26927E-02
         0.26927E-02
         0.26927E-02
         0.26927E-02
         0.26927E-02
         0.26927E-02
         0.26927E-02
         0.26927E-02
         0.26927E-02
         0.26927E-02
         0.26927E-02
         0.26927E-02
         0.26927E-02
         0.26927E-02
         0.26927E-02
         0.26927E-02
         0.26927E-02
         0.26927E-02
         0.26927E-02
         0.26927E-02
         0.26927E-02
         0.26927E-02
         0.26927E-02
         0.26927E-02
         0.26927E-02
         0.26927E-02
         0.26927E-02
         0.26927E-02
         0.26927E-02
         0.26927E-02
         0.26927E-02
         0.26927E-02
         0.26927E-02
         0.26927E-02
         0.26927E-02
         0.26927E-02
         0.26927E-02
         0.26927E-02
         0.26927E-02
         0.26927E-02
         0.26927E-02
         0.26927E-02
         0.26927E-02
         0.26927E-02
         0.26927E-02
         0.26927E-02
         0.26927E-02
         0.26927E-02
         0.26927E-02
         0.26927E-02
         0.26927E-02
         0.26927E-02
         0.26927E-02
         0.26927E-02
         0.26927E-02
         0.26927E-02
         0.26927E-02
         0.26927E-02
         0.26927E-02
         0.26927E-02
         0.26927E-02
         0.26927E-02
         0.26927E-02
         0.26927E-02
         0.26927E-02
         0.26927E-02
         0.26927E-02
         0.26927E-02
         0.26927E-02
         0.26927E-02
         0.26927E-02
         0.26927E-02
         0.26927E-02
         0.26927E-02
         0.26927E-02
         0.26927E-02
         0.26927E-02
         0.26927E-02
         0.26927E-02
         0.26927E-02
         0.26927E-02
         0.26927E-02
         0.26927E-02
         0.26927E-02
         0.26927E-02
         0.26927E-02
         0.26927E-02
         0.26927E-02
         0.26927E-02
         0.26927E-02
         0.26927E-02
         0.26927E-02
         0.26927E-02
         0.26927E-02
         0.26927E-02
         0.26927E-02
         0.26927E-02
         0.26927E-02
         0.26927E-02
         0.26927E-02
         0.26927E-02
         0.26927E-02
         0.26927E-02
         0.26927E-02
         0.26927E-02
         0.26927E-02
         0.26927E-02
         0.26927E-02
         0.26927E-02
         0.26927E-02
         0.26927E-02
         0.26927E-02
         0.26927E-02
         0.26927E-02
         0.26927E-02
         0.26927E-02
         0.26927E-02
         0.26927E-02
         0.26927E-02
         0.26927E-02
         0.26927E-02
         0.26927E-02
         0.26927E-02
         0.26927E-02
         0.26927E-02
         0.26927E-02
         0.26927E-02
         0.26927E-02
         0.26927E-02
         0.26927E-02
         0.26927E-02
         0.26927E-02
         0.26927E-02
         0.26927E-02
         0.26927E-02
         0.26927E-02
         0.26927E-02
         0.26927E-02
         0.26927E-02
         0.26927E-02
         0.26927E-02
         0.26927E-02
         0.26927E-02
         0.26927E-02
         0.26927E-02
         0.26927E-02
         0.26927E-02
         0.26927E-02
         0.26927E-02
         0.26927E-02
         0.26927E-02
         0.26927E-02
         0.26927E-02
         0.26927E-02
         0.26927E-02
         0.26927E-02
         0.26927E-02
         0.26927E-02
         0.26927E-02
         0.26927E-02
         0.26927E-02
         0.26927E-02
         0.26927E-02
         0.26927E-02
         0.26927E-02
         0.26927E-02
         0.26927E-02
         0.26927E-02
         0.26927E-02
         0.26927E-02
         0.26927E-02
         0.26927E-02
         0.26927E-02
         0.26927E-02
         0.26927E-02
         0.26927E-02
         0.26927E-02
         0.26927E-02
         0.26927E-02
         0.26927E-02
         0.26927E-02
         0.26927E-02
         0.26927E-02
         0.26927E-02
         0.26927E-02
         0.26927E-02
         0.26927E-02
         0.26927E-02
         0.26927E-02
         0.26927E-02
         0.26927E-02
         0.26927E-02
         0.26927E-02
         0.26927E-02
         0.26927E-02
         0.26927E-02
         0.26927E-02
         0.26927E-02
         0.26927E-02
         0.26927E-02
         0.26927E-02
         0.26927E-02
         0.26927E-02
         0.26927E-02
         0.26927E-02
         0.26927E-02
         0.26927E-02
         0.26927E-02
         0.26927E-02
         0.26927E-02
         0.26927E-02
         0.26927E-02
         0.26927E-02
         0.26927E-02
         0.26927E-02
         0.26927E-02
         0.26927E-02
         0.26927E-02
         0.26927E-02
         0.26927E-02
         0.26927E-02
         0.26927E-02
         0.26927E-02
         0.26927E-02
         0.26927E-02
         0.26927E-02
         0.26927E-02
         0.26927E-02
         0.26927E-02
         0.26927E-02
         0.26927E-02
         0.26927E-02
         0.26927E-02
         0.26927E-02
         0.26927E-02
         0.26927E-02
         0.26927E-02
         0.26927E-02
         0.26927E-02
         0.26927E-02
         0.26927E-02
         0.26927E-02
         0.26927E-02
         0.26927E-02
         0.26927E-02
         0.26927E-02
         0.26927E-02
         0.26927E-02
         0.26927E-02
         0.26927E-02
         0.26927E-02
         0.26927E-02
         0.26927E-02
         0.26927E-02
         0.26927E-02
         0.26927E-02
         0.26927E-02
         0.26927E-02
         0.26927E-02
         0.26927E-02
         0.26927E-02
         0.26927E-02
         0.26927E-02
         0.26927E-02
         0.26927E-02
         0.26927E-02
         0.26927E-02
         0.26927E-02
         0.26927E-02
         0.26927E-02
         0.26927E-02
         0.26927E-02
         0.26927E-02
         0.26927E-02
         0.26927E-02
         0.26927E-02
         0.26927E-02
         0.26927E-02
         0.26927E-02
         0.26927E-02
         0.26927E-02
         0.26927E-02
         0.26927E-02
         0.26927E-02
         0.26927E-02
         0.26927E-02
         0.26927E-02
         0.26927E-02
         0.26927E-02
         0.26927E-02
         0.26927E-02
         0.26927E-02
         0.26927E-02
         0.26927E-02
         0.26927E-02
         0.26927E-02
         0.26927E-02
         0.26927E-02
         0.26927E-02
         0.26927E-02
         0.26927E-02
         0.26927E-02
         0.26927E-02
         0.26927E-02
         0.26927E-02
         0.26927E-02
         0.26927E-02
         0.26927E-02
         0.26927E-02
         0.26927E-02
         0.26927E-02
         0.26927E-02
         0.26927E-02
         0.26927E-02
         0.26927E-02
         0.26927E-02
         0.26927E-02
         0.26927E-02
         0.26927E-02
         0.26927E-02
         0.26927E-02
         0.26927E-02
         0.26927E-02
         0.26927E-02
         0.26927E-02
         0.26927E-02
         0.26927E-02
         0.26927E-02
         0.26927E-02
         0.26927E-02
         0.26927E-02
         0.26927E-02
         0.26927E-02
         0.26927E-02
         0.26927E-02
         0.26927E-02
         0.26927E-02
         0.26927E-02
         0.26927E-02
         0.26927E-02
         0.26927E-02
         0.26927E-02
         0.26927E-02
         0.26927E-02
         0.26927E-02
         0.26927E-02
         0.26927E-02
         0.26927E-02
         0.26927E-02
         0.26927E-02
         0.26927E-02
         0.26927E-02
         0.26927E-02
         0.26927E-02
         0.26927E-02
         0.26927E-02
         0.26927E-02
         0.26927E-02
         0.26927E-02
         0.26927E-02
         0.26927E-02
         0.26927E-02
         0.26927E-02
         0.26927E-02
         0.26927E-02
         0.26927E-02
         0.26927E-02
         0.26927E-02
         0.26927E-02
         0.26927E-02
         0.26927E-02
         0.26927E-02
         0.26927E-02
         0.26927E-02
         0.26927E-02
         0.26927E-02
         0.26927E-02
         0.26927E-02
         0.26927E-02
         0.26927E-02
         0.26927E-02
         0.26927E-02
         0.26927E-02
         0.26927E-02
         0.26927E-02
         0.26927E-02
         0.26927E-02
         0.26927E-02
         0.26927E-02
         0.26927E-02
         0.26927E-02
         0.26927E-02
         0.26927E-02
         0.26927E-02
         0.26927E-02
         0.26927E-02
         0.26927E-02
         0.26927E-02
         0.26927E-02
         0.26927E-02
         0.26927E-02
         0.26927E-02
         0.26927E-02
         0.26927E-02
         0.26927E-02
         0.26927E-02
         0.26927E-02
         0.26927E-02
         0.26927E-02
         0.26927E-02
         0.26927E-02
         0.26927E-02
         0.26927E-02
         0.26927E-02
         0.26927E-02
         0.26927E-02
         0.26927E-02
         0.26927E-02
         0.26927E-02
         0.26927E-02
         0.26927E-02
         0.26927E-02
         0.26927E-02
         0.26927E-02
         0.26927E-02
         0.26927E-02
         0.26927E-02
         0.26927E-02
         0.26927E-02
         0.26927E-02
         0.26927E-02
         0.26927E-02
         0.26927E-02
         0.26927E-02
         0.26927E-02
         0.26927E-02
         0.26927E-02
         0.26927E-02
         0.26927E-02
         0.26927E-02
         0.26927E-02
         0.26927E-02
         0.26927E-02
         0.26927E-02
         0.26927E-02
         0.26927E-02
         0.26927E-02
         0.26927E-02
         0.26927E-02
         0.26927E-02
         0.26927E-02
         0.26927E-02
         0.26927E-02
         0.26927E-02
         0.26927E-02
         0.26927E-02
         0.26927E-02
         0.26927E-02
         0.26927E-02
         0.26927E-02
         0.26927E-02
         0.26927E-02
         0.26927E-02
         0.26927E-02
         0.26927E-02
         0.26927E-02
         0.26927E-02
         0.26927E-02
         0.26927E-02
         0.26927E-02
         0.26927E-02
         0.26927E-02
         0.26927E-02
         0.26927E-02
         0.26927E-02
         0.26927E-02
         0.26927E-02
         0.26927E-02
         0.26927E-02
         0.26927E-02
         0.26927E-02
         0.26927E-02
         0.26927E-02
         0.26927E-02
         0.26927E-02
         0.26927E-02
         0.26927E-02
         0.26927E-02
         0.26927E-02
         0.26927E-02
         0.26927E-02
         0.26927E-02
         0.26927E-02
         0.26927E-02
         0.26927E-02
         0.26927E-02
         0.26927E-02
         0.26927E-02
         0.26927E-02
         0.26927E-02
         0.26927E-02
         0.26927E-02
         0.26927E-02
         0.26927E-02
         0.26927E-02
         0.26927E-02
         0.26927E-02
         0.26927E-02
         0.26927E-02
         0.26927E-02
         0.26927E-02
         0.26927E-02
         0.26927E-02
         0.26927E-02
         0.26927E-02
         0.26927E-02
         0.26927E-02
         0.26927E-02
         0.26927E-02
         0.26927E-02
         0.26927E-02
         0.26927E-02
         0.26927E-02
         0.26927E-02
         0.26927E-02
         0.26927E-02
         0.26927E-02
         0.26927E-02
         0.26927E-02
         0.26927E-02
         0.26927E-02
         0.26927E-02
         0.26927E-02
         0.26927E-02
         0.26927E-02
         0.26927E-02
         0.26927E-02
         0.26927E-02
         0.26927E-02
         0.26927E-02
         0.26927E-02
         0.26927E-02
         0.26927E-02
         0.26927E-02
         0.26927E-02
         0.26927E-02
         0.26927E-02
         0.26927E-02
         0.26927E-02
         0.26927E-02
         0.26927E-02
         0.26927E-02
         0.26927E-02
         0.26927E-02
         0.26927E-02
         0.26927E-02
         0.26927E-02
         0.26927E-02
         0.26927E-02
         0.26927E-02
         0.26927E-02
         0.26927E-02
         0.26927E-02
         0.26927E-02
         0.26927E-02
         0.26927E-02
         0.26927E-02
         0.26927E-02
         0.26927E-02
         0.26927E-02
         0.26927E-02
         0.26927E-02
         0.26927E-02
         0.26927E-02
         0.26927E-02
         0.26927E-02
         0.26927E-02
         0.26927E-02
         0.26927E-02
         0.26927E-02
         0.26927E-02
         0.26927E-02
         0.26927E-02
         0.26927E-02
         0.26927E-02
         0.26927E-02
         0.26927E-02
         0.26927E-02
         0.26927E-02
         0.26927E-02
         0.26927E-02
         0.26927E-02
         0.26927E-02
         0.26927E-02
         0.26927E-02
         0.26927E-02
         0.26927E-02
         0.26927E-02
         0.26927E-02
         0.26927E-02
         0.26927E-02
         0.26927E-02
         0.26927E-02
         0.26927E-02
         0.26927E-02
         0.26927E-02
         0.26927E-02
         0.26927E-02
         0.26927E-02
         0.26927E-02
         0.26927E-02
         0.26927E-02
         0.26927E-02
         0.26927E-02
         0.26927E-02
         0.26927E-02
         0.26927E-02
         0.26927E-02
         0.26927E-02
         0.26927E-02
         0.26927E-02
         0.26927E-02
         0.26927E-02
         0.26927E-02
         0.26927E-02
         0.26927E-02
         0.26927E-02
         0.26927E-02
         0.26927E-02
         0.26927E-02
         0.26927E-02
         0.26927E-02
         0.26927E-02
         0.26927E-02
         0.26927E-02
         0.26927E-02
         0.26927E-02
         0.26927E-02
         0.26927E-02
         0.26927E-02
         0.26927E-02
         0.26927E-02
         0.26927E-02
         0.26927E-02
         0.26927E-02
         0.26927E-02
         0.26927E-02
         0.26927E-02
         0.26927E-02
         0.26927E-02
         0.26927E-02
         0.26927E-02
         0.26927E-02
         0.26927E-02
         0.26927E-02
         0.26927E-02
         0.26927E-02
         0.26927E-02
         0.26927E-02
         0.26927E-02
         0.26927E-02
         0.26927E-02
         0.26927E-02
         0.26927E-02
         0.26927E-02
         0.26927E-02
         0.26927E-02
         0.26927E-02
         0.26927E-02
         0.26927E-02
         0.26927E-02
         0.26927E-02
         0.26927E-02
         0.26927E-02
         0.26927E-02
         0.26927E-02
         0.26927E-02
         0.26927E-02
         0.26927E-02
         0.26927E-02
         0.26927E-02
         0.26927E-02
         0.26927E-02
         0.26927E-02
         0.26927E-02
         0.26927E-02
         0.26927E-02
         0.26927E-02
         0.26927E-02
         0.26927E-02
         0.26927E-02
         0.26927E-02
         0.26927E-02
         0.26927E-02
         0.26927E-02
         0.26927E-02
         0.26927E-02
         0.26927E-02
         0.26927E-02
         0.26927E-02
         0.26927E-02
         0.26927E-02
         0.26927E-02
         0.26927E-02
         0.26927E-02
         0.26927E-02
         0.26927E-02
         0.26927E-02
         0.26927E-02
         0.26927E-02
         0.26927E-02
         0.26927E-02
         0.26927E-02
         0.26927E-02
         0.26927E-02
         0.26927E-02
         0.26927E-02
         0.26927E-02
         0.26927E-02
         0.26927E-02
         0.26927E-02
         0.26927E-02
         0.26927E-02
         0.26927E-02
         0.26927E-02
         0.26927E-02
         0.26927E-02
         0.26927E-02
         0.26927E-02
         0.26927E-02
         0.26927E-02
         0.26927E-02
         0.26927E-02
         0.26927E-02
         0.26927E-02
         0.26927E-02
         0.26927E-02
         0.26927E-02
         0.26927E-02
         0.26927E-02
         0.26927E-02
         0.26927E-02
         0.26927E-02
         0.26927E-02
         0.26927E-02
         0.26927E-02
         0.26927E-02
         0.26927E-02
         0.26927E-02
         0.26927E-02
         0.26927E-02
         0.26927E-02
         0.26927E-02
         0.26927E-02
         0.26927E-02
         0.26927E-02
         0.26927E-02
         0.26927E-02
         0.26927E-02
         0.26927E-02
         0.26927E-02
         0.26927E-02
         0.26927E-02
         0.26927E-02
         0.26927E-02
         0.26927E-02
         0.26927E-02
         0.26927E-02
         0.26927E-02
         0.26927E-02
         0.26927E-02
         0.26927E-02
         0.26927E-02
         0.26927E-02
         0.26927E-02
         0.26927E-02
         0.26927E-02
         0.26927E-02
         0.26927E-02
         0.26927E-02
         0.26927E-02
         0.26928E-02
         0.26928E-02
         0.26928E-02
         0.26928E-02
         0.26928E-02
         0.26928E-02
         0.26928E-02
         0.26928E-02
         0.26928E-02
         0.26928E-02
         0.26928E-02
         0.26928E-02
         0.26928E-02
         0.26928E-02
         0.26928E-02
         0.26928E-02
         0.26928E-02
         0.26928E-02
         0.26928E-02
         0.26928E-02
         0.26928E-02
         0.26928E-02
         0.26928E-02
         0.26928E-02
         0.26928E-02
         0.26928E-02
         0.26928E-02
         0.26928E-02
         0.26928E-02
         0.26928E-02
         0.26928E-02
         0.26928E-02
         0.26928E-02
         0.26928E-02
         0.26928E-02
         0.26928E-02
         0.26928E-02
         0.26928E-02
         0.26928E-02
         0.26928E-02
         0.26928E-02
         0.26928E-02
         0.26928E-02
         0.26928E-02
         0.26928E-02
         0.26928E-02
         0.26928E-02
         0.26928E-02
         0.26928E-02
         0.26928E-02
         0.26928E-02
         0.26928E-02
         0.26928E-02
         0.26928E-02
         0.26928E-02
         0.26928E-02
         0.26928E-02
         0.26928E-02
         0.26928E-02
         0.26928E-02
         0.26928E-02
         0.26928E-02
         0.26928E-02
         0.26928E-02
         0.26928E-02
         0.26928E-02
         0.26928E-02
         0.26928E-02
         0.26928E-02
         0.26928E-02
         0.26928E-02
         0.26928E-02
         0.26928E-02
         0.26928E-02
         0.26928E-02
         0.26928E-02
         0.26928E-02
         0.26928E-02
         0.26928E-02
         0.26928E-02
         0.26928E-02
         0.26928E-02
         0.26928E-02
         0.26928E-02
         0.26928E-02
         0.26928E-02
         0.26928E-02
         0.26928E-02
         0.26928E-02
         0.26928E-02
         0.26928E-02
         0.26928E-02
         0.26928E-02
         0.26928E-02
         0.26928E-02
         0.26928E-02
         0.26928E-02
         0.26928E-02
         0.26928E-02
         0.26928E-02
         0.26928E-02
         0.26928E-02
         0.26928E-02
         0.26928E-02
         0.26928E-02
         0.26928E-02
         0.26928E-02
         0.26928E-02
         0.26928E-02
         0.26928E-02
         0.26928E-02
         0.26928E-02
         0.26928E-02
         0.26928E-02
         0.26928E-02
         0.26928E-02
         0.26928E-02
         0.26928E-02
         0.26928E-02
         0.26928E-02
         0.26928E-02
         0.26928E-02
         0.26928E-02
         0.26928E-02
         0.26928E-02
         0.26928E-02
         0.26928E-02
         0.26928E-02
         0.26928E-02
         0.26928E-02
         0.26928E-02
         0.26928E-02
         0.26928E-02
         0.26928E-02
         0.26928E-02
         0.26928E-02
         0.26928E-02
         0.26928E-02
         0.26928E-02
         0.26928E-02
         0.26928E-02
         0.26928E-02
         0.26928E-02
         0.26928E-02
         0.26928E-02
         0.26928E-02
         0.26928E-02
         0.26928E-02
         0.26928E-02
         0.26928E-02
         0.26928E-02
         0.26928E-02
         0.26928E-02
         0.26928E-02
         0.26928E-02
         0.26928E-02
  
SCALARS                   nodal_volume  double 1
LOOKUP_TABLE default
         0.91140E-09
         0.72412E-09
         0.77574E-09
         0.13316E-08
         0.45570E-09
         0.36211E-09
         0.38787E-09
         0.66566E-09
         0.71537E-09
         0.91211E-09
         0.35767E-09
         0.45600E-09
         0.51195E-09
         0.61532E-09
         0.25605E-09
         0.30776E-09
         0.10101E-08
         0.74536E-09
         0.50500E-09
         0.37281E-09
         0.30273E-09
         0.57012E-09
         0.62699E-09
         0.15144E-09
         0.28509E-09
         0.31352E-09
         0.51329E-09
         0.64933E-09
         0.25683E-09
         0.32471E-09
         0.12026E-08
         0.93909E-09
         0.11935E-08
         0.60122E-09
         0.46945E-09
         0.59663E-09
         0.70296E-09
         0.80270E-09
         0.35149E-09
         0.40134E-09
         0.75859E-09
         0.84013E-09
         0.37932E-09
         0.42007E-09
         0.64542E-09
         0.40086E-09
         0.32274E-09
         0.20045E-09
         0.76288E-09
         0.38153E-09
         0.63346E-09
         0.31675E-09
         0.66583E-09
         0.33318E-09
         0.68008E-09
         0.34022E-09
         0.58930E-09
         0.71738E-09
         0.29472E-09
         0.35874E-09
         0.90938E-09
         0.64302E-09
         0.45469E-09
         0.32154E-09
         0.10152E-08
         0.50747E-09
         0.88120E-09
         0.44042E-09
         0.40077E-09
         0.61872E-09
         0.20039E-09
         0.30940E-09
         0.70206E-09
         0.35106E-09
         0.74172E-09
         0.37089E-09
         0.71539E-09
         0.35770E-09
         0.56226E-09
         0.28113E-09
         0.35349E-09
         0.58452E-09
         0.17675E-09
         0.29229E-09
         0.77354E-09
         0.38679E-09
         0.62469E-09
         0.31238E-09
         0.54957E-09
         0.27483E-09
         0.36009E-09
         0.61365E-09
         0.18007E-09
         0.30685E-09
         0.83268E-09
         0.41635E-09
         0.87287E-09
         0.43642E-09
         0.70438E-09
         0.35217E-09
         0.43365E-09
         0.74413E-09
         0.21683E-09
         0.37198E-09
         0.27660E-09
         0.35144E-09
         0.13833E-09
         0.17573E-09
         0.32921E-09
         0.16465E-09
         0.38764E-09
         0.19382E-09
         0.37797E-09
         0.18897E-09
         0.36707E-09
         0.18352E-09
         0.39112E-09
         0.19552E-09
         0.41268E-09
         0.20627E-09
         0.38876E-09
         0.19433E-09
         0.30402E-09
         0.15200E-09
         0.24796E-09
         0.12398E-09
         0.31999E-09
         0.16000E-09
         0.42608E-09
         0.21303E-09
         0.46805E-09
         0.23401E-09
         0.44933E-09
         0.22466E-09
         0.40550E-09
         0.20276E-09
         0.36826E-09
         0.18414E-09
         0.29911E-09
         0.14956E-09
         0.25178E-09
         0.12591E-09
         0.32888E-09
         0.16445E-09
         0.43529E-09
         0.21765E-09
         0.44963E-09
         0.22482E-09
         0.36384E-09
         0.18194E-09
         0.29543E-09
         0.14774E-09
         0.36126E-09
         0.18063E-09
         0.42771E-09
         0.21386E-09
         0.91143E-09
         0.72396E-09
         0.77579E-09
         0.13322E-08
         0.71547E-09
         0.91237E-09
         0.51167E-09
         0.61494E-09
         0.10105E-08
         0.74486E-09
         0.30244E-09
         0.57001E-09
         0.62694E-09
         0.51257E-09
         0.64918E-09
         0.12029E-08
         0.93950E-09
         0.11941E-08
         0.70298E-09
         0.80279E-09
         0.75855E-09
         0.84015E-09
         0.64535E-09
         0.40081E-09
         0.76254E-09
         0.63339E-09
         0.66483E-09
         0.67941E-09
         0.58904E-09
         0.71721E-09
         0.90946E-09
         0.64293E-09
         0.10157E-08
         0.88199E-09
         0.40076E-09
         0.61859E-09
         0.70195E-09
         0.74166E-09
         0.71543E-09
         0.56228E-09
         0.35349E-09
         0.58443E-09
         0.77349E-09
         0.62459E-09
         0.54943E-09
         0.35999E-09
         0.61359E-09
         0.83268E-09
         0.87299E-09
         0.70451E-09
         0.43366E-09
         0.74449E-09
         0.27651E-09
         0.35143E-09
         0.32904E-09
         0.38765E-09
         0.37805E-09
         0.36714E-09
         0.39129E-09
         0.41297E-09
         0.38899E-09
         0.30408E-09
         0.24798E-09
         0.31999E-09
         0.42613E-09
         0.46815E-09
         0.44938E-09
         0.40548E-09
         0.36823E-09
         0.29908E-09
         0.25174E-09
         0.32885E-09
         0.43527E-09
         0.44962E-09
         0.36376E-09
         0.29536E-09
         0.36130E-09
         0.42769E-09
         0.91151E-09
         0.72383E-09
         0.77587E-09
         0.13329E-08
         0.71560E-09
         0.91267E-09
         0.51142E-09
         0.61459E-09
         0.10109E-08
         0.74439E-09
         0.30216E-09
         0.56992E-09
         0.62691E-09
         0.51187E-09
         0.64906E-09
         0.12033E-08
         0.93995E-09
         0.11947E-08
         0.70302E-09
         0.80291E-09
         0.75853E-09
         0.84020E-09
         0.64530E-09
         0.40078E-09
         0.76223E-09
         0.63335E-09
         0.66385E-09
         0.67875E-09
         0.58880E-09
         0.71706E-09
         0.90957E-09
         0.64286E-09
         0.10162E-08
         0.88281E-09
         0.40076E-09
         0.61849E-09
         0.70188E-09
         0.74162E-09
         0.71550E-09
         0.56232E-09
         0.35350E-09
         0.58436E-09
         0.77347E-09
         0.62452E-09
         0.54931E-09
         0.35990E-09
         0.61355E-09
         0.83270E-09
         0.87315E-09
         0.70467E-09
         0.43368E-09
         0.74487E-09
         0.27643E-09
         0.35143E-09
         0.32889E-09
         0.38767E-09
         0.37814E-09
         0.36723E-09
         0.39147E-09
         0.41328E-09
         0.38923E-09
         0.30416E-09
         0.24800E-09
         0.32001E-09
         0.42620E-09
         0.46826E-09
         0.44944E-09
         0.40548E-09
         0.36821E-09
         0.29906E-09
         0.25171E-09
         0.32883E-09
         0.43527E-09
         0.44963E-09
         0.36369E-09
         0.29530E-09
         0.36135E-09
         0.42769E-09
         0.91156E-09
         0.72368E-09
         0.77594E-09
         0.13335E-08
         0.71571E-09
         0.91295E-09
         0.51115E-09
         0.61422E-09
         0.10112E-08
         0.74389E-09
         0.30187E-09
         0.56982E-09
         0.62686E-09
         0.51116E-09
         0.64892E-09
         0.12036E-08
         0.94038E-09
         0.11953E-08
         0.70304E-09
         0.80300E-09
         0.75850E-09
         0.84023E-09
         0.64523E-09
         0.40073E-09
         0.76190E-09
         0.63330E-09
         0.66285E-09
         0.67809E-09
         0.58855E-09
         0.71689E-09
         0.90966E-09
         0.64278E-09
         0.10168E-08
         0.88361E-09
         0.40076E-09
         0.61837E-09
         0.70178E-09
         0.74156E-09
         0.71554E-09
         0.56234E-09
         0.35350E-09
         0.58428E-09
         0.77343E-09
         0.62442E-09
         0.54918E-09
         0.35981E-09
         0.61349E-09
         0.83271E-09
         0.87328E-09
         0.70481E-09
         0.43369E-09
         0.74524E-09
         0.27634E-09
         0.35142E-09
         0.32873E-09
         0.38768E-09
         0.37823E-09
         0.36731E-09
         0.39163E-09
         0.41358E-09
         0.38945E-09
         0.30422E-09
         0.24802E-09
         0.32001E-09
         0.42625E-09
         0.46837E-09
         0.44949E-09
         0.40546E-09
         0.36819E-09
         0.29904E-09
         0.25167E-09
         0.32881E-09
         0.43526E-09
         0.44963E-09
         0.36362E-09
         0.29523E-09
         0.36139E-09
         0.42768E-09
         0.91161E-09
         0.72353E-09
         0.77600E-09
         0.13341E-08
         0.71583E-09
         0.91323E-09
         0.51088E-09
         0.61386E-09
         0.10116E-08
         0.74341E-09
         0.30158E-09
         0.56972E-09
         0.62682E-09
         0.51045E-09
         0.64879E-09
         0.12040E-08
         0.94081E-09
         0.11959E-08
         0.70307E-09
         0.80310E-09
         0.75847E-09
         0.84027E-09
         0.64517E-09
         0.40069E-09
         0.76158E-09
         0.63325E-09
         0.66186E-09
         0.67742E-09
         0.58831E-09
         0.71673E-09
         0.90975E-09
         0.64270E-09
         0.10173E-08
         0.88441E-09
         0.40075E-09
         0.61825E-09
         0.70169E-09
         0.74151E-09
         0.71559E-09
         0.56237E-09
         0.35350E-09
         0.58420E-09
         0.77339E-09
         0.62433E-09
         0.54905E-09
         0.35972E-09
         0.61344E-09
         0.83272E-09
         0.87341E-09
         0.70496E-09
         0.43370E-09
         0.74562E-09
         0.27626E-09
         0.35142E-09
         0.32857E-09
         0.38770E-09
         0.37832E-09
         0.36739E-09
         0.39181E-09
         0.41387E-09
         0.38968E-09
         0.30429E-09
         0.24804E-09
         0.32002E-09
         0.42631E-09
         0.46847E-09
         0.44954E-09
         0.40545E-09
         0.36816E-09
         0.29901E-09
         0.25163E-09
         0.32878E-09
         0.43525E-09
         0.44963E-09
         0.36354E-09
         0.29517E-09
         0.36144E-09
         0.42766E-09
         0.91167E-09
         0.72338E-09
         0.77607E-09
         0.13348E-08
         0.71594E-09
         0.91351E-09
         0.51062E-09
         0.61349E-09
         0.10119E-08
         0.74292E-09
         0.30129E-09
         0.56962E-09
         0.62678E-09
         0.50974E-09
         0.64865E-09
         0.12044E-08
         0.94125E-09
         0.11965E-08
         0.70310E-09
         0.80321E-09
         0.75844E-09
         0.84031E-09
         0.64511E-09
         0.40065E-09
         0.76125E-09
         0.63320E-09
         0.66087E-09
         0.67676E-09
         0.58806E-09
         0.71657E-09
         0.90984E-09
         0.64263E-09
         0.10179E-08
         0.88522E-09
         0.40075E-09
         0.61813E-09
         0.70160E-09
         0.74146E-09
         0.71564E-09
         0.56240E-09
         0.35350E-09
         0.58412E-09
         0.77336E-09
         0.62425E-09
         0.54892E-09
         0.35963E-09
         0.61339E-09
         0.83274E-09
         0.87355E-09
         0.70511E-09
         0.43371E-09
         0.74599E-09
         0.27618E-09
         0.35141E-09
         0.32841E-09
         0.38771E-09
         0.37841E-09
         0.36747E-09
         0.39198E-09
         0.41417E-09
         0.38992E-09
         0.30436E-09
         0.24806E-09
         0.32003E-09
         0.42637E-09
         0.46858E-09
         0.44960E-09
         0.40544E-09
         0.36814E-09
         0.29899E-09
         0.25159E-09
         0.32876E-09
         0.43525E-09
         0.44963E-09
         0.36347E-09
         0.29511E-09
         0.36148E-09
         0.42766E-09
         0.91171E-09
         0.72323E-09
         0.77613E-09
         0.13354E-08
         0.71606E-09
         0.91379E-09
         0.51035E-09
         0.61313E-09
         0.10123E-08
         0.74243E-09
         0.30101E-09
         0.56952E-09
         0.62674E-09
         0.50903E-09
         0.64851E-09
         0.12047E-08
         0.94167E-09
         0.11971E-08
         0.70312E-09
         0.80331E-09
         0.75840E-09
         0.84034E-09
         0.64504E-09
         0.40061E-09
         0.76092E-09
         0.63314E-09
         0.65988E-09
         0.67609E-09
         0.58781E-09
         0.71641E-09
         0.90993E-09
         0.64255E-09
         0.10184E-08
         0.88601E-09
         0.40075E-09
         0.61801E-09
         0.70151E-09
         0.74140E-09
         0.71569E-09
         0.56243E-09
         0.35350E-09
         0.58404E-09
         0.77332E-09
         0.62416E-09
         0.54879E-09
         0.35953E-09
         0.61334E-09
         0.83274E-09
         0.87368E-09
         0.70525E-09
         0.43372E-09
         0.74636E-09
         0.27609E-09
         0.35141E-09
         0.32825E-09
         0.38772E-09
         0.37849E-09
         0.36754E-09
         0.39215E-09
         0.41447E-09
         0.39014E-09
         0.30443E-09
         0.24808E-09
         0.32004E-09
         0.42642E-09
         0.46868E-09
         0.44965E-09
         0.40543E-09
         0.36812E-09
         0.29897E-09
         0.25155E-09
         0.32874E-09
         0.43524E-09
         0.44963E-09
         0.36340E-09
         0.29504E-09
         0.36153E-09
         0.42764E-09
         0.91176E-09
         0.72308E-09
         0.77620E-09
         0.13360E-08
         0.71617E-09
         0.91407E-09
         0.51008E-09
         0.61276E-09
         0.10126E-08
         0.74195E-09
         0.30072E-09
         0.56942E-09
         0.62670E-09
         0.50832E-09
         0.64838E-09
         0.12051E-08
         0.94210E-09
         0.11977E-08
         0.70314E-09
         0.80341E-09
         0.75837E-09
         0.84038E-09
         0.64498E-09
         0.40056E-09
         0.76060E-09
         0.63309E-09
         0.65888E-09
         0.67542E-09
         0.58756E-09
         0.71624E-09
         0.91002E-09
         0.64247E-09
         0.10189E-08
         0.88682E-09
         0.40074E-09
         0.61790E-09
         0.70142E-09
         0.74135E-09
         0.71574E-09
         0.56245E-09
         0.35351E-09
         0.58396E-09
         0.77328E-09
         0.62407E-09
         0.54866E-09
         0.35944E-09
         0.61329E-09
         0.83275E-09
         0.87382E-09
         0.70539E-09
         0.43373E-09
         0.74673E-09
         0.27601E-09
         0.35140E-09
         0.32809E-09
         0.38774E-09
         0.37858E-09
         0.36762E-09
         0.39232E-09
         0.41477E-09
         0.39037E-09
         0.30450E-09
         0.24810E-09
         0.32005E-09
         0.42648E-09
         0.46879E-09
         0.44970E-09
         0.40541E-09
         0.36809E-09
         0.29894E-09
         0.25151E-09
         0.32871E-09
         0.43523E-09
         0.44963E-09
         0.36333E-09
         0.29497E-09
         0.36157E-09
         0.42763E-09
         0.91182E-09
         0.72293E-09
         0.77627E-09
         0.13367E-08
         0.71629E-09
         0.91436E-09
         0.50982E-09
         0.61240E-09
         0.10130E-08
         0.74146E-09
         0.30043E-09
         0.56932E-09
         0.62666E-09
         0.50762E-09
         0.64825E-09
         0.12054E-08
         0.94253E-09
         0.11983E-08
         0.70317E-09
         0.80351E-09
         0.75834E-09
         0.84041E-09
         0.64491E-09
         0.40053E-09
         0.76028E-09
         0.63304E-09
         0.65790E-09
         0.67476E-09
         0.58731E-09
         0.71609E-09
         0.91012E-09
         0.64239E-09
         0.10195E-08
         0.88762E-09
         0.40074E-09
         0.61778E-09
         0.70133E-09
         0.74130E-09
         0.71579E-09
         0.56249E-09
         0.35351E-09
         0.58388E-09
         0.77324E-09
         0.62398E-09
         0.54853E-09
         0.35935E-09
         0.61324E-09
         0.83277E-09
         0.87396E-09
         0.70554E-09
         0.43375E-09
         0.74711E-09
         0.27592E-09
         0.35140E-09
         0.32793E-09
         0.38775E-09
         0.37867E-09
         0.36770E-09
         0.39249E-09
         0.41507E-09
         0.39061E-09
         0.30457E-09
         0.24812E-09
         0.32006E-09
         0.42654E-09
         0.46890E-09
         0.44975E-09
         0.40540E-09
         0.36807E-09
         0.29892E-09
         0.25148E-09
         0.32869E-09
         0.43522E-09
         0.44963E-09
         0.36325E-09
         0.29491E-09
         0.36162E-09
         0.42762E-09
         0.91187E-09
         0.72278E-09
         0.77633E-09
         0.13373E-08
         0.71640E-09
         0.91463E-09
         0.50955E-09
         0.61204E-09
         0.10134E-08
         0.74098E-09
         0.30015E-09
         0.56922E-09
         0.62662E-09
         0.50691E-09
         0.64811E-09
         0.12058E-08
         0.94296E-09
         0.11989E-08
         0.70320E-09
         0.80361E-09
         0.75831E-09
         0.84045E-09
         0.64485E-09
         0.40048E-09
         0.75995E-09
         0.63298E-09
         0.65690E-09
         0.67409E-09
         0.58706E-09
         0.71592E-09
         0.91020E-09
         0.64231E-09
         0.10200E-08
         0.88843E-09
         0.40074E-09
         0.61766E-09
         0.70124E-09
         0.74124E-09
         0.71584E-09
         0.56251E-09
         0.35351E-09
         0.58380E-09
         0.77320E-09
         0.62389E-09
         0.54840E-09
         0.35926E-09
         0.61318E-09
         0.83277E-09
         0.87409E-09
         0.70568E-09
         0.43376E-09
         0.74748E-09
         0.27584E-09
         0.35139E-09
         0.32777E-09
         0.38777E-09
         0.37876E-09
         0.36778E-09
         0.39266E-09
         0.41536E-09
         0.39084E-09
         0.30464E-09
         0.24814E-09
         0.32006E-09
         0.42659E-09
         0.46900E-09
         0.44980E-09
         0.40539E-09
         0.36805E-09
         0.29890E-09
         0.25144E-09
         0.32867E-09
         0.43521E-09
         0.44963E-09
         0.36318E-09
         0.29485E-09
         0.36166E-09
         0.42761E-09
         0.91192E-09
         0.72263E-09
         0.77640E-09
         0.13380E-08
         0.71652E-09
         0.91491E-09
         0.50928E-09
         0.61167E-09
         0.10137E-08
         0.74049E-09
         0.29986E-09
         0.56912E-09
         0.62657E-09
         0.50620E-09
         0.64797E-09
         0.12061E-08
         0.94339E-09
         0.11995E-08
         0.70322E-09
         0.80371E-09
         0.75827E-09
         0.84048E-09
         0.64478E-09
         0.40044E-09
         0.75962E-09
         0.63293E-09
         0.65591E-09
         0.67343E-09
         0.58681E-09
         0.71576E-09
         0.91029E-09
         0.64223E-09
         0.10205E-08
         0.88923E-09
         0.40073E-09
         0.61754E-09
         0.70114E-09
         0.74119E-09
         0.71588E-09
         0.56254E-09
         0.35351E-09
         0.58372E-09
         0.77316E-09
         0.62380E-09
         0.54827E-09
         0.35917E-09
         0.61313E-09
         0.83278E-09
         0.87422E-09
         0.70582E-09
         0.43377E-09
         0.74785E-09
         0.27575E-09
         0.35138E-09
         0.32761E-09
         0.38778E-09
         0.37885E-09
         0.36786E-09
         0.39283E-09
         0.41566E-09
         0.39107E-09
         0.30470E-09
         0.24816E-09
         0.32007E-09
         0.42665E-09
         0.46911E-09
         0.44985E-09
         0.40538E-09
         0.36802E-09
         0.29887E-09
         0.25140E-09
         0.32864E-09
         0.43520E-09
         0.44963E-09
         0.36310E-09
         0.29478E-09
         0.36170E-09
         0.42760E-09
         0.91198E-09
         0.72248E-09
         0.77646E-09
         0.13386E-08
         0.71663E-09
         0.91520E-09
         0.50901E-09
         0.61131E-09
         0.10141E-08
         0.74000E-09
         0.29957E-09
         0.56902E-09
         0.62653E-09
         0.50549E-09
         0.64784E-09
         0.12065E-08
         0.94382E-09
         0.12002E-08
         0.70325E-09
         0.80381E-09
         0.75824E-09
         0.84052E-09
         0.64472E-09
         0.40040E-09
         0.75929E-09
         0.63288E-09
         0.65492E-09
         0.67276E-09
         0.58657E-09
         0.71560E-09
         0.91038E-09
         0.64216E-09
         0.10211E-08
         0.89003E-09
         0.40073E-09
         0.61742E-09
         0.70105E-09
         0.74114E-09
         0.71593E-09
         0.56257E-09
         0.35351E-09
         0.58364E-09
         0.77313E-09
         0.62371E-09
         0.54814E-09
         0.35908E-09
         0.61308E-09
         0.83280E-09
         0.87436E-09
         0.70597E-09
         0.43378E-09
         0.74823E-09
         0.27567E-09
         0.35138E-09
         0.32745E-09
         0.38779E-09
         0.37893E-09
         0.36794E-09
         0.39300E-09
         0.41596E-09
         0.39130E-09
         0.30477E-09
         0.24818E-09
         0.32008E-09
         0.42671E-09
         0.46921E-09
         0.44991E-09
         0.40537E-09
         0.36800E-09
         0.29885E-09
         0.25136E-09
         0.32862E-09
         0.43520E-09
         0.44963E-09
         0.36303E-09
         0.29472E-09
         0.36175E-09
         0.42759E-09
         0.91203E-09
         0.72233E-09
         0.77653E-09
         0.13392E-08
         0.71675E-09
         0.91547E-09
         0.50875E-09
         0.61094E-09
         0.10144E-08
         0.73952E-09
         0.29928E-09
         0.56892E-09
         0.62649E-09
         0.50478E-09
         0.64770E-09
         0.12068E-08
         0.94424E-09
         0.12008E-08
         0.70327E-09
         0.80391E-09
         0.75821E-09
         0.84055E-09
         0.64465E-09
         0.40035E-09
         0.75896E-09
         0.63282E-09
         0.65393E-09
         0.67210E-09
         0.58632E-09
         0.71543E-09
         0.91047E-09
         0.64208E-09
         0.10216E-08
         0.89084E-09
         0.40073E-09
         0.61730E-09
         0.70096E-09
         0.74108E-09
         0.71598E-09
         0.56259E-09
         0.35351E-09
         0.58356E-09
         0.77309E-09
         0.62362E-09
         0.54801E-09
         0.35898E-09
         0.61303E-09
         0.83281E-09
         0.87449E-09
         0.70611E-09
         0.43379E-09
         0.74860E-09
         0.27558E-09
         0.35137E-09
         0.32729E-09
         0.38781E-09
         0.37902E-09
         0.36802E-09
         0.39317E-09
         0.41625E-09
         0.39153E-09
         0.30484E-09
         0.24820E-09
         0.32009E-09
         0.42677E-09
         0.46932E-09
         0.44996E-09
         0.40536E-09
         0.36798E-09
         0.29883E-09
         0.25132E-09
         0.32859E-09
         0.43519E-09
         0.44963E-09
         0.36296E-09
         0.29465E-09
         0.36179E-09
         0.42758E-09
         0.91208E-09
         0.72218E-09
         0.77659E-09
         0.13399E-08
         0.71686E-09
         0.91576E-09
         0.50848E-09
         0.61058E-09
         0.10148E-08
         0.73903E-09
         0.29900E-09
         0.56882E-09
         0.62645E-09
         0.50408E-09
         0.64757E-09
         0.12072E-08
         0.94467E-09
         0.12014E-08
         0.70330E-09
         0.80401E-09
         0.75818E-09
         0.84059E-09
         0.64459E-09
         0.40031E-09
         0.75864E-09
         0.63277E-09
         0.65294E-09
         0.67143E-09
         0.58607E-09
         0.71527E-09
         0.91057E-09
         0.64200E-09
         0.10221E-08
         0.89164E-09
         0.40072E-09
         0.61719E-09
         0.70087E-09
         0.74103E-09
         0.71603E-09
         0.56262E-09
         0.35352E-09
         0.58348E-09
         0.77305E-09
         0.62354E-09
         0.54788E-09
         0.35889E-09
         0.61298E-09
         0.83282E-09
         0.87463E-09
         0.70626E-09
         0.43380E-09
         0.74897E-09
         0.27550E-09
         0.35137E-09
         0.32713E-09
         0.38782E-09
         0.37911E-09
         0.36810E-09
         0.39334E-09
         0.41655E-09
         0.39176E-09
         0.30491E-09
         0.24822E-09
         0.32010E-09
         0.42682E-09
         0.46942E-09
         0.45001E-09
         0.40534E-09
         0.36796E-09
         0.29881E-09
         0.25128E-09
         0.32857E-09
         0.43518E-09
         0.44963E-09
         0.36288E-09
         0.29459E-09
         0.36184E-09
         0.42757E-09
         0.91214E-09
         0.72204E-09
         0.77666E-09
         0.13405E-08
         0.71698E-09
         0.91604E-09
         0.50822E-09
         0.61022E-09
         0.10151E-08
         0.73855E-09
         0.29871E-09
         0.56872E-09
         0.62641E-09
         0.50337E-09
         0.64743E-09
         0.12075E-08
         0.94510E-09
         0.12020E-08
         0.70333E-09
         0.80411E-09
         0.75815E-09
         0.84063E-09
         0.64453E-09
         0.40027E-09
         0.75831E-09
         0.63272E-09
         0.65196E-09
         0.67077E-09
         0.58582E-09
         0.71511E-09
         0.91066E-09
         0.64192E-09
         0.10227E-08
         0.89245E-09
         0.40072E-09
         0.61707E-09
         0.70078E-09
         0.74098E-09
         0.71608E-09
         0.56265E-09
         0.35352E-09
         0.58340E-09
         0.77301E-09
         0.62345E-09
         0.54775E-09
         0.35880E-09
         0.61293E-09
         0.83283E-09
         0.87476E-09
         0.70641E-09
         0.43382E-09
         0.74935E-09
         0.27541E-09
         0.35136E-09
         0.32697E-09
         0.38784E-09
         0.37920E-09
         0.36818E-09
         0.39352E-09
         0.41685E-09
         0.39199E-09
         0.30498E-09
         0.24824E-09
         0.32011E-09
         0.42688E-09
         0.46953E-09
         0.45007E-09
         0.40533E-09
         0.36793E-09
         0.29878E-09
         0.25124E-09
         0.32855E-09
         0.43517E-09
         0.44963E-09
         0.36281E-09
         0.29452E-09
         0.36188E-09
         0.42756E-09
         0.91219E-09
         0.72188E-09
         0.77672E-09
         0.13412E-08
         0.71709E-09
         0.91632E-09
         0.50795E-09
         0.60986E-09
         0.10155E-08
         0.73806E-09
         0.29842E-09
         0.56862E-09
         0.62636E-09
         0.50266E-09
         0.64730E-09
         0.12079E-08
         0.94552E-09
         0.12026E-08
         0.70335E-09
         0.80421E-09
         0.75811E-09
         0.84066E-09
         0.64446E-09
         0.40023E-09
         0.75798E-09
         0.63267E-09
         0.65096E-09
         0.67010E-09
         0.58557E-09
         0.71494E-09
         0.91074E-09
         0.64184E-09
         0.10232E-08
         0.89325E-09
         0.40072E-09
         0.61695E-09
         0.70069E-09
         0.74092E-09
         0.71612E-09
         0.56268E-09
         0.35352E-09
         0.58332E-09
         0.77297E-09
         0.62336E-09
         0.54762E-09
         0.35871E-09
         0.61287E-09
         0.83284E-09
         0.87489E-09
         0.70655E-09
         0.43383E-09
         0.74972E-09
         0.27533E-09
         0.35136E-09
         0.32681E-09
         0.38785E-09
         0.37929E-09
         0.36825E-09
         0.39369E-09
         0.41715E-09
         0.39222E-09
         0.30505E-09
         0.24826E-09
         0.32011E-09
         0.42694E-09
         0.46963E-09
         0.45011E-09
         0.40532E-09
         0.36791E-09
         0.29876E-09
         0.25120E-09
         0.32853E-09
         0.43516E-09
         0.44962E-09
         0.36274E-09
         0.29445E-09
         0.36192E-09
         0.42755E-09
         0.91224E-09
         0.72173E-09
         0.77679E-09
         0.13418E-08
         0.71720E-09
         0.91660E-09
         0.50768E-09
         0.60949E-09
         0.10158E-08
         0.73758E-09
         0.29814E-09
         0.56852E-09
         0.62632E-09
         0.50195E-09
         0.64716E-09
         0.12082E-08
         0.94595E-09
         0.12032E-08
         0.70337E-09
         0.80431E-09
         0.75808E-09
         0.84069E-09
         0.64440E-09
         0.40018E-09
         0.75766E-09
         0.63262E-09
         0.64998E-09
         0.66943E-09
         0.58532E-09
         0.71478E-09
         0.91083E-09
         0.64176E-09
         0.10238E-08
         0.89406E-09
         0.40071E-09
         0.61683E-09
         0.70059E-09
         0.74087E-09
         0.71617E-09
         0.56270E-09
         0.35352E-09
         0.58324E-09
         0.77294E-09
         0.62327E-09
         0.54749E-09
         0.35861E-09
         0.61282E-09
         0.83284E-09
         0.87503E-09
         0.70669E-09
         0.43384E-09
         0.75009E-09
         0.27524E-09
         0.35135E-09
         0.32665E-09
         0.38786E-09
         0.37937E-09
         0.36833E-09
         0.39386E-09
         0.41745E-09
         0.39245E-09
         0.30512E-09
         0.24828E-09
         0.32012E-09
         0.42699E-09
         0.46974E-09
         0.45017E-09
         0.40531E-09
         0.36788E-09
         0.29873E-09
         0.25117E-09
         0.32850E-09
         0.43515E-09
         0.44962E-09
         0.36266E-09
         0.29439E-09
         0.36197E-09
         0.42754E-09
         0.91230E-09
         0.72159E-09
         0.77686E-09
         0.13425E-08
         0.71732E-09
         0.91688E-09
         0.50742E-09
         0.60913E-09
         0.10162E-08
         0.73710E-09
         0.29785E-09
         0.56842E-09
         0.62628E-09
         0.50125E-09
         0.64703E-09
         0.12086E-08
         0.94638E-09
         0.12038E-08
         0.70340E-09
         0.80441E-09
         0.75805E-09
         0.84073E-09
         0.64433E-09
         0.40014E-09
         0.75733E-09
         0.63257E-09
         0.64899E-09
         0.66877E-09
         0.58508E-09
         0.71462E-09
         0.91093E-09
         0.64169E-09
         0.10243E-08
         0.89487E-09
         0.40071E-09
         0.61671E-09
         0.70051E-09
         0.74082E-09
         0.71622E-09
         0.56273E-09
         0.35352E-09
         0.58316E-09
         0.77290E-09
         0.62318E-09
         0.54737E-09
         0.35852E-09
         0.61277E-09
         0.83286E-09
         0.87517E-09
         0.70684E-09
         0.43385E-09
         0.75047E-09
         0.27516E-09
         0.35135E-09
         0.32649E-09
         0.38788E-09
         0.37946E-09
         0.36841E-09
         0.39403E-09
         0.41775E-09
         0.39268E-09
         0.30519E-09
         0.24830E-09
         0.32013E-09
         0.42705E-09
         0.46985E-09
         0.45022E-09
         0.40530E-09
         0.36786E-09
         0.29871E-09
         0.25113E-09
         0.32848E-09
         0.43515E-09
         0.44962E-09
         0.36259E-09
         0.29433E-09
         0.36201E-09
         0.42753E-09
         0.91235E-09
         0.72143E-09
         0.77692E-09
         0.13431E-08
         0.71743E-09
         0.91716E-09
         0.50715E-09
         0.60877E-09
         0.10165E-08
         0.73661E-09
         0.29757E-09
         0.56832E-09
         0.62624E-09
         0.50054E-09
         0.64689E-09
         0.12089E-08
         0.94680E-09
         0.12044E-08
         0.70342E-09
         0.80450E-09
         0.75802E-09
         0.84076E-09
         0.64427E-09
         0.40010E-09
         0.75700E-09
         0.63251E-09
         0.64800E-09
         0.66810E-09
         0.58482E-09
         0.71445E-09
         0.91101E-09
         0.64161E-09
         0.10248E-08
         0.89567E-09
         0.40071E-09
         0.61659E-09
         0.70041E-09
         0.74077E-09
         0.71627E-09
         0.56276E-09
         0.35352E-09
         0.58308E-09
         0.77286E-09
         0.62309E-09
         0.54723E-09
         0.35843E-09
         0.61272E-09
         0.83287E-09
         0.87530E-09
         0.70698E-09
         0.43386E-09
         0.75084E-09
         0.27507E-09
         0.35134E-09
         0.32633E-09
         0.38789E-09
         0.37955E-09
         0.36849E-09
         0.39420E-09
         0.41804E-09
         0.39291E-09
         0.30525E-09
         0.24832E-09
         0.32014E-09
         0.42711E-09
         0.46995E-09
         0.45027E-09
         0.40528E-09
         0.36784E-09
         0.29869E-09
         0.25109E-09
         0.32845E-09
         0.43514E-09
         0.44962E-09
         0.36252E-09
         0.29426E-09
         0.36206E-09
         0.42751E-09
         0.91240E-09
         0.72128E-09
         0.77698E-09
         0.13437E-08
         0.71755E-09
         0.91744E-09
         0.50688E-09
         0.60841E-09
         0.10169E-08
         0.73612E-09
         0.29728E-09
         0.56822E-09
         0.62619E-09
         0.49984E-09
         0.64676E-09
         0.12093E-08
         0.94723E-09
         0.12050E-08
         0.70345E-09
         0.80460E-09
         0.75798E-09
         0.84080E-09
         0.64420E-09
         0.40006E-09
         0.75667E-09
         0.63246E-09
         0.64701E-09
         0.66744E-09
         0.58457E-09
         0.71429E-09
         0.91110E-09
         0.64153E-09
         0.10254E-08
         0.89648E-09
         0.40070E-09
         0.61647E-09
         0.70032E-09
         0.74071E-09
         0.71632E-09
         0.56279E-09
         0.35353E-09
         0.58300E-09
         0.77282E-09
         0.62300E-09
         0.54710E-09
         0.35834E-09
         0.61266E-09
         0.83288E-09
         0.87543E-09
         0.70713E-09
         0.43387E-09
         0.75122E-09
         0.27499E-09
         0.35133E-09
         0.32617E-09
         0.38790E-09
         0.37964E-09
         0.36857E-09
         0.39437E-09
         0.41834E-09
         0.39314E-09
         0.30532E-09
         0.24834E-09
         0.32014E-09
         0.42716E-09
         0.47005E-09
         0.45032E-09
         0.40527E-09
         0.36781E-09
         0.29866E-09
         0.25105E-09
         0.32843E-09
         0.43513E-09
         0.44962E-09
         0.36244E-09
         0.29419E-09
         0.36210E-09
         0.42750E-09
         0.91246E-09
         0.72114E-09
         0.77705E-09
         0.13444E-08
         0.71767E-09
         0.91773E-09
         0.50662E-09
         0.60805E-09
         0.10173E-08
         0.73564E-09
         0.29700E-09
         0.56812E-09
         0.62616E-09
         0.49914E-09
         0.64663E-09
         0.12097E-08
         0.94766E-09
         0.12056E-08
         0.70348E-09
         0.80471E-09
         0.75796E-09
         0.84084E-09
         0.64414E-09
         0.40002E-09
         0.75635E-09
         0.63241E-09
         0.64603E-09
         0.66678E-09
         0.58433E-09
         0.71413E-09
         0.91120E-09
         0.64146E-09
         0.10259E-08
         0.89729E-09
         0.40070E-09
         0.61636E-09
         0.70023E-09
         0.74067E-09
         0.71637E-09
         0.56282E-09
         0.35353E-09
         0.58293E-09
         0.77279E-09
         0.62291E-09
         0.54698E-09
         0.35825E-09
         0.61261E-09
         0.83289E-09
         0.87557E-09
         0.70728E-09
         0.43389E-09
         0.75160E-09
         0.27491E-09
         0.35133E-09
         0.32601E-09
         0.38792E-09
         0.37972E-09
         0.36865E-09
         0.39454E-09
         0.41864E-09
         0.39337E-09
         0.30539E-09
         0.24836E-09
         0.32015E-09
         0.42722E-09
         0.47016E-09
         0.45038E-09
         0.40526E-09
         0.36779E-09
         0.29864E-09
         0.25101E-09
         0.32841E-09
         0.43512E-09
         0.44962E-09
         0.36237E-09
         0.29413E-09
         0.36215E-09
         0.42750E-09
         0.91249E-09
         0.72097E-09
         0.77710E-09
         0.13450E-08
         0.71777E-09
         0.91799E-09
         0.50634E-09
         0.60767E-09
         0.10176E-08
         0.73514E-09
         0.29670E-09
         0.56801E-09
         0.62610E-09
         0.49842E-09
         0.64648E-09
         0.12100E-08
         0.94806E-09
         0.12062E-08
         0.70349E-09
         0.80479E-09
         0.75791E-09
         0.84086E-09
         0.64406E-09
         0.39997E-09
         0.75600E-09
         0.63234E-09
         0.64503E-09
         0.66610E-09
         0.58407E-09
         0.71395E-09
         0.91127E-09
         0.64136E-09
         0.10264E-08
         0.89808E-09
         0.40069E-09
         0.61622E-09
         0.70012E-09
         0.74060E-09
         0.71641E-09
         0.56283E-09
         0.35352E-09
         0.58283E-09
         0.77273E-09
         0.62281E-09
         0.54684E-09
         0.35815E-09
         0.61255E-09
         0.83288E-09
         0.87569E-09
         0.70741E-09
         0.43389E-09
         0.75195E-09
         0.27482E-09
         0.35132E-09
         0.32584E-09
         0.38793E-09
         0.37980E-09
         0.36872E-09
         0.39470E-09
         0.41893E-09
         0.39360E-09
         0.30545E-09
         0.24837E-09
         0.32016E-09
         0.42727E-09
         0.47026E-09
         0.45042E-09
         0.40524E-09
         0.36776E-09
         0.29861E-09
         0.25097E-09
         0.32838E-09
         0.43510E-09
         0.44961E-09
         0.36229E-09
         0.29406E-09
         0.36218E-09
         0.42748E-09
         0.91256E-09
         0.72083E-09
         0.77718E-09
         0.13457E-08
         0.71789E-09
         0.91829E-09
         0.50608E-09
         0.60732E-09
         0.10180E-08
         0.73467E-09
         0.29642E-09
         0.56792E-09
         0.62607E-09
         0.49772E-09
         0.64636E-09
         0.12103E-08
         0.94850E-09
         0.12068E-08
         0.70352E-09
         0.80490E-09
         0.75789E-09
         0.84091E-09
         0.64401E-09
         0.39993E-09
         0.75569E-09
         0.63230E-09
         0.64405E-09
         0.66544E-09
         0.58382E-09
         0.71379E-09
         0.91137E-09
         0.64129E-09
         0.10270E-08
         0.89890E-09
         0.40069E-09
         0.61611E-09
         0.70004E-09
         0.74056E-09
         0.71646E-09
         0.56287E-09
         0.35353E-09
         0.58276E-09
         0.77271E-09
         0.62273E-09
         0.54672E-09
         0.35806E-09
         0.61251E-09
         0.83291E-09
         0.87583E-09
         0.70756E-09
         0.43391E-09
         0.75234E-09
         0.27474E-09
         0.35132E-09
         0.32569E-09
         0.38794E-09
         0.37990E-09
         0.36881E-09
         0.39488E-09
         0.41923E-09
         0.39383E-09
         0.30553E-09
         0.24840E-09
         0.32017E-09
         0.42734E-09
         0.47037E-09
         0.45048E-09
         0.40524E-09
         0.36774E-09
         0.29859E-09
         0.25093E-09
         0.32836E-09
         0.43510E-09
         0.44962E-09
         0.36222E-09
         0.29400E-09
         0.36223E-09
         0.42747E-09
         0.45631E-09
         0.36039E-09
         0.38862E-09
         0.67302E-09
         0.35899E-09
         0.45923E-09
         0.25298E-09
         0.30358E-09
         0.50909E-09
         0.36723E-09
         0.14815E-09
         0.28394E-09
         0.31303E-09
         0.24869E-09
         0.32316E-09
         0.60528E-09
         0.47437E-09
         0.60357E-09
         0.35178E-09
         0.40249E-09
         0.37895E-09
         0.42048E-09
         0.32200E-09
         0.19996E-09
         0.37777E-09
         0.31615E-09
         0.32179E-09
         0.33257E-09
         0.29186E-09
         0.35687E-09
         0.45572E-09
         0.32064E-09
         0.51365E-09
         0.44967E-09
         0.20035E-09
         0.30804E-09
         0.35001E-09
         0.37028E-09
         0.35826E-09
         0.28145E-09
         0.17677E-09
         0.29137E-09
         0.38636E-09
         0.31135E-09
         0.27333E-09
         0.17901E-09
         0.30625E-09
         0.41647E-09
         0.43797E-09
         0.35383E-09
         0.21697E-09
         0.37628E-09
         0.13735E-09
         0.17566E-09
         0.16281E-09
         0.19398E-09
         0.18998E-09
         0.18443E-09
         0.19749E-09
         0.20970E-09
         0.19698E-09
         0.15279E-09
         0.12421E-09
         0.16009E-09
         0.21369E-09
         0.23522E-09
         0.22526E-09
         0.20262E-09
         0.18387E-09
         0.14930E-09
         0.12546E-09
         0.16418E-09
         0.21756E-09
         0.22482E-09
         0.18110E-09
         0.14699E-09
         0.18113E-09
         0.21374E-09
  
SCALARS               pre_disp_force_x  double 1
LOOKUP_TABLE default
         0.00000E+00
         0.00000E+00
         0.00000E+00
         0.00000E+00
         0.00000E+00
         0.00000E+00
         0.00000E+00
         0.00000E+00
         0.00000E+00
         0.00000E+00
         0.00000E+00
         0.00000E+00
         0.00000E+00
         0.00000E+00
         0.00000E+00
         0.00000E+00
         0.00000E+00
         0.00000E+00
         0.00000E+00
         0.00000E+00
         0.00000E+00
         0.00000E+00
         0.00000E+00
         0.00000E+00
         0.00000E+00
         0.00000E+00
         0.00000E+00
         0.00000E+00
         0.00000E+00
         0.00000E+00
         0.00000E+00
         0.00000E+00
         0.00000E+00
         0.00000E+00
         0.00000E+00
         0.00000E+00
         0.00000E+00
         0.00000E+00
         0.00000E+00
         0.00000E+00
         0.00000E+00
         0.00000E+00
         0.00000E+00
         0.00000E+00
         0.00000E+00
         0.00000E+00
         0.00000E+00
         0.00000E+00
         0.00000E+00
         0.00000E+00
         0.00000E+00
         0.00000E+00
         0.00000E+00
         0.00000E+00
         0.00000E+00
         0.00000E+00
         0.00000E+00
         0.00000E+00
         0.00000E+00
         0.00000E+00
         0.00000E+00
         0.00000E+00
         0.00000E+00
         0.00000E+00
         0.00000E+00
         0.00000E+00
         0.00000E+00
         0.00000E+00
         0.00000E+00
         0.00000E+00
         0.00000E+00
         0.00000E+00
         0.00000E+00
         0.00000E+00
         0.00000E+00
         0.00000E+00
         0.00000E+00
         0.00000E+00
         0.00000E+00
         0.00000E+00
         0.00000E+00
         0.00000E+00
         0.00000E+00
         0.00000E+00
         0.00000E+00
         0.00000E+00
         0.00000E+00
         0.00000E+00
         0.00000E+00
         0.00000E+00
         0.00000E+00
         0.00000E+00
         0.00000E+00
         0.00000E+00
         0.00000E+00
         0.00000E+00
         0.00000E+00
         0.00000E+00
         0.00000E+00
         0.00000E+00
         0.00000E+00
         0.00000E+00
         0.00000E+00
         0.00000E+00
         0.00000E+00
         0.00000E+00
         0.00000E+00
         0.00000E+00
         0.00000E+00
         0.00000E+00
         0.00000E+00
         0.00000E+00
         0.00000E+00
         0.00000E+00
         0.00000E+00
         0.00000E+00
         0.00000E+00
         0.00000E+00
         0.00000E+00
         0.00000E+00
         0.00000E+00
         0.00000E+00
         0.00000E+00
         0.00000E+00
         0.00000E+00
         0.00000E+00
         0.00000E+00
         0.00000E+00
         0.00000E+00
         0.00000E+00
         0.00000E+00
         0.00000E+00
         0.00000E+00
         0.00000E+00
         0.00000E+00
         0.00000E+00
         0.00000E+00
         0.00000E+00
         0.00000E+00
         0.00000E+00
         0.00000E+00
         0.00000E+00
         0.00000E+00
         0.00000E+00
         0.00000E+00
         0.00000E+00
         0.00000E+00
         0.00000E+00
         0.00000E+00
         0.00000E+00
         0.00000E+00
         0.00000E+00
         0.00000E+00
         0.00000E+00
         0.00000E+00
         0.00000E+00
         0.00000E+00
         0.00000E+00
         0.00000E+00
         0.00000E+00
         0.00000E+00
         0.00000E+00
         0.00000E+00
         0.00000E+00
         0.00000E+00
         0.00000E+00
         0.00000E+00
         0.00000E+00
         0.00000E+00
         0.00000E+00
         0.00000E+00
         0.00000E+00
         0.00000E+00
         0.00000E+00
         0.00000E+00
         0.00000E+00
         0.00000E+00
         0.00000E+00
         0.00000E+00
         0.00000E+00
         0.00000E+00
         0.00000E+00
         0.00000E+00
         0.00000E+00
         0.00000E+00
         0.00000E+00
         0.00000E+00
         0.00000E+00
         0.00000E+00
         0.00000E+00
         0.00000E+00
         0.00000E+00
         0.00000E+00
         0.00000E+00
         0.00000E+00
         0.00000E+00
         0.00000E+00
         0.00000E+00
         0.00000E+00
         0.00000E+00
         0.00000E+00
         0.00000E+00
         0.00000E+00
         0.00000E+00
         0.00000E+00
         0.00000E+00
         0.00000E+00
         0.00000E+00
         0.00000E+00
         0.00000E+00
         0.00000E+00
         0.00000E+00
         0.00000E+00
         0.00000E+00
         0.00000E+00
         0.00000E+00
         0.00000E+00
         0.00000E+00
         0.00000E+00
         0.00000E+00
         0.00000E+00
         0.00000E+00
         0.00000E+00
         0.00000E+00
         0.00000E+00
         0.00000E+00
         0.00000E+00
         0.00000E+00
         0.00000E+00
         0.00000E+00
         0.00000E+00
         0.00000E+00
         0.00000E+00
         0.00000E+00
         0.00000E+00
         0.00000E+00
         0.00000E+00
         0.00000E+00
         0.00000E+00
         0.00000E+00
         0.00000E+00
         0.00000E+00
         0.00000E+00
         0.00000E+00
         0.00000E+00
         0.00000E+00
         0.00000E+00
         0.00000E+00
         0.00000E+00
         0.00000E+00
         0.00000E+00
         0.00000E+00
         0.00000E+00
         0.00000E+00
         0.00000E+00
         0.00000E+00
         0.00000E+00
         0.00000E+00
         0.00000E+00
         0.00000E+00
         0.00000E+00
         0.00000E+00
         0.00000E+00
         0.00000E+00
         0.00000E+00
         0.00000E+00
         0.00000E+00
         0.00000E+00
         0.00000E+00
         0.00000E+00
         0.00000E+00
         0.00000E+00
         0.00000E+00
         0.00000E+00
         0.00000E+00
         0.00000E+00
         0.00000E+00
         0.00000E+00
         0.00000E+00
         0.00000E+00
         0.00000E+00
         0.00000E+00
         0.00000E+00
         0.00000E+00
         0.00000E+00
         0.00000E+00
         0.00000E+00
         0.00000E+00
         0.00000E+00
         0.00000E+00
         0.00000E+00
         0.00000E+00
         0.00000E+00
         0.00000E+00
         0.00000E+00
         0.00000E+00
         0.00000E+00
         0.00000E+00
         0.00000E+00
         0.00000E+00
         0.00000E+00
         0.00000E+00
         0.00000E+00
         0.00000E+00
         0.00000E+00
         0.00000E+00
         0.00000E+00
         0.00000E+00
         0.00000E+00
         0.00000E+00
         0.00000E+00
         0.00000E+00
         0.00000E+00
         0.00000E+00
         0.00000E+00
         0.00000E+00
         0.00000E+00
         0.00000E+00
         0.00000E+00
         0.00000E+00
         0.00000E+00
         0.00000E+00
         0.00000E+00
         0.00000E+00
         0.00000E+00
         0.00000E+00
         0.00000E+00
         0.00000E+00
         0.00000E+00
         0.00000E+00
         0.00000E+00
         0.00000E+00
         0.00000E+00
         0.00000E+00
         0.00000E+00
         0.00000E+00
         0.00000E+00
         0.00000E+00
         0.00000E+00
         0.00000E+00
         0.00000E+00
         0.00000E+00
         0.00000E+00
         0.00000E+00
         0.00000E+00
         0.00000E+00
         0.00000E+00
         0.00000E+00
         0.00000E+00
         0.00000E+00
         0.00000E+00
         0.00000E+00
         0.00000E+00
         0.00000E+00
         0.00000E+00
         0.00000E+00
         0.00000E+00
         0.00000E+00
         0.00000E+00
         0.00000E+00
         0.00000E+00
         0.00000E+00
         0.00000E+00
         0.00000E+00
         0.00000E+00
         0.00000E+00
         0.00000E+00
         0.00000E+00
         0.00000E+00
         0.00000E+00
         0.00000E+00
         0.00000E+00
         0.00000E+00
         0.00000E+00
         0.00000E+00
         0.00000E+00
         0.00000E+00
         0.00000E+00
         0.00000E+00
         0.00000E+00
         0.00000E+00
         0.00000E+00
         0.00000E+00
         0.00000E+00
         0.00000E+00
         0.00000E+00
         0.00000E+00
         0.00000E+00
         0.00000E+00
         0.00000E+00
         0.00000E+00
         0.00000E+00
         0.00000E+00
         0.00000E+00
         0.00000E+00
         0.00000E+00
         0.00000E+00
         0.00000E+00
         0.00000E+00
         0.00000E+00
         0.00000E+00
         0.00000E+00
         0.00000E+00
         0.00000E+00
         0.00000E+00
         0.00000E+00
         0.00000E+00
         0.00000E+00
         0.00000E+00
         0.00000E+00
         0.00000E+00
         0.00000E+00
         0.00000E+00
         0.00000E+00
         0.00000E+00
         0.00000E+00
         0.00000E+00
         0.00000E+00
         0.00000E+00
         0.00000E+00
         0.00000E+00
         0.00000E+00
         0.00000E+00
         0.00000E+00
         0.00000E+00
         0.00000E+00
         0.00000E+00
         0.00000E+00
         0.00000E+00
         0.00000E+00
         0.00000E+00
         0.00000E+00
         0.00000E+00
         0.00000E+00
         0.00000E+00
         0.00000E+00
         0.00000E+00
         0.00000E+00
         0.00000E+00
         0.00000E+00
         0.00000E+00
         0.00000E+00
         0.00000E+00
         0.00000E+00
         0.00000E+00
         0.00000E+00
         0.00000E+00
         0.00000E+00
         0.00000E+00
         0.00000E+00
         0.00000E+00
         0.00000E+00
         0.00000E+00
         0.00000E+00
         0.00000E+00
         0.00000E+00
         0.00000E+00
         0.00000E+00
         0.00000E+00
         0.00000E+00
         0.00000E+00
         0.00000E+00
         0.00000E+00
         0.00000E+00
         0.00000E+00
         0.00000E+00
         0.00000E+00
         0.00000E+00
         0.00000E+00
         0.00000E+00
         0.00000E+00
         0.00000E+00
         0.00000E+00
         0.00000E+00
         0.00000E+00
         0.00000E+00
         0.00000E+00
         0.00000E+00
         0.00000E+00
         0.00000E+00
         0.00000E+00
         0.00000E+00
         0.00000E+00
         0.00000E+00
         0.00000E+00
         0.00000E+00
         0.00000E+00
         0.00000E+00
         0.00000E+00
         0.00000E+00
         0.00000E+00
         0.00000E+00
         0.00000E+00
         0.00000E+00
         0.00000E+00
         0.00000E+00
         0.00000E+00
         0.00000E+00
         0.00000E+00
         0.00000E+00
         0.00000E+00
         0.00000E+00
         0.00000E+00
         0.00000E+00
         0.00000E+00
         0.00000E+00
         0.00000E+00
         0.00000E+00
         0.00000E+00
         0.00000E+00
         0.00000E+00
         0.00000E+00
         0.00000E+00
         0.00000E+00
         0.00000E+00
         0.00000E+00
         0.00000E+00
         0.00000E+00
         0.00000E+00
         0.00000E+00
         0.00000E+00
         0.00000E+00
         0.00000E+00
         0.00000E+00
         0.00000E+00
         0.00000E+00
         0.00000E+00
         0.00000E+00
         0.00000E+00
         0.00000E+00
         0.00000E+00
         0.00000E+00
         0.00000E+00
         0.00000E+00
         0.00000E+00
         0.00000E+00
         0.00000E+00
         0.00000E+00
         0.00000E+00
         0.00000E+00
         0.00000E+00
         0.00000E+00
         0.00000E+00
         0.00000E+00
         0.00000E+00
         0.00000E+00
         0.00000E+00
         0.00000E+00
         0.00000E+00
         0.00000E+00
         0.00000E+00
         0.00000E+00
         0.00000E+00
         0.00000E+00
         0.00000E+00
         0.00000E+00
         0.00000E+00
         0.00000E+00
         0.00000E+00
         0.00000E+00
         0.00000E+00
         0.00000E+00
         0.00000E+00
         0.00000E+00
         0.00000E+00
         0.00000E+00
         0.00000E+00
         0.00000E+00
         0.00000E+00
         0.00000E+00
         0.00000E+00
         0.00000E+00
         0.00000E+00
         0.00000E+00
         0.00000E+00
         0.00000E+00
         0.00000E+00
         0.00000E+00
         0.00000E+00
         0.00000E+00
         0.00000E+00
         0.00000E+00
         0.00000E+00
         0.00000E+00
         0.00000E+00
         0.00000E+00
         0.00000E+00
         0.00000E+00
         0.00000E+00
         0.00000E+00
         0.00000E+00
         0.00000E+00
         0.00000E+00
         0.00000E+00
         0.00000E+00
         0.00000E+00
         0.00000E+00
         0.00000E+00
         0.00000E+00
         0.00000E+00
         0.00000E+00
         0.00000E+00
         0.00000E+00
         0.00000E+00
         0.00000E+00
         0.00000E+00
         0.00000E+00
         0.00000E+00
         0.00000E+00
         0.00000E+00
         0.00000E+00
         0.00000E+00
         0.00000E+00
         0.00000E+00
         0.00000E+00
         0.00000E+00
         0.00000E+00
         0.00000E+00
         0.00000E+00
         0.00000E+00
         0.00000E+00
         0.00000E+00
         0.00000E+00
         0.00000E+00
         0.00000E+00
         0.00000E+00
         0.00000E+00
         0.00000E+00
         0.00000E+00
         0.00000E+00
         0.00000E+00
         0.00000E+00
         0.00000E+00
         0.00000E+00
         0.00000E+00
         0.00000E+00
         0.00000E+00
         0.00000E+00
         0.00000E+00
         0.00000E+00
         0.00000E+00
         0.00000E+00
         0.00000E+00
         0.00000E+00
         0.00000E+00
         0.00000E+00
         0.00000E+00
         0.00000E+00
         0.00000E+00
         0.00000E+00
         0.00000E+00
         0.00000E+00
         0.00000E+00
         0.00000E+00
         0.00000E+00
         0.00000E+00
         0.00000E+00
         0.00000E+00
         0.00000E+00
         0.00000E+00
         0.00000E+00
         0.00000E+00
         0.00000E+00
         0.00000E+00
         0.00000E+00
         0.00000E+00
         0.00000E+00
         0.00000E+00
         0.00000E+00
         0.00000E+00
         0.00000E+00
         0.00000E+00
         0.00000E+00
         0.00000E+00
         0.00000E+00
         0.00000E+00
         0.00000E+00
         0.00000E+00
         0.00000E+00
         0.00000E+00
         0.00000E+00
         0.00000E+00
         0.00000E+00
         0.00000E+00
         0.00000E+00
         0.00000E+00
         0.00000E+00
         0.00000E+00
         0.00000E+00
         0.00000E+00
         0.00000E+00
         0.00000E+00
         0.00000E+00
         0.00000E+00
         0.00000E+00
         0.00000E+00
         0.00000E+00
         0.00000E+00
         0.00000E+00
         0.00000E+00
         0.00000E+00
         0.00000E+00
         0.00000E+00
         0.00000E+00
         0.00000E+00
         0.00000E+00
         0.00000E+00
         0.00000E+00
         0.00000E+00
         0.00000E+00
         0.00000E+00
         0.00000E+00
         0.00000E+00
         0.00000E+00
         0.00000E+00
         0.00000E+00
         0.00000E+00
         0.00000E+00
         0.00000E+00
         0.00000E+00
         0.00000E+00
         0.00000E+00
         0.00000E+00
         0.00000E+00
         0.00000E+00
         0.00000E+00
         0.00000E+00
         0.00000E+00
         0.00000E+00
         0.00000E+00
         0.00000E+00
         0.00000E+00
         0.00000E+00
         0.00000E+00
         0.00000E+00
         0.00000E+00
         0.00000E+00
         0.00000E+00
         0.00000E+00
         0.00000E+00
         0.00000E+00
         0.00000E+00
         0.00000E+00
         0.00000E+00
         0.00000E+00
         0.00000E+00
         0.00000E+00
         0.00000E+00
         0.00000E+00
         0.00000E+00
         0.00000E+00
         0.00000E+00
         0.00000E+00
         0.00000E+00
         0.00000E+00
         0.00000E+00
         0.00000E+00
         0.00000E+00
         0.00000E+00
         0.00000E+00
         0.00000E+00
         0.00000E+00
         0.00000E+00
         0.00000E+00
         0.00000E+00
         0.00000E+00
         0.00000E+00
         0.00000E+00
         0.00000E+00
         0.00000E+00
         0.00000E+00
         0.00000E+00
         0.00000E+00
         0.00000E+00
         0.00000E+00
         0.00000E+00
         0.00000E+00
         0.00000E+00
         0.00000E+00
         0.00000E+00
         0.00000E+00
         0.00000E+00
         0.00000E+00
         0.00000E+00
         0.00000E+00
         0.00000E+00
         0.00000E+00
         0.00000E+00
         0.00000E+00
         0.00000E+00
         0.00000E+00
         0.00000E+00
         0.00000E+00
         0.00000E+00
         0.00000E+00
         0.00000E+00
         0.00000E+00
         0.00000E+00
         0.00000E+00
         0.00000E+00
         0.00000E+00
         0.00000E+00
         0.00000E+00
         0.00000E+00
         0.00000E+00
         0.00000E+00
         0.00000E+00
         0.00000E+00
         0.00000E+00
         0.00000E+00
         0.00000E+00
         0.00000E+00
         0.00000E+00
         0.00000E+00
         0.00000E+00
         0.00000E+00
         0.00000E+00
         0.00000E+00
         0.00000E+00
         0.00000E+00
         0.00000E+00
         0.00000E+00
         0.00000E+00
         0.00000E+00
         0.00000E+00
         0.00000E+00
         0.00000E+00
         0.00000E+00
         0.00000E+00
         0.00000E+00
         0.00000E+00
         0.00000E+00
         0.00000E+00
         0.00000E+00
         0.00000E+00
         0.00000E+00
         0.00000E+00
         0.00000E+00
         0.00000E+00
         0.00000E+00
         0.00000E+00
         0.00000E+00
         0.00000E+00
         0.00000E+00
         0.00000E+00
         0.00000E+00
         0.00000E+00
         0.00000E+00
         0.00000E+00
         0.00000E+00
         0.00000E+00
         0.00000E+00
         0.00000E+00
         0.00000E+00
         0.00000E+00
         0.00000E+00
         0.00000E+00
         0.00000E+00
         0.00000E+00
         0.00000E+00
         0.00000E+00
         0.00000E+00
         0.00000E+00
         0.00000E+00
         0.00000E+00
         0.00000E+00
         0.00000E+00
         0.00000E+00
         0.00000E+00
         0.00000E+00
         0.00000E+00
         0.00000E+00
         0.00000E+00
         0.00000E+00
         0.00000E+00
         0.00000E+00
         0.00000E+00
         0.00000E+00
         0.00000E+00
         0.00000E+00
         0.00000E+00
         0.00000E+00
         0.00000E+00
         0.00000E+00
         0.00000E+00
         0.00000E+00
         0.00000E+00
         0.00000E+00
         0.00000E+00
         0.00000E+00
         0.00000E+00
         0.00000E+00
         0.00000E+00
         0.00000E+00
         0.00000E+00
         0.00000E+00
         0.00000E+00
         0.00000E+00
         0.00000E+00
         0.00000E+00
         0.00000E+00
         0.00000E+00
         0.00000E+00
         0.00000E+00
         0.00000E+00
         0.00000E+00
         0.00000E+00
         0.00000E+00
         0.00000E+00
         0.00000E+00
         0.00000E+00
         0.00000E+00
         0.00000E+00
         0.00000E+00
         0.00000E+00
         0.00000E+00
         0.00000E+00
         0.00000E+00
         0.00000E+00
         0.00000E+00
         0.00000E+00
         0.00000E+00
         0.00000E+00
         0.00000E+00
         0.00000E+00
         0.00000E+00
         0.00000E+00
         0.00000E+00
         0.00000E+00
         0.00000E+00
         0.00000E+00
         0.00000E+00
         0.00000E+00
         0.00000E+00
         0.00000E+00
         0.00000E+00
         0.00000E+00
         0.00000E+00
         0.00000E+00
         0.00000E+00
         0.00000E+00
         0.00000E+00
         0.00000E+00
         0.00000E+00
         0.00000E+00
         0.00000E+00
         0.00000E+00
         0.00000E+00
         0.00000E+00
         0.00000E+00
         0.00000E+00
         0.00000E+00
         0.00000E+00
         0.00000E+00
         0.00000E+00
         0.00000E+00
         0.00000E+00
         0.00000E+00
         0.00000E+00
         0.00000E+00
         0.00000E+00
         0.00000E+00
         0.00000E+00
         0.00000E+00
         0.00000E+00
         0.00000E+00
         0.00000E+00
         0.00000E+00
         0.00000E+00
         0.00000E+00
         0.00000E+00
         0.00000E+00
         0.00000E+00
         0.00000E+00
         0.00000E+00
         0.00000E+00
         0.00000E+00
         0.00000E+00
         0.00000E+00
         0.00000E+00
         0.00000E+00
         0.00000E+00
         0.00000E+00
         0.00000E+00
         0.00000E+00
         0.00000E+00
         0.00000E+00
         0.00000E+00
         0.00000E+00
         0.00000E+00
         0.00000E+00
         0.00000E+00
         0.00000E+00
         0.00000E+00
         0.00000E+00
         0.00000E+00
         0.00000E+00
         0.00000E+00
         0.00000E+00
         0.00000E+00
         0.00000E+00
         0.00000E+00
         0.00000E+00
         0.00000E+00
         0.00000E+00
         0.00000E+00
         0.00000E+00
         0.00000E+00
         0.00000E+00
         0.00000E+00
         0.00000E+00
         0.00000E+00
         0.00000E+00
         0.00000E+00
         0.00000E+00
         0.00000E+00
         0.00000E+00
         0.00000E+00
         0.00000E+00
         0.00000E+00
         0.00000E+00
         0.00000E+00
         0.00000E+00
         0.00000E+00
         0.00000E+00
         0.00000E+00
         0.00000E+00
         0.00000E+00
         0.00000E+00
         0.00000E+00
         0.00000E+00
         0.00000E+00
         0.00000E+00
         0.00000E+00
         0.00000E+00
         0.00000E+00
         0.00000E+00
         0.00000E+00
         0.00000E+00
         0.00000E+00
         0.00000E+00
         0.00000E+00
         0.00000E+00
         0.00000E+00
         0.00000E+00
         0.00000E+00
         0.00000E+00
         0.00000E+00
         0.00000E+00
         0.00000E+00
         0.00000E+00
         0.00000E+00
         0.00000E+00
         0.00000E+00
         0.00000E+00
         0.00000E+00
         0.00000E+00
         0.00000E+00
         0.00000E+00
         0.00000E+00
         0.00000E+00
         0.00000E+00
         0.00000E+00
         0.00000E+00
         0.00000E+00
         0.00000E+00
         0.00000E+00
         0.00000E+00
         0.00000E+00
         0.00000E+00
         0.00000E+00
         0.00000E+00
         0.00000E+00
         0.00000E+00
         0.00000E+00
         0.00000E+00
         0.00000E+00
         0.00000E+00
         0.00000E+00
         0.00000E+00
         0.00000E+00
         0.00000E+00
         0.00000E+00
         0.00000E+00
         0.00000E+00
         0.00000E+00
         0.00000E+00
         0.00000E+00
         0.00000E+00
         0.00000E+00
         0.00000E+00
         0.00000E+00
         0.00000E+00
         0.00000E+00
         0.00000E+00
         0.00000E+00
         0.00000E+00
         0.00000E+00
         0.00000E+00
         0.00000E+00
         0.00000E+00
         0.00000E+00
         0.00000E+00
         0.00000E+00
         0.00000E+00
         0.00000E+00
         0.00000E+00
         0.00000E+00
         0.00000E+00
         0.00000E+00
         0.00000E+00
         0.00000E+00
         0.00000E+00
         0.00000E+00
         0.00000E+00
         0.00000E+00
         0.00000E+00
         0.00000E+00
         0.00000E+00
         0.00000E+00
         0.00000E+00
         0.00000E+00
         0.00000E+00
         0.00000E+00
         0.00000E+00
         0.00000E+00
         0.00000E+00
         0.00000E+00
         0.00000E+00
         0.00000E+00
         0.00000E+00
         0.00000E+00
         0.00000E+00
         0.00000E+00
         0.00000E+00
         0.00000E+00
         0.00000E+00
         0.00000E+00
         0.00000E+00
         0.00000E+00
         0.00000E+00
         0.00000E+00
         0.00000E+00
         0.00000E+00
         0.00000E+00
         0.00000E+00
         0.00000E+00
         0.00000E+00
         0.00000E+00
         0.00000E+00
         0.00000E+00
         0.00000E+00
         0.00000E+00
         0.00000E+00
         0.00000E+00
         0.00000E+00
         0.00000E+00
         0.00000E+00
         0.00000E+00
         0.00000E+00
         0.00000E+00
         0.00000E+00
         0.00000E+00
         0.00000E+00
         0.00000E+00
         0.00000E+00
         0.00000E+00
         0.00000E+00
         0.00000E+00
         0.00000E+00
         0.00000E+00
         0.00000E+00
         0.00000E+00
         0.00000E+00
         0.00000E+00
         0.00000E+00
         0.00000E+00
         0.00000E+00
         0.00000E+00
         0.00000E+00
         0.00000E+00
         0.00000E+00
         0.00000E+00
         0.00000E+00
         0.00000E+00
         0.00000E+00
         0.00000E+00
         0.00000E+00
         0.00000E+00
         0.00000E+00
         0.00000E+00
         0.00000E+00
         0.00000E+00
         0.00000E+00
         0.00000E+00
         0.00000E+00
         0.00000E+00
         0.00000E+00
         0.00000E+00
         0.00000E+00
         0.00000E+00
         0.00000E+00
         0.00000E+00
         0.00000E+00
         0.00000E+00
         0.00000E+00
         0.00000E+00
         0.00000E+00
         0.00000E+00
         0.00000E+00
         0.00000E+00
         0.00000E+00
         0.00000E+00
         0.00000E+00
         0.00000E+00
         0.00000E+00
         0.00000E+00
         0.00000E+00
         0.00000E+00
         0.00000E+00
         0.00000E+00
         0.00000E+00
         0.00000E+00
         0.00000E+00
         0.00000E+00
         0.00000E+00
         0.00000E+00
         0.00000E+00
         0.00000E+00
         0.00000E+00
         0.00000E+00
         0.00000E+00
         0.00000E+00
         0.00000E+00
         0.00000E+00
         0.00000E+00
         0.00000E+00
         0.00000E+00
         0.00000E+00
         0.00000E+00
         0.00000E+00
         0.00000E+00
         0.00000E+00
         0.00000E+00
         0.00000E+00
         0.00000E+00
         0.00000E+00
         0.00000E+00
         0.00000E+00
         0.00000E+00
         0.00000E+00
         0.00000E+00
         0.00000E+00
         0.00000E+00
         0.00000E+00
         0.00000E+00
         0.00000E+00
         0.00000E+00
         0.00000E+00
         0.00000E+00
         0.00000E+00
         0.00000E+00
         0.00000E+00
         0.00000E+00
         0.00000E+00
         0.00000E+00
         0.00000E+00
         0.00000E+00
         0.00000E+00
         0.00000E+00
         0.00000E+00
         0.00000E+00
         0.00000E+00
         0.00000E+00
         0.00000E+00
         0.00000E+00
         0.00000E+00
         0.00000E+00
         0.00000E+00
         0.00000E+00
         0.00000E+00
         0.00000E+00
         0.00000E+00
         0.00000E+00
         0.00000E+00
         0.00000E+00
         0.00000E+00
         0.00000E+00
         0.00000E+00
         0.00000E+00
         0.00000E+00
         0.00000E+00
         0.00000E+00
         0.00000E+00
         0.00000E+00
         0.00000E+00
         0.00000E+00
         0.00000E+00
         0.00000E+00
         0.00000E+00
         0.00000E+00
         0.00000E+00
         0.00000E+00
         0.00000E+00
         0.00000E+00
         0.00000E+00
         0.00000E+00
         0.00000E+00
         0.00000E+00
         0.00000E+00
         0.00000E+00
         0.00000E+00
         0.00000E+00
         0.00000E+00
         0.00000E+00
         0.00000E+00
         0.00000E+00
         0.00000E+00
         0.00000E+00
         0.00000E+00
         0.00000E+00
         0.00000E+00
         0.00000E+00
         0.00000E+00
         0.00000E+00
         0.00000E+00
         0.00000E+00
         0.00000E+00
         0.00000E+00
         0.00000E+00
         0.00000E+00
         0.00000E+00
         0.00000E+00
         0.00000E+00
         0.00000E+00
         0.00000E+00
         0.00000E+00
         0.00000E+00
         0.00000E+00
         0.00000E+00
         0.00000E+00
         0.00000E+00
         0.00000E+00
         0.00000E+00
         0.00000E+00
         0.00000E+00
         0.00000E+00
         0.00000E+00
         0.00000E+00
         0.00000E+00
         0.00000E+00
         0.00000E+00
         0.00000E+00
         0.00000E+00
         0.00000E+00
         0.00000E+00
         0.00000E+00
         0.00000E+00
         0.00000E+00
         0.00000E+00
         0.00000E+00
         0.00000E+00
         0.00000E+00
         0.00000E+00
         0.00000E+00
         0.00000E+00
         0.00000E+00
         0.00000E+00
         0.00000E+00
         0.00000E+00
         0.00000E+00
         0.00000E+00
         0.00000E+00
         0.00000E+00
         0.00000E+00
         0.00000E+00
         0.00000E+00
         0.00000E+00
         0.00000E+00
         0.00000E+00
         0.00000E+00
         0.00000E+00
         0.00000E+00
         0.00000E+00
         0.00000E+00
         0.00000E+00
         0.00000E+00
         0.00000E+00
         0.00000E+00
         0.00000E+00
         0.00000E+00
         0.00000E+00
         0.00000E+00
         0.00000E+00
         0.00000E+00
         0.00000E+00
         0.00000E+00
         0.00000E+00
         0.00000E+00
         0.00000E+00
         0.00000E+00
         0.00000E+00
         0.00000E+00
         0.00000E+00
         0.00000E+00
         0.00000E+00
         0.00000E+00
         0.00000E+00
         0.00000E+00
         0.00000E+00
         0.00000E+00
         0.00000E+00
         0.00000E+00
         0.00000E+00
         0.00000E+00
         0.00000E+00
         0.00000E+00
         0.00000E+00
         0.00000E+00
         0.00000E+00
         0.00000E+00
         0.00000E+00
         0.00000E+00
         0.00000E+00
         0.00000E+00
         0.00000E+00
         0.00000E+00
         0.00000E+00
         0.00000E+00
         0.00000E+00
         0.00000E+00
         0.00000E+00
         0.00000E+00
         0.00000E+00
         0.00000E+00
         0.00000E+00
         0.00000E+00
         0.00000E+00
         0.00000E+00
         0.00000E+00
         0.00000E+00
         0.00000E+00
         0.00000E+00
         0.00000E+00
         0.00000E+00
         0.00000E+00
         0.00000E+00
         0.00000E+00
         0.00000E+00
         0.00000E+00
         0.00000E+00
         0.00000E+00
         0.00000E+00
         0.00000E+00
         0.00000E+00
         0.00000E+00
         0.00000E+00
         0.00000E+00
         0.00000E+00
         0.00000E+00
         0.00000E+00
         0.00000E+00
         0.00000E+00
         0.00000E+00
         0.00000E+00
         0.00000E+00
         0.00000E+00
         0.00000E+00
         0.00000E+00
         0.00000E+00
         0.00000E+00
         0.00000E+00
         0.00000E+00
         0.00000E+00
         0.00000E+00
         0.00000E+00
         0.00000E+00
         0.00000E+00
         0.00000E+00
         0.00000E+00
         0.00000E+00
         0.00000E+00
         0.00000E+00
         0.00000E+00
         0.00000E+00
         0.00000E+00
         0.00000E+00
         0.00000E+00
         0.00000E+00
         0.00000E+00
         0.00000E+00
         0.00000E+00
         0.00000E+00
         0.00000E+00
         0.00000E+00
         0.00000E+00
         0.00000E+00
         0.00000E+00
         0.00000E+00
         0.00000E+00
         0.00000E+00
         0.00000E+00
         0.00000E+00
         0.00000E+00
         0.00000E+00
         0.00000E+00
         0.00000E+00
         0.00000E+00
         0.00000E+00
         0.00000E+00
         0.00000E+00
         0.00000E+00
         0.00000E+00
         0.00000E+00
         0.00000E+00
         0.00000E+00
         0.00000E+00
         0.00000E+00
         0.00000E+00
         0.00000E+00
         0.00000E+00
         0.00000E+00
         0.00000E+00
         0.00000E+00
         0.00000E+00
         0.00000E+00
         0.00000E+00
         0.00000E+00
         0.00000E+00
         0.00000E+00
         0.00000E+00
         0.00000E+00
         0.00000E+00
         0.00000E+00
         0.00000E+00
         0.00000E+00
         0.00000E+00
         0.00000E+00
         0.00000E+00
         0.00000E+00
         0.00000E+00
         0.00000E+00
         0.00000E+00
         0.00000E+00
         0.00000E+00
         0.00000E+00
         0.00000E+00
         0.00000E+00
         0.00000E+00
         0.00000E+00
         0.00000E+00
         0.00000E+00
         0.00000E+00
         0.00000E+00
         0.00000E+00
         0.00000E+00
         0.00000E+00
         0.00000E+00
         0.00000E+00
         0.00000E+00
         0.00000E+00
         0.00000E+00
         0.00000E+00
         0.00000E+00
         0.00000E+00
         0.00000E+00
         0.00000E+00
         0.00000E+00
         0.00000E+00
         0.00000E+00
         0.00000E+00
         0.00000E+00
         0.00000E+00
         0.00000E+00
         0.00000E+00
         0.00000E+00
         0.00000E+00
         0.00000E+00
         0.00000E+00
         0.00000E+00
         0.00000E+00
         0.00000E+00
         0.00000E+00
         0.00000E+00
         0.00000E+00
         0.00000E+00
         0.00000E+00
         0.00000E+00
         0.00000E+00
         0.00000E+00
         0.00000E+00
         0.00000E+00
         0.00000E+00
         0.00000E+00
         0.00000E+00
         0.00000E+00
         0.00000E+00
         0.00000E+00
         0.00000E+00
         0.00000E+00
         0.00000E+00
         0.00000E+00
         0.00000E+00
         0.00000E+00
         0.00000E+00
         0.00000E+00
         0.00000E+00
         0.00000E+00
         0.00000E+00
         0.00000E+00
         0.00000E+00
         0.00000E+00
         0.00000E+00
         0.00000E+00
         0.00000E+00
         0.00000E+00
         0.00000E+00
         0.00000E+00
         0.00000E+00
         0.00000E+00
         0.00000E+00
         0.00000E+00
         0.00000E+00
         0.00000E+00
         0.00000E+00
         0.00000E+00
         0.00000E+00
         0.00000E+00
         0.00000E+00
         0.00000E+00
         0.00000E+00
         0.00000E+00
         0.00000E+00
         0.00000E+00
         0.00000E+00
         0.00000E+00
         0.00000E+00
         0.00000E+00
         0.00000E+00
         0.00000E+00
         0.00000E+00
         0.00000E+00
         0.00000E+00
         0.00000E+00
         0.00000E+00
         0.00000E+00
         0.00000E+00
         0.00000E+00
         0.00000E+00
         0.00000E+00
         0.00000E+00
         0.00000E+00
         0.00000E+00
         0.00000E+00
         0.00000E+00
         0.00000E+00
         0.00000E+00
         0.00000E+00
         0.00000E+00
         0.00000E+00
         0.00000E+00
         0.00000E+00
         0.00000E+00
         0.00000E+00
         0.00000E+00
         0.00000E+00
         0.00000E+00
         0.00000E+00
         0.00000E+00
         0.00000E+00
         0.00000E+00
         0.00000E+00
         0.00000E+00
         0.00000E+00
         0.00000E+00
         0.00000E+00
         0.00000E+00
         0.00000E+00
         0.00000E+00
         0.00000E+00
         0.00000E+00
         0.00000E+00
         0.00000E+00
         0.00000E+00
         0.00000E+00
         0.00000E+00
         0.00000E+00
         0.00000E+00
         0.00000E+00
         0.00000E+00
         0.00000E+00
         0.00000E+00
         0.00000E+00
         0.00000E+00
         0.00000E+00
         0.00000E+00
         0.00000E+00
         0.00000E+00
         0.00000E+00
         0.00000E+00
         0.00000E+00
         0.00000E+00
         0.00000E+00
         0.00000E+00
         0.00000E+00
         0.00000E+00
         0.00000E+00
         0.00000E+00
         0.00000E+00
         0.00000E+00
         0.00000E+00
         0.00000E+00
         0.00000E+00
         0.00000E+00
         0.00000E+00
         0.00000E+00
         0.00000E+00
         0.00000E+00
         0.00000E+00
         0.00000E+00
         0.00000E+00
         0.00000E+00
         0.00000E+00
         0.00000E+00
         0.00000E+00
         0.00000E+00
         0.00000E+00
         0.00000E+00
         0.00000E+00
         0.00000E+00
         0.00000E+00
         0.00000E+00
         0.00000E+00
         0.00000E+00
         0.00000E+00
         0.00000E+00
         0.00000E+00
         0.00000E+00
         0.00000E+00
         0.00000E+00
         0.00000E+00
         0.00000E+00
         0.00000E+00
         0.00000E+00
         0.00000E+00
         0.00000E+00
         0.00000E+00
         0.00000E+00
         0.00000E+00
         0.00000E+00
         0.00000E+00
         0.00000E+00
         0.00000E+00
         0.00000E+00
         0.00000E+00
         0.00000E+00
         0.00000E+00
         0.00000E+00
         0.00000E+00
         0.00000E+00
         0.00000E+00
         0.00000E+00
         0.00000E+00
         0.00000E+00
         0.00000E+00
         0.00000E+00
         0.00000E+00
         0.00000E+00
         0.00000E+00
         0.00000E+00
         0.00000E+00
         0.00000E+00
         0.00000E+00
         0.00000E+00
         0.00000E+00
         0.00000E+00
         0.00000E+00
         0.00000E+00
         0.00000E+00
         0.00000E+00
         0.00000E+00
         0.00000E+00
         0.00000E+00
         0.00000E+00
         0.00000E+00
         0.00000E+00
         0.00000E+00
         0.00000E+00
         0.00000E+00
         0.00000E+00
         0.00000E+00
         0.00000E+00
         0.00000E+00
         0.00000E+00
         0.00000E+00
         0.00000E+00
         0.00000E+00
         0.00000E+00
         0.00000E+00
         0.00000E+00
         0.00000E+00
         0.00000E+00
         0.00000E+00
         0.00000E+00
         0.00000E+00
         0.00000E+00
         0.00000E+00
         0.00000E+00
         0.00000E+00
         0.00000E+00
         0.00000E+00
         0.00000E+00
         0.00000E+00
         0.00000E+00
         0.00000E+00
         0.00000E+00
         0.00000E+00
         0.00000E+00
         0.00000E+00
         0.00000E+00
         0.00000E+00
         0.00000E+00
         0.00000E+00
         0.00000E+00
         0.00000E+00
         0.00000E+00
         0.00000E+00
         0.00000E+00
         0.00000E+00
         0.00000E+00
         0.00000E+00
         0.00000E+00
         0.00000E+00
         0.00000E+00
         0.00000E+00
         0.00000E+00
         0.00000E+00
         0.00000E+00
         0.00000E+00
         0.00000E+00
         0.00000E+00
         0.00000E+00
         0.00000E+00
         0.00000E+00
         0.00000E+00
         0.00000E+00
         0.00000E+00
         0.00000E+00
         0.00000E+00
         0.00000E+00
         0.00000E+00
         0.00000E+00
         0.00000E+00
         0.00000E+00
         0.00000E+00
         0.00000E+00
         0.00000E+00
         0.00000E+00
         0.00000E+00
         0.00000E+00
         0.00000E+00
         0.00000E+00
         0.00000E+00
         0.00000E+00
         0.00000E+00
         0.00000E+00
         0.00000E+00
         0.00000E+00
         0.00000E+00
         0.00000E+00
         0.00000E+00
         0.00000E+00
         0.00000E+00
         0.00000E+00
         0.00000E+00
         0.00000E+00
         0.00000E+00
         0.00000E+00
         0.00000E+00
         0.00000E+00
         0.00000E+00
         0.00000E+00
         0.00000E+00
         0.00000E+00
         0.00000E+00
         0.00000E+00
         0.00000E+00
         0.00000E+00
         0.00000E+00
         0.00000E+00
         0.00000E+00
         0.00000E+00
         0.00000E+00
         0.00000E+00
         0.00000E+00
         0.00000E+00
         0.00000E+00
         0.00000E+00
         0.00000E+00
         0.00000E+00
         0.00000E+00
         0.00000E+00
         0.00000E+00
         0.00000E+00
         0.00000E+00
         0.00000E+00
         0.00000E+00
         0.00000E+00
         0.00000E+00
         0.00000E+00
         0.00000E+00
         0.00000E+00
         0.00000E+00
         0.00000E+00
         0.00000E+00
         0.00000E+00
         0.00000E+00
         0.00000E+00
         0.00000E+00
         0.00000E+00
         0.00000E+00
         0.00000E+00
         0.00000E+00
         0.00000E+00
         0.00000E+00
         0.00000E+00
         0.00000E+00
         0.00000E+00
         0.00000E+00
         0.00000E+00
         0.00000E+00
         0.00000E+00
         0.00000E+00
         0.00000E+00
         0.00000E+00
         0.00000E+00
         0.00000E+00
         0.00000E+00
         0.00000E+00
         0.00000E+00
         0.00000E+00
         0.00000E+00
         0.00000E+00
         0.00000E+00
         0.00000E+00
         0.00000E+00
         0.00000E+00
         0.00000E+00
         0.00000E+00
         0.00000E+00
  
SCALARS               pre_disp_force_y  double 1
LOOKUP_TABLE default
         0.00000E+00
         0.00000E+00
         0.00000E+00
         0.00000E+00
         0.00000E+00
         0.00000E+00
         0.00000E+00
         0.00000E+00
         0.00000E+00
         0.00000E+00
         0.00000E+00
         0.00000E+00
         0.00000E+00
         0.00000E+00
         0.00000E+00
         0.00000E+00
         0.00000E+00
         0.00000E+00
         0.00000E+00
         0.00000E+00
         0.00000E+00
         0.00000E+00
         0.00000E+00
         0.00000E+00
         0.00000E+00
         0.00000E+00
         0.00000E+00
         0.00000E+00
         0.00000E+00
         0.00000E+00
         0.00000E+00
         0.00000E+00
         0.00000E+00
         0.00000E+00
         0.00000E+00
         0.00000E+00
         0.00000E+00
         0.00000E+00
         0.00000E+00
         0.00000E+00
         0.00000E+00
         0.00000E+00
         0.00000E+00
         0.00000E+00
         0.00000E+00
         0.00000E+00
         0.00000E+00
         0.00000E+00
         0.00000E+00
         0.00000E+00
         0.00000E+00
         0.00000E+00
         0.00000E+00
         0.00000E+00
         0.00000E+00
         0.00000E+00
         0.00000E+00
         0.00000E+00
         0.00000E+00
         0.00000E+00
         0.00000E+00
         0.00000E+00
         0.00000E+00
         0.00000E+00
         0.00000E+00
         0.00000E+00
         0.00000E+00
         0.00000E+00
         0.00000E+00
         0.00000E+00
         0.00000E+00
         0.00000E+00
         0.00000E+00
         0.00000E+00
         0.00000E+00
         0.00000E+00
         0.00000E+00
         0.00000E+00
         0.00000E+00
         0.00000E+00
         0.00000E+00
         0.00000E+00
         0.00000E+00
         0.00000E+00
         0.00000E+00
         0.00000E+00
         0.00000E+00
         0.00000E+00
         0.00000E+00
         0.00000E+00
         0.00000E+00
         0.00000E+00
         0.00000E+00
         0.00000E+00
         0.00000E+00
         0.00000E+00
         0.00000E+00
         0.00000E+00
         0.00000E+00
         0.00000E+00
         0.00000E+00
         0.00000E+00
         0.00000E+00
         0.00000E+00
         0.00000E+00
         0.00000E+00
         0.00000E+00
         0.00000E+00
         0.00000E+00
         0.00000E+00
         0.00000E+00
         0.00000E+00
         0.00000E+00
         0.00000E+00
         0.00000E+00
         0.00000E+00
         0.00000E+00
         0.00000E+00
         0.00000E+00
         0.00000E+00
         0.00000E+00
         0.00000E+00
         0.00000E+00
         0.00000E+00
         0.00000E+00
         0.00000E+00
         0.00000E+00
         0.00000E+00
         0.00000E+00
         0.00000E+00
         0.00000E+00
         0.00000E+00
         0.00000E+00
         0.00000E+00
         0.00000E+00
         0.00000E+00
         0.00000E+00
         0.00000E+00
         0.00000E+00
         0.00000E+00
         0.00000E+00
         0.00000E+00
         0.00000E+00
         0.00000E+00
         0.00000E+00
         0.00000E+00
         0.00000E+00
         0.00000E+00
         0.00000E+00
         0.00000E+00
         0.00000E+00
         0.00000E+00
         0.00000E+00
         0.00000E+00
         0.00000E+00
         0.00000E+00
         0.00000E+00
         0.00000E+00
         0.00000E+00
         0.00000E+00
         0.00000E+00
         0.00000E+00
         0.00000E+00
         0.00000E+00
         0.00000E+00
         0.00000E+00
         0.00000E+00
         0.00000E+00
         0.00000E+00
         0.00000E+00
         0.00000E+00
         0.00000E+00
         0.00000E+00
         0.00000E+00
         0.00000E+00
         0.00000E+00
         0.00000E+00
         0.00000E+00
         0.00000E+00
         0.00000E+00
         0.00000E+00
         0.00000E+00
         0.00000E+00
         0.00000E+00
         0.00000E+00
         0.00000E+00
         0.00000E+00
         0.00000E+00
         0.00000E+00
         0.00000E+00
         0.00000E+00
         0.00000E+00
         0.00000E+00
         0.00000E+00
         0.00000E+00
         0.00000E+00
         0.00000E+00
         0.00000E+00
         0.00000E+00
         0.00000E+00
         0.00000E+00
         0.00000E+00
         0.00000E+00
         0.00000E+00
         0.00000E+00
         0.00000E+00
         0.00000E+00
         0.00000E+00
         0.00000E+00
         0.00000E+00
         0.00000E+00
         0.00000E+00
         0.00000E+00
         0.00000E+00
         0.00000E+00
         0.00000E+00
         0.00000E+00
         0.00000E+00
         0.00000E+00
         0.00000E+00
         0.00000E+00
         0.00000E+00
         0.00000E+00
         0.00000E+00
         0.00000E+00
         0.00000E+00
         0.00000E+00
         0.00000E+00
         0.00000E+00
         0.00000E+00
         0.00000E+00
         0.00000E+00
         0.00000E+00
         0.00000E+00
         0.00000E+00
         0.00000E+00
         0.00000E+00
         0.00000E+00
         0.00000E+00
         0.00000E+00
         0.00000E+00
         0.00000E+00
         0.00000E+00
         0.00000E+00
         0.00000E+00
         0.00000E+00
         0.00000E+00
         0.00000E+00
         0.00000E+00
         0.00000E+00
         0.00000E+00
         0.00000E+00
         0.00000E+00
         0.00000E+00
         0.00000E+00
         0.00000E+00
         0.00000E+00
         0.00000E+00
         0.00000E+00
         0.00000E+00
         0.00000E+00
         0.00000E+00
         0.00000E+00
         0.00000E+00
         0.00000E+00
         0.00000E+00
         0.00000E+00
         0.00000E+00
         0.00000E+00
         0.00000E+00
         0.00000E+00
         0.00000E+00
         0.00000E+00
         0.00000E+00
         0.00000E+00
         0.00000E+00
         0.00000E+00
         0.00000E+00
         0.00000E+00
         0.00000E+00
         0.00000E+00
         0.00000E+00
         0.00000E+00
         0.00000E+00
         0.00000E+00
         0.00000E+00
         0.00000E+00
         0.00000E+00
         0.00000E+00
         0.00000E+00
         0.00000E+00
         0.00000E+00
         0.00000E+00
         0.00000E+00
         0.00000E+00
         0.00000E+00
         0.00000E+00
         0.00000E+00
         0.00000E+00
         0.00000E+00
         0.00000E+00
         0.00000E+00
         0.00000E+00
         0.00000E+00
         0.00000E+00
         0.00000E+00
         0.00000E+00
         0.00000E+00
         0.00000E+00
         0.00000E+00
         0.00000E+00
         0.00000E+00
         0.00000E+00
         0.00000E+00
         0.00000E+00
         0.00000E+00
         0.00000E+00
         0.00000E+00
         0.00000E+00
         0.00000E+00
         0.00000E+00
         0.00000E+00
         0.00000E+00
         0.00000E+00
         0.00000E+00
         0.00000E+00
         0.00000E+00
         0.00000E+00
         0.00000E+00
         0.00000E+00
         0.00000E+00
         0.00000E+00
         0.00000E+00
         0.00000E+00
         0.00000E+00
         0.00000E+00
         0.00000E+00
         0.00000E+00
         0.00000E+00
         0.00000E+00
         0.00000E+00
         0.00000E+00
         0.00000E+00
         0.00000E+00
         0.00000E+00
         0.00000E+00
         0.00000E+00
         0.00000E+00
         0.00000E+00
         0.00000E+00
         0.00000E+00
         0.00000E+00
         0.00000E+00
         0.00000E+00
         0.00000E+00
         0.00000E+00
         0.00000E+00
         0.00000E+00
         0.00000E+00
         0.00000E+00
         0.00000E+00
         0.00000E+00
         0.00000E+00
         0.00000E+00
         0.00000E+00
         0.00000E+00
         0.00000E+00
         0.00000E+00
         0.00000E+00
         0.00000E+00
         0.00000E+00
         0.00000E+00
         0.00000E+00
         0.00000E+00
         0.00000E+00
         0.00000E+00
         0.00000E+00
         0.00000E+00
         0.00000E+00
         0.00000E+00
         0.00000E+00
         0.00000E+00
         0.00000E+00
         0.00000E+00
         0.00000E+00
         0.00000E+00
         0.00000E+00
         0.00000E+00
         0.00000E+00
         0.00000E+00
         0.00000E+00
         0.00000E+00
         0.00000E+00
         0.00000E+00
         0.00000E+00
         0.00000E+00
         0.00000E+00
         0.00000E+00
         0.00000E+00
         0.00000E+00
         0.00000E+00
         0.00000E+00
         0.00000E+00
         0.00000E+00
         0.00000E+00
         0.00000E+00
         0.00000E+00
         0.00000E+00
         0.00000E+00
         0.00000E+00
         0.00000E+00
         0.00000E+00
         0.00000E+00
         0.00000E+00
         0.00000E+00
         0.00000E+00
         0.00000E+00
         0.00000E+00
         0.00000E+00
         0.00000E+00
         0.00000E+00
         0.00000E+00
         0.00000E+00
         0.00000E+00
         0.00000E+00
         0.00000E+00
         0.00000E+00
         0.00000E+00
         0.00000E+00
         0.00000E+00
         0.00000E+00
         0.00000E+00
         0.00000E+00
         0.00000E+00
         0.00000E+00
         0.00000E+00
         0.00000E+00
         0.00000E+00
         0.00000E+00
         0.00000E+00
         0.00000E+00
         0.00000E+00
         0.00000E+00
         0.00000E+00
         0.00000E+00
         0.00000E+00
         0.00000E+00
         0.00000E+00
         0.00000E+00
         0.00000E+00
         0.00000E+00
         0.00000E+00
         0.00000E+00
         0.00000E+00
         0.00000E+00
         0.00000E+00
         0.00000E+00
         0.00000E+00
         0.00000E+00
         0.00000E+00
         0.00000E+00
         0.00000E+00
         0.00000E+00
         0.00000E+00
         0.00000E+00
         0.00000E+00
         0.00000E+00
         0.00000E+00
         0.00000E+00
         0.00000E+00
         0.00000E+00
         0.00000E+00
         0.00000E+00
         0.00000E+00
         0.00000E+00
         0.00000E+00
         0.00000E+00
         0.00000E+00
         0.00000E+00
         0.00000E+00
         0.00000E+00
         0.00000E+00
         0.00000E+00
         0.00000E+00
         0.00000E+00
         0.00000E+00
         0.00000E+00
         0.00000E+00
         0.00000E+00
         0.00000E+00
         0.00000E+00
         0.00000E+00
         0.00000E+00
         0.00000E+00
         0.00000E+00
         0.00000E+00
         0.00000E+00
         0.00000E+00
         0.00000E+00
         0.00000E+00
         0.00000E+00
         0.00000E+00
         0.00000E+00
         0.00000E+00
         0.00000E+00
         0.00000E+00
         0.00000E+00
         0.00000E+00
         0.00000E+00
         0.00000E+00
         0.00000E+00
         0.00000E+00
         0.00000E+00
         0.00000E+00
         0.00000E+00
         0.00000E+00
         0.00000E+00
         0.00000E+00
         0.00000E+00
         0.00000E+00
         0.00000E+00
         0.00000E+00
         0.00000E+00
         0.00000E+00
         0.00000E+00
         0.00000E+00
         0.00000E+00
         0.00000E+00
         0.00000E+00
         0.00000E+00
         0.00000E+00
         0.00000E+00
         0.00000E+00
         0.00000E+00
         0.00000E+00
         0.00000E+00
         0.00000E+00
         0.00000E+00
         0.00000E+00
         0.00000E+00
         0.00000E+00
         0.00000E+00
         0.00000E+00
         0.00000E+00
         0.00000E+00
         0.00000E+00
         0.00000E+00
         0.00000E+00
         0.00000E+00
         0.00000E+00
         0.00000E+00
         0.00000E+00
         0.00000E+00
         0.00000E+00
         0.00000E+00
         0.00000E+00
         0.00000E+00
         0.00000E+00
         0.00000E+00
         0.00000E+00
         0.00000E+00
         0.00000E+00
         0.00000E+00
         0.00000E+00
         0.00000E+00
         0.00000E+00
         0.00000E+00
         0.00000E+00
         0.00000E+00
         0.00000E+00
         0.00000E+00
         0.00000E+00
         0.00000E+00
         0.00000E+00
         0.00000E+00
         0.00000E+00
         0.00000E+00
         0.00000E+00
         0.00000E+00
         0.00000E+00
         0.00000E+00
         0.00000E+00
         0.00000E+00
         0.00000E+00
         0.00000E+00
         0.00000E+00
         0.00000E+00
         0.00000E+00
         0.00000E+00
         0.00000E+00
         0.00000E+00
         0.00000E+00
         0.00000E+00
         0.00000E+00
         0.00000E+00
         0.00000E+00
         0.00000E+00
         0.00000E+00
         0.00000E+00
         0.00000E+00
         0.00000E+00
         0.00000E+00
         0.00000E+00
         0.00000E+00
         0.00000E+00
         0.00000E+00
         0.00000E+00
         0.00000E+00
         0.00000E+00
         0.00000E+00
         0.00000E+00
         0.00000E+00
         0.00000E+00
         0.00000E+00
         0.00000E+00
         0.00000E+00
         0.00000E+00
         0.00000E+00
         0.00000E+00
         0.00000E+00
         0.00000E+00
         0.00000E+00
         0.00000E+00
         0.00000E+00
         0.00000E+00
         0.00000E+00
         0.00000E+00
         0.00000E+00
         0.00000E+00
         0.00000E+00
         0.00000E+00
         0.00000E+00
         0.00000E+00
         0.00000E+00
         0.00000E+00
         0.00000E+00
         0.00000E+00
         0.00000E+00
         0.00000E+00
         0.00000E+00
         0.00000E+00
         0.00000E+00
         0.00000E+00
         0.00000E+00
         0.00000E+00
         0.00000E+00
         0.00000E+00
         0.00000E+00
         0.00000E+00
         0.00000E+00
         0.00000E+00
         0.00000E+00
         0.00000E+00
         0.00000E+00
         0.00000E+00
         0.00000E+00
         0.00000E+00
         0.00000E+00
         0.00000E+00
         0.00000E+00
         0.00000E+00
         0.00000E+00
         0.00000E+00
         0.00000E+00
         0.00000E+00
         0.00000E+00
         0.00000E+00
         0.00000E+00
         0.00000E+00
         0.00000E+00
         0.00000E+00
         0.00000E+00
         0.00000E+00
         0.00000E+00
         0.00000E+00
         0.00000E+00
         0.00000E+00
         0.00000E+00
         0.00000E+00
         0.00000E+00
         0.00000E+00
         0.00000E+00
         0.00000E+00
         0.00000E+00
         0.00000E+00
         0.00000E+00
         0.00000E+00
         0.00000E+00
         0.00000E+00
         0.00000E+00
         0.00000E+00
         0.00000E+00
         0.00000E+00
         0.00000E+00
         0.00000E+00
         0.00000E+00
         0.00000E+00
         0.00000E+00
         0.00000E+00
         0.00000E+00
         0.00000E+00
         0.00000E+00
         0.00000E+00
         0.00000E+00
         0.00000E+00
         0.00000E+00
         0.00000E+00
         0.00000E+00
         0.00000E+00
         0.00000E+00
         0.00000E+00
         0.00000E+00
         0.00000E+00
         0.00000E+00
         0.00000E+00
         0.00000E+00
         0.00000E+00
         0.00000E+00
         0.00000E+00
         0.00000E+00
         0.00000E+00
         0.00000E+00
         0.00000E+00
         0.00000E+00
         0.00000E+00
         0.00000E+00
         0.00000E+00
         0.00000E+00
         0.00000E+00
         0.00000E+00
         0.00000E+00
         0.00000E+00
         0.00000E+00
         0.00000E+00
         0.00000E+00
         0.00000E+00
         0.00000E+00
         0.00000E+00
         0.00000E+00
         0.00000E+00
         0.00000E+00
         0.00000E+00
         0.00000E+00
         0.00000E+00
         0.00000E+00
         0.00000E+00
         0.00000E+00
         0.00000E+00
         0.00000E+00
         0.00000E+00
         0.00000E+00
         0.00000E+00
         0.00000E+00
         0.00000E+00
         0.00000E+00
         0.00000E+00
         0.00000E+00
         0.00000E+00
         0.00000E+00
         0.00000E+00
         0.00000E+00
         0.00000E+00
         0.00000E+00
         0.00000E+00
         0.00000E+00
         0.00000E+00
         0.00000E+00
         0.00000E+00
         0.00000E+00
         0.00000E+00
         0.00000E+00
         0.00000E+00
         0.00000E+00
         0.00000E+00
         0.00000E+00
         0.00000E+00
         0.00000E+00
         0.00000E+00
         0.00000E+00
         0.00000E+00
         0.00000E+00
         0.00000E+00
         0.00000E+00
         0.00000E+00
         0.00000E+00
         0.00000E+00
         0.00000E+00
         0.00000E+00
         0.00000E+00
         0.00000E+00
         0.00000E+00
         0.00000E+00
         0.00000E+00
         0.00000E+00
         0.00000E+00
         0.00000E+00
         0.00000E+00
         0.00000E+00
         0.00000E+00
         0.00000E+00
         0.00000E+00
         0.00000E+00
         0.00000E+00
         0.00000E+00
         0.00000E+00
         0.00000E+00
         0.00000E+00
         0.00000E+00
         0.00000E+00
         0.00000E+00
         0.00000E+00
         0.00000E+00
         0.00000E+00
         0.00000E+00
         0.00000E+00
         0.00000E+00
         0.00000E+00
         0.00000E+00
         0.00000E+00
         0.00000E+00
         0.00000E+00
         0.00000E+00
         0.00000E+00
         0.00000E+00
         0.00000E+00
         0.00000E+00
         0.00000E+00
         0.00000E+00
         0.00000E+00
         0.00000E+00
         0.00000E+00
         0.00000E+00
         0.00000E+00
         0.00000E+00
         0.00000E+00
         0.00000E+00
         0.00000E+00
         0.00000E+00
         0.00000E+00
         0.00000E+00
         0.00000E+00
         0.00000E+00
         0.00000E+00
         0.00000E+00
         0.00000E+00
         0.00000E+00
         0.00000E+00
         0.00000E+00
         0.00000E+00
         0.00000E+00
         0.00000E+00
         0.00000E+00
         0.00000E+00
         0.00000E+00
         0.00000E+00
         0.00000E+00
         0.00000E+00
         0.00000E+00
         0.00000E+00
         0.00000E+00
         0.00000E+00
         0.00000E+00
         0.00000E+00
         0.00000E+00
         0.00000E+00
         0.00000E+00
         0.00000E+00
         0.00000E+00
         0.00000E+00
         0.00000E+00
         0.00000E+00
         0.00000E+00
         0.00000E+00
         0.00000E+00
         0.00000E+00
         0.00000E+00
         0.00000E+00
         0.00000E+00
         0.00000E+00
         0.00000E+00
         0.00000E+00
         0.00000E+00
         0.00000E+00
         0.00000E+00
         0.00000E+00
         0.00000E+00
         0.00000E+00
         0.00000E+00
         0.00000E+00
         0.00000E+00
         0.00000E+00
         0.00000E+00
         0.00000E+00
         0.00000E+00
         0.00000E+00
         0.00000E+00
         0.00000E+00
         0.00000E+00
         0.00000E+00
         0.00000E+00
         0.00000E+00
         0.00000E+00
         0.00000E+00
         0.00000E+00
         0.00000E+00
         0.00000E+00
         0.00000E+00
         0.00000E+00
         0.00000E+00
         0.00000E+00
         0.00000E+00
         0.00000E+00
         0.00000E+00
         0.00000E+00
         0.00000E+00
         0.00000E+00
         0.00000E+00
         0.00000E+00
         0.00000E+00
         0.00000E+00
         0.00000E+00
         0.00000E+00
         0.00000E+00
         0.00000E+00
         0.00000E+00
         0.00000E+00
         0.00000E+00
         0.00000E+00
         0.00000E+00
         0.00000E+00
         0.00000E+00
         0.00000E+00
         0.00000E+00
         0.00000E+00
         0.00000E+00
         0.00000E+00
         0.00000E+00
         0.00000E+00
         0.00000E+00
         0.00000E+00
         0.00000E+00
         0.00000E+00
         0.00000E+00
         0.00000E+00
         0.00000E+00
         0.00000E+00
         0.00000E+00
         0.00000E+00
         0.00000E+00
         0.00000E+00
         0.00000E+00
         0.00000E+00
         0.00000E+00
         0.00000E+00
         0.00000E+00
         0.00000E+00
         0.00000E+00
         0.00000E+00
         0.00000E+00
         0.00000E+00
         0.00000E+00
         0.00000E+00
         0.00000E+00
         0.00000E+00
         0.00000E+00
         0.00000E+00
         0.00000E+00
         0.00000E+00
         0.00000E+00
         0.00000E+00
         0.00000E+00
         0.00000E+00
         0.00000E+00
         0.00000E+00
         0.00000E+00
         0.00000E+00
         0.00000E+00
         0.00000E+00
         0.00000E+00
         0.00000E+00
         0.00000E+00
         0.00000E+00
         0.00000E+00
         0.00000E+00
         0.00000E+00
         0.00000E+00
         0.00000E+00
         0.00000E+00
         0.00000E+00
         0.00000E+00
         0.00000E+00
         0.00000E+00
         0.00000E+00
         0.00000E+00
         0.00000E+00
         0.00000E+00
         0.00000E+00
         0.00000E+00
         0.00000E+00
         0.00000E+00
         0.00000E+00
         0.00000E+00
         0.00000E+00
         0.00000E+00
         0.00000E+00
         0.00000E+00
         0.00000E+00
         0.00000E+00
         0.00000E+00
         0.00000E+00
         0.00000E+00
         0.00000E+00
         0.00000E+00
         0.00000E+00
         0.00000E+00
         0.00000E+00
         0.00000E+00
         0.00000E+00
         0.00000E+00
         0.00000E+00
         0.00000E+00
         0.00000E+00
         0.00000E+00
         0.00000E+00
         0.00000E+00
         0.00000E+00
         0.00000E+00
         0.00000E+00
         0.00000E+00
         0.00000E+00
         0.00000E+00
         0.00000E+00
         0.00000E+00
         0.00000E+00
         0.00000E+00
         0.00000E+00
         0.00000E+00
         0.00000E+00
         0.00000E+00
         0.00000E+00
         0.00000E+00
         0.00000E+00
         0.00000E+00
         0.00000E+00
         0.00000E+00
         0.00000E+00
         0.00000E+00
         0.00000E+00
         0.00000E+00
         0.00000E+00
         0.00000E+00
         0.00000E+00
         0.00000E+00
         0.00000E+00
         0.00000E+00
         0.00000E+00
         0.00000E+00
         0.00000E+00
         0.00000E+00
         0.00000E+00
         0.00000E+00
         0.00000E+00
         0.00000E+00
         0.00000E+00
         0.00000E+00
         0.00000E+00
         0.00000E+00
         0.00000E+00
         0.00000E+00
         0.00000E+00
         0.00000E+00
         0.00000E+00
         0.00000E+00
         0.00000E+00
         0.00000E+00
         0.00000E+00
         0.00000E+00
         0.00000E+00
         0.00000E+00
         0.00000E+00
         0.00000E+00
         0.00000E+00
         0.00000E+00
         0.00000E+00
         0.00000E+00
         0.00000E+00
         0.00000E+00
         0.00000E+00
         0.00000E+00
         0.00000E+00
         0.00000E+00
         0.00000E+00
         0.00000E+00
         0.00000E+00
         0.00000E+00
         0.00000E+00
         0.00000E+00
         0.00000E+00
         0.00000E+00
         0.00000E+00
         0.00000E+00
         0.00000E+00
         0.00000E+00
         0.00000E+00
         0.00000E+00
         0.00000E+00
         0.00000E+00
         0.00000E+00
         0.00000E+00
         0.00000E+00
         0.00000E+00
         0.00000E+00
         0.00000E+00
         0.00000E+00
         0.00000E+00
         0.00000E+00
         0.00000E+00
         0.00000E+00
         0.00000E+00
         0.00000E+00
         0.00000E+00
         0.00000E+00
         0.00000E+00
         0.00000E+00
         0.00000E+00
         0.00000E+00
         0.00000E+00
         0.00000E+00
         0.00000E+00
         0.00000E+00
         0.00000E+00
         0.00000E+00
         0.00000E+00
         0.00000E+00
         0.00000E+00
         0.00000E+00
         0.00000E+00
         0.00000E+00
         0.00000E+00
         0.00000E+00
         0.00000E+00
         0.00000E+00
         0.00000E+00
         0.00000E+00
         0.00000E+00
         0.00000E+00
         0.00000E+00
         0.00000E+00
         0.00000E+00
         0.00000E+00
         0.00000E+00
         0.00000E+00
         0.00000E+00
         0.00000E+00
         0.00000E+00
         0.00000E+00
         0.00000E+00
         0.00000E+00
         0.00000E+00
         0.00000E+00
         0.00000E+00
         0.00000E+00
         0.00000E+00
         0.00000E+00
         0.00000E+00
         0.00000E+00
         0.00000E+00
         0.00000E+00
         0.00000E+00
         0.00000E+00
         0.00000E+00
         0.00000E+00
         0.00000E+00
         0.00000E+00
         0.00000E+00
         0.00000E+00
         0.00000E+00
         0.00000E+00
         0.00000E+00
         0.00000E+00
         0.00000E+00
         0.00000E+00
         0.00000E+00
         0.00000E+00
         0.00000E+00
         0.00000E+00
         0.00000E+00
         0.00000E+00
         0.00000E+00
         0.00000E+00
         0.00000E+00
         0.00000E+00
         0.00000E+00
         0.00000E+00
         0.00000E+00
         0.00000E+00
         0.00000E+00
         0.00000E+00
         0.00000E+00
         0.00000E+00
         0.00000E+00
         0.00000E+00
         0.00000E+00
         0.00000E+00
         0.00000E+00
         0.00000E+00
         0.00000E+00
         0.00000E+00
         0.00000E+00
         0.00000E+00
         0.00000E+00
         0.00000E+00
         0.00000E+00
         0.00000E+00
         0.00000E+00
         0.00000E+00
         0.00000E+00
         0.00000E+00
         0.00000E+00
         0.00000E+00
         0.00000E+00
         0.00000E+00
         0.00000E+00
         0.00000E+00
         0.00000E+00
         0.00000E+00
         0.00000E+00
         0.00000E+00
         0.00000E+00
         0.00000E+00
         0.00000E+00
         0.00000E+00
         0.00000E+00
         0.00000E+00
         0.00000E+00
         0.00000E+00
         0.00000E+00
         0.00000E+00
         0.00000E+00
         0.00000E+00
         0.00000E+00
         0.00000E+00
         0.00000E+00
         0.00000E+00
         0.00000E+00
         0.00000E+00
         0.00000E+00
         0.00000E+00
         0.00000E+00
         0.00000E+00
         0.00000E+00
         0.00000E+00
         0.00000E+00
         0.00000E+00
         0.00000E+00
         0.00000E+00
         0.00000E+00
         0.00000E+00
         0.00000E+00
         0.00000E+00
         0.00000E+00
         0.00000E+00
         0.00000E+00
         0.00000E+00
         0.00000E+00
         0.00000E+00
         0.00000E+00
         0.00000E+00
         0.00000E+00
         0.00000E+00
         0.00000E+00
         0.00000E+00
         0.00000E+00
         0.00000E+00
         0.00000E+00
         0.00000E+00
         0.00000E+00
         0.00000E+00
         0.00000E+00
         0.00000E+00
         0.00000E+00
         0.00000E+00
         0.00000E+00
         0.00000E+00
         0.00000E+00
         0.00000E+00
         0.00000E+00
         0.00000E+00
         0.00000E+00
         0.00000E+00
         0.00000E+00
         0.00000E+00
         0.00000E+00
         0.00000E+00
         0.00000E+00
         0.00000E+00
         0.00000E+00
         0.00000E+00
         0.00000E+00
         0.00000E+00
         0.00000E+00
         0.00000E+00
         0.00000E+00
         0.00000E+00
         0.00000E+00
         0.00000E+00
         0.00000E+00
         0.00000E+00
         0.00000E+00
         0.00000E+00
         0.00000E+00
         0.00000E+00
         0.00000E+00
         0.00000E+00
         0.00000E+00
         0.00000E+00
         0.00000E+00
         0.00000E+00
         0.00000E+00
         0.00000E+00
         0.00000E+00
         0.00000E+00
         0.00000E+00
         0.00000E+00
         0.00000E+00
         0.00000E+00
         0.00000E+00
         0.00000E+00
         0.00000E+00
         0.00000E+00
         0.00000E+00
         0.00000E+00
         0.00000E+00
         0.00000E+00
         0.00000E+00
         0.00000E+00
         0.00000E+00
         0.00000E+00
         0.00000E+00
         0.00000E+00
         0.00000E+00
         0.00000E+00
         0.00000E+00
         0.00000E+00
         0.00000E+00
         0.00000E+00
         0.00000E+00
         0.00000E+00
         0.00000E+00
         0.00000E+00
         0.00000E+00
         0.00000E+00
         0.00000E+00
         0.00000E+00
         0.00000E+00
         0.00000E+00
         0.00000E+00
         0.00000E+00
         0.00000E+00
         0.00000E+00
         0.00000E+00
         0.00000E+00
         0.00000E+00
         0.00000E+00
         0.00000E+00
         0.00000E+00
         0.00000E+00
         0.00000E+00
         0.00000E+00
         0.00000E+00
         0.00000E+00
         0.00000E+00
         0.00000E+00
         0.00000E+00
         0.00000E+00
         0.00000E+00
         0.00000E+00
         0.00000E+00
         0.00000E+00
         0.00000E+00
         0.00000E+00
         0.00000E+00
         0.00000E+00
         0.00000E+00
         0.00000E+00
         0.00000E+00
         0.00000E+00
         0.00000E+00
         0.00000E+00
         0.00000E+00
         0.00000E+00
         0.00000E+00
         0.00000E+00
         0.00000E+00
         0.00000E+00
         0.00000E+00
         0.00000E+00
         0.00000E+00
         0.00000E+00
         0.00000E+00
         0.00000E+00
         0.00000E+00
         0.00000E+00
         0.00000E+00
         0.00000E+00
         0.00000E+00
         0.00000E+00
         0.00000E+00
         0.00000E+00
         0.00000E+00
         0.00000E+00
         0.00000E+00
         0.00000E+00
         0.00000E+00
         0.00000E+00
         0.00000E+00
         0.00000E+00
         0.00000E+00
         0.00000E+00
         0.00000E+00
         0.00000E+00
         0.00000E+00
         0.00000E+00
         0.00000E+00
         0.00000E+00
         0.00000E+00
         0.00000E+00
         0.00000E+00
         0.00000E+00
         0.00000E+00
         0.00000E+00
         0.00000E+00
         0.00000E+00
         0.00000E+00
         0.00000E+00
         0.00000E+00
         0.00000E+00
         0.00000E+00
         0.00000E+00
         0.00000E+00
         0.00000E+00
         0.00000E+00
         0.00000E+00
         0.00000E+00
         0.00000E+00
         0.00000E+00
         0.00000E+00
         0.00000E+00
         0.00000E+00
         0.00000E+00
         0.00000E+00
         0.00000E+00
         0.00000E+00
         0.00000E+00
         0.00000E+00
         0.00000E+00
         0.00000E+00
         0.00000E+00
         0.00000E+00
         0.00000E+00
         0.00000E+00
         0.00000E+00
         0.00000E+00
         0.00000E+00
         0.00000E+00
         0.00000E+00
         0.00000E+00
         0.00000E+00
         0.00000E+00
         0.00000E+00
         0.00000E+00
         0.00000E+00
         0.00000E+00
         0.00000E+00
         0.00000E+00
         0.00000E+00
         0.00000E+00
         0.00000E+00
         0.00000E+00
         0.00000E+00
         0.00000E+00
         0.00000E+00
         0.00000E+00
         0.00000E+00
         0.00000E+00
         0.00000E+00
         0.00000E+00
         0.00000E+00
         0.00000E+00
         0.00000E+00
         0.00000E+00
         0.00000E+00
         0.00000E+00
         0.00000E+00
         0.00000E+00
         0.00000E+00
         0.00000E+00
         0.00000E+00
         0.00000E+00
         0.00000E+00
         0.00000E+00
         0.00000E+00
         0.00000E+00
         0.00000E+00
         0.00000E+00
         0.00000E+00
         0.00000E+00
         0.00000E+00
         0.00000E+00
         0.00000E+00
         0.00000E+00
         0.00000E+00
         0.00000E+00
         0.00000E+00
         0.00000E+00
         0.00000E+00
         0.00000E+00
         0.00000E+00
         0.00000E+00
         0.00000E+00
         0.00000E+00
         0.00000E+00
         0.00000E+00
         0.00000E+00
         0.00000E+00
         0.00000E+00
         0.00000E+00
         0.00000E+00
         0.00000E+00
         0.00000E+00
         0.00000E+00
         0.00000E+00
         0.00000E+00
         0.00000E+00
         0.00000E+00
         0.00000E+00
         0.00000E+00
         0.00000E+00
         0.00000E+00
         0.00000E+00
         0.00000E+00
         0.00000E+00
         0.00000E+00
         0.00000E+00
         0.00000E+00
         0.00000E+00
         0.00000E+00
         0.00000E+00
         0.00000E+00
         0.00000E+00
         0.00000E+00
         0.00000E+00
         0.00000E+00
         0.00000E+00
         0.00000E+00
         0.00000E+00
         0.00000E+00
         0.00000E+00
         0.00000E+00
         0.00000E+00
         0.00000E+00
         0.00000E+00
         0.00000E+00
         0.00000E+00
         0.00000E+00
         0.00000E+00
         0.00000E+00
         0.00000E+00
         0.00000E+00
         0.00000E+00
         0.00000E+00
         0.00000E+00
         0.00000E+00
         0.00000E+00
         0.00000E+00
         0.00000E+00
         0.00000E+00
         0.00000E+00
         0.00000E+00
         0.00000E+00
         0.00000E+00
         0.00000E+00
         0.00000E+00
         0.00000E+00
         0.00000E+00
         0.00000E+00
         0.00000E+00
         0.00000E+00
         0.00000E+00
         0.00000E+00
         0.00000E+00
         0.00000E+00
         0.00000E+00
         0.00000E+00
         0.00000E+00
         0.00000E+00
         0.00000E+00
         0.00000E+00
         0.00000E+00
         0.00000E+00
         0.00000E+00
         0.00000E+00
         0.00000E+00
         0.00000E+00
         0.00000E+00
         0.00000E+00
         0.00000E+00
         0.00000E+00
         0.00000E+00
         0.00000E+00
         0.00000E+00
         0.00000E+00
         0.00000E+00
         0.00000E+00
         0.00000E+00
         0.00000E+00
         0.00000E+00
         0.00000E+00
         0.00000E+00
         0.00000E+00
         0.00000E+00
         0.00000E+00
         0.00000E+00
         0.00000E+00
         0.00000E+00
         0.00000E+00
         0.00000E+00
         0.00000E+00
         0.00000E+00
         0.00000E+00
         0.00000E+00
         0.00000E+00
         0.00000E+00
         0.00000E+00
         0.00000E+00
         0.00000E+00
         0.00000E+00
         0.00000E+00
         0.00000E+00
         0.00000E+00
         0.00000E+00
         0.00000E+00
         0.00000E+00
         0.00000E+00
         0.00000E+00
         0.00000E+00
         0.00000E+00
         0.00000E+00
         0.00000E+00
         0.00000E+00
         0.00000E+00
         0.00000E+00
         0.00000E+00
         0.00000E+00
         0.00000E+00
         0.00000E+00
         0.00000E+00
         0.00000E+00
         0.00000E+00
         0.00000E+00
         0.00000E+00
         0.00000E+00
         0.00000E+00
         0.00000E+00
         0.00000E+00
         0.00000E+00
         0.00000E+00
         0.00000E+00
         0.00000E+00
         0.00000E+00
         0.00000E+00
         0.00000E+00
         0.00000E+00
         0.00000E+00
         0.00000E+00
         0.00000E+00
         0.00000E+00
         0.00000E+00
         0.00000E+00
         0.00000E+00
         0.00000E+00
         0.00000E+00
         0.00000E+00
         0.00000E+00
         0.00000E+00
         0.00000E+00
         0.00000E+00
         0.00000E+00
         0.00000E+00
         0.00000E+00
         0.00000E+00
         0.00000E+00
         0.00000E+00
         0.00000E+00
         0.00000E+00
         0.00000E+00
         0.00000E+00
         0.00000E+00
         0.00000E+00
         0.00000E+00
         0.00000E+00
         0.00000E+00
         0.00000E+00
         0.00000E+00
         0.00000E+00
         0.00000E+00
         0.00000E+00
         0.00000E+00
         0.00000E+00
         0.00000E+00
         0.00000E+00
         0.00000E+00
         0.00000E+00
         0.00000E+00
         0.00000E+00
         0.00000E+00
         0.00000E+00
         0.00000E+00
         0.00000E+00
         0.00000E+00
         0.00000E+00
         0.00000E+00
         0.00000E+00
         0.00000E+00
         0.00000E+00
         0.00000E+00
         0.00000E+00
         0.00000E+00
         0.00000E+00
         0.00000E+00
         0.00000E+00
         0.00000E+00
         0.00000E+00
         0.00000E+00
         0.00000E+00
         0.00000E+00
         0.00000E+00
         0.00000E+00
         0.00000E+00
         0.00000E+00
         0.00000E+00
         0.00000E+00
         0.00000E+00
         0.00000E+00
         0.00000E+00
         0.00000E+00
         0.00000E+00
         0.00000E+00
         0.00000E+00
         0.00000E+00
         0.00000E+00
         0.00000E+00
         0.00000E+00
         0.00000E+00
         0.00000E+00
         0.00000E+00
         0.00000E+00
         0.00000E+00
         0.00000E+00
         0.00000E+00
         0.00000E+00
         0.00000E+00
         0.00000E+00
         0.00000E+00
         0.00000E+00
         0.00000E+00
         0.00000E+00
         0.00000E+00
         0.00000E+00
         0.00000E+00
         0.00000E+00
         0.00000E+00
         0.00000E+00
         0.00000E+00
         0.00000E+00
         0.00000E+00
         0.00000E+00
         0.00000E+00
         0.00000E+00
         0.00000E+00
         0.00000E+00
         0.00000E+00
         0.00000E+00
         0.00000E+00
         0.00000E+00
         0.00000E+00
         0.00000E+00
         0.00000E+00
         0.00000E+00
         0.00000E+00
         0.00000E+00
         0.00000E+00
         0.00000E+00
         0.00000E+00
         0.00000E+00
         0.00000E+00
         0.00000E+00
         0.00000E+00
         0.00000E+00
         0.00000E+00
         0.00000E+00
         0.00000E+00
         0.00000E+00
         0.00000E+00
         0.00000E+00
         0.00000E+00
         0.00000E+00
         0.00000E+00
         0.00000E+00
         0.00000E+00
         0.00000E+00
         0.00000E+00
         0.00000E+00
         0.00000E+00
         0.00000E+00
         0.00000E+00
         0.00000E+00
         0.00000E+00
         0.00000E+00
         0.00000E+00
         0.00000E+00
         0.00000E+00
         0.00000E+00
         0.00000E+00
         0.00000E+00
         0.00000E+00
         0.00000E+00
         0.00000E+00
         0.00000E+00
         0.00000E+00
         0.00000E+00
         0.00000E+00
         0.00000E+00
         0.00000E+00
         0.00000E+00
         0.00000E+00
         0.00000E+00
         0.00000E+00
         0.00000E+00
         0.00000E+00
         0.00000E+00
         0.00000E+00
         0.00000E+00
         0.00000E+00
         0.00000E+00
         0.00000E+00
         0.00000E+00
         0.00000E+00
         0.00000E+00
         0.00000E+00
         0.00000E+00
         0.00000E+00
         0.00000E+00
         0.00000E+00
         0.00000E+00
         0.00000E+00
         0.00000E+00
         0.00000E+00
         0.00000E+00
         0.00000E+00
         0.00000E+00
         0.00000E+00
         0.00000E+00
         0.00000E+00
         0.00000E+00
         0.00000E+00
         0.00000E+00
         0.00000E+00
         0.00000E+00
         0.00000E+00
         0.00000E+00
         0.00000E+00
         0.00000E+00
         0.00000E+00
         0.00000E+00
         0.00000E+00
         0.00000E+00
         0.00000E+00
         0.00000E+00
         0.00000E+00
         0.00000E+00
         0.00000E+00
         0.00000E+00
         0.00000E+00
         0.00000E+00
         0.00000E+00
         0.00000E+00
         0.00000E+00
         0.00000E+00
         0.00000E+00
         0.00000E+00
         0.00000E+00
         0.00000E+00
         0.00000E+00
         0.00000E+00
         0.00000E+00
         0.00000E+00
         0.00000E+00
         0.00000E+00
         0.00000E+00
         0.00000E+00
         0.00000E+00
         0.00000E+00
         0.00000E+00
         0.00000E+00
         0.00000E+00
         0.00000E+00
         0.00000E+00
         0.00000E+00
         0.00000E+00
         0.00000E+00
         0.00000E+00
         0.00000E+00
         0.00000E+00
         0.00000E+00
         0.00000E+00
         0.00000E+00
         0.00000E+00
         0.00000E+00
         0.00000E+00
         0.00000E+00
         0.00000E+00
         0.00000E+00
         0.00000E+00
         0.00000E+00
         0.00000E+00
         0.00000E+00
         0.00000E+00
         0.00000E+00
         0.00000E+00
         0.00000E+00
         0.00000E+00
         0.00000E+00
         0.00000E+00
         0.00000E+00
         0.00000E+00
         0.00000E+00
         0.00000E+00
         0.00000E+00
         0.00000E+00
         0.00000E+00
         0.00000E+00
         0.00000E+00
         0.00000E+00
         0.00000E+00
         0.00000E+00
         0.00000E+00
         0.00000E+00
         0.00000E+00
         0.00000E+00
  
SCALARS               pre_disp_force_z  double 1
LOOKUP_TABLE default
         0.00000E+00
         0.00000E+00
         0.00000E+00
         0.00000E+00
         0.25973E+03
         0.93248E+03
         0.16473E+03
        -0.53551E+02
         0.00000E+00
         0.00000E+00
        -0.16668E+03
        -0.32328E+03
         0.00000E+00
         0.00000E+00
         0.83860E+03
         0.26079E+03
         0.00000E+00
         0.00000E+00
        -0.10206E+03
         0.14825E+03
         0.00000E+00
         0.00000E+00
         0.00000E+00
         0.76135E+03
         0.36023E+04
         0.22176E+04
         0.00000E+00
         0.00000E+00
         0.56361E+03
         0.13219E+04
         0.00000E+00
         0.00000E+00
         0.00000E+00
        -0.18147E+03
        -0.22951E+03
        -0.21687E+03
         0.00000E+00
         0.00000E+00
        -0.55384E+02
        -0.12928E+03
         0.00000E+00
         0.00000E+00
        -0.37377E+02
        -0.10115E+03
         0.00000E+00
         0.00000E+00
         0.40653E+02
         0.42240E+02
         0.00000E+00
        -0.70090E+02
         0.00000E+00
         0.32955E+03
         0.00000E+00
         0.72759E+03
         0.00000E+00
         0.14437E+04
         0.00000E+00
         0.00000E+00
         0.12499E+04
        -0.33651E+03
         0.00000E+00
         0.00000E+00
         0.29939E+03
         0.27152E+03
         0.00000E+00
        -0.10986E+03
         0.00000E+00
        -0.11491E+03
         0.00000E+00
         0.00000E+00
         0.19197E+02
         0.53474E+03
         0.00000E+00
         0.10829E+04
         0.00000E+00
         0.97466E+04
         0.00000E+00
         0.17344E+05
         0.00000E+00
         0.12642E+05
         0.00000E+00
         0.00000E+00
         0.47997E+04
         0.86179E+03
         0.00000E+00
        -0.34959E+03
         0.00000E+00
         0.38400E+03
         0.00000E+00
        -0.12961E+02
         0.00000E+00
         0.00000E+00
        -0.20245E+03
        -0.39720E+02
         0.00000E+00
         0.90614E+02
         0.00000E+00
        -0.67983E+03
         0.00000E+00
        -0.46623E+03
         0.00000E+00
         0.00000E+00
        -0.24456E+03
        -0.38110E+03
         0.00000E+00
         0.00000E+00
         0.24397E+03
        -0.34351E+03
         0.00000E+00
         0.73373E+03
         0.00000E+00
         0.45642E+03
         0.00000E+00
        -0.15665E+04
         0.00000E+00
        -0.55109E+04
         0.00000E+00
        -0.10513E+05
         0.00000E+00
        -0.25308E+05
         0.00000E+00
        -0.40986E+05
         0.00000E+00
        -0.16073E+05
         0.00000E+00
         0.32145E+04
         0.00000E+00
         0.10806E+04
         0.00000E+00
         0.50750E+03
         0.00000E+00
         0.29348E+03
         0.00000E+00
        -0.20224E+03
         0.00000E+00
        -0.45097E+03
         0.00000E+00
        -0.42651E+03
         0.00000E+00
        -0.50415E+03
         0.00000E+00
        -0.56509E+03
         0.00000E+00
        -0.40922E+03
         0.00000E+00
        -0.30339E+03
         0.00000E+00
        -0.71433E+02
         0.00000E+00
         0.55957E+02
         0.00000E+00
        -0.15187E+03
         0.00000E+00
        -0.34275E+03
         0.00000E+00
        -0.26704E+03
         0.00000E+00
         0.00000E+00
         0.00000E+00
         0.00000E+00
         0.00000E+00
         0.00000E+00
         0.00000E+00
         0.00000E+00
         0.00000E+00
         0.00000E+00
         0.00000E+00
         0.00000E+00
         0.00000E+00
         0.00000E+00
         0.00000E+00
         0.00000E+00
         0.00000E+00
         0.00000E+00
         0.00000E+00
         0.00000E+00
         0.00000E+00
         0.00000E+00
         0.00000E+00
         0.00000E+00
         0.00000E+00
         0.00000E+00
         0.00000E+00
         0.00000E+00
         0.00000E+00
         0.00000E+00
         0.00000E+00
         0.00000E+00
         0.00000E+00
         0.00000E+00
         0.00000E+00
         0.00000E+00
         0.00000E+00
         0.00000E+00
         0.00000E+00
         0.00000E+00
         0.00000E+00
         0.00000E+00
         0.00000E+00
         0.00000E+00
         0.00000E+00
         0.00000E+00
         0.00000E+00
         0.00000E+00
         0.00000E+00
         0.00000E+00
         0.00000E+00
         0.00000E+00
         0.00000E+00
         0.00000E+00
         0.00000E+00
         0.00000E+00
         0.00000E+00
         0.00000E+00
         0.00000E+00
         0.00000E+00
         0.00000E+00
         0.00000E+00
         0.00000E+00
         0.00000E+00
         0.00000E+00
         0.00000E+00
         0.00000E+00
         0.00000E+00
         0.00000E+00
         0.00000E+00
         0.00000E+00
         0.00000E+00
         0.00000E+00
         0.00000E+00
         0.00000E+00
         0.00000E+00
         0.00000E+00
         0.00000E+00
         0.00000E+00
         0.00000E+00
         0.00000E+00
         0.00000E+00
         0.00000E+00
         0.00000E+00
         0.00000E+00
         0.00000E+00
         0.00000E+00
         0.00000E+00
         0.00000E+00
         0.00000E+00
         0.00000E+00
         0.00000E+00
         0.00000E+00
         0.00000E+00
         0.00000E+00
         0.00000E+00
         0.00000E+00
         0.00000E+00
         0.00000E+00
         0.00000E+00
         0.00000E+00
         0.00000E+00
         0.00000E+00
         0.00000E+00
         0.00000E+00
         0.00000E+00
         0.00000E+00
         0.00000E+00
         0.00000E+00
         0.00000E+00
         0.00000E+00
         0.00000E+00
         0.00000E+00
         0.00000E+00
         0.00000E+00
         0.00000E+00
         0.00000E+00
         0.00000E+00
         0.00000E+00
         0.00000E+00
         0.00000E+00
         0.00000E+00
         0.00000E+00
         0.00000E+00
         0.00000E+00
         0.00000E+00
         0.00000E+00
         0.00000E+00
         0.00000E+00
         0.00000E+00
         0.00000E+00
         0.00000E+00
         0.00000E+00
         0.00000E+00
         0.00000E+00
         0.00000E+00
         0.00000E+00
         0.00000E+00
         0.00000E+00
         0.00000E+00
         0.00000E+00
         0.00000E+00
         0.00000E+00
         0.00000E+00
         0.00000E+00
         0.00000E+00
         0.00000E+00
         0.00000E+00
         0.00000E+00
         0.00000E+00
         0.00000E+00
         0.00000E+00
         0.00000E+00
         0.00000E+00
         0.00000E+00
         0.00000E+00
         0.00000E+00
         0.00000E+00
         0.00000E+00
         0.00000E+00
         0.00000E+00
         0.00000E+00
         0.00000E+00
         0.00000E+00
         0.00000E+00
         0.00000E+00
         0.00000E+00
         0.00000E+00
         0.00000E+00
         0.00000E+00
         0.00000E+00
         0.00000E+00
         0.00000E+00
         0.00000E+00
         0.00000E+00
         0.00000E+00
         0.00000E+00
         0.00000E+00
         0.00000E+00
         0.00000E+00
         0.00000E+00
         0.00000E+00
         0.00000E+00
         0.00000E+00
         0.00000E+00
         0.00000E+00
         0.00000E+00
         0.00000E+00
         0.00000E+00
         0.00000E+00
         0.00000E+00
         0.00000E+00
         0.00000E+00
         0.00000E+00
         0.00000E+00
         0.00000E+00
         0.00000E+00
         0.00000E+00
         0.00000E+00
         0.00000E+00
         0.00000E+00
         0.00000E+00
         0.00000E+00
         0.00000E+00
         0.00000E+00
         0.00000E+00
         0.00000E+00
         0.00000E+00
         0.00000E+00
         0.00000E+00
         0.00000E+00
         0.00000E+00
         0.00000E+00
         0.00000E+00
         0.00000E+00
         0.00000E+00
         0.00000E+00
         0.00000E+00
         0.00000E+00
         0.00000E+00
         0.00000E+00
         0.00000E+00
         0.00000E+00
         0.00000E+00
         0.00000E+00
         0.00000E+00
         0.00000E+00
         0.00000E+00
         0.00000E+00
         0.00000E+00
         0.00000E+00
         0.00000E+00
         0.00000E+00
         0.00000E+00
         0.00000E+00
         0.00000E+00
         0.00000E+00
         0.00000E+00
         0.00000E+00
         0.00000E+00
         0.00000E+00
         0.00000E+00
         0.00000E+00
         0.00000E+00
         0.00000E+00
         0.00000E+00
         0.00000E+00
         0.00000E+00
         0.00000E+00
         0.00000E+00
         0.00000E+00
         0.00000E+00
         0.00000E+00
         0.00000E+00
         0.00000E+00
         0.00000E+00
         0.00000E+00
         0.00000E+00
         0.00000E+00
         0.00000E+00
         0.00000E+00
         0.00000E+00
         0.00000E+00
         0.00000E+00
         0.00000E+00
         0.00000E+00
         0.00000E+00
         0.00000E+00
         0.00000E+00
         0.00000E+00
         0.00000E+00
         0.00000E+00
         0.00000E+00
         0.00000E+00
         0.00000E+00
         0.00000E+00
         0.00000E+00
         0.00000E+00
         0.00000E+00
         0.00000E+00
         0.00000E+00
         0.00000E+00
         0.00000E+00
         0.00000E+00
         0.00000E+00
         0.00000E+00
         0.00000E+00
         0.00000E+00
         0.00000E+00
         0.00000E+00
         0.00000E+00
         0.00000E+00
         0.00000E+00
         0.00000E+00
         0.00000E+00
         0.00000E+00
         0.00000E+00
         0.00000E+00
         0.00000E+00
         0.00000E+00
         0.00000E+00
         0.00000E+00
         0.00000E+00
         0.00000E+00
         0.00000E+00
         0.00000E+00
         0.00000E+00
         0.00000E+00
         0.00000E+00
         0.00000E+00
         0.00000E+00
         0.00000E+00
         0.00000E+00
         0.00000E+00
         0.00000E+00
         0.00000E+00
         0.00000E+00
         0.00000E+00
         0.00000E+00
         0.00000E+00
         0.00000E+00
         0.00000E+00
         0.00000E+00
         0.00000E+00
         0.00000E+00
         0.00000E+00
         0.00000E+00
         0.00000E+00
         0.00000E+00
         0.00000E+00
         0.00000E+00
         0.00000E+00
         0.00000E+00
         0.00000E+00
         0.00000E+00
         0.00000E+00
         0.00000E+00
         0.00000E+00
         0.00000E+00
         0.00000E+00
         0.00000E+00
         0.00000E+00
         0.00000E+00
         0.00000E+00
         0.00000E+00
         0.00000E+00
         0.00000E+00
         0.00000E+00
         0.00000E+00
         0.00000E+00
         0.00000E+00
         0.00000E+00
         0.00000E+00
         0.00000E+00
         0.00000E+00
         0.00000E+00
         0.00000E+00
         0.00000E+00
         0.00000E+00
         0.00000E+00
         0.00000E+00
         0.00000E+00
         0.00000E+00
         0.00000E+00
         0.00000E+00
         0.00000E+00
         0.00000E+00
         0.00000E+00
         0.00000E+00
         0.00000E+00
         0.00000E+00
         0.00000E+00
         0.00000E+00
         0.00000E+00
         0.00000E+00
         0.00000E+00
         0.00000E+00
         0.00000E+00
         0.00000E+00
         0.00000E+00
         0.00000E+00
         0.00000E+00
         0.00000E+00
         0.00000E+00
         0.00000E+00
         0.00000E+00
         0.00000E+00
         0.00000E+00
         0.00000E+00
         0.00000E+00
         0.00000E+00
         0.00000E+00
         0.00000E+00
         0.00000E+00
         0.00000E+00
         0.00000E+00
         0.00000E+00
         0.00000E+00
         0.00000E+00
         0.00000E+00
         0.00000E+00
         0.00000E+00
         0.00000E+00
         0.00000E+00
         0.00000E+00
         0.00000E+00
         0.00000E+00
         0.00000E+00
         0.00000E+00
         0.00000E+00
         0.00000E+00
         0.00000E+00
         0.00000E+00
         0.00000E+00
         0.00000E+00
         0.00000E+00
         0.00000E+00
         0.00000E+00
         0.00000E+00
         0.00000E+00
         0.00000E+00
         0.00000E+00
         0.00000E+00
         0.00000E+00
         0.00000E+00
         0.00000E+00
         0.00000E+00
         0.00000E+00
         0.00000E+00
         0.00000E+00
         0.00000E+00
         0.00000E+00
         0.00000E+00
         0.00000E+00
         0.00000E+00
         0.00000E+00
         0.00000E+00
         0.00000E+00
         0.00000E+00
         0.00000E+00
         0.00000E+00
         0.00000E+00
         0.00000E+00
         0.00000E+00
         0.00000E+00
         0.00000E+00
         0.00000E+00
         0.00000E+00
         0.00000E+00
         0.00000E+00
         0.00000E+00
         0.00000E+00
         0.00000E+00
         0.00000E+00
         0.00000E+00
         0.00000E+00
         0.00000E+00
         0.00000E+00
         0.00000E+00
         0.00000E+00
         0.00000E+00
         0.00000E+00
         0.00000E+00
         0.00000E+00
         0.00000E+00
         0.00000E+00
         0.00000E+00
         0.00000E+00
         0.00000E+00
         0.00000E+00
         0.00000E+00
         0.00000E+00
         0.00000E+00
         0.00000E+00
         0.00000E+00
         0.00000E+00
         0.00000E+00
         0.00000E+00
         0.00000E+00
         0.00000E+00
         0.00000E+00
         0.00000E+00
         0.00000E+00
         0.00000E+00
         0.00000E+00
         0.00000E+00
         0.00000E+00
         0.00000E+00
         0.00000E+00
         0.00000E+00
         0.00000E+00
         0.00000E+00
         0.00000E+00
         0.00000E+00
         0.00000E+00
         0.00000E+00
         0.00000E+00
         0.00000E+00
         0.00000E+00
         0.00000E+00
         0.00000E+00
         0.00000E+00
         0.00000E+00
         0.00000E+00
         0.00000E+00
         0.00000E+00
         0.00000E+00
         0.00000E+00
         0.00000E+00
         0.00000E+00
         0.00000E+00
         0.00000E+00
         0.00000E+00
         0.00000E+00
         0.00000E+00
         0.00000E+00
         0.00000E+00
         0.00000E+00
         0.00000E+00
         0.00000E+00
         0.00000E+00
         0.00000E+00
         0.00000E+00
         0.00000E+00
         0.00000E+00
         0.00000E+00
         0.00000E+00
         0.00000E+00
         0.00000E+00
         0.00000E+00
         0.00000E+00
         0.00000E+00
         0.00000E+00
         0.00000E+00
         0.00000E+00
         0.00000E+00
         0.00000E+00
         0.00000E+00
         0.00000E+00
         0.00000E+00
         0.00000E+00
         0.00000E+00
         0.00000E+00
         0.00000E+00
         0.00000E+00
         0.00000E+00
         0.00000E+00
         0.00000E+00
         0.00000E+00
         0.00000E+00
         0.00000E+00
         0.00000E+00
         0.00000E+00
         0.00000E+00
         0.00000E+00
         0.00000E+00
         0.00000E+00
         0.00000E+00
         0.00000E+00
         0.00000E+00
         0.00000E+00
         0.00000E+00
         0.00000E+00
         0.00000E+00
         0.00000E+00
         0.00000E+00
         0.00000E+00
         0.00000E+00
         0.00000E+00
         0.00000E+00
         0.00000E+00
         0.00000E+00
         0.00000E+00
         0.00000E+00
         0.00000E+00
         0.00000E+00
         0.00000E+00
         0.00000E+00
         0.00000E+00
         0.00000E+00
         0.00000E+00
         0.00000E+00
         0.00000E+00
         0.00000E+00
         0.00000E+00
         0.00000E+00
         0.00000E+00
         0.00000E+00
         0.00000E+00
         0.00000E+00
         0.00000E+00
         0.00000E+00
         0.00000E+00
         0.00000E+00
         0.00000E+00
         0.00000E+00
         0.00000E+00
         0.00000E+00
         0.00000E+00
         0.00000E+00
         0.00000E+00
         0.00000E+00
         0.00000E+00
         0.00000E+00
         0.00000E+00
         0.00000E+00
         0.00000E+00
         0.00000E+00
         0.00000E+00
         0.00000E+00
         0.00000E+00
         0.00000E+00
         0.00000E+00
         0.00000E+00
         0.00000E+00
         0.00000E+00
         0.00000E+00
         0.00000E+00
         0.00000E+00
         0.00000E+00
         0.00000E+00
         0.00000E+00
         0.00000E+00
         0.00000E+00
         0.00000E+00
         0.00000E+00
         0.00000E+00
         0.00000E+00
         0.00000E+00
         0.00000E+00
         0.00000E+00
         0.00000E+00
         0.00000E+00
         0.00000E+00
         0.00000E+00
         0.00000E+00
         0.00000E+00
         0.00000E+00
         0.00000E+00
         0.00000E+00
         0.00000E+00
         0.00000E+00
         0.00000E+00
         0.00000E+00
         0.00000E+00
         0.00000E+00
         0.00000E+00
         0.00000E+00
         0.00000E+00
         0.00000E+00
         0.00000E+00
         0.00000E+00
         0.00000E+00
         0.00000E+00
         0.00000E+00
         0.00000E+00
         0.00000E+00
         0.00000E+00
         0.00000E+00
         0.00000E+00
         0.00000E+00
         0.00000E+00
         0.00000E+00
         0.00000E+00
         0.00000E+00
         0.00000E+00
         0.00000E+00
         0.00000E+00
         0.00000E+00
         0.00000E+00
         0.00000E+00
         0.00000E+00
         0.00000E+00
         0.00000E+00
         0.00000E+00
         0.00000E+00
         0.00000E+00
         0.00000E+00
         0.00000E+00
         0.00000E+00
         0.00000E+00
         0.00000E+00
         0.00000E+00
         0.00000E+00
         0.00000E+00
         0.00000E+00
         0.00000E+00
         0.00000E+00
         0.00000E+00
         0.00000E+00
         0.00000E+00
         0.00000E+00
         0.00000E+00
         0.00000E+00
         0.00000E+00
         0.00000E+00
         0.00000E+00
         0.00000E+00
         0.00000E+00
         0.00000E+00
         0.00000E+00
         0.00000E+00
         0.00000E+00
         0.00000E+00
         0.00000E+00
         0.00000E+00
         0.00000E+00
         0.00000E+00
         0.00000E+00
         0.00000E+00
         0.00000E+00
         0.00000E+00
         0.00000E+00
         0.00000E+00
         0.00000E+00
         0.00000E+00
         0.00000E+00
         0.00000E+00
         0.00000E+00
         0.00000E+00
         0.00000E+00
         0.00000E+00
         0.00000E+00
         0.00000E+00
         0.00000E+00
         0.00000E+00
         0.00000E+00
         0.00000E+00
         0.00000E+00
         0.00000E+00
         0.00000E+00
         0.00000E+00
         0.00000E+00
         0.00000E+00
         0.00000E+00
         0.00000E+00
         0.00000E+00
         0.00000E+00
         0.00000E+00
         0.00000E+00
         0.00000E+00
         0.00000E+00
         0.00000E+00
         0.00000E+00
         0.00000E+00
         0.00000E+00
         0.00000E+00
         0.00000E+00
         0.00000E+00
         0.00000E+00
         0.00000E+00
         0.00000E+00
         0.00000E+00
         0.00000E+00
         0.00000E+00
         0.00000E+00
         0.00000E+00
         0.00000E+00
         0.00000E+00
         0.00000E+00
         0.00000E+00
         0.00000E+00
         0.00000E+00
         0.00000E+00
         0.00000E+00
         0.00000E+00
         0.00000E+00
         0.00000E+00
         0.00000E+00
         0.00000E+00
         0.00000E+00
         0.00000E+00
         0.00000E+00
         0.00000E+00
         0.00000E+00
         0.00000E+00
         0.00000E+00
         0.00000E+00
         0.00000E+00
         0.00000E+00
         0.00000E+00
         0.00000E+00
         0.00000E+00
         0.00000E+00
         0.00000E+00
         0.00000E+00
         0.00000E+00
         0.00000E+00
         0.00000E+00
         0.00000E+00
         0.00000E+00
         0.00000E+00
         0.00000E+00
         0.00000E+00
         0.00000E+00
         0.00000E+00
         0.00000E+00
         0.00000E+00
         0.00000E+00
         0.00000E+00
         0.00000E+00
         0.00000E+00
         0.00000E+00
         0.00000E+00
         0.00000E+00
         0.00000E+00
         0.00000E+00
         0.00000E+00
         0.00000E+00
         0.00000E+00
         0.00000E+00
         0.00000E+00
         0.00000E+00
         0.00000E+00
         0.00000E+00
         0.00000E+00
         0.00000E+00
         0.00000E+00
         0.00000E+00
         0.00000E+00
         0.00000E+00
         0.00000E+00
         0.00000E+00
         0.00000E+00
         0.00000E+00
         0.00000E+00
         0.00000E+00
         0.00000E+00
         0.00000E+00
         0.00000E+00
         0.00000E+00
         0.00000E+00
         0.00000E+00
         0.00000E+00
         0.00000E+00
         0.00000E+00
         0.00000E+00
         0.00000E+00
         0.00000E+00
         0.00000E+00
         0.00000E+00
         0.00000E+00
         0.00000E+00
         0.00000E+00
         0.00000E+00
         0.00000E+00
         0.00000E+00
         0.00000E+00
         0.00000E+00
         0.00000E+00
         0.00000E+00
         0.00000E+00
         0.00000E+00
         0.00000E+00
         0.00000E+00
         0.00000E+00
         0.00000E+00
         0.00000E+00
         0.00000E+00
         0.00000E+00
         0.00000E+00
         0.00000E+00
         0.00000E+00
         0.00000E+00
         0.00000E+00
         0.00000E+00
         0.00000E+00
         0.00000E+00
         0.00000E+00
         0.00000E+00
         0.00000E+00
         0.00000E+00
         0.00000E+00
         0.00000E+00
         0.00000E+00
         0.00000E+00
         0.00000E+00
         0.00000E+00
         0.00000E+00
         0.00000E+00
         0.00000E+00
         0.00000E+00
         0.00000E+00
         0.00000E+00
         0.00000E+00
         0.00000E+00
         0.00000E+00
         0.00000E+00
         0.00000E+00
         0.00000E+00
         0.00000E+00
         0.00000E+00
         0.00000E+00
         0.00000E+00
         0.00000E+00
         0.00000E+00
         0.00000E+00
         0.00000E+00
         0.00000E+00
         0.00000E+00
         0.00000E+00
         0.00000E+00
         0.00000E+00
         0.00000E+00
         0.00000E+00
         0.00000E+00
         0.00000E+00
         0.00000E+00
         0.00000E+00
         0.00000E+00
         0.00000E+00
         0.00000E+00
         0.00000E+00
         0.00000E+00
         0.00000E+00
         0.00000E+00
         0.00000E+00
         0.00000E+00
         0.00000E+00
         0.00000E+00
         0.00000E+00
         0.00000E+00
         0.00000E+00
         0.00000E+00
         0.00000E+00
         0.00000E+00
         0.00000E+00
         0.00000E+00
         0.00000E+00
         0.00000E+00
         0.00000E+00
         0.00000E+00
         0.00000E+00
         0.00000E+00
         0.00000E+00
         0.00000E+00
         0.00000E+00
         0.00000E+00
         0.00000E+00
         0.00000E+00
         0.00000E+00
         0.00000E+00
         0.00000E+00
         0.00000E+00
         0.00000E+00
         0.00000E+00
         0.00000E+00
         0.00000E+00
         0.00000E+00
         0.00000E+00
         0.00000E+00
         0.00000E+00
         0.00000E+00
         0.00000E+00
         0.00000E+00
         0.00000E+00
         0.00000E+00
         0.00000E+00
         0.00000E+00
         0.00000E+00
         0.00000E+00
         0.00000E+00
         0.00000E+00
         0.00000E+00
         0.00000E+00
         0.00000E+00
         0.00000E+00
         0.00000E+00
         0.00000E+00
         0.00000E+00
         0.00000E+00
         0.00000E+00
         0.00000E+00
         0.00000E+00
         0.00000E+00
         0.00000E+00
         0.00000E+00
         0.00000E+00
         0.00000E+00
         0.00000E+00
         0.00000E+00
         0.00000E+00
         0.00000E+00
         0.00000E+00
         0.00000E+00
         0.00000E+00
         0.00000E+00
         0.00000E+00
         0.00000E+00
         0.00000E+00
         0.00000E+00
         0.00000E+00
         0.00000E+00
         0.00000E+00
         0.00000E+00
         0.00000E+00
         0.00000E+00
         0.00000E+00
         0.00000E+00
         0.00000E+00
         0.00000E+00
         0.00000E+00
         0.00000E+00
         0.00000E+00
         0.00000E+00
         0.00000E+00
         0.00000E+00
         0.00000E+00
         0.00000E+00
         0.00000E+00
         0.00000E+00
         0.00000E+00
         0.00000E+00
         0.00000E+00
         0.00000E+00
         0.00000E+00
         0.00000E+00
         0.00000E+00
         0.00000E+00
         0.00000E+00
         0.00000E+00
         0.00000E+00
         0.00000E+00
         0.00000E+00
         0.00000E+00
         0.00000E+00
         0.00000E+00
         0.00000E+00
         0.00000E+00
         0.00000E+00
         0.00000E+00
         0.00000E+00
         0.00000E+00
         0.00000E+00
         0.00000E+00
         0.00000E+00
         0.00000E+00
         0.00000E+00
         0.00000E+00
         0.00000E+00
         0.00000E+00
         0.00000E+00
         0.00000E+00
         0.00000E+00
         0.00000E+00
         0.00000E+00
         0.00000E+00
         0.00000E+00
         0.00000E+00
         0.00000E+00
         0.00000E+00
         0.00000E+00
         0.00000E+00
         0.00000E+00
         0.00000E+00
         0.00000E+00
         0.00000E+00
         0.00000E+00
         0.00000E+00
         0.00000E+00
         0.00000E+00
         0.00000E+00
         0.00000E+00
         0.00000E+00
         0.00000E+00
         0.00000E+00
         0.00000E+00
         0.00000E+00
         0.00000E+00
         0.00000E+00
         0.00000E+00
         0.00000E+00
         0.00000E+00
         0.00000E+00
         0.00000E+00
         0.00000E+00
         0.00000E+00
         0.00000E+00
         0.00000E+00
         0.00000E+00
         0.00000E+00
         0.00000E+00
         0.00000E+00
         0.00000E+00
         0.00000E+00
         0.00000E+00
         0.00000E+00
         0.00000E+00
         0.00000E+00
         0.00000E+00
         0.00000E+00
         0.00000E+00
         0.00000E+00
         0.00000E+00
         0.00000E+00
         0.00000E+00
         0.00000E+00
         0.00000E+00
         0.00000E+00
         0.00000E+00
         0.00000E+00
         0.00000E+00
         0.00000E+00
         0.00000E+00
         0.00000E+00
         0.00000E+00
         0.00000E+00
         0.00000E+00
         0.00000E+00
         0.00000E+00
         0.00000E+00
         0.00000E+00
         0.00000E+00
         0.00000E+00
         0.00000E+00
         0.00000E+00
         0.00000E+00
         0.00000E+00
         0.00000E+00
         0.00000E+00
         0.00000E+00
         0.00000E+00
         0.00000E+00
         0.00000E+00
         0.00000E+00
         0.00000E+00
         0.00000E+00
         0.00000E+00
         0.00000E+00
         0.00000E+00
         0.00000E+00
         0.00000E+00
         0.00000E+00
         0.00000E+00
         0.00000E+00
         0.00000E+00
         0.00000E+00
         0.00000E+00
         0.00000E+00
         0.00000E+00
         0.00000E+00
         0.00000E+00
         0.00000E+00
         0.00000E+00
         0.00000E+00
         0.00000E+00
         0.00000E+00
         0.00000E+00
         0.00000E+00
         0.00000E+00
         0.00000E+00
         0.00000E+00
         0.00000E+00
         0.00000E+00
         0.00000E+00
         0.00000E+00
         0.00000E+00
         0.00000E+00
         0.00000E+00
         0.00000E+00
         0.00000E+00
         0.00000E+00
         0.00000E+00
         0.00000E+00
         0.00000E+00
         0.00000E+00
         0.00000E+00
         0.00000E+00
         0.00000E+00
         0.00000E+00
         0.00000E+00
         0.00000E+00
         0.00000E+00
         0.00000E+00
         0.00000E+00
         0.00000E+00
         0.00000E+00
         0.00000E+00
         0.00000E+00
         0.00000E+00
         0.00000E+00
         0.00000E+00
         0.00000E+00
         0.00000E+00
         0.00000E+00
         0.00000E+00
         0.00000E+00
         0.00000E+00
         0.00000E+00
         0.00000E+00
         0.00000E+00
         0.00000E+00
         0.00000E+00
         0.00000E+00
         0.00000E+00
         0.00000E+00
         0.00000E+00
         0.00000E+00
         0.00000E+00
         0.00000E+00
         0.00000E+00
         0.00000E+00
         0.00000E+00
         0.00000E+00
         0.00000E+00
         0.00000E+00
         0.00000E+00
         0.00000E+00
         0.00000E+00
         0.00000E+00
         0.00000E+00
         0.00000E+00
         0.00000E+00
         0.00000E+00
         0.00000E+00
         0.00000E+00
         0.00000E+00
         0.00000E+00
         0.00000E+00
         0.00000E+00
         0.00000E+00
         0.00000E+00
         0.00000E+00
         0.00000E+00
         0.00000E+00
         0.00000E+00
         0.00000E+00
         0.00000E+00
         0.00000E+00
         0.00000E+00
         0.00000E+00
         0.00000E+00
         0.00000E+00
         0.00000E+00
         0.00000E+00
         0.00000E+00
         0.00000E+00
         0.00000E+00
         0.00000E+00
         0.00000E+00
         0.00000E+00
         0.00000E+00
         0.00000E+00
         0.00000E+00
         0.00000E+00
         0.00000E+00
         0.00000E+00
         0.00000E+00
         0.00000E+00
         0.00000E+00
         0.00000E+00
         0.00000E+00
         0.00000E+00
         0.00000E+00
         0.00000E+00
         0.00000E+00
         0.00000E+00
         0.00000E+00
         0.00000E+00
         0.00000E+00
         0.00000E+00
         0.00000E+00
         0.00000E+00
         0.00000E+00
         0.00000E+00
         0.00000E+00
         0.00000E+00
         0.00000E+00
         0.00000E+00
         0.00000E+00
         0.00000E+00
         0.00000E+00
         0.00000E+00
         0.00000E+00
         0.00000E+00
         0.00000E+00
         0.00000E+00
         0.00000E+00
         0.00000E+00
         0.00000E+00
         0.00000E+00
         0.00000E+00
         0.00000E+00
         0.00000E+00
         0.00000E+00
         0.00000E+00
         0.00000E+00
         0.00000E+00
         0.00000E+00
         0.00000E+00
         0.00000E+00
         0.00000E+00
         0.00000E+00
         0.00000E+00
         0.00000E+00
         0.00000E+00
         0.00000E+00
         0.00000E+00
         0.00000E+00
         0.00000E+00
         0.00000E+00
         0.00000E+00
         0.00000E+00
         0.00000E+00
         0.00000E+00
         0.00000E+00
         0.00000E+00
         0.00000E+00
         0.00000E+00
         0.00000E+00
         0.00000E+00
         0.00000E+00
         0.00000E+00
         0.00000E+00
         0.00000E+00
         0.00000E+00
         0.00000E+00
         0.00000E+00
         0.00000E+00
         0.00000E+00
         0.00000E+00
         0.00000E+00
         0.00000E+00
         0.00000E+00
         0.00000E+00
         0.00000E+00
         0.00000E+00
         0.00000E+00
         0.00000E+00
         0.00000E+00
         0.00000E+00
         0.00000E+00
         0.00000E+00
         0.00000E+00
         0.00000E+00
         0.00000E+00
         0.00000E+00
         0.00000E+00
         0.00000E+00
         0.00000E+00
         0.00000E+00
         0.00000E+00
         0.00000E+00
         0.00000E+00
         0.00000E+00
         0.00000E+00
         0.00000E+00
         0.00000E+00
         0.00000E+00
         0.00000E+00
         0.00000E+00
         0.00000E+00
         0.00000E+00
         0.00000E+00
         0.00000E+00
         0.00000E+00
         0.00000E+00
         0.00000E+00
         0.00000E+00
         0.00000E+00
         0.00000E+00
         0.00000E+00
         0.00000E+00
         0.00000E+00
         0.00000E+00
         0.00000E+00
         0.00000E+00
         0.00000E+00
         0.00000E+00
         0.00000E+00
         0.00000E+00
         0.00000E+00
         0.00000E+00
         0.00000E+00
         0.00000E+00
         0.00000E+00
         0.00000E+00
         0.00000E+00
         0.00000E+00
         0.00000E+00
         0.00000E+00
         0.00000E+00
         0.00000E+00
         0.00000E+00
         0.00000E+00
         0.00000E+00
         0.00000E+00
         0.00000E+00
         0.00000E+00
         0.00000E+00
         0.00000E+00
         0.00000E+00
         0.00000E+00
         0.00000E+00
         0.00000E+00
         0.00000E+00
         0.00000E+00
         0.00000E+00
         0.00000E+00
         0.00000E+00
         0.00000E+00
         0.00000E+00
         0.00000E+00
         0.00000E+00
         0.00000E+00
         0.00000E+00
         0.00000E+00
         0.00000E+00
         0.00000E+00
         0.00000E+00
         0.00000E+00
         0.00000E+00
         0.00000E+00
         0.00000E+00
         0.00000E+00
         0.00000E+00
         0.00000E+00
         0.00000E+00
         0.00000E+00
         0.00000E+00
         0.00000E+00
         0.00000E+00
         0.00000E+00
         0.00000E+00
         0.00000E+00
         0.00000E+00
         0.00000E+00
         0.00000E+00
         0.00000E+00
         0.00000E+00
         0.00000E+00
         0.00000E+00
         0.00000E+00
         0.00000E+00
         0.00000E+00
         0.00000E+00
         0.00000E+00
         0.00000E+00
         0.00000E+00
         0.00000E+00
         0.00000E+00
         0.00000E+00
         0.00000E+00
         0.00000E+00
         0.00000E+00
         0.00000E+00
         0.00000E+00
         0.00000E+00
         0.00000E+00
         0.00000E+00
         0.00000E+00
         0.00000E+00
         0.00000E+00
         0.00000E+00
         0.00000E+00
         0.00000E+00
         0.00000E+00
         0.00000E+00
         0.00000E+00
         0.00000E+00
         0.00000E+00
         0.00000E+00
         0.00000E+00
         0.00000E+00
         0.00000E+00
         0.00000E+00
         0.00000E+00
         0.00000E+00
         0.00000E+00
         0.00000E+00
         0.00000E+00
         0.00000E+00
         0.00000E+00
         0.00000E+00
         0.00000E+00
         0.00000E+00
         0.00000E+00
         0.00000E+00
         0.00000E+00
         0.00000E+00
         0.00000E+00
         0.00000E+00
         0.00000E+00
         0.00000E+00
         0.00000E+00
         0.00000E+00
         0.00000E+00
         0.00000E+00
         0.00000E+00
         0.00000E+00
         0.00000E+00
         0.00000E+00
         0.00000E+00
         0.00000E+00
         0.00000E+00
         0.00000E+00
         0.00000E+00
         0.00000E+00
         0.00000E+00
         0.00000E+00
         0.00000E+00
         0.00000E+00
         0.00000E+00
         0.00000E+00
         0.00000E+00
         0.00000E+00
         0.00000E+00
         0.00000E+00
         0.00000E+00
         0.00000E+00
         0.00000E+00
         0.00000E+00
         0.00000E+00
         0.00000E+00
         0.00000E+00
         0.00000E+00
         0.00000E+00
         0.00000E+00
         0.00000E+00
         0.00000E+00
         0.00000E+00
         0.00000E+00
         0.00000E+00
         0.00000E+00
         0.00000E+00
         0.00000E+00
         0.00000E+00
         0.00000E+00
         0.00000E+00
         0.00000E+00
         0.00000E+00
         0.00000E+00
         0.00000E+00
         0.00000E+00
         0.00000E+00
         0.00000E+00
         0.00000E+00
         0.00000E+00
         0.00000E+00
         0.00000E+00
         0.00000E+00
         0.00000E+00
         0.00000E+00
         0.00000E+00
         0.00000E+00
         0.00000E+00
         0.00000E+00
         0.00000E+00
         0.00000E+00
         0.00000E+00
         0.00000E+00
         0.00000E+00
         0.00000E+00
         0.00000E+00
         0.00000E+00
         0.00000E+00
         0.00000E+00
         0.00000E+00
         0.00000E+00
         0.00000E+00
         0.00000E+00
         0.00000E+00
         0.00000E+00
         0.00000E+00
         0.00000E+00
         0.00000E+00
         0.00000E+00
         0.00000E+00
         0.00000E+00
         0.00000E+00
         0.00000E+00
         0.00000E+00
         0.00000E+00
         0.00000E+00
         0.00000E+00
         0.00000E+00
         0.00000E+00
         0.00000E+00
         0.00000E+00
         0.00000E+00
         0.00000E+00
         0.00000E+00
         0.00000E+00
         0.00000E+00
         0.00000E+00
         0.00000E+00
         0.00000E+00
         0.00000E+00
         0.00000E+00
         0.00000E+00
         0.00000E+00
         0.00000E+00
         0.00000E+00
         0.00000E+00
         0.00000E+00
         0.00000E+00
         0.00000E+00
         0.00000E+00
         0.00000E+00
         0.00000E+00
         0.00000E+00
         0.00000E+00
         0.00000E+00
         0.00000E+00
         0.00000E+00
         0.00000E+00
         0.00000E+00
         0.00000E+00
         0.00000E+00
         0.00000E+00
         0.00000E+00
         0.00000E+00
         0.00000E+00
         0.00000E+00
         0.00000E+00
         0.00000E+00
         0.00000E+00
         0.00000E+00
         0.00000E+00
         0.00000E+00
         0.00000E+00
         0.00000E+00
         0.00000E+00
         0.00000E+00
         0.00000E+00
         0.00000E+00
         0.00000E+00
         0.00000E+00
         0.00000E+00
         0.00000E+00
         0.00000E+00
         0.00000E+00
         0.00000E+00
         0.00000E+00
         0.00000E+00
         0.00000E+00
         0.00000E+00
         0.00000E+00
         0.00000E+00
         0.00000E+00
         0.00000E+00
         0.00000E+00
         0.00000E+00
         0.00000E+00
         0.00000E+00
         0.00000E+00
         0.00000E+00
         0.00000E+00
         0.00000E+00
         0.00000E+00
         0.00000E+00
         0.00000E+00
         0.00000E+00
         0.00000E+00
         0.00000E+00
         0.00000E+00
         0.00000E+00
         0.00000E+00
         0.00000E+00
         0.00000E+00
         0.00000E+00
         0.00000E+00
         0.00000E+00
         0.00000E+00
         0.00000E+00
         0.00000E+00
         0.00000E+00
         0.00000E+00
         0.00000E+00
         0.00000E+00
         0.00000E+00
         0.00000E+00
         0.00000E+00
         0.00000E+00
         0.00000E+00
         0.00000E+00
         0.00000E+00
         0.00000E+00
         0.00000E+00
         0.00000E+00
         0.00000E+00
         0.00000E+00
         0.00000E+00
         0.00000E+00
         0.00000E+00
         0.00000E+00
         0.00000E+00
         0.00000E+00
         0.00000E+00
         0.00000E+00
         0.00000E+00
         0.00000E+00
         0.00000E+00
         0.00000E+00
         0.00000E+00
         0.00000E+00
         0.00000E+00
         0.00000E+00
         0.00000E+00
         0.00000E+00
         0.00000E+00
         0.00000E+00
         0.00000E+00
         0.00000E+00
         0.00000E+00
         0.00000E+00
         0.00000E+00
         0.00000E+00
         0.00000E+00
         0.00000E+00
         0.00000E+00
         0.00000E+00
         0.00000E+00
         0.00000E+00
         0.00000E+00
         0.00000E+00
         0.00000E+00
         0.00000E+00
         0.00000E+00
         0.00000E+00
         0.00000E+00
         0.00000E+00
         0.00000E+00
         0.00000E+00
         0.00000E+00
         0.00000E+00
         0.00000E+00
         0.00000E+00
         0.00000E+00
         0.00000E+00
         0.00000E+00
         0.00000E+00
         0.00000E+00
         0.00000E+00
         0.00000E+00
         0.00000E+00
         0.00000E+00
         0.00000E+00
         0.00000E+00
         0.00000E+00
         0.00000E+00
         0.00000E+00
         0.00000E+00
         0.00000E+00
         0.00000E+00
         0.00000E+00
         0.00000E+00
         0.00000E+00
         0.00000E+00
         0.00000E+00
         0.00000E+00
         0.00000E+00
         0.00000E+00
         0.00000E+00
         0.00000E+00
         0.00000E+00
         0.00000E+00
         0.00000E+00
         0.00000E+00
         0.00000E+00
         0.00000E+00
         0.00000E+00
         0.00000E+00
         0.00000E+00
         0.00000E+00
         0.00000E+00
         0.00000E+00
         0.00000E+00
         0.00000E+00
         0.00000E+00
         0.00000E+00
         0.00000E+00
         0.00000E+00
         0.00000E+00
         0.00000E+00
         0.00000E+00
         0.00000E+00
         0.00000E+00
         0.00000E+00
         0.00000E+00
         0.00000E+00
         0.00000E+00
         0.00000E+00
         0.00000E+00
         0.00000E+00
         0.00000E+00
         0.00000E+00
         0.00000E+00
         0.00000E+00
         0.00000E+00
         0.00000E+00
         0.00000E+00
         0.00000E+00
         0.00000E+00
  
SCALARS                      stress_xx  double 1
LOOKUP_TABLE default
        -0.15393E+11
        -0.11704E+11
        -0.13887E+11
        -0.17079E+11
        -0.30545E+02
        -0.12581E+02
        -0.37661E+01
        -0.30995E+02
        -0.16810E+11
        -0.17905E+11
         0.10510E+02
        -0.33037E+02
        -0.10115E+11
        -0.14702E+11
        -0.12156E+02
        -0.66007E+01
        -0.15994E+11
        -0.15343E+11
        -0.21838E+02
        -0.74308E+01
        -0.94035E+10
         0.23168E+09
         0.13402E+09
        -0.13159E+02
         0.15015E+02
         0.12039E+02
        -0.12904E+11
        -0.46763E+10
        -0.28381E+02
         0.51884E+01
        -0.15487E+11
        -0.15090E+11
        -0.16095E+11
        -0.13178E+02
        -0.98391E+01
        -0.20785E+02
        -0.13415E+11
        -0.14133E+11
        -0.95554E+01
        -0.75757E+01
        -0.11202E+11
        -0.14108E+11
        -0.23501E+01
        -0.67197E+01
        -0.10514E+11
        -0.12678E+11
        -0.74774E+01
        -0.10332E+02
        -0.14093E+11
        -0.55021E+01
        -0.14474E+11
        -0.16211E+02
        -0.12455E+11
        -0.19644E+02
        -0.11552E+11
        -0.86150E+00
        -0.11102E+11
        -0.14297E+11
         0.57417E+01
         0.94692E+01
        -0.15954E+11
        -0.16119E+11
        -0.38998E+01
        -0.22811E+02
        -0.17186E+11
        -0.13655E+02
        -0.18845E+11
        -0.30003E+02
        -0.13237E+11
        -0.99705E+10
         0.21848E+02
        -0.32850E+01
        -0.51217E+10
         0.25169E+02
        -0.30305E+10
        -0.17114E+02
        -0.24114E+09
         0.25636E+01
        -0.26357E+10
         0.63038E+01
        -0.79295E+10
        -0.12493E+11
        -0.15936E+01
        -0.40478E+01
        -0.16057E+11
        -0.19326E+02
        -0.12671E+11
        -0.14690E+02
        -0.16209E+11
        -0.28144E+02
        -0.17845E+11
        -0.16662E+11
        -0.34264E+02
        -0.27222E+02
        -0.17013E+11
         0.95110E+01
        -0.18981E+11
        -0.62944E+01
        -0.19781E+11
        -0.14948E+02
        -0.19410E+11
        -0.18753E+11
        -0.13370E+02
        -0.47439E+02
        -0.14263E+11
        -0.16441E+11
         0.35459E+02
        -0.10823E+03
        -0.98846E+10
         0.27611E+02
        -0.69949E+09
         0.24808E+02
         0.12139E+11
         0.30292E+02
         0.21704E+11
         0.16461E+02
         0.24818E+11
         0.42706E+00
         0.32335E+11
        -0.31419E+01
         0.63582E+11
         0.78298E+01
         0.42124E+11
        -0.19671E+01
        -0.15165E+11
        -0.12812E+02
        -0.28187E+11
        -0.21572E+02
        -0.27401E+11
        -0.21545E+02
        -0.19724E+11
        -0.10161E+02
        -0.14382E+11
        -0.13075E+02
        -0.11975E+11
        -0.16243E+02
        -0.13950E+11
        -0.12851E+02
        -0.20237E+11
        -0.14467E+02
        -0.21059E+11
        -0.19067E+02
        -0.18910E+11
         0.15939E+01
        -0.18575E+11
         0.68978E+01
        -0.19967E+11
        -0.61386E+01
        -0.19735E+11
        -0.34012E+01
        -0.18572E+11
         0.59767E+01
        -0.17529E+11
         0.12224E+02
        -0.15680E+11
         0.14117E+02
        -0.35338E+10
        -0.15350E+10
        -0.11839E+09
        -0.17301E+10
         0.24123E+10
         0.38872E+10
        -0.29134E+10
        -0.41952E+10
        -0.44533E+10
        -0.39833E+10
        -0.29962E+10
        -0.15517E+10
        -0.12202E+10
        -0.36813E+10
        -0.18266E+10
        -0.51383E+10
        -0.32994E+10
        -0.44618E+10
        -0.13479E+10
        -0.20641E+10
        -0.19906E+09
        -0.42712E+10
         0.48985E+09
        -0.13353E+10
        -0.42757E+10
        -0.31951E+10
        -0.50035E+10
        -0.74566E+10
        -0.98359E+10
        -0.61877E+10
        -0.44977E+10
        -0.31121E+10
        -0.19797E+10
         0.26844E+10
         0.30884E+10
         0.17013E+10
         0.25756E+09
        -0.42609E+10
        -0.69593E+10
        -0.82710E+10
        -0.96638E+10
        -0.13405E+11
        -0.10765E+11
         0.41927E+09
         0.10302E+10
         0.19503E+10
        -0.24148E+08
         0.11570E+10
         0.66752E+10
         0.14175E+11
         0.19422E+11
         0.10207E+11
         0.52553E+10
         0.84394E+10
         0.15824E+10
         0.56182E+09
         0.10397E+10
         0.15165E+10
         0.35120E+10
         0.45211E+10
         0.75262E+10
         0.19453E+11
         0.67825E+10
        -0.20335E+11
        -0.20522E+11
        -0.12556E+11
        -0.63093E+10
        -0.82410E+09
         0.38317E+10
         0.76612E+10
         0.69334E+10
         0.72236E+10
         0.15893E+11
         0.30375E+11
         0.43383E+11
         0.41888E+11
         0.26051E+11
         0.13693E+11
        -0.21013E+08
         0.38947E+09
         0.33684E+10
         0.22466E+10
         0.74995E+10
         0.96285E+10
        -0.83439E+09
         0.73283E+09
         0.40111E+09
         0.11235E+10
        -0.57811E+09
        -0.26426E+10
        -0.17414E+10
        -0.15791E+08
        -0.40948E+10
        -0.90439E+09
         0.14671E+10
        -0.28218E+09
         0.10954E+10
         0.96100E+09
        -0.81118E+09
        -0.42036E+10
        -0.17228E+09
         0.18341E+09
        -0.21452E+09
        -0.51071E+09
        -0.28467E+10
        -0.72167E+10
        -0.12389E+11
        -0.40390E+10
         0.50811E+08
         0.19041E+08
         0.32851E+10
         0.81510E+10
         0.70108E+10
         0.47230E+10
         0.12595E+10
        -0.94774E+10
        -0.15314E+11
        -0.20937E+11
        -0.25268E+11
        -0.20362E+11
        -0.12110E+11
         0.70994E+09
         0.19639E+10
         0.24843E+10
         0.16522E+10
         0.39259E+10
         0.10280E+11
         0.17484E+11
         0.21352E+11
         0.15098E+11
         0.82453E+10
         0.12690E+11
         0.51552E+10
         0.17495E+10
        -0.14827E+10
        -0.54440E+10
        -0.98440E+10
        -0.16111E+11
        -0.22940E+11
        -0.27680E+11
        -0.28339E+11
        -0.28738E+11
        -0.24573E+11
        -0.14796E+11
        -0.76177E+10
        -0.24401E+10
         0.21544E+10
         0.62730E+10
         0.53492E+10
         0.38549E+10
         0.81103E+10
         0.19835E+11
         0.30754E+11
         0.32038E+11
         0.26242E+11
         0.19322E+11
         0.22763E+09
        -0.24037E+09
         0.12204E+09
         0.13671E+09
         0.11201E+10
         0.13074E+10
         0.14380E+09
         0.11521E+10
         0.10136E+10
         0.12675E+10
         0.57747E+09
        -0.72377E+09
        -0.57014E+09
         0.78922E+09
        -0.19592E+10
         0.78271E+09
         0.15565E+10
         0.43779E+09
         0.91165E+09
         0.63481E+09
        -0.11668E+10
        -0.30359E+10
        -0.84812E+09
         0.26197E+09
         0.25016E+09
         0.21269E+09
        -0.11454E+10
        -0.42044E+10
        -0.81772E+10
        -0.23818E+10
         0.18429E+09
        -0.29061E+09
         0.23691E+09
         0.14170E+09
         0.51188E+09
         0.42496E+08
        -0.33915E+09
        -0.60663E+10
        -0.11126E+11
        -0.16351E+11
        -0.20290E+11
        -0.14392E+11
        -0.78811E+10
        -0.82713E+09
        -0.11920E+10
        -0.22915E+10
        -0.22427E+10
        -0.22732E+10
        -0.20634E+10
        -0.13704E+10
        -0.41219E+09
         0.73876E+09
         0.54941E+09
         0.26731E+10
        -0.27954E+08
        -0.30364E+09
        -0.11104E+10
        -0.35152E+10
        -0.72067E+10
        -0.13016E+11
        -0.21099E+11
        -0.26834E+11
        -0.28211E+11
        -0.25684E+11
        -0.18066E+11
        -0.10657E+11
        -0.54121E+10
        -0.29820E+10
        -0.26060E+10
        -0.29876E+10
        -0.43128E+10
        -0.63705E+10
        -0.82349E+10
        -0.81564E+10
        -0.54536E+10
        -0.78004E+09
         0.31963E+10
         0.43479E+10
         0.32661E+09
         0.10395E+09
        -0.35855E+09
        -0.33994E+09
        -0.88755E+09
        -0.15724E+10
         0.59186E+09
         0.83575E+09
         0.57805E+09
         0.73603E+09
         0.85769E+09
         0.42661E+09
         0.32282E+09
         0.78002E+09
        -0.44352E+09
         0.57673E+09
         0.83194E+09
         0.22571E+09
         0.48187E+09
         0.36848E+09
        -0.76174E+09
        -0.17415E+10
        -0.44151E+09
         0.15402E+09
         0.13565E+09
         0.14623E+09
        -0.38591E+09
        -0.22523E+10
        -0.46441E+10
        -0.12244E+10
        -0.13768E+09
        -0.27063E+09
        -0.80032E+09
        -0.19040E+10
        -0.85293E+09
        -0.53997E+09
        -0.10054E+09
        -0.32310E+10
        -0.68167E+10
        -0.10413E+11
        -0.13022E+11
        -0.84671E+10
        -0.44053E+10
        -0.54395E+09
        -0.95466E+09
        -0.16287E+10
        -0.16346E+10
        -0.24129E+10
        -0.37433E+10
        -0.47863E+10
        -0.51995E+10
        -0.32631E+10
        -0.11067E+10
        -0.12770E+10
        -0.73903E+09
        -0.25847E+09
        -0.14927E+09
        -0.11694E+10
        -0.36867E+10
        -0.83855E+10
        -0.15401E+11
        -0.20624E+11
        -0.21615E+11
        -0.17481E+11
        -0.11421E+11
        -0.63355E+10
        -0.27673E+10
        -0.12650E+10
        -0.15513E+10
        -0.24610E+10
        -0.31093E+10
        -0.44183E+10
        -0.70931E+10
        -0.96017E+10
        -0.99160E+10
        -0.79175E+10
        -0.47580E+10
        -0.22398E+10
         0.32162E+09
         0.27602E+09
         0.10555E+08
        -0.64945E+08
        -0.49829E+09
        -0.94267E+09
         0.50403E+09
         0.57298E+09
         0.32990E+09
         0.47253E+09
         0.60707E+09
         0.44266E+09
         0.31773E+09
         0.53577E+09
        -0.32438E+08
         0.16393E+09
         0.40605E+09
         0.67812E+08
         0.13920E+09
         0.22566E+09
        -0.45768E+09
        -0.83016E+09
        -0.24584E+09
        -0.42787E+08
         0.16810E+09
        -0.65276E+08
        -0.10657E+09
        -0.11742E+10
        -0.26199E+10
        -0.53247E+09
        -0.16062E+09
        -0.10913E+09
        -0.37809E+09
        -0.79977E+09
        -0.28307E+09
        -0.48772E+08
         0.10635E+09
        -0.17620E+10
        -0.41649E+10
        -0.66136E+10
        -0.83962E+10
        -0.50945E+10
        -0.23408E+10
        -0.17594E+09
        -0.15129E+09
        -0.12137E+09
        -0.15891E+09
        -0.48604E+09
        -0.10853E+10
        -0.17105E+10
        -0.21884E+10
        -0.16093E+10
        -0.43638E+09
        -0.10957E+10
        -0.18621E+09
        -0.14541E+09
        -0.20955E+08
        -0.29458E+09
        -0.17949E+10
        -0.52649E+10
        -0.10611E+11
        -0.14683E+11
        -0.15227E+11
        -0.11605E+11
        -0.65976E+10
        -0.30833E+10
        -0.12165E+10
        -0.28212E+09
        -0.12529E+09
        -0.23928E+09
        -0.16511E+09
        -0.26314E+09
        -0.10553E+10
        -0.22933E+10
        -0.31489E+10
        -0.33819E+10
        -0.28460E+10
        -0.19164E+10
         0.15539E+09
         0.12726E+09
         0.90225E+08
         0.54886E+08
        -0.14849E+09
        -0.28945E+09
         0.19434E+09
         0.25046E+09
         0.11822E+09
         0.19363E+09
         0.27108E+09
         0.22861E+09
         0.72385E+08
         0.25664E+09
         0.34354E+08
        -0.17645E+07
         0.10441E+09
         0.31469E+08
        -0.21770E+08
         0.46920E+08
        -0.18942E+09
        -0.30872E+09
        -0.31867E+08
        -0.46728E+08
         0.67628E+08
        -0.44822E+08
        -0.22106E+08
        -0.51088E+09
        -0.12146E+10
        -0.23293E+09
        -0.38612E+08
         0.32941E+07
        -0.13895E+08
        -0.44256E+08
         0.39764E+08
         0.10771E+09
        -0.12203E+07
        -0.79015E+09
        -0.20246E+10
        -0.33453E+10
        -0.42786E+10
        -0.23911E+10
        -0.94790E+09
         0.73179E+08
         0.17351E+09
         0.28080E+09
         0.19942E+09
         0.11165E+09
         0.42216E+08
        -0.63264E+08
        -0.23328E+09
        -0.30891E+09
         0.26439E+08
        -0.48853E+09
         0.10187E+09
        -0.15672E+09
        -0.10835E+09
         0.43653E+07
        -0.69566E+09
        -0.27374E+10
        -0.59239E+10
        -0.84204E+10
        -0.83701E+10
        -0.55668E+10
        -0.25430E+10
        -0.93232E+09
        -0.24384E+09
         0.11872E+09
         0.25851E+09
         0.37240E+09
         0.52633E+09
         0.62567E+09
         0.61012E+09
         0.48464E+09
         0.21442E+09
        -0.28384E+09
        -0.64910E+09
        -0.72074E+09
         0.61703E+08
         0.73017E+07
        -0.16541E+08
         0.62712E+07
        -0.18967E+09
        -0.23437E+09
         0.12813E+08
         0.55168E+08
         0.31849E+08
         0.52567E+06
         0.35715E+08
         0.23847E+08
        -0.10981E+09
         0.41520E+08
         0.34410E+08
        -0.71474E+07
        -0.22645E+08
         0.19751E+08
         0.63273E+07
        -0.56129E+08
         0.68583E+08
        -0.22691E+08
         0.14989E+09
         0.53802E+08
        -0.44725E+08
         0.19667E+08
        -0.26524E+08
        -0.17344E+09
        -0.41184E+09
        -0.11283E+09
        -0.26566E+08
         0.26744E+08
        -0.12374E+08
        -0.40941E+08
        -0.75023E+08
        -0.26430E+08
        -0.12310E+09
        -0.23257E+09
        -0.65238E+09
        -0.10737E+10
        -0.13014E+10
        -0.69664E+09
        -0.22929E+09
         0.16601E+09
         0.19787E+09
         0.22073E+09
         0.10115E+09
         0.15684E+08
        -0.17974E+08
        -0.64433E+08
        -0.15532E+09
        -0.20496E+09
        -0.90907E+08
        -0.43217E+09
        -0.45141E+08
        -0.25130E+09
        -0.22131E+09
        -0.12495E+08
        -0.13070E+09
        -0.91774E+09
        -0.21591E+10
        -0.30062E+10
        -0.26107E+10
        -0.12219E+10
        -0.15808E+09
         0.22350E+09
         0.30538E+09
         0.31590E+09
         0.29046E+09
         0.33432E+09
         0.35448E+09
         0.30293E+09
         0.20086E+09
         0.15056E+09
         0.53819E+08
        -0.17934E+09
        -0.36185E+09
        -0.48707E+09
         0.28399E+08
        -0.35313E+08
        -0.72023E+08
        -0.22019E+08
        -0.26118E+09
        -0.29863E+09
        -0.57500E+08
        -0.15406E+08
         0.21295E+07
        -0.28029E+08
        -0.47865E+08
        -0.65835E+08
        -0.17073E+09
        -0.94640E+07
         0.40180E+08
        -0.71287E+07
        -0.40629E+08
         0.15506E+08
         0.26821E+08
        -0.19596E+08
         0.17456E+09
         0.17618E+09
         0.17949E+09
         0.80236E+08
        -0.56427E+08
         0.37617E+08
        -0.33468E+07
        -0.14891E+08
        -0.24774E+07
        -0.50420E+08
        -0.30111E+08
         0.26574E+08
        -0.54943E+08
        -0.13388E+09
        -0.19373E+09
        -0.12538E+09
        -0.17602E+09
         0.61141E+08
         0.34324E+08
         0.38512E+08
         0.12737E+09
         0.14715E+09
         0.19391E+09
         0.17257E+09
         0.18306E+09
         0.16394E+09
         0.24367E+08
        -0.92811E+08
        -0.17803E+09
        -0.27249E+09
        -0.37660E+09
        -0.33417E+09
        -0.23665E+09
        -0.49611E+09
        -0.17952E+09
        -0.30421E+09
        -0.28165E+09
        -0.65331E+08
         0.10476E+09
         0.43798E+07
        -0.17431E+09
        -0.10136E+09
         0.32853E+09
         0.73881E+09
         0.92326E+09
         0.71870E+09
         0.46832E+09
         0.33259E+09
         0.25970E+09
         0.24785E+09
         0.21393E+09
         0.10321E+09
        -0.11358E+09
        -0.28679E+09
        -0.41208E+09
        -0.53870E+09
        -0.55969E+09
        -0.56781E+09
         0.21708E+08
        -0.41427E+08
        -0.71979E+08
        -0.14286E+08
        -0.27866E+09
        -0.33407E+09
        -0.81159E+08
        -0.39357E+08
        -0.64990E+07
        -0.33056E+08
        -0.75444E+08
        -0.86252E+08
        -0.18591E+09
        -0.21113E+08
         0.51381E+08
         0.45675E+05
        -0.44402E+08
         0.29278E+08
         0.45015E+08
         0.91701E+07
         0.20274E+09
         0.24462E+09
         0.19824E+09
         0.10868E+09
        -0.26102E+08
         0.59460E+08
         0.38733E+08
         0.90903E+08
         0.21508E+09
         0.41994E+08
        -0.12125E+08
         0.49360E+08
        -0.43992E+08
        -0.14486E+09
        -0.20119E+09
        -0.12766E+09
        -0.17991E+09
         0.17090E+09
         0.30828E+09
         0.51895E+09
         0.76944E+09
         0.53713E+09
         0.37374E+09
         0.18586E+09
         0.19326E+09
         0.17663E+09
         0.43982E+08
        -0.94798E+08
        -0.21469E+09
        -0.34702E+09
        -0.48555E+09
        -0.40343E+09
        -0.24337E+09
        -0.55227E+09
        -0.16590E+09
        -0.28420E+09
        -0.25384E+09
        -0.47757E+08
         0.16929E+09
         0.24754E+09
         0.47128E+09
         0.10029E+10
         0.15816E+10
         0.15723E+10
         0.12698E+10
         0.83587E+09
         0.51474E+09
         0.37498E+09
         0.28578E+09
         0.25467E+09
         0.22942E+09
         0.11627E+09
        -0.15430E+09
        -0.42348E+09
        -0.61538E+09
        -0.75279E+09
        -0.74159E+09
        -0.68952E+09
         0.19460E+08
        -0.49902E+08
        -0.71903E+08
        -0.48581E+07
        -0.30069E+09
        -0.35105E+09
        -0.10700E+09
        -0.55318E+08
        -0.76111E+07
        -0.38717E+08
        -0.10896E+09
        -0.13803E+09
        -0.22608E+09
        -0.38309E+08
         0.39023E+08
         0.10795E+08
        -0.44464E+08
         0.42235E+08
         0.60353E+08
         0.14766E+08
         0.21398E+09
         0.24782E+09
         0.21642E+09
         0.14289E+09
        -0.19801E+08
         0.91942E+08
         0.49320E+08
         0.12233E+09
         0.25433E+09
         0.56440E+08
         0.35358E+07
         0.83985E+08
        -0.28685E+08
        -0.13096E+09
        -0.20294E+09
        -0.12297E+09
        -0.19580E+09
         0.21917E+09
         0.40570E+09
         0.63126E+09
         0.86194E+09
         0.56334E+09
         0.37553E+09
         0.21139E+09
         0.22372E+09
         0.20384E+09
         0.82136E+08
        -0.85668E+08
        -0.22004E+09
        -0.34499E+09
        -0.47796E+09
        -0.40198E+09
        -0.25497E+09
        -0.63352E+09
        -0.12977E+09
        -0.26795E+09
        -0.26451E+09
        -0.10083E+09
         0.14440E+09
         0.37847E+09
         0.77330E+09
         0.13110E+10
         0.17446E+10
         0.15617E+10
         0.12540E+10
         0.89080E+09
         0.56159E+09
         0.41210E+09
         0.32488E+09
         0.31305E+09
         0.28267E+09
         0.14404E+09
        -0.15108E+09
        -0.43670E+09
        -0.60889E+09
        -0.73727E+09
        -0.75222E+09
        -0.75194E+09
         0.15760E+08
        -0.62443E+08
        -0.77186E+08
        -0.47093E+07
        -0.30504E+09
        -0.34521E+09
        -0.12759E+09
        -0.65813E+08
        -0.10752E+08
        -0.46556E+08
        -0.13355E+09
        -0.18333E+09
        -0.27207E+09
        -0.53953E+08
         0.18442E+08
         0.11346E+08
        -0.50388E+08
         0.42198E+08
         0.51612E+08
        -0.46044E+07
         0.19857E+09
         0.22787E+09
         0.20964E+09
         0.14271E+09
        -0.32488E+08
         0.97914E+08
         0.38206E+08
         0.10915E+09
         0.22581E+09
         0.25096E+08
         0.96492E+06
         0.86304E+08
        -0.34194E+08
        -0.13127E+09
        -0.20470E+09
        -0.13121E+09
        -0.22366E+09
         0.21367E+09
         0.40123E+09
         0.59966E+09
         0.80704E+09
         0.53024E+09
         0.35695E+09
         0.20938E+09
         0.21266E+09
         0.17281E+09
         0.48352E+08
        -0.10848E+09
        -0.22987E+09
        -0.33318E+09
        -0.44094E+09
        -0.37882E+09
        -0.25745E+09
        -0.64789E+09
        -0.12187E+09
        -0.30950E+09
        -0.35566E+09
        -0.18947E+09
         0.97663E+08
         0.40972E+09
         0.85546E+09
         0.13083E+10
         0.16544E+10
         0.15877E+10
         0.13267E+10
         0.92633E+09
         0.55754E+09
         0.39947E+09
         0.30977E+09
         0.28198E+09
         0.22985E+09
         0.99801E+08
        -0.15383E+09
        -0.39728E+09
        -0.53377E+09
        -0.64043E+09
        -0.68098E+09
        -0.73223E+09
         0.22172E+08
        -0.59455E+08
        -0.81075E+08
        -0.58361E+07
        -0.31388E+09
        -0.35757E+09
        -0.11797E+09
        -0.59307E+08
        -0.78483E+07
        -0.47128E+08
        -0.12015E+09
        -0.16063E+09
        -0.26639E+09
        -0.46307E+08
         0.30795E+08
         0.13217E+08
        -0.53146E+08
         0.43586E+08
         0.42074E+08
        -0.13468E+08
         0.18450E+09
         0.22767E+09
         0.20213E+09
         0.13264E+09
        -0.35854E+08
         0.93000E+08
         0.45002E+08
         0.13527E+09
         0.29943E+09
         0.36674E+08
        -0.65854E+07
         0.70720E+08
        -0.38482E+08
        -0.13892E+09
        -0.21175E+09
        -0.14365E+09
        -0.23330E+09
         0.25077E+09
         0.50654E+09
         0.79130E+09
         0.11069E+10
         0.72125E+09
         0.42732E+09
         0.20145E+09
         0.18711E+09
         0.12568E+09
         0.60143E+07
        -0.12936E+09
        -0.22662E+09
        -0.33151E+09
        -0.45373E+09
        -0.39511E+09
        -0.26639E+09
        -0.66259E+09
        -0.15732E+09
        -0.36229E+09
        -0.38029E+09
        -0.15601E+09
         0.10343E+09
         0.44696E+09
         0.11058E+10
         0.17815E+10
         0.23069E+10
         0.21012E+10
         0.15131E+10
         0.94483E+09
         0.53049E+09
         0.37859E+09
         0.28475E+09
         0.22803E+09
         0.15410E+09
         0.30249E+08
        -0.16921E+09
        -0.34287E+09
        -0.49840E+09
        -0.65986E+09
        -0.71713E+09
        -0.76459E+09
         0.26015E+08
        -0.51861E+08
        -0.81714E+08
        -0.83886E+07
        -0.32519E+09
        -0.36428E+09
        -0.10062E+09
        -0.51558E+08
        -0.44557E+07
        -0.44521E+08
        -0.95062E+08
        -0.11419E+09
        -0.23386E+09
        -0.29911E+08
         0.79234E+08
         0.13467E+08
        -0.53324E+08
         0.43375E+08
         0.41725E+08
        -0.48716E+07
         0.19426E+09
         0.25575E+09
         0.20492E+09
         0.12755E+09
        -0.27946E+08
         0.84746E+08
         0.61714E+08
         0.16862E+09
         0.37593E+09
         0.76917E+08
        -0.15748E+08
         0.53118E+08
        -0.37333E+08
        -0.13050E+09
        -0.21787E+09
        -0.14137E+09
        -0.22009E+09
         0.32688E+09
         0.62970E+09
         0.98159E+09
         0.13540E+10
         0.85914E+09
         0.49063E+09
         0.19406E+09
         0.16908E+09
         0.10226E+09
        -0.18993E+08
        -0.14452E+09
        -0.21406E+09
        -0.29581E+09
        -0.41266E+09
        -0.37953E+09
        -0.28350E+09
        -0.67849E+09
        -0.19154E+09
        -0.37706E+09
        -0.35180E+09
        -0.88346E+08
         0.20508E+09
         0.66441E+09
         0.14592E+10
         0.22864E+10
         0.28102E+10
         0.23330E+10
         0.16236E+10
         0.99569E+09
         0.53812E+09
         0.37490E+09
         0.26593E+09
         0.19923E+09
         0.13066E+09
        -0.81374E+07
        -0.20644E+09
        -0.31695E+09
        -0.41979E+09
        -0.58961E+09
        -0.68449E+09
        -0.77134E+09
         0.24243E+08
        -0.40766E+08
        -0.57704E+08
         0.56852E+06
        -0.29340E+09
        -0.33188E+09
        -0.88676E+08
        -0.48300E+08
        -0.61269E+07
        -0.42599E+08
        -0.72749E+08
        -0.73071E+08
        -0.20038E+09
        -0.10779E+08
         0.14074E+09
         0.11526E+08
        -0.54978E+08
         0.44159E+08
         0.40445E+08
        -0.43798E+07
         0.20170E+09
         0.25398E+09
         0.21382E+09
         0.12237E+09
        -0.21948E+08
         0.73090E+08
         0.79728E+08
         0.17948E+09
         0.36142E+09
         0.83590E+08
        -0.25341E+08
         0.30021E+08
        -0.36355E+08
        -0.11457E+09
        -0.17521E+09
        -0.92180E+08
        -0.17969E+09
         0.38820E+09
         0.64718E+09
         0.91840E+09
         0.12003E+10
         0.77476E+09
         0.46579E+09
         0.18914E+09
         0.14393E+09
         0.63192E+08
        -0.54076E+08
        -0.16869E+09
        -0.22656E+09
        -0.28389E+09
        -0.37047E+09
        -0.33647E+09
        -0.24081E+09
        -0.64148E+09
        -0.12836E+09
        -0.30814E+09
        -0.29444E+09
        -0.26892E+08
         0.36219E+09
         0.88487E+09
         0.15481E+10
         0.21072E+10
         0.23934E+10
         0.20410E+10
         0.15443E+10
         0.97601E+09
         0.53735E+09
         0.38540E+09
         0.26332E+09
         0.16565E+09
         0.81114E+08
        -0.58544E+08
        -0.25866E+09
        -0.37191E+09
        -0.42696E+09
        -0.51907E+09
        -0.58074E+09
        -0.69977E+09
         0.14914E+08
        -0.45391E+08
        -0.51415E+08
        -0.30667E+07
        -0.26832E+09
        -0.31163E+09
        -0.99920E+08
        -0.58059E+08
        -0.11644E+08
        -0.47427E+08
        -0.83326E+08
        -0.85230E+08
        -0.21058E+09
        -0.16749E+08
         0.14070E+09
         0.75699E+07
        -0.56916E+08
         0.37770E+08
         0.28895E+08
        -0.21290E+08
         0.17493E+09
         0.21671E+09
         0.19161E+09
         0.10511E+09
        -0.33195E+08
         0.62135E+08
         0.71053E+08
         0.13894E+09
         0.25907E+09
         0.35330E+08
        -0.33802E+08
         0.20291E+08
        -0.44697E+08
        -0.11929E+09
        -0.15139E+09
        -0.73879E+08
        -0.17171E+09
         0.35869E+09
         0.53380E+09
         0.68750E+09
         0.88283E+09
         0.59502E+09
         0.38935E+09
         0.17694E+09
         0.13671E+09
         0.59660E+08
        -0.57423E+08
        -0.17088E+09
        -0.23416E+09
        -0.29235E+09
        -0.37232E+09
        -0.32762E+09
        -0.20767E+09
        -0.58607E+09
        -0.85707E+08
        -0.27690E+09
        -0.30390E+09
        -0.47510E+08
         0.38518E+09
         0.84259E+09
         0.12582E+10
         0.15238E+10
         0.17641E+10
         0.17347E+10
         0.14542E+10
         0.92309E+09
         0.49451E+09
         0.34799E+09
         0.25370E+09
         0.17099E+09
         0.88934E+08
        -0.30607E+08
        -0.22566E+09
        -0.36701E+09
        -0.43525E+09
        -0.51716E+09
        -0.53891E+09
        -0.62829E+09
         0.56635E+07
        -0.62023E+08
        -0.68653E+08
        -0.15061E+08
        -0.27722E+09
        -0.32050E+09
        -0.12057E+09
        -0.69689E+08
        -0.15977E+08
        -0.48330E+08
        -0.11105E+09
        -0.12202E+09
        -0.24011E+09
        -0.40697E+08
         0.82602E+08
        -0.15054E+07
        -0.55990E+08
         0.26062E+08
         0.24685E+08
        -0.21500E+08
         0.16377E+09
         0.20758E+09
         0.18338E+09
         0.10163E+09
        -0.30651E+08
         0.64316E+08
         0.51375E+08
         0.11940E+09
         0.24840E+09
         0.30670E+08
        -0.31610E+08
         0.37428E+08
        -0.47472E+08
        -0.12085E+09
        -0.16709E+09
        -0.98569E+08
        -0.19738E+09
         0.25664E+09
         0.41188E+09
         0.60502E+09
         0.87116E+09
         0.62229E+09
         0.40025E+09
         0.18881E+09
         0.17436E+09
         0.11686E+09
        -0.97853E+07
        -0.13232E+09
        -0.20376E+09
        -0.26994E+09
        -0.35938E+09
        -0.33087E+09
        -0.21316E+09
        -0.57320E+09
        -0.11855E+09
        -0.31641E+09
        -0.34697E+09
        -0.91347E+08
         0.28365E+09
         0.54336E+09
         0.80714E+09
         0.11988E+10
         0.17741E+10
         0.19388E+10
         0.15404E+10
         0.93206E+09
         0.51028E+09
         0.35430E+09
         0.29567E+09
         0.25315E+09
         0.17649E+09
         0.59728E+08
        -0.12785E+09
        -0.28195E+09
        -0.37353E+09
        -0.49329E+09
        -0.55417E+09
        -0.63784E+09
         0.17545E+08
        -0.48354E+08
        -0.61079E+08
        -0.54416E+07
        -0.26312E+09
        -0.29426E+09
        -0.98591E+08
        -0.50452E+08
        -0.99393E+07
        -0.35349E+08
        -0.94444E+08
        -0.10900E+09
        -0.21339E+09
        -0.30464E+08
         0.66549E+08
        -0.14765E+06
        -0.53323E+08
         0.27174E+08
         0.47193E+08
         0.17130E+06
         0.21072E+09
         0.24938E+09
         0.23318E+09
         0.13746E+09
        -0.17568E+08
         0.89217E+08
         0.68312E+08
         0.16982E+09
         0.36327E+09
         0.75052E+08
        -0.17361E+08
         0.61192E+08
        -0.30746E+08
        -0.88174E+08
        -0.16182E+09
        -0.96945E+08
        -0.18556E+09
         0.28983E+09
         0.57558E+09
         0.91788E+09
         0.12799E+10
         0.83525E+09
         0.48239E+09
         0.23229E+09
         0.21421E+09
         0.15392E+09
         0.25610E+08
        -0.92062E+08
        -0.14756E+09
        -0.19534E+09
        -0.27097E+09
        -0.27607E+09
        -0.21039E+09
        -0.54281E+09
        -0.14323E+09
        -0.32893E+09
        -0.32062E+09
        -0.80615E+08
         0.23843E+09
         0.61790E+09
         0.12852E+10
         0.20685E+10
         0.26480E+10
         0.24391E+10
         0.17092E+10
         0.10139E+10
         0.61273E+09
         0.45307E+09
         0.37019E+09
         0.30957E+09
         0.21144E+09
         0.88591E+08
        -0.67441E+08
        -0.17540E+09
        -0.23635E+09
        -0.34933E+09
        -0.45904E+09
        -0.59095E+09
         0.21270E+08
        -0.33685E+08
        -0.51073E+08
        -0.15075E+07
        -0.23710E+09
        -0.26137E+09
        -0.66242E+08
        -0.29705E+08
        -0.10748E+08
        -0.24889E+08
        -0.58009E+08
        -0.67127E+08
        -0.16170E+09
        -0.48419E+07
         0.73578E+08
         0.13869E+07
        -0.55058E+08
         0.24598E+08
         0.63802E+08
         0.20910E+08
         0.24902E+09
         0.30561E+09
         0.25197E+09
         0.15425E+09
        -0.13419E+08
         0.99700E+08
         0.88987E+08
         0.18854E+09
         0.38104E+09
         0.10403E+09
        -0.10614E+08
         0.67335E+08
        -0.20372E+08
        -0.64828E+08
        -0.14823E+09
        -0.88068E+08
        -0.16040E+09
         0.31382E+09
         0.62671E+09
         0.98809E+09
         0.13570E+10
         0.86651E+09
         0.52253E+09
         0.23579E+09
         0.21059E+09
         0.15359E+09
         0.36630E+08
        -0.67665E+08
        -0.10371E+09
        -0.13149E+09
        -0.19161E+09
        -0.22377E+09
        -0.20134E+09
        -0.48228E+09
        -0.16378E+09
        -0.32536E+09
        -0.26754E+09
        -0.47290E+08
         0.20057E+09
         0.64155E+09
         0.14660E+10
         0.23363E+10
         0.28512E+10
         0.24853E+10
         0.17748E+10
         0.10749E+10
         0.63895E+09
         0.45829E+09
         0.33822E+09
         0.26781E+09
         0.19317E+09
         0.10250E+09
        -0.25068E+08
        -0.10119E+09
        -0.12342E+09
        -0.21605E+09
        -0.34169E+09
        -0.49772E+09
         0.25326E+08
        -0.23753E+08
        -0.16342E+08
         0.19239E+08
        -0.17373E+09
        -0.21041E+09
        -0.54204E+08
        -0.16044E+08
        -0.77788E+07
        -0.92610E+07
        -0.33387E+08
        -0.35504E+08
        -0.14410E+09
         0.24870E+08
         0.11373E+09
         0.11503E+07
        -0.47511E+08
         0.30619E+08
         0.68218E+08
         0.44423E+08
         0.26520E+09
         0.36486E+09
         0.24269E+09
         0.14354E+09
         0.98779E+07
         0.93867E+08
         0.12593E+09
         0.22647E+09
         0.40562E+09
         0.14138E+09
         0.62502E+07
         0.76873E+08
         0.14291E+08
        -0.75299E+07
        -0.65560E+08
        -0.30409E+08
        -0.13927E+09
         0.36079E+09
         0.65510E+09
         0.98117E+09
         0.13189E+10
         0.88984E+09
         0.59707E+09
         0.22880E+09
         0.22418E+09
         0.19613E+09
         0.80801E+08
        -0.51404E+07
        -0.12734E+08
        -0.14061E+08
        -0.77323E+08
        -0.15264E+09
        -0.93585E+08
        -0.40894E+09
        -0.62912E+08
        -0.29799E+09
        -0.24809E+09
        -0.84325E+07
         0.23355E+09
         0.68275E+09
         0.14883E+10
         0.22863E+10
         0.27109E+10
         0.24887E+10
         0.19041E+10
         0.11081E+10
         0.60308E+09
         0.40699E+09
         0.31046E+09
         0.29219E+09
         0.26562E+09
         0.20525E+09
         0.10966E+09
         0.61842E+08
         0.58545E+08
        -0.46262E+08
        -0.22746E+09
        -0.42345E+09
         0.51320E+08
         0.26471E+08
         0.12166E+09
         0.11725E+09
         0.52393E+08
         0.23102E+08
        -0.30126E+08
         0.12139E+08
         0.10350E+08
         0.22520E+08
         0.18482E+08
         0.50768E+08
        -0.96713E+08
         0.92960E+08
         0.26617E+09
        -0.13598E+07
        -0.35398E+08
         0.68467E+08
         0.36235E+08
         0.33455E+08
         0.20426E+09
         0.31366E+09
         0.17967E+09
         0.84933E+08
         0.50768E+08
         0.54739E+08
         0.20791E+09
         0.31934E+09
         0.51319E+09
         0.17927E+09
         0.55253E+08
         0.82194E+08
         0.14248E+09
         0.21279E+09
         0.18881E+09
         0.19240E+09
        -0.29430E+08
         0.53992E+09
         0.85990E+09
         0.12011E+10
         0.15236E+10
         0.99652E+09
         0.60815E+09
         0.17351E+09
         0.20608E+09
         0.24859E+09
         0.17662E+09
         0.17761E+09
         0.27536E+09
         0.36804E+09
         0.36956E+09
         0.17835E+09
         0.20507E+09
        -0.16396E+09
         0.28294E+09
        -0.85867E+08
        -0.12874E+09
         0.17573E+09
         0.53561E+09
         0.11140E+10
         0.20535E+10
         0.28691E+10
         0.30505E+10
         0.25915E+10
         0.18109E+10
         0.98508E+09
         0.52213E+09
         0.33827E+09
         0.27661E+09
         0.35129E+09
         0.44256E+09
         0.52061E+09
         0.56173E+09
         0.63389E+09
         0.70090E+09
         0.58637E+09
         0.28801E+09
        -0.77856E+08
         0.50324E+08
         0.67366E+08
         0.28362E+09
         0.20563E+09
         0.35599E+09
         0.34684E+09
        -0.29271E+08
         0.32629E+08
         0.62642E+07
         0.39514E+08
         0.50458E+08
         0.10074E+09
        -0.57187E+08
         0.15761E+09
         0.34172E+09
        -0.74703E+08
        -0.61781E+08
         0.67140E+08
        -0.93788E+08
        -0.82646E+08
        -0.19370E+08
         0.52599E+08
        -0.49240E+08
        -0.98254E+08
         0.21995E+08
        -0.11636E+09
         0.23676E+09
         0.25950E+09
         0.28289E+09
         0.60168E+08
         0.22522E+08
        -0.28930E+08
         0.22604E+09
         0.41387E+09
         0.48608E+09
         0.42365E+09
         0.13373E+09
         0.54650E+09
         0.67733E+09
         0.70630E+09
         0.69383E+09
         0.39624E+09
         0.21750E+09
        -0.56728E+08
         0.53354E+08
         0.25467E+09
         0.24490E+09
         0.33565E+09
         0.53333E+09
         0.73388E+09
         0.83075E+09
         0.56444E+09
         0.59059E+09
         0.29184E+09
         0.67241E+09
         0.25239E+09
         0.34712E+08
         0.24866E+09
         0.60224E+09
         0.10639E+10
         0.15723E+10
         0.16542E+10
         0.13287E+10
         0.10778E+10
         0.85836E+09
         0.54715E+09
         0.33768E+09
         0.21121E+09
         0.14621E+09
         0.35185E+09
         0.68557E+09
         0.98252E+09
         0.11073E+10
         0.11876E+10
         0.13022E+10
         0.12482E+10
         0.94033E+09
         0.49360E+09
        -0.83742E+08
        -0.10676E+09
        -0.95625E+08
        -0.91803E+08
         0.17301E+09
         0.29898E+09
        -0.63684E+08
        -0.38278E+08
         0.11989E+08
         0.68003E+08
        -0.32641E+08
         0.79943E+07
        -0.12215E+08
         0.14714E+08
         0.46644E+08
        -0.77852E+08
         0.87340E+08
        -0.10416E+09
         0.16450E+09
         0.33103E+09
         0.72058E+09
         0.92989E+09
         0.37595E+09
         0.54272E+08
         0.18667E+09
        -0.16090E+09
         0.12848E+09
         0.15908E+09
         0.14756E+08
         0.35980E+09
        -0.12016E+09
        -0.95641E+08
        -0.50812E+08
         0.12081E+09
         0.86964E+08
        -0.49522E+08
        -0.48072E+08
         0.85065E+08
        -0.10915E+09
        -0.53284E+09
        -0.89215E+09
        -0.20735E+09
         0.63664E+09
         0.62250E+08
         0.13864E+09
         0.54205E+09
         0.47169E+09
         0.43309E+09
         0.44136E+09
         0.56389E+09
         0.74002E+09
         0.48984E+09
         0.27685E+09
         0.65634E+09
         0.12349E+09
         0.62435E+08
        -0.54159E+08
        -0.56412E+08
        -0.12242E+08
        -0.87847E+08
        -0.61905E+09
        -0.16268E+10
        -0.19262E+10
        -0.22783E+09
         0.18501E+10
         0.25414E+10
         0.21641E+10
         0.14117E+10
         0.77621E+09
         0.81894E+09
         0.14674E+10
         0.19766E+10
         0.18088E+10
         0.14174E+10
         0.13342E+10
         0.13453E+10
         0.11886E+10
         0.95451E+09
        -0.16068E+09
        -0.32057E+09
        -0.82399E+09
        -0.60876E+09
        -0.34977E+09
        -0.53426E+08
         0.43982E+08
        -0.61817E+08
         0.20699E+09
         0.30236E+09
        -0.92651E+08
        -0.90939E+07
         0.17753E+09
        -0.23101E+09
        -0.39158E+09
         0.25943E+09
         0.60420E+09
        -0.24784E+09
         0.10641E+10
         0.16156E+10
         0.31539E+10
         0.42391E+10
         0.19142E+10
         0.92649E+09
         0.10150E+10
         0.31454E+09
         0.17176E+09
         0.85779E+09
         0.12111E+10
         0.20045E+10
        -0.87160E+08
         0.21206E+09
        -0.54858E+09
        -0.59557E+09
        -0.86283E+09
        -0.11520E+10
        -0.48080E+09
        -0.28292E+09
        -0.17185E+09
        -0.25925E+09
        -0.91656E+08
         0.16974E+10
         0.38395E+10
         0.88113E+09
         0.62375E+09
         0.10796E+10
         0.90703E+09
         0.46390E+09
        -0.86046E+08
        -0.15031E+09
         0.15213E+09
         0.44606E+07
        -0.51360E+09
         0.10036E+10
        -0.13199E+10
        -0.63306E+09
        -0.10197E+09
        -0.13581E+09
        -0.49499E+09
        -0.96546E+09
        -0.18253E+10
        -0.23744E+10
        -0.11076E+10
         0.35518E+10
         0.84919E+10
         0.94643E+10
         0.72085E+10
         0.42530E+10
         0.21498E+10
         0.14458E+10
         0.22969E+10
         0.30123E+10
         0.21362E+10
         0.99181E+09
         0.77140E+09
         0.10062E+10
         0.11915E+10
         0.13675E+10
  
SCALARS                      stress_yy  double 1
LOOKUP_TABLE default
        -0.15296E+11
        -0.11657E+11
        -0.13899E+11
        -0.17097E+11
        -0.90945E+01
         0.53878E+01
         0.29524E+01
        -0.20787E+02
        -0.16843E+11
        -0.18023E+11
         0.23700E+00
        -0.36497E+02
        -0.10043E+11
        -0.14586E+11
         0.78151E+01
         0.38488E+01
        -0.15908E+11
        -0.15293E+11
        -0.11887E+02
        -0.42265E+01
        -0.93171E+10
         0.23060E+09
         0.75761E+08
         0.81975E+01
         0.20438E+02
         0.22560E+02
        -0.12781E+11
        -0.45453E+10
        -0.90800E+01
         0.48574E+01
        -0.15445E+11
        -0.15075E+11
        -0.16082E+11
        -0.11533E+02
        -0.88106E+01
        -0.13167E+02
        -0.13391E+11
        -0.14187E+11
        -0.68358E+01
        -0.73986E+01
        -0.11233E+11
        -0.14289E+11
         0.38731E+01
        -0.37683E+01
        -0.10442E+11
        -0.12613E+11
         0.43753E+01
        -0.32590E+01
        -0.14191E+11
        -0.69411E+01
        -0.14404E+11
        -0.80802E+01
        -0.12470E+11
        -0.11502E+02
        -0.11787E+11
        -0.92511E+01
        -0.11476E+11
        -0.14522E+11
        -0.17505E+02
        -0.50094E+01
        -0.16049E+11
        -0.16102E+11
        -0.89258E+01
        -0.14619E+02
        -0.17322E+11
        -0.14818E+02
        -0.19017E+11
        -0.34307E+02
        -0.13272E+11
        -0.10034E+11
         0.85496E+01
         0.27249E+01
        -0.51790E+10
         0.22888E+02
        -0.28920E+10
        -0.91243E+01
        -0.42387E+09
        -0.66170E+01
        -0.29289E+10
        -0.13160E+02
        -0.82547E+10
        -0.12847E+11
        -0.25433E+02
        -0.33514E+02
        -0.16407E+11
        -0.27626E+02
        -0.12540E+11
         0.40585E+01
        -0.16079E+11
        -0.66980E+01
        -0.17745E+11
        -0.16709E+11
        -0.22830E+02
        -0.19750E+02
        -0.17266E+11
        -0.23728E+01
        -0.19322E+11
        -0.17795E+02
        -0.20042E+11
        -0.28922E+02
        -0.19589E+11
        -0.18933E+11
        -0.39523E+02
        -0.52847E+02
        -0.14279E+11
        -0.16407E+11
         0.19480E+02
        -0.67737E+02
        -0.10034E+11
         0.17981E+02
        -0.91206E+09
         0.22450E+02
         0.11909E+11
         0.35473E+02
         0.21566E+11
         0.22406E+02
         0.24975E+11
         0.73882E+01
         0.32595E+11
         0.21782E+00
         0.63907E+11
         0.71749E+01
         0.42072E+11
        -0.23869E+02
        -0.15500E+11
        -0.51663E+02
        -0.28531E+11
        -0.34194E+02
        -0.27723E+11
        -0.29272E+02
        -0.19987E+11
        -0.16093E+02
        -0.14479E+11
        -0.87467E+01
        -0.11959E+11
         0.13125E+01
        -0.13888E+11
         0.17069E+02
        -0.20196E+11
         0.38473E+02
        -0.21039E+11
         0.13426E+02
        -0.19009E+11
         0.28675E+01
        -0.18785E+11
        -0.60937E+00
        -0.20125E+11
        -0.30840E+02
        -0.19835E+11
        -0.37275E+02
        -0.18630E+11
        -0.54236E+02
        -0.17576E+11
        -0.36874E+02
        -0.15718E+11
        -0.29679E+02
        -0.35044E+10
        -0.15534E+10
        -0.27960E+09
        -0.19330E+10
         0.22429E+10
         0.37883E+10
        -0.28480E+10
        -0.41235E+10
        -0.43709E+10
        -0.39555E+10
        -0.29355E+10
        -0.14908E+10
        -0.11717E+10
        -0.36691E+10
        -0.18650E+10
        -0.50363E+10
        -0.32225E+10
        -0.45626E+10
        -0.12694E+10
        -0.21187E+10
        -0.21587E+09
        -0.44436E+10
         0.52516E+09
        -0.12632E+10
        -0.43599E+10
        -0.31424E+10
        -0.50886E+10
        -0.76472E+10
        -0.10122E+11
        -0.64425E+10
        -0.46313E+10
        -0.31489E+10
        -0.22413E+10
         0.24693E+10
         0.29010E+10
         0.15204E+10
         0.18014E+09
        -0.44022E+10
        -0.71720E+10
        -0.85387E+10
        -0.99608E+10
        -0.13721E+11
        -0.11067E+11
         0.44575E+09
         0.10165E+10
         0.19203E+10
        -0.96979E+08
         0.10142E+10
         0.65106E+10
         0.14045E+11
         0.19355E+11
         0.10153E+11
         0.50893E+10
         0.83915E+10
         0.13765E+10
         0.40912E+09
         0.10065E+10
         0.15527E+10
         0.35006E+10
         0.44514E+10
         0.74253E+10
         0.19275E+11
         0.64957E+10
        -0.20670E+11
        -0.20858E+11
        -0.12788E+11
        -0.63713E+10
        -0.81099E+09
         0.38387E+10
         0.76342E+10
         0.69215E+10
         0.71740E+10
         0.15761E+11
         0.30214E+11
         0.43264E+11
         0.41859E+11
         0.26126E+11
         0.13798E+11
        -0.44520E+08
         0.37729E+09
         0.32564E+10
         0.21710E+10
         0.75041E+10
         0.97295E+10
        -0.69631E+09
         0.76112E+09
         0.44248E+09
         0.11640E+10
        -0.49092E+09
        -0.25200E+10
        -0.15693E+10
        -0.37178E+08
        -0.41110E+10
        -0.82193E+09
         0.16097E+10
        -0.35617E+09
         0.13565E+10
         0.10505E+10
        -0.72775E+09
        -0.42676E+10
        -0.10120E+09
         0.34339E+09
        -0.24911E+09
        -0.45456E+09
        -0.29034E+10
        -0.73258E+10
        -0.12559E+11
        -0.41898E+10
         0.11353E+08
         0.25597E+07
         0.32196E+10
         0.81803E+10
         0.69348E+10
         0.46176E+10
         0.12522E+10
        -0.95573E+10
        -0.15442E+11
        -0.21112E+11
        -0.25472E+11
        -0.20564E+11
        -0.12283E+11
         0.67671E+09
         0.19063E+10
         0.24235E+10
         0.15920E+10
         0.38636E+10
         0.10253E+11
         0.17519E+11
         0.21435E+11
         0.15208E+11
         0.81876E+10
         0.12776E+11
         0.50690E+10
         0.17190E+10
        -0.13815E+10
        -0.53262E+10
        -0.98531E+10
        -0.16224E+11
        -0.23117E+11
        -0.27886E+11
        -0.28328E+11
        -0.28975E+11
        -0.24790E+11
        -0.14934E+11
        -0.76691E+10
        -0.24894E+10
         0.20342E+10
         0.61691E+10
         0.52753E+10
         0.37705E+10
         0.80155E+10
         0.19776E+11
         0.30765E+11
         0.32124E+11
         0.26393E+11
         0.19501E+11
         0.24848E+09
        -0.15272E+09
         0.22813E+09
         0.25812E+09
         0.13400E+10
         0.16187E+10
         0.29293E+09
         0.12183E+10
         0.10595E+10
         0.13987E+10
         0.72282E+09
        -0.54180E+09
        -0.31811E+09
         0.85336E+09
        -0.19225E+10
         0.85234E+09
         0.17017E+10
         0.45919E+09
         0.11392E+10
         0.78474E+09
        -0.10544E+10
        -0.30470E+10
        -0.78315E+09
         0.40622E+09
         0.36142E+09
         0.26704E+09
        -0.11110E+10
        -0.42523E+10
        -0.83071E+10
        -0.24551E+10
         0.22287E+09
        -0.29507E+09
         0.37095E+09
         0.43268E+09
         0.67325E+09
         0.17812E+09
        -0.16221E+09
        -0.60946E+10
        -0.11209E+11
        -0.16491E+11
        -0.20466E+11
        -0.14565E+11
        -0.80141E+10
        -0.85928E+09
        -0.12532E+10
        -0.23620E+10
        -0.22823E+10
        -0.22378E+10
        -0.18889E+10
        -0.10488E+10
        -0.40739E+08
         0.11057E+10
         0.71974E+09
         0.29359E+10
         0.14775E+09
        -0.79561E+08
        -0.82357E+09
        -0.33164E+10
        -0.71658E+10
        -0.13059E+11
        -0.21206E+11
        -0.26992E+11
        -0.28406E+11
        -0.25896E+11
        -0.18253E+11
        -0.10775E+11
        -0.54595E+10
        -0.30619E+10
        -0.27544E+10
        -0.30951E+10
        -0.43971E+10
        -0.64304E+10
        -0.82240E+10
        -0.80157E+10
        -0.51664E+10
        -0.41635E+09
         0.35688E+10
         0.46921E+10
         0.44043E+09
         0.29139E+09
        -0.13131E+09
        -0.16267E+09
        -0.63648E+09
        -0.13306E+10
         0.84506E+09
         0.10339E+10
         0.75173E+09
         0.97396E+09
         0.11591E+10
         0.67802E+09
         0.66177E+09
         0.10364E+10
        -0.34499E+09
         0.72436E+09
         0.10416E+10
         0.34152E+09
         0.71296E+09
         0.53779E+09
        -0.61202E+09
        -0.17203E+10
        -0.30476E+09
         0.35676E+09
         0.34831E+09
         0.28461E+09
        -0.21109E+09
        -0.22211E+10
        -0.47321E+10
        -0.12165E+10
        -0.39042E+08
        -0.22418E+09
        -0.63401E+09
        -0.16687E+10
        -0.60522E+09
        -0.27319E+09
         0.20441E+09
        -0.32064E+10
        -0.68623E+10
        -0.10530E+11
        -0.13186E+11
        -0.86287E+10
        -0.45231E+10
        -0.48321E+09
        -0.96497E+09
        -0.16719E+10
        -0.16459E+10
        -0.23472E+10
        -0.35882E+10
        -0.45765E+10
        -0.49846E+10
        -0.30339E+10
        -0.87533E+09
        -0.10647E+10
        -0.46555E+09
         0.67774E+08
         0.21618E+09
        -0.94811E+09
        -0.36135E+10
        -0.83805E+10
        -0.15470E+11
        -0.20764E+11
        -0.21810E+11
        -0.17704E+11
        -0.11614E+11
        -0.64286E+10
        -0.27606E+10
        -0.12613E+10
        -0.16048E+10
        -0.25166E+10
        -0.31678E+10
        -0.44482E+10
        -0.70516E+10
        -0.94912E+10
        -0.97598E+10
        -0.77352E+10
        -0.45705E+10
        -0.20484E+10
         0.42203E+09
         0.38856E+09
         0.88659E+08
        -0.15241E+08
        -0.44664E+09
        -0.92815E+09
         0.68263E+09
         0.72676E+09
         0.49657E+09
         0.67085E+09
         0.89141E+09
         0.74922E+09
         0.61653E+09
         0.81887E+09
         0.15754E+09
         0.32264E+09
         0.59850E+09
         0.20961E+09
         0.33402E+09
         0.38863E+09
        -0.29010E+09
        -0.77462E+09
        -0.10834E+09
         0.12858E+09
         0.36429E+09
         0.64881E+08
         0.13720E+09
        -0.10740E+10
        -0.26540E+10
        -0.47043E+09
        -0.48623E+08
        -0.89281E+08
        -0.29997E+09
        -0.78904E+09
        -0.19399E+09
         0.96046E+08
         0.33353E+09
        -0.16717E+10
        -0.41645E+10
        -0.66894E+10
        -0.85217E+10
        -0.52179E+10
        -0.24231E+10
        -0.14564E+09
        -0.20971E+09
        -0.20993E+09
        -0.22980E+09
        -0.52282E+09
        -0.11157E+10
        -0.17500E+10
        -0.22259E+10
        -0.16235E+10
        -0.35468E+09
        -0.10569E+10
        -0.25413E+08
         0.14350E+09
         0.31381E+09
        -0.69228E+08
        -0.16766E+10
        -0.52126E+10
        -0.10640E+11
        -0.14786E+11
        -0.15387E+11
        -0.11798E+11
        -0.67663E+10
        -0.31374E+10
        -0.11681E+10
        -0.24271E+09
        -0.17870E+09
        -0.34664E+09
        -0.27025E+09
        -0.35103E+09
        -0.10930E+10
        -0.23253E+10
        -0.31990E+10
        -0.34284E+10
        -0.28695E+10
        -0.19138E+10
         0.22659E+09
         0.22363E+09
         0.79786E+08
         0.53132E+07
        -0.21331E+09
        -0.40768E+09
         0.35555E+09
         0.36515E+09
         0.25870E+09
         0.35239E+09
         0.49995E+09
         0.52264E+09
         0.35560E+09
         0.48749E+09
         0.31735E+09
         0.15037E+09
         0.27680E+09
         0.12410E+09
         0.12937E+09
         0.19588E+09
        -0.92118E+08
        -0.21761E+09
        -0.85988E+08
         0.58633E+07
         0.23656E+09
        -0.31398E+08
         0.21662E+09
        -0.34542E+09
        -0.11615E+10
        -0.12353E+09
        -0.25689E+08
        -0.78435E+08
        -0.89847E+08
        -0.27156E+09
         0.57336E+06
         0.17761E+09
         0.24263E+09
        -0.59854E+09
        -0.19488E+10
        -0.33490E+10
        -0.43319E+10
        -0.24367E+10
        -0.95100E+09
        -0.14024E+09
        -0.13216E+09
        -0.10172E+08
        -0.16436E+08
        -0.30259E+08
        -0.12176E+09
        -0.26947E+09
        -0.45086E+09
        -0.50134E+09
        -0.34867E+08
        -0.55220E+09
         0.21703E+09
         0.14080E+09
         0.22202E+09
         0.26334E+09
        -0.51552E+09
        -0.26315E+10
        -0.59020E+10
        -0.84598E+10
        -0.84607E+10
        -0.56862E+10
        -0.26365E+10
        -0.93080E+09
        -0.21173E+09
         0.36282E+08
         0.30950E+08
         0.79761E+08
         0.24489E+09
         0.42751E+09
         0.49217E+09
         0.34744E+09
         0.26045E+08
        -0.50542E+09
        -0.85276E+09
        -0.83901E+09
         0.75660E+08
         0.80826E+08
         0.30709E+07
        -0.21853E+08
        -0.20579E+09
        -0.27321E+09
         0.12249E+09
         0.10524E+09
         0.85066E+08
         0.10623E+09
         0.21740E+09
         0.30014E+09
         0.16443E+09
         0.23093E+09
         0.29801E+09
         0.50109E+08
         0.69394E+08
         0.52699E+08
         0.10320E+08
         0.50935E+08
        -0.13732E+07
         0.80183E+08
        -0.66840E+08
        -0.45489E+08
         0.96564E+08
        -0.57464E+08
         0.18338E+09
         0.53979E+08
        -0.16586E+09
         0.47135E+08
        -0.30541E+08
        -0.76653E+08
        -0.57198E+08
        -0.15702E+09
        -0.61590E+08
         0.83698E+08
         0.11379E+09
         0.57857E+08
        -0.36263E+09
        -0.82758E+09
        -0.11147E+10
        -0.43233E+09
        -0.12633E+08
        -0.11786E+09
        -0.11121E+09
        -0.79546E+08
        -0.92909E+08
        -0.97390E+08
        -0.12210E+09
        -0.18239E+09
        -0.26757E+09
        -0.29186E+09
        -0.95082E+08
        -0.44460E+09
         0.14435E+09
         0.37084E+08
         0.79456E+08
         0.26809E+09
         0.10470E+09
        -0.71986E+09
        -0.20189E+10
        -0.28976E+10
        -0.25316E+10
        -0.11567E+10
        -0.19880E+08
         0.34550E+09
         0.26328E+09
         0.94659E+08
        -0.18367E+07
         0.31667E+08
         0.60826E+08
         0.69937E+08
         0.89258E+08
         0.61335E+08
        -0.53050E+08
        -0.29523E+09
        -0.45020E+09
        -0.50883E+09
         0.22000E+08
         0.28098E+08
        -0.34583E+08
        -0.44499E+08
        -0.24990E+09
        -0.31232E+09
         0.14359E+08
        -0.15330E+08
         0.88062E+07
        -0.22675E+08
         0.55107E+08
         0.14037E+09
         0.50041E+08
         0.69626E+08
         0.23351E+09
         0.96281E+07
        -0.38327E+08
         0.28583E+08
        -0.57083E+08
        -0.33333E+08
         0.24125E+08
         0.20755E+09
        -0.73877E+08
        -0.83264E+08
         0.66172E+07
        -0.72160E+08
         0.12864E+09
         0.20163E+09
         0.24811E+09
         0.11942E+09
        -0.37269E+08
        -0.76714E+08
        -0.79898E+08
        -0.20406E+09
        -0.12157E+09
         0.26987E+08
         0.51795E+08
         0.26259E+09
         0.27423E+09
         0.31909E+09
         0.42238E+09
         0.40957E+09
         0.37433E+09
        -0.12579E+09
        -0.12948E+09
        -0.13011E+09
        -0.13101E+09
        -0.16133E+09
        -0.24008E+09
        -0.34355E+09
        -0.44237E+09
        -0.38070E+09
        -0.18028E+09
        -0.48564E+09
         0.40111E+08
        -0.35567E+08
        -0.17639E+08
         0.16594E+09
         0.28940E+09
         0.20650E+09
         0.67635E+08
         0.18247E+09
         0.63476E+09
         0.10205E+10
         0.11384E+10
         0.85842E+09
         0.39052E+09
         0.89509E+08
        -0.36655E+08
        -0.47260E+08
        -0.62936E+08
        -0.11349E+09
        -0.19973E+09
        -0.33014E+09
        -0.47062E+09
        -0.60868E+09
        -0.60973E+09
        -0.57259E+09
         0.13738E+08
         0.26209E+08
        -0.31185E+08
        -0.40604E+08
        -0.28067E+09
        -0.36870E+09
        -0.12940E+08
        -0.53649E+08
        -0.10418E+08
        -0.63616E+08
         0.59824E+07
         0.92809E+08
         0.34708E+08
         0.15828E+08
         0.19903E+09
         0.74872E+07
        -0.68565E+08
         0.40345E+08
        -0.76574E+08
        -0.55277E+08
         0.47529E+08
         0.23535E+09
        -0.46868E+08
        -0.96201E+08
        -0.14626E+08
        -0.77486E+08
         0.10837E+09
         0.26389E+09
         0.40580E+09
         0.15476E+09
        -0.27536E+08
        -0.72364E+08
        -0.77676E+08
        -0.23557E+09
        -0.12673E+09
         0.43521E+08
         0.61495E+08
         0.31340E+09
         0.48489E+09
         0.72733E+09
         0.98439E+09
         0.72166E+09
         0.49116E+09
        -0.10441E+09
        -0.11282E+09
        -0.11339E+09
        -0.12864E+09
        -0.17669E+09
        -0.28842E+09
        -0.43326E+09
        -0.57095E+09
        -0.47057E+09
        -0.18591E+09
        -0.56399E+09
         0.60804E+08
        -0.12028E+08
         0.10821E+07
         0.16633E+09
         0.30556E+09
         0.38731E+09
         0.65409E+09
         0.12223E+10
         0.18152E+10
         0.17811E+10
         0.14291E+10
         0.93065E+09
         0.44047E+09
         0.16576E+09
         0.14011E+08
        -0.25995E+08
        -0.40855E+08
        -0.10116E+09
        -0.24321E+09
        -0.47227E+09
        -0.68855E+09
        -0.84507E+09
        -0.81929E+09
        -0.72839E+09
         0.16610E+08
         0.34740E+08
        -0.21752E+08
        -0.27713E+08
        -0.30743E+09
        -0.39576E+09
        -0.20944E+08
        -0.72345E+08
        -0.10838E+08
        -0.84772E+08
        -0.13551E+08
         0.74349E+08
         0.41281E+08
        -0.71601E+07
         0.18009E+09
         0.19918E+08
        -0.73531E+08
         0.61683E+08
        -0.83888E+08
        -0.70416E+08
         0.53072E+08
         0.22302E+09
        -0.35816E+08
        -0.10937E+09
        -0.26619E+08
        -0.84843E+08
         0.10054E+09
         0.27796E+09
         0.43018E+09
         0.15193E+09
        -0.23087E+08
        -0.81915E+08
        -0.74288E+08
        -0.23617E+09
        -0.13067E+09
         0.74208E+08
         0.90734E+08
         0.34202E+09
         0.56109E+09
         0.81974E+09
         0.10590E+10
         0.72994E+09
         0.47180E+09
        -0.87739E+08
        -0.90649E+08
        -0.94911E+08
        -0.15794E+09
        -0.20931E+09
        -0.31718E+09
        -0.45553E+09
        -0.58912E+09
        -0.48916E+09
        -0.20168E+09
        -0.65522E+09
         0.10753E+09
         0.16344E+08
         0.34230E+07
         0.12779E+09
         0.26973E+09
         0.49553E+09
         0.93192E+09
         0.15083E+10
         0.19598E+10
         0.17516E+10
         0.13901E+10
         0.96562E+09
         0.47910E+09
         0.19410E+09
         0.40610E+08
         0.15517E+08
        -0.60050E+07
        -0.88906E+08
        -0.26479E+09
        -0.51517E+09
        -0.71364E+09
        -0.86065E+09
        -0.85808E+09
        -0.81035E+09
         0.11256E+08
         0.25852E+08
        -0.21477E+08
        -0.24998E+08
        -0.30625E+09
        -0.38980E+09
        -0.38065E+08
        -0.87695E+08
        -0.15953E+08
        -0.99607E+08
        -0.33191E+08
         0.45047E+08
         0.14672E+08
        -0.23262E+08
         0.15366E+09
         0.24393E+08
        -0.81100E+08
         0.66562E+08
        -0.92485E+08
        -0.81551E+08
         0.37324E+08
         0.21725E+09
        -0.50736E+08
        -0.11824E+09
        -0.38415E+08
        -0.90471E+08
         0.90908E+08
         0.26372E+09
         0.40793E+09
         0.15381E+09
        -0.31469E+08
        -0.10249E+09
        -0.85487E+08
        -0.23897E+09
        -0.12873E+09
         0.77162E+08
         0.79725E+08
         0.33085E+09
         0.55007E+09
         0.78370E+09
         0.10059E+10
         0.71105E+09
         0.47768E+09
        -0.10153E+09
        -0.11517E+09
        -0.13685E+09
        -0.19136E+09
        -0.23682E+09
        -0.33737E+09
        -0.45505E+09
        -0.56250E+09
        -0.47240E+09
        -0.20022E+09
        -0.66326E+09
         0.12049E+09
        -0.15054E+08
        -0.72718E+08
         0.36567E+08
         0.21514E+09
         0.51889E+09
         0.10034E+10
         0.14956E+10
         0.18685E+10
         0.17916E+10
         0.14843E+10
         0.10149E+10
         0.47904E+09
         0.16915E+09
         0.54488E+07
        -0.39552E+08
        -0.77943E+08
        -0.14279E+09
        -0.28102E+09
        -0.49729E+09
        -0.65809E+09
        -0.77714E+09
        -0.79656E+09
        -0.79195E+09
         0.11369E+08
         0.16818E+08
        -0.34837E+08
        -0.34325E+08
        -0.32270E+09
        -0.40831E+09
        -0.45370E+08
        -0.89646E+08
        -0.17214E+08
        -0.10535E+09
        -0.38771E+08
         0.35916E+08
        -0.83645E+07
        -0.23230E+08
         0.15494E+09
         0.27558E+08
        -0.89020E+08
         0.64856E+08
        -0.95243E+08
        -0.89859E+08
         0.25437E+08
         0.22538E+09
        -0.59071E+08
        -0.11251E+09
        -0.46859E+08
        -0.86157E+08
         0.10045E+09
         0.28438E+09
         0.47484E+09
         0.17130E+09
        -0.42298E+08
        -0.11735E+09
        -0.97390E+08
        -0.25141E+09
        -0.15156E+09
         0.44256E+08
         0.44887E+08
         0.37055E+09
         0.65354E+09
         0.96559E+09
         0.12952E+10
         0.90060E+09
         0.55756E+09
        -0.11289E+09
        -0.14417E+09
        -0.18525E+09
        -0.23001E+09
        -0.25909E+09
        -0.34005E+09
        -0.45818E+09
        -0.57771E+09
        -0.49192E+09
        -0.22365E+09
        -0.68324E+09
         0.65686E+08
        -0.78013E+08
        -0.10888E+09
         0.41733E+08
         0.20889E+09
         0.56302E+09
         0.12556E+10
         0.19559E+10
         0.25076E+10
         0.23051E+10
         0.16815E+10
         0.10452E+10
         0.45977E+09
         0.15037E+09
        -0.23656E+08
        -0.99446E+08
        -0.15895E+09
        -0.21757E+09
        -0.30398E+09
        -0.45308E+09
        -0.62873E+09
        -0.79700E+09
        -0.83091E+09
        -0.82714E+09
         0.10622E+08
         0.82705E+07
        -0.56537E+08
        -0.44936E+08
        -0.35575E+09
        -0.42210E+09
        -0.48484E+08
        -0.91223E+08
        -0.15611E+08
        -0.10743E+09
        -0.34583E+08
         0.47584E+08
        -0.16235E+08
        -0.14909E+08
         0.19413E+09
         0.29367E+08
        -0.90898E+08
         0.62044E+08
        -0.89192E+08
        -0.90955E+08
         0.32057E+08
         0.24385E+09
        -0.57769E+08
        -0.10081E+09
        -0.50195E+08
        -0.82889E+08
         0.11243E+09
         0.31038E+09
         0.53094E+09
         0.17491E+09
        -0.53848E+08
        -0.12890E+09
        -0.10034E+09
        -0.24120E+09
        -0.19585E+09
        -0.34005E+06
         0.16446E+08
         0.44854E+09
         0.77441E+09
         0.11418E+10
         0.15177E+10
         0.10097E+10
         0.59665E+09
        -0.12135E+09
        -0.16376E+09
        -0.21020E+09
        -0.25571E+09
        -0.27849E+09
        -0.32887E+09
        -0.41706E+09
        -0.52716E+09
        -0.47104E+09
        -0.27930E+09
        -0.72067E+09
        -0.12345E+08
        -0.11367E+09
        -0.10335E+09
         0.74801E+08
         0.29781E+09
         0.78506E+09
         0.16113E+10
         0.24476E+10
         0.29832E+10
         0.25065E+10
         0.17743E+10
         0.10929E+10
         0.46281E+09
         0.14446E+09
        -0.43191E+08
        -0.13030E+09
        -0.18635E+09
        -0.26008E+09
        -0.34727E+09
        -0.42600E+09
        -0.53868E+09
        -0.71213E+09
        -0.78820E+09
        -0.84171E+09
         0.89145E+07
         0.11524E+08
        -0.45428E+08
        -0.32403E+08
        -0.33703E+09
        -0.38830E+09
        -0.45937E+08
        -0.93773E+08
        -0.16745E+08
        -0.10781E+09
        -0.22849E+08
         0.73766E+08
        -0.10634E+07
        -0.41213E+07
         0.24492E+09
         0.32841E+08
        -0.90599E+08
         0.65115E+08
        -0.75598E+08
        -0.88081E+08
         0.48807E+08
         0.24680E+09
        -0.43725E+08
        -0.79745E+08
        -0.47166E+08
        -0.75975E+08
         0.11900E+09
         0.30980E+09
         0.50227E+09
         0.16637E+09
        -0.62150E+08
        -0.14129E+09
        -0.96272E+08
        -0.21984E+09
        -0.18061E+09
         0.14671E+08
         0.32551E+08
         0.49915E+09
         0.78200E+09
         0.10699E+10
         0.13516E+10
         0.90710E+09
         0.55899E+09
        -0.12497E+09
        -0.18920E+09
        -0.24702E+09
        -0.28706E+09
        -0.30501E+09
        -0.34166E+09
        -0.39912E+09
        -0.47477E+09
        -0.41861E+09
        -0.26400E+09
        -0.69679E+09
         0.19570E+08
        -0.60797E+08
        -0.60405E+08
         0.12971E+09
         0.44235E+09
         0.99255E+09
         0.16884E+10
         0.22631E+10
         0.25547E+10
         0.21931E+10
         0.16851E+10
         0.10829E+10
         0.46987E+09
         0.15393E+09
        -0.46959E+08
        -0.16406E+09
        -0.23362E+09
        -0.30669E+09
        -0.40454E+09
        -0.48053E+09
        -0.53695E+09
        -0.62914E+09
        -0.67436E+09
        -0.77148E+09
         0.15970E+07
         0.11628E+08
        -0.33658E+08
        -0.30566E+08
        -0.30175E+09
        -0.35937E+09
        -0.49103E+08
        -0.10024E+09
        -0.21106E+08
        -0.11001E+09
        -0.25331E+08
         0.74935E+08
         0.40372E+07
        -0.89657E+07
         0.24506E+09
         0.30437E+08
        -0.90772E+08
         0.58833E+08
        -0.75241E+08
        -0.91832E+08
         0.42544E+08
         0.23145E+09
        -0.55634E+08
        -0.80939E+08
        -0.52046E+08
        -0.78100E+08
         0.10754E+09
         0.27358E+09
         0.41291E+09
         0.14144E+09
        -0.71417E+08
        -0.14656E+09
        -0.10479E+09
        -0.22436E+09
        -0.14776E+09
         0.39465E+08
         0.50165E+08
         0.46496E+09
         0.66932E+09
         0.85042E+09
         0.10537E+10
         0.74745E+09
         0.50189E+09
        -0.13211E+09
        -0.19286E+09
        -0.24655E+09
        -0.28670E+09
        -0.30823E+09
        -0.35292E+09
        -0.41251E+09
        -0.48122E+09
        -0.40857E+09
        -0.22232E+09
        -0.62846E+09
         0.68896E+08
        -0.23977E+08
        -0.57759E+08
         0.12725E+09
         0.46613E+09
         0.94269E+09
         0.13955E+10
         0.16924E+10
         0.19500E+10
         0.19103E+10
         0.16120E+10
         0.10491E+10
         0.45504E+09
         0.12738E+09
        -0.50316E+08
        -0.15188E+09
        -0.22025E+09
        -0.27409E+09
        -0.37331E+09
        -0.48296E+09
        -0.55586E+09
        -0.63614E+09
        -0.63333E+09
        -0.68816E+09
        -0.12120E+08
        -0.83967E+07
        -0.52087E+08
        -0.48052E+08
        -0.30388E+09
        -0.36461E+09
        -0.69368E+08
        -0.11138E+09
        -0.29388E+08
        -0.11394E+09
        -0.52878E+08
         0.38692E+08
        -0.24104E+08
        -0.37519E+08
         0.18100E+09
         0.12006E+08
        -0.94439E+08
         0.38548E+08
        -0.88532E+08
        -0.93869E+08
         0.39521E+08
         0.22751E+09
        -0.52580E+08
        -0.97104E+08
        -0.52347E+08
        -0.86352E+08
         0.80373E+08
         0.25560E+09
         0.41825E+09
         0.15283E+09
        -0.72325E+08
        -0.13166E+09
        -0.11013E+09
        -0.22949E+09
        -0.15527E+09
         0.17089E+08
         0.23716E+08
         0.35564E+09
         0.54795E+09
         0.78028E+09
         0.10653E+10
         0.80369E+09
         0.53592E+09
        -0.11140E+09
        -0.14960E+09
        -0.18827E+09
        -0.24032E+09
        -0.26699E+09
        -0.32106E+09
        -0.39293E+09
        -0.47214E+09
        -0.41270E+09
        -0.21874E+09
        -0.60440E+09
         0.44062E+08
        -0.57037E+08
        -0.94432E+08
         0.85686E+08
         0.36309E+09
         0.63546E+09
         0.94369E+09
         0.13800E+10
         0.19878E+10
         0.21556E+10
         0.17274E+10
         0.10590E+10
         0.47921E+09
         0.15551E+09
         0.81105E+07
        -0.61225E+08
        -0.12853E+09
        -0.17828E+09
        -0.26623E+09
        -0.39530E+09
        -0.49996E+09
        -0.61875E+09
        -0.64785E+09
        -0.68784E+09
        -0.97707E+07
        -0.10786E+08
        -0.59434E+08
        -0.48690E+08
        -0.29516E+09
        -0.33814E+09
        -0.63327E+08
        -0.99138E+08
        -0.34096E+08
        -0.11112E+09
        -0.56500E+08
         0.16054E+08
        -0.31635E+08
        -0.43743E+08
         0.14912E+09
        -0.50056E+07
        -0.10652E+09
         0.27002E+08
        -0.94550E+08
        -0.10201E+09
         0.74389E+08
         0.24554E+09
        -0.34641E+07
        -0.91462E+08
        -0.58132E+08
        -0.79916E+08
         0.76931E+08
         0.28878E+09
         0.51932E+09
         0.16262E+09
        -0.59480E+08
        -0.10804E+09
        -0.92079E+08
        -0.20145E+09
        -0.16495E+09
        -0.88871E+07
         0.34629E+07
         0.37697E+09
         0.70007E+09
         0.10815E+10
         0.14638E+10
         0.10069E+10
         0.60215E+09
        -0.64899E+08
        -0.10673E+09
        -0.14972E+09
        -0.20682E+09
        -0.22295E+09
        -0.25819E+09
        -0.31232E+09
        -0.37683E+09
        -0.35323E+09
        -0.22713E+09
        -0.57218E+09
        -0.72010E+07
        -0.89619E+08
        -0.96494E+08
         0.65220E+08
         0.30504E+09
         0.69987E+09
         0.14120E+10
         0.22393E+10
         0.28524E+10
         0.26513E+10
         0.18875E+10
         0.11184E+10
         0.57019E+09
         0.25945E+09
         0.87238E+08
        -0.19176E+07
        -0.87250E+08
        -0.14227E+09
        -0.19461E+09
        -0.27463E+09
        -0.35165E+09
        -0.46530E+09
        -0.54410E+09
        -0.63508E+09
        -0.14598E+08
        -0.13164E+08
        -0.58138E+08
        -0.43551E+08
        -0.26245E+09
        -0.28421E+09
        -0.49604E+08
        -0.84871E+08
        -0.44354E+08
        -0.10749E+09
        -0.39037E+08
         0.21847E+08
        -0.21285E+08
        -0.28046E+08
         0.14699E+09
        -0.17456E+08
        -0.11749E+09
         0.15874E+08
        -0.94643E+08
        -0.10089E+09
         0.84159E+08
         0.27417E+09
        -0.27935E+07
        -0.92144E+08
        -0.73443E+08
        -0.81268E+08
         0.78878E+08
         0.28306E+09
         0.50821E+09
         0.14138E+09
        -0.54356E+08
        -0.10376E+09
        -0.72141E+08
        -0.15606E+09
        -0.16100E+09
        -0.25102E+08
        -0.64996E+07
         0.39114E+09
         0.73485E+09
         0.11285E+10
         0.15144E+10
         0.10094E+10
         0.61211E+09
        -0.68295E+08
        -0.11409E+09
        -0.15534E+09
        -0.19194E+09
        -0.18872E+09
        -0.21038E+09
        -0.23437E+09
        -0.27361E+09
        -0.27577E+09
        -0.22436E+09
        -0.49545E+09
        -0.41110E+08
        -0.93575E+08
        -0.65224E+08
         0.71619E+08
         0.25899E+09
         0.71254E+09
         0.15756E+10
         0.24826E+10
         0.30283E+10
         0.26711E+10
         0.19242E+10
         0.11472E+10
         0.56449E+09
         0.24566E+09
         0.48495E+08
        -0.45243E+08
        -0.10404E+09
        -0.12838E+09
        -0.15238E+09
        -0.18387E+09
        -0.21369E+09
        -0.30208E+09
        -0.39134E+09
        -0.50837E+09
        -0.24591E+08
        -0.16866E+08
        -0.36270E+08
        -0.22974E+08
        -0.20469E+09
        -0.20249E+09
        -0.46734E+08
        -0.82626E+08
        -0.53393E+08
        -0.10423E+09
        -0.15599E+08
         0.56482E+08
        -0.11479E+08
         0.15302E+07
         0.19615E+09
        -0.15377E+08
        -0.11335E+09
         0.13736E+08
        -0.75178E+08
        -0.68503E+08
         0.86027E+08
         0.33940E+09
        -0.21623E+08
        -0.81373E+08
        -0.64438E+08
        -0.71038E+08
         0.10667E+09
         0.29825E+09
         0.51317E+09
         0.17128E+09
        -0.32895E+08
        -0.80054E+08
        -0.27940E+08
        -0.68378E+08
        -0.98445E+08
         0.13562E+08
         0.26428E+07
         0.43632E+09
         0.75375E+09
         0.11064E+10
         0.14593E+10
         0.10222E+10
         0.69335E+09
        -0.74618E+08
        -0.95108E+08
        -0.10267E+09
        -0.11907E+09
        -0.95938E+08
        -0.91061E+08
        -0.10560E+09
        -0.12291E+09
        -0.15826E+09
        -0.13426E+09
        -0.41590E+09
         0.37313E+08
        -0.57795E+08
        -0.31265E+08
         0.11775E+09
         0.30326E+09
         0.75159E+09
         0.15884E+10
         0.24185E+10
         0.28703E+10
         0.26700E+10
         0.20666E+10
         0.11795E+10
         0.50182E+09
         0.17437E+09
         0.18735E+08
        -0.15104E+08
        -0.11268E+08
         0.18522E+08
         0.17633E+08
         0.88065E+07
         0.57917E+07
        -0.76158E+08
        -0.20021E+09
        -0.38124E+09
        -0.28347E+08
        -0.17321E+07
         0.40526E+08
         0.52984E+08
        -0.38600E+08
         0.39681E+08
        -0.32766E+08
        -0.75487E+08
        -0.54916E+08
        -0.88446E+08
         0.45300E+08
         0.17285E+09
         0.36417E+08
         0.71594E+08
         0.34430E+09
        -0.31433E+07
        -0.99065E+08
         0.34929E+08
        -0.61540E+08
        -0.51874E+08
         0.73565E+08
         0.32246E+09
        -0.40336E+08
        -0.69928E+08
        -0.30024E+08
        -0.63773E+08
         0.17937E+09
         0.35907E+09
         0.59179E+09
         0.20921E+09
         0.27609E+08
        -0.45569E+08
         0.10216E+09
         0.16792E+09
         0.73900E+08
         0.13806E+09
         0.63089E+08
         0.60426E+09
         0.93691E+09
         0.12947E+10
         0.16281E+10
         0.11040E+10
         0.70590E+09
        -0.90409E+08
        -0.53868E+08
         0.38523E+08
         0.54810E+08
         0.13536E+09
         0.24693E+09
         0.34899E+09
         0.39334E+09
         0.22465E+09
         0.97293E+08
        -0.20575E+09
         0.26298E+09
         0.69240E+08
         0.69776E+08
         0.28899E+09
         0.60742E+09
         0.11794E+10
         0.21327E+10
         0.29657E+10
         0.31673E+10
         0.27443E+10
         0.19761E+10
         0.10865E+10
         0.48074E+09
         0.15308E+09
         0.14093E+08
         0.86422E+08
         0.24677E+09
         0.42575E+09
         0.52997E+09
         0.62331E+09
         0.70221E+09
         0.62372E+09
         0.36328E+09
        -0.20124E+08
        -0.62529E+08
        -0.84088E+07
         0.11496E+09
         0.10959E+09
         0.21313E+09
         0.34488E+09
        -0.36700E+08
        -0.75702E+08
        -0.74346E+08
        -0.72491E+08
         0.92703E+08
         0.22863E+09
         0.71874E+08
         0.13970E+09
         0.41920E+09
        -0.50518E+08
        -0.94816E+08
         0.19568E+08
        -0.12081E+09
        -0.79344E+08
        -0.24465E+08
         0.12763E+09
        -0.14849E+09
        -0.20032E+09
        -0.97855E+07
        -0.22517E+09
         0.22926E+09
         0.31044E+09
         0.35658E+09
         0.13419E+09
         0.39215E+07
        -0.18785E+09
         0.19988E+09
         0.39742E+09
         0.30824E+09
         0.28636E+09
         0.13027E+09
         0.61027E+09
         0.74376E+09
         0.77695E+09
         0.76498E+09
         0.47948E+09
         0.32045E+09
        -0.25556E+09
        -0.16347E+09
         0.82238E+08
         0.14588E+09
         0.32483E+09
         0.55500E+09
         0.77073E+09
         0.90148E+09
         0.62836E+09
         0.42356E+09
         0.21943E+09
         0.56766E+09
         0.24753E+09
         0.13880E+09
         0.34489E+09
         0.67447E+09
         0.11298E+10
         0.16338E+10
         0.17157E+10
         0.13985E+10
         0.11852E+10
         0.10085E+10
         0.69031E+09
         0.41525E+09
         0.18155E+09
        -0.13163E+08
         0.14249E+09
         0.52588E+09
         0.91375E+09
         0.11057E+10
         0.12203E+10
         0.13545E+10
         0.13360E+10
         0.10387E+10
         0.54666E+09
        -0.14615E+09
        -0.15868E+09
        -0.11039E+09
        -0.98836E+08
         0.19825E+09
         0.35078E+09
        -0.10917E+09
        -0.97903E+08
        -0.58497E+08
        -0.99150E+07
        -0.22863E+08
         0.86250E+08
        -0.44107E+08
         0.34529E+08
         0.20050E+09
        -0.14356E+09
         0.15258E+08
        -0.13000E+09
         0.46987E+08
         0.23743E+09
         0.62623E+09
         0.88941E+09
         0.24735E+09
        -0.80669E+08
         0.14634E+09
        -0.30323E+09
         0.17021E+09
         0.23522E+09
         0.83069E+08
         0.37875E+09
        -0.16769E+09
        -0.23777E+09
        -0.76243E+07
         0.19277E+09
         0.93499E+08
        -0.68731E+08
        -0.99510E+08
         0.19930E+09
        -0.24310E+08
        -0.46185E+09
        -0.83485E+09
        -0.15641E+09
         0.66512E+09
        -0.10254E+09
        -0.42506E+08
         0.37892E+09
         0.36622E+09
         0.43612E+09
         0.53163E+09
         0.68253E+09
         0.85650E+09
         0.58044E+09
         0.28994E+09
         0.69856E+09
         0.94307E+08
        -0.11100E+08
        -0.65747E+08
         0.10326E+08
         0.90445E+08
         0.22535E+08
        -0.52484E+09
        -0.15535E+10
        -0.18661E+10
        -0.15749E+09
         0.19260E+10
         0.25636E+10
         0.21288E+10
         0.13265E+10
         0.63442E+09
         0.63906E+09
         0.13107E+10
         0.19047E+10
         0.18319E+10
         0.15079E+10
         0.14500E+10
         0.14611E+10
         0.12827E+10
         0.10277E+10
        -0.20541E+09
        -0.37021E+09
        -0.75225E+09
        -0.57001E+09
        -0.20938E+09
         0.56005E+08
        -0.52183E+08
        -0.10553E+09
         0.12243E+09
         0.21110E+09
        -0.13715E+09
        -0.75480E+08
         0.26069E+08
        -0.20896E+09
        -0.27427E+09
         0.10764E+09
         0.45228E+09
        -0.27883E+09
         0.84056E+09
         0.13955E+10
         0.29410E+10
         0.40650E+10
         0.16911E+10
         0.69911E+09
         0.87373E+09
         0.94070E+08
         0.16441E+09
         0.81107E+09
         0.11819E+10
         0.18672E+10
        -0.18476E+09
         0.81609E+07
        -0.48367E+09
        -0.49003E+09
        -0.73136E+09
        -0.10812E+10
        -0.53971E+09
        -0.16597E+09
        -0.12333E+09
        -0.23416E+09
        -0.84465E+08
         0.16645E+10
         0.37368E+10
         0.64328E+09
         0.38568E+09
         0.87090E+09
         0.76281E+09
         0.46175E+09
         0.36662E+08
        -0.31783E+06
         0.28537E+09
         0.10901E+09
        -0.37212E+09
         0.11510E+10
        -0.12546E+10
        -0.69086E+09
        -0.22709E+09
        -0.15850E+09
        -0.35323E+09
        -0.80848E+09
        -0.17124E+10
        -0.23102E+10
        -0.10748E+10
         0.35613E+10
         0.84693E+10
         0.93810E+10
         0.70721E+10
         0.40803E+10
         0.19384E+10
         0.12131E+10
         0.20989E+10
         0.29168E+10
         0.21745E+10
         0.11237E+10
         0.92695E+09
         0.11339E+10
         0.12725E+10
         0.14736E+10
  
SCALARS                      stress_zz  double 1
LOOKUP_TABLE default
        -0.15496E+11
        -0.11817E+11
        -0.14038E+11
        -0.17267E+11
        -0.22901E+02
        -0.13276E+02
        -0.11382E+02
        -0.26922E+02
        -0.16929E+11
        -0.18150E+11
        -0.77114E+01
        -0.33296E+02
        -0.10208E+11
        -0.14773E+11
        -0.12447E+02
        -0.12426E+02
        -0.16173E+11
        -0.15508E+11
        -0.20428E+02
        -0.14473E+02
        -0.94508E+10
         0.17318E+09
        -0.32354E+08
        -0.11679E+02
         0.32882E+01
         0.18390E+01
        -0.12926E+11
        -0.45878E+10
        -0.21445E+02
        -0.31040E+01
        -0.15759E+11
        -0.15364E+11
        -0.16361E+11
        -0.18403E+02
        -0.16418E+02
        -0.20342E+02
        -0.13724E+11
        -0.14465E+11
        -0.17035E+02
        -0.16077E+02
        -0.11560E+11
        -0.14481E+11
        -0.10716E+02
        -0.13134E+02
        -0.10828E+11
        -0.12961E+11
        -0.13221E+02
        -0.16945E+02
        -0.14392E+11
        -0.14862E+02
        -0.14737E+11
        -0.20585E+02
        -0.12608E+11
        -0.18719E+02
        -0.11790E+11
        -0.11679E+02
        -0.11269E+11
        -0.14613E+11
        -0.10953E+02
        -0.96708E+01
        -0.16307E+11
        -0.16400E+11
        -0.15808E+02
        -0.25885E+02
        -0.17564E+11
        -0.20483E+02
        -0.19215E+11
        -0.33357E+02
        -0.13334E+11
        -0.10116E+11
        -0.50365E+00
        -0.96749E+01
        -0.52946E+10
         0.53910E+01
        -0.28751E+10
        -0.12330E+02
        -0.20646E+09
        -0.41778E+01
        -0.26461E+10
        -0.35704E+01
        -0.79660E+10
        -0.12565E+11
        -0.87475E+01
        -0.15811E+02
        -0.16265E+11
        -0.22436E+02
        -0.12935E+11
        -0.16869E+02
        -0.16458E+11
        -0.26073E+02
        -0.18119E+11
        -0.16996E+11
        -0.33736E+02
        -0.30153E+02
        -0.17424E+11
        -0.11868E+02
        -0.19401E+11
        -0.21402E+02
        -0.20118E+11
        -0.29072E+02
        -0.19683E+11
        -0.19066E+11
        -0.31969E+02
        -0.44986E+02
        -0.14275E+11
        -0.16467E+11
         0.96721E+01
        -0.60653E+02
        -0.99757E+10
         0.81468E+01
        -0.89224E+09
         0.93925E+01
         0.11896E+11
         0.15531E+02
         0.21629E+11
         0.87530E+01
         0.25077E+11
         0.10769E+01
         0.32627E+11
        -0.81553E+00
         0.63799E+11
         0.61502E+01
         0.42202E+11
        -0.46841E+01
        -0.15254E+11
        -0.16870E+02
        -0.28292E+11
        -0.17577E+02
        -0.27493E+11
        -0.19567E+02
        -0.19982E+11
        -0.14144E+02
        -0.14766E+11
        -0.14067E+02
        -0.12329E+11
        -0.13195E+02
        -0.14233E+11
        -0.86434E+01
        -0.20465E+11
        -0.48062E+01
        -0.21276E+11
        -0.15747E+02
        -0.19119E+11
        -0.11775E+02
        -0.18676E+11
        -0.97443E+01
        -0.20010E+11
        -0.22944E+02
        -0.19837E+11
        -0.25125E+02
        -0.18725E+11
        -0.27793E+02
        -0.17712E+11
        -0.18793E+02
        -0.15870E+11
        -0.13752E+02
        -0.36387E+10
        -0.17206E+10
        -0.38901E+09
        -0.19958E+10
         0.21286E+10
         0.36535E+10
        -0.30445E+10
        -0.43009E+10
        -0.45030E+10
        -0.41236E+10
        -0.31426E+10
        -0.17174E+10
        -0.14135E+10
        -0.38570E+10
        -0.20153E+10
        -0.52091E+10
        -0.33929E+10
        -0.46304E+10
        -0.14792E+10
        -0.22551E+10
        -0.34417E+09
        -0.44248E+10
         0.39232E+09
        -0.14426E+10
        -0.44661E+10
        -0.32671E+10
        -0.52030E+10
        -0.76423E+10
        -0.99825E+10
        -0.63821E+10
        -0.46072E+10
        -0.30855E+10
        -0.21931E+10
         0.24746E+10
         0.28020E+10
         0.13882E+10
        -0.28750E+08
        -0.44152E+10
        -0.70839E+10
        -0.83753E+10
        -0.97540E+10
        -0.13501E+11
        -0.10876E+11
         0.39653E+09
         0.11434E+10
         0.21692E+10
         0.15203E+09
         0.12475E+10
         0.66616E+10
         0.14089E+11
         0.19322E+11
         0.10079E+11
         0.49989E+10
         0.82542E+10
         0.12342E+10
         0.17562E+09
         0.72782E+09
         0.13833E+10
         0.35263E+10
         0.45921E+10
         0.75686E+10
         0.19432E+11
         0.67106E+10
        -0.20417E+11
        -0.20595E+11
        -0.12668E+11
        -0.64247E+10
        -0.88604E+09
         0.38736E+10
         0.78626E+10
         0.72311E+10
         0.74890E+10
         0.16069E+11
         0.30421E+11
         0.43324E+11
         0.41796E+11
         0.25988E+11
         0.13607E+11
        -0.74697E+08
         0.23594E+09
         0.32157E+10
         0.22444E+10
         0.74308E+10
         0.96606E+10
        -0.96850E+09
         0.53959E+09
         0.45199E+09
         0.98717E+09
        -0.78201E+09
        -0.28141E+10
        -0.18684E+10
        -0.25736E+09
        -0.43070E+10
        -0.79681E+09
         0.15551E+10
        -0.20797E+09
         0.12306E+10
         0.10769E+10
        -0.64626E+09
        -0.41540E+10
         0.92260E+08
         0.34846E+09
        -0.24326E+09
        -0.35148E+09
        -0.30125E+10
        -0.73170E+10
        -0.12477E+11
        -0.40719E+10
         0.23316E+09
         0.23113E+09
         0.33799E+10
         0.82021E+10
         0.68672E+10
         0.45304E+10
         0.10658E+10
        -0.96531E+10
        -0.15461E+11
        -0.21071E+11
        -0.25395E+11
        -0.20453E+11
        -0.12148E+11
         0.95611E+09
         0.21794E+10
         0.26883E+10
         0.18328E+10
         0.40243E+10
         0.10307E+11
         0.17495E+11
         0.21374E+11
         0.15147E+11
         0.81157E+10
         0.12664E+11
         0.49618E+10
         0.15257E+10
        -0.16834E+10
        -0.56316E+10
        -0.10058E+11
        -0.16328E+11
        -0.23147E+11
        -0.27872E+11
        -0.28321E+11
        -0.28855E+11
        -0.24641E+11
        -0.14771E+11
        -0.74641E+10
        -0.21660E+10
         0.24480E+10
         0.64884E+10
         0.55431E+10
         0.39912E+10
         0.81458E+10
         0.19812E+11
         0.30724E+11
         0.32037E+11
         0.26278E+11
         0.19368E+11
         0.31281E+09
        -0.14004E+09
         0.27162E+09
         0.36836E+09
         0.13243E+10
         0.15573E+10
         0.21537E+09
         0.11859E+10
         0.11157E+10
         0.13856E+10
         0.56607E+09
        -0.76054E+09
        -0.47929E+09
         0.74131E+09
        -0.20637E+10
         0.97097E+09
         0.17118E+10
         0.63167E+09
         0.11772E+10
         0.86915E+09
        -0.87300E+09
        -0.28953E+10
        -0.51477E+09
         0.54672E+09
         0.46477E+09
         0.43525E+09
        -0.11208E+10
        -0.41647E+10
        -0.81804E+10
        -0.22909E+10
         0.40369E+09
        -0.13508E+09
         0.48258E+09
         0.41020E+09
         0.67807E+09
         0.18412E+09
        -0.21179E+09
        -0.61397E+10
        -0.11180E+11
        -0.16413E+11
        -0.20366E+11
        -0.14437E+11
        -0.78648E+10
        -0.62458E+09
        -0.11325E+10
        -0.23325E+10
        -0.22586E+10
        -0.22695E+10
        -0.20215E+10
        -0.12553E+10
        -0.26383E+09
         0.96069E+09
         0.71974E+09
         0.28703E+10
         0.13636E+09
        -0.15395E+09
        -0.10454E+10
        -0.35989E+10
        -0.73649E+10
        -0.13156E+11
        -0.21219E+11
        -0.26960E+11
        -0.28332E+11
        -0.25779E+11
        -0.18105E+11
        -0.10572E+11
        -0.51815E+10
        -0.27186E+10
        -0.24953E+10
        -0.30500E+10
        -0.44649E+10
        -0.65680E+10
        -0.84351E+10
        -0.83147E+10
        -0.55054E+10
        -0.71546E+09
         0.33307E+10
         0.45324E+10
         0.54525E+09
         0.38151E+09
        -0.10590E+08
        -0.68973E+07
        -0.58834E+09
        -0.13321E+10
         0.85421E+09
         0.10870E+10
         0.80217E+09
         0.10147E+10
         0.10687E+10
         0.48631E+09
         0.55687E+09
         0.10139E+10
        -0.46654E+09
         0.84499E+09
         0.10594E+10
         0.50639E+09
         0.77342E+09
         0.62115E+09
        -0.44820E+09
        -0.15500E+10
        -0.10728E+09
         0.49241E+09
         0.45452E+09
         0.45934E+09
        -0.13792E+09
        -0.20855E+10
        -0.45779E+10
        -0.10354E+10
         0.10215E+09
        -0.11750E+09
        -0.54563E+09
        -0.16655E+10
        -0.53824E+09
        -0.19784E+09
         0.22491E+09
        -0.32340E+10
        -0.68155E+10
        -0.10431E+11
        -0.13062E+11
        -0.84751E+10
        -0.43454E+10
        -0.30903E+09
        -0.93539E+09
        -0.17607E+10
        -0.17356E+10
        -0.24663E+10
        -0.37423E+10
        -0.47306E+10
        -0.51289E+10
        -0.31113E+10
        -0.81700E+09
        -0.10583E+10
        -0.40020E+09
         0.81212E+08
         0.55646E+08
        -0.11985E+10
        -0.38087E+10
        -0.84861E+10
        -0.15485E+11
        -0.20716E+11
        -0.21705E+11
        -0.17551E+11
        -0.11431E+11
        -0.62038E+10
        -0.25033E+10
        -0.99770E+09
        -0.14472E+10
        -0.25814E+10
        -0.33472E+10
        -0.46742E+10
        -0.73217E+10
        -0.97766E+10
        -0.10014E+11
        -0.79315E+10
        -0.47028E+10
        -0.21120E+10
         0.46017E+09
         0.42174E+09
         0.14302E+09
         0.69729E+08
        -0.38043E+09
        -0.85567E+09
         0.69941E+09
         0.77742E+09
         0.51575E+09
         0.72574E+09
         0.84506E+09
         0.53807E+09
         0.51708E+09
         0.82668E+09
        -0.15583E+08
         0.33338E+09
         0.62168E+09
         0.23827E+09
         0.38451E+09
         0.47327E+09
        -0.13259E+09
        -0.60007E+09
         0.81786E+08
         0.22356E+09
         0.46490E+09
         0.17812E+09
         0.21428E+09
        -0.94747E+09
        -0.25220E+10
        -0.30506E+09
         0.44104E+08
         0.20132E+08
        -0.20668E+09
        -0.70987E+09
        -0.14033E+09
         0.13032E+09
         0.31880E+09
        -0.17538E+10
        -0.41684E+10
        -0.66366E+10
        -0.84408E+10
        -0.50923E+10
        -0.22498E+10
         0.69091E+08
        -0.90866E+08
        -0.16745E+09
        -0.20478E+09
        -0.50411E+09
        -0.10877E+10
        -0.17112E+10
        -0.21853E+10
        -0.15647E+10
        -0.30098E+09
        -0.10013E+10
         0.16511E+08
         0.12285E+09
         0.13982E+09
        -0.32883E+09
        -0.19103E+10
        -0.53860E+10
        -0.10729E+11
        -0.14800E+11
        -0.15331E+11
        -0.11675E+11
        -0.65873E+10
        -0.29155E+10
        -0.93362E+09
         0.36585E+07
         0.52730E+08
        -0.23341E+09
        -0.25007E+09
        -0.36887E+09
        -0.11477E+10
        -0.23745E+10
        -0.32188E+10
        -0.34149E+10
        -0.28317E+10
        -0.18633E+10
         0.19652E+09
         0.18582E+09
         0.53405E+08
        -0.28682E+08
        -0.15101E+09
        -0.27059E+09
         0.35014E+09
         0.40974E+09
         0.24111E+09
         0.41971E+09
         0.45830E+09
         0.35524E+09
         0.27116E+09
         0.48534E+09
         0.95628E+08
         0.40355E+08
         0.30105E+09
        -0.12904E+06
         0.18212E+09
         0.29061E+09
         0.10879E+09
        -0.27802E+08
         0.11398E+09
         0.77450E+08
         0.33822E+09
        -0.22509E+08
         0.26929E+09
        -0.24847E+09
        -0.10578E+10
         0.19864E+08
        -0.82612E+08
        -0.26259E+08
        -0.91670E+08
        -0.11104E+09
         0.22148E+08
         0.13455E+09
         0.17222E+09
        -0.77185E+09
        -0.20273E+10
        -0.33565E+10
        -0.43046E+10
        -0.23475E+10
        -0.79203E+09
         0.64306E+08
         0.10392E+09
         0.24198E+09
         0.20074E+09
         0.14784E+09
         0.71072E+08
        -0.52933E+08
        -0.21306E+09
        -0.28961E+09
         0.48337E+07
        -0.46163E+09
         0.20205E+09
         0.96434E+08
         0.11418E+09
         0.29456E+08
        -0.80193E+09
        -0.28867E+10
        -0.60745E+10
        -0.85530E+10
        -0.84700E+10
        -0.56141E+10
        -0.24890E+10
        -0.71420E+09
         0.33919E+08
         0.29120E+09
         0.27760E+09
         0.34894E+09
         0.54192E+09
         0.71966E+09
         0.75286E+09
         0.60564E+09
         0.29002E+09
        -0.22800E+09
        -0.57923E+09
        -0.65064E+09
         0.44240E+08
         0.35719E+08
        -0.22959E+08
        -0.53966E+08
        -0.15116E+09
        -0.18971E+09
         0.98723E+08
         0.13522E+09
         0.62038E+08
         0.18863E+09
         0.17098E+09
         0.16550E+09
         0.77747E+08
         0.21562E+09
         0.11768E+09
        -0.25875E+08
         0.10011E+09
        -0.36614E+08
         0.60956E+08
         0.17945E+09
         0.16052E+09
         0.23949E+09
         0.70348E+08
         0.95574E+07
         0.19974E+09
        -0.51749E+08
         0.19703E+09
         0.74800E+08
        -0.16047E+09
         0.15086E+09
        -0.85247E+08
        -0.59048E+08
        -0.82887E+08
        -0.89867E+08
        -0.46368E+08
         0.25790E+08
         0.28266E+08
        -0.18214E+09
        -0.61579E+09
        -0.10253E+10
        -0.12668E+10
        -0.51414E+09
         0.75974E+08
         0.90888E+07
         0.24725E+08
         0.81621E+08
         0.30903E+08
         0.54473E+07
        -0.12711E+08
        -0.56348E+08
        -0.12936E+09
        -0.17432E+09
        -0.61312E+08
        -0.36694E+09
         0.75644E+08
        -0.27594E+08
         0.56799E+07
         0.95261E+08
        -0.17948E+09
        -0.10631E+10
        -0.23323E+10
        -0.31446E+10
        -0.26933E+10
        -0.12402E+10
        -0.13231E+08
         0.45330E+09
         0.42840E+09
         0.26166E+09
         0.15173E+09
         0.19138E+09
         0.24867E+09
         0.27835E+09
         0.27544E+09
         0.22893E+09
         0.10989E+09
        -0.12658E+09
        -0.28486E+09
        -0.38748E+09
         0.92443E+07
        -0.10143E+08
        -0.40601E+08
        -0.36799E+08
        -0.17681E+09
        -0.23050E+09
        -0.11527E+08
         0.64277E+07
         0.82812E+07
         0.31622E+08
         0.16165E+08
         0.28920E+08
        -0.39177E+08
         0.50432E+08
         0.88435E+08
        -0.12893E+08
         0.64303E+07
        -0.63076E+07
         0.10327E+08
         0.49991E+08
         0.10168E+09
         0.20088E+09
         0.41596E+08
        -0.25760E+07
         0.70918E+08
        -0.30348E+08
         0.95270E+08
         0.12168E+09
         0.13236E+09
         0.12189E+09
        -0.51810E+08
        -0.45554E+08
        -0.72813E+08
        -0.13542E+09
        -0.97025E+08
        -0.34422E+08
        -0.44875E+08
         0.92767E+08
         0.79524E+08
         0.11079E+09
         0.20329E+09
         0.24641E+09
         0.27898E+09
        -0.64348E+06
        -0.11020E+08
        -0.16574E+08
        -0.63123E+08
        -0.11465E+09
        -0.17887E+09
        -0.26723E+09
        -0.35918E+09
        -0.29779E+09
        -0.14559E+09
        -0.39984E+09
        -0.45514E+08
        -0.12896E+09
        -0.11310E+09
         0.23460E+08
         0.10139E+09
        -0.38648E+08
        -0.22555E+09
        -0.12085E+09
         0.34448E+09
         0.76930E+09
         0.96916E+09
         0.75020E+09
         0.39764E+09
         0.19064E+09
         0.87603E+08
         0.69265E+08
         0.46918E+08
        -0.24452E+08
        -0.14794E+09
        -0.28508E+09
        -0.40861E+09
        -0.52326E+09
        -0.51832E+09
        -0.48108E+09
         0.85576E+07
        -0.62913E+07
        -0.25713E+08
        -0.10078E+08
        -0.18723E+09
        -0.27059E+09
        -0.28215E+08
        -0.25494E+08
        -0.17903E+07
        -0.11848E+08
        -0.14718E+08
         0.14242E+08
        -0.35860E+08
         0.88353E+07
         0.76091E+08
         0.82977E+07
        -0.18457E+08
         0.28720E+08
         0.82753E+06
         0.12085E+08
         0.93710E+08
         0.19260E+09
         0.60897E+08
         0.98626E+07
         0.26323E+08
        -0.15339E+07
         0.67908E+08
         0.15470E+09
         0.28400E+09
         0.10908E+09
        -0.83021E+07
        -0.76525E+07
        -0.32140E+08
        -0.12929E+09
        -0.87026E+08
        -0.14450E+08
        -0.29463E+08
         0.17657E+09
         0.33518E+09
         0.57091E+09
         0.82645E+09
         0.58794E+09
         0.38576E+09
         0.34069E+08
         0.26078E+08
         0.13716E+08
        -0.36003E+08
        -0.10252E+09
        -0.20840E+09
        -0.35116E+09
        -0.49200E+09
        -0.38242E+09
        -0.13961E+09
        -0.45830E+09
        -0.18162E+08
        -0.96976E+08
        -0.70604E+08
         0.62402E+08
         0.16578E+09
         0.22648E+09
         0.46862E+09
         0.10309E+10
         0.16263E+10
         0.15993E+10
         0.12597E+10
         0.78893E+09
         0.40510E+09
         0.23715E+09
         0.13821E+09
         0.98421E+08
         0.67442E+08
        -0.16763E+08
        -0.20544E+09
        -0.45064E+09
        -0.65315E+09
        -0.78530E+09
        -0.74279E+09
        -0.62895E+09
         0.12556E+08
        -0.55806E+06
        -0.22525E+08
        -0.18830E+07
        -0.21814E+09
        -0.28964E+09
        -0.32439E+08
        -0.32755E+08
         0.13598E+05
        -0.23062E+08
        -0.29020E+08
        -0.88121E+07
        -0.38541E+08
        -0.63649E+07
         0.62429E+08
         0.19341E+08
        -0.22466E+08
         0.42166E+08
         0.27356E+07
         0.19329E+07
         0.10996E+09
         0.19893E+09
         0.77204E+08
         0.18518E+08
         0.11708E+08
         0.12448E+08
         0.56377E+08
         0.15021E+09
         0.29294E+09
         0.92114E+08
         0.44406E+07
         0.10168E+08
        -0.20397E+08
        -0.11894E+09
        -0.10370E+09
        -0.26022E+07
        -0.17087E+08
         0.21635E+09
         0.41723E+09
         0.66151E+09
         0.89930E+09
         0.59539E+09
         0.37698E+09
         0.56147E+08
         0.58465E+08
         0.46205E+08
        -0.23884E+08
        -0.10603E+09
        -0.21752E+09
        -0.34867E+09
        -0.48192E+09
        -0.38053E+09
        -0.16860E+09
        -0.54996E+09
         0.99041E+07
        -0.78090E+08
        -0.73476E+08
         0.23432E+08
         0.14875E+09
         0.37223E+09
         0.78087E+09
         0.13341E+10
         0.17784E+10
         0.15835E+10
         0.12446E+10
         0.85347E+09
         0.46371E+09
         0.27123E+09
         0.17062E+09
         0.15282E+09
         0.11968E+09
         0.72977E+07
        -0.20948E+09
        -0.45958E+09
        -0.63584E+09
        -0.75985E+09
        -0.74563E+09
        -0.69087E+09
         0.13872E+08
        -0.70278E+07
        -0.27783E+08
        -0.54707E+07
        -0.22810E+09
        -0.28502E+09
        -0.44424E+08
        -0.37376E+08
        -0.21877E+07
        -0.33544E+08
        -0.47525E+08
        -0.53779E+08
        -0.81481E+08
        -0.20635E+08
         0.40795E+08
         0.15052E+08
        -0.32222E+08
         0.37307E+08
        -0.72904E+07
        -0.12542E+08
         0.10479E+09
         0.19825E+09
         0.68923E+08
         0.11684E+08
        -0.75852E+07
         0.85783E+07
         0.35873E+08
         0.12364E+09
         0.25781E+09
         0.65839E+08
        -0.15957E+07
         0.47284E+07
        -0.34716E+08
        -0.12634E+09
        -0.11867E+09
        -0.17067E+08
        -0.44468E+08
         0.21510E+09
         0.41423E+09
         0.62555E+09
         0.83816E+09
         0.56253E+09
         0.37326E+09
         0.45722E+08
         0.41102E+08
         0.17255E+08
        -0.42839E+08
        -0.11907E+09
        -0.22533E+09
        -0.33433E+09
        -0.43826E+09
        -0.35492E+09
        -0.18552E+09
        -0.56960E+09
        -0.80506E+06
        -0.13084E+09
        -0.17731E+09
        -0.86941E+08
         0.10617E+09
         0.42053E+09
         0.87803E+09
         0.13344E+10
         0.16814E+10
         0.16137E+10
         0.13396E+10
         0.91471E+09
         0.47918E+09
         0.25834E+09
         0.14193E+09
         0.10603E+09
         0.61841E+08
        -0.23931E+08
        -0.19180E+09
        -0.40449E+09
        -0.54373E+09
        -0.64531E+09
        -0.66170E+09
        -0.66725E+09
         0.20733E+08
        -0.38159E+07
        -0.31355E+08
        -0.67644E+07
        -0.24578E+09
        -0.31188E+09
        -0.37773E+08
        -0.32761E+08
         0.96042E+05
        -0.36375E+08
        -0.38795E+08
        -0.41311E+08
        -0.78089E+08
        -0.11456E+08
         0.54514E+08
         0.20279E+08
        -0.38669E+08
         0.42867E+08
        -0.13119E+08
        -0.25037E+08
         0.91634E+08
         0.19806E+09
         0.63590E+08
         0.12289E+08
        -0.17112E+08
         0.11503E+08
         0.53929E+08
         0.15973E+09
         0.33597E+09
         0.72305E+08
        -0.17669E+07
        -0.55272E+07
        -0.33483E+08
        -0.14036E+09
        -0.13379E+09
        -0.31456E+08
        -0.54515E+08
         0.26530E+09
         0.53591E+09
         0.82816E+09
         0.11424E+10
         0.75542E+09
         0.44537E+09
         0.39574E+08
         0.15548E+08
        -0.30870E+08
        -0.77611E+08
        -0.12672E+09
        -0.21588E+09
        -0.33830E+09
        -0.46437E+09
        -0.38703E+09
        -0.20324E+09
        -0.59642E+09
        -0.39259E+08
        -0.17499E+09
        -0.19100E+09
        -0.65752E+08
         0.10295E+09
         0.46027E+09
         0.11418E+10
         0.18211E+10
         0.23376E+10
         0.21275E+10
         0.15283E+10
         0.93459E+09
         0.45618E+09
         0.24242E+09
         0.12034E+09
         0.50262E+08
        -0.21256E+08
        -0.90925E+08
        -0.18752E+09
        -0.33738E+09
        -0.51299E+09
        -0.68191E+09
        -0.72127E+09
        -0.72299E+09
         0.12094E+08
        -0.13637E+08
        -0.50304E+08
        -0.19842E+08
        -0.26975E+09
        -0.32250E+09
        -0.41181E+08
        -0.38179E+08
        -0.36996E+07
        -0.42057E+08
        -0.36161E+08
        -0.27917E+08
        -0.74650E+08
        -0.71850E+07
         0.94000E+08
         0.17643E+08
        -0.45634E+08
         0.36936E+08
        -0.17616E+08
        -0.38664E+08
         0.89691E+08
         0.20346E+09
         0.57071E+08
         0.79953E+07
        -0.27550E+08
         0.35191E+07
         0.65617E+08
         0.18376E+09
         0.39496E+09
         0.64109E+08
        -0.13218E+08
        -0.22920E+08
        -0.30567E+08
        -0.12348E+09
        -0.15850E+09
        -0.53361E+08
        -0.64320E+08
         0.34443E+09
         0.66221E+09
         0.10182E+10
         0.13828E+10
         0.87149E+09
         0.47714E+09
         0.25452E+08
        -0.54640E+07
        -0.54428E+08
        -0.10222E+09
        -0.14037E+09
        -0.19447E+09
        -0.28718E+09
        -0.40600E+09
        -0.36165E+09
        -0.23503E+09
        -0.61829E+09
        -0.84915E+08
        -0.19112E+09
        -0.17254E+09
        -0.28466E+08
         0.20026E+09
         0.68543E+09
         0.15057E+10
         0.23364E+10
         0.28407E+10
         0.23380E+10
         0.16145E+10
         0.97318E+09
         0.45251E+09
         0.22674E+09
         0.93469E+08
         0.19888E+08
        -0.43596E+08
        -0.12846E+09
        -0.22111E+09
        -0.29693E+09
        -0.41143E+09
        -0.58862E+09
        -0.67456E+09
        -0.72886E+09
         0.54679E+07
        -0.10958E+08
        -0.39032E+08
        -0.15891E+08
        -0.24161E+09
        -0.27902E+09
        -0.36869E+08
        -0.41154E+08
        -0.10479E+08
        -0.47045E+08
        -0.21116E+08
         0.11013E+08
        -0.53773E+08
         0.37704E+07
         0.15797E+09
         0.10027E+08
        -0.49173E+08
         0.28955E+08
        -0.16091E+08
        -0.37405E+08
         0.91373E+08
         0.19801E+09
         0.56492E+08
         0.58354E+07
        -0.28874E+08
        -0.85482E+07
         0.68079E+08
         0.17532E+09
         0.36566E+09
         0.59842E+08
        -0.30906E+08
        -0.45473E+08
        -0.37348E+08
        -0.10017E+09
        -0.13009E+09
        -0.26643E+08
        -0.40862E+08
         0.40119E+09
         0.66565E+09
         0.93943E+09
         0.12169E+10
         0.77637E+09
         0.44518E+09
         0.11106E+08
        -0.32638E+08
        -0.84597E+08
        -0.12873E+09
        -0.16757E+09
        -0.20931E+09
        -0.26598E+09
        -0.34436E+09
        -0.29840E+09
        -0.20552E+09
        -0.58033E+09
        -0.34397E+08
        -0.12909E+09
        -0.12166E+09
         0.47890E+08
         0.37872E+09
         0.91876E+09
         0.15876E+10
         0.21407E+10
         0.24134E+10
         0.20394E+10
         0.15290E+10
         0.94522E+09
         0.43637E+09
         0.22240E+09
         0.79268E+08
        -0.14005E+08
        -0.78053E+08
        -0.16038E+09
        -0.27551E+09
        -0.35885E+09
        -0.41080E+09
        -0.49288E+09
        -0.53956E+09
        -0.63669E+09
        -0.15297E+07
        -0.13411E+08
        -0.36077E+08
        -0.26394E+08
        -0.21893E+09
        -0.25887E+09
        -0.45995E+08
        -0.51708E+08
        -0.15294E+08
        -0.53148E+08
        -0.32062E+08
         0.49545E+07
        -0.60157E+08
        -0.85705E+07
         0.15510E+09
         0.51393E+07
        -0.46912E+08
         0.15260E+08
        -0.11148E+08
        -0.33201E+08
         0.84826E+08
         0.18332E+09
         0.53162E+08
         0.81187E+07
        -0.32323E+08
        -0.10539E+08
         0.49366E+08
         0.13535E+09
         0.27682E+09
         0.45491E+08
        -0.47433E+08
        -0.47913E+08
        -0.63752E+08
        -0.12140E+09
        -0.11221E+09
        -0.14902E+08
        -0.34499E+08
         0.36180E+09
         0.54087E+09
         0.70562E+09
         0.90757E+09
         0.61670E+09
         0.39396E+09
         0.14237E+08
        -0.23144E+08
        -0.63669E+08
        -0.11087E+09
        -0.16679E+09
        -0.22716E+09
        -0.28622E+09
        -0.35359E+09
        -0.29297E+09
        -0.17773E+09
        -0.52335E+09
        -0.45733E+07
        -0.10665E+09
        -0.13052E+09
         0.44337E+08
         0.40987E+09
         0.87005E+09
         0.12768E+10
         0.15405E+10
         0.17878E+10
         0.17525E+10
         0.14575E+10
         0.90596E+09
         0.41068E+09
         0.20759E+09
         0.91150E+08
         0.14870E+08
        -0.35527E+08
        -0.90803E+08
        -0.22354E+09
        -0.36070E+09
        -0.43099E+09
        -0.49696E+09
        -0.49354E+09
        -0.55650E+09
        -0.14211E+08
        -0.37864E+08
        -0.54159E+08
        -0.40441E+08
        -0.22271E+09
        -0.26846E+09
        -0.79922E+08
        -0.72011E+08
        -0.21737E+08
        -0.58312E+08
        -0.77846E+08
        -0.53842E+08
        -0.10608E+09
        -0.50947E+08
         0.69877E+08
        -0.87373E+07
        -0.49386E+08
        -0.64533E+06
        -0.19902E+08
        -0.35242E+08
         0.82934E+08
         0.18005E+09
         0.59312E+08
         0.33395E+07
        -0.25763E+08
        -0.10529E+08
         0.14632E+08
         0.11802E+09
         0.28143E+09
         0.60421E+08
        -0.47116E+08
        -0.27471E+08
        -0.70313E+08
        -0.13051E+09
        -0.12222E+09
        -0.42923E+08
        -0.72588E+08
         0.23803E+09
         0.40879E+09
         0.62694E+09
         0.90925E+09
         0.66521E+09
         0.42246E+09
         0.38126E+08
         0.25399E+08
         0.64800E+07
        -0.49549E+08
        -0.11546E+09
        -0.18942E+09
        -0.26439E+09
        -0.34659E+09
        -0.30307E+09
        -0.17577E+09
        -0.50181E+09
        -0.41219E+08
        -0.15470E+09
        -0.18123E+09
        -0.12881E+08
         0.28378E+09
         0.53709E+09
         0.80099E+09
         0.12097E+10
         0.18084E+10
         0.19797E+10
         0.15608E+10
         0.92220E+09
         0.44403E+09
         0.23940E+09
         0.15363E+09
         0.11307E+09
         0.72252E+08
         0.24888E+08
        -0.97342E+08
        -0.25283E+09
        -0.36063E+09
        -0.47972E+09
        -0.51811E+09
        -0.56453E+09
        -0.59680E+07
        -0.32329E+08
        -0.47690E+08
        -0.26135E+08
        -0.19744E+09
        -0.22187E+09
        -0.67575E+08
        -0.58018E+08
        -0.19529E+08
        -0.52220E+08
        -0.70348E+08
        -0.55789E+08
        -0.99642E+08
        -0.45812E+08
         0.53285E+08
        -0.14779E+08
        -0.55336E+08
         0.14459E+07
        -0.24367E+08
        -0.39606E+08
         0.10990E+09
         0.20471E+09
         0.86204E+08
         0.41440E+07
        -0.24001E+08
        -0.68671E+07
         0.30867E+08
         0.17181E+09
         0.39571E+09
         0.78998E+08
        -0.30480E+08
        -0.13016E+08
        -0.40776E+08
        -0.77571E+08
        -0.11478E+09
        -0.51364E+08
        -0.79391E+08
         0.28540E+09
         0.59448E+09
         0.95517E+09
         0.13247E+10
         0.87506E+09
         0.49271E+09
         0.61677E+08
         0.49628E+08
         0.29749E+08
        -0.23397E+08
        -0.63061E+08
        -0.10645E+09
        -0.16153E+09
        -0.22971E+09
        -0.22250E+09
        -0.17173E+09
        -0.45845E+09
        -0.77023E+08
        -0.18158E+09
        -0.17284E+09
        -0.16117E+08
         0.24319E+09
         0.63803E+09
         0.13184E+10
         0.21116E+10
         0.26943E+10
         0.24798E+10
         0.17235E+10
         0.99360E+09
         0.53063E+09
         0.31373E+09
         0.20549E+09
         0.15406E+09
         0.95444E+08
         0.42748E+08
        -0.21332E+08
        -0.10435E+09
        -0.18295E+09
        -0.30225E+09
        -0.39080E+09
        -0.49085E+09
        -0.11362E+08
        -0.28255E+08
        -0.49488E+08
        -0.33058E+08
        -0.16624E+09
        -0.16684E+09
        -0.42536E+08
        -0.39696E+08
        -0.30384E+08
        -0.47596E+08
        -0.34292E+08
        -0.22732E+08
        -0.70502E+08
        -0.11990E+08
         0.73449E+08
        -0.25764E+08
        -0.70598E+08
        -0.12193E+08
        -0.29515E+08
        -0.51737E+08
         0.12050E+09
         0.22922E+09
         0.80544E+08
        -0.26466E+07
        -0.43260E+08
        -0.16763E+08
         0.52333E+08
         0.16111E+09
         0.37435E+09
         0.40754E+08
        -0.39302E+08
        -0.28659E+08
        -0.40956E+08
        -0.52069E+08
        -0.10434E+09
        -0.54263E+08
        -0.71549E+08
         0.30879E+09
         0.63365E+09
         0.10034E+10
         0.13728E+10
         0.86651E+09
         0.49156E+09
         0.43466E+08
         0.21087E+08
         0.31141E+06
        -0.40071E+08
        -0.53698E+08
        -0.50927E+08
        -0.69285E+08
        -0.10758E+09
        -0.13256E+09
        -0.16071E+09
        -0.38388E+09
        -0.90642E+08
        -0.17789E+09
        -0.14181E+09
        -0.65927E+07
         0.20182E+09
         0.65964E+09
         0.14937E+10
         0.23672E+10
         0.28746E+10
         0.24922E+10
         0.17604E+10
         0.10339E+10
         0.53183E+09
         0.29025E+09
         0.14788E+09
         0.88736E+08
         0.52801E+08
         0.34039E+08
         0.19926E+08
         0.22982E+07
        -0.22057E+08
        -0.11174E+09
        -0.21583E+09
        -0.35971E+09
        -0.15274E+08
        -0.24660E+08
        -0.38190E+08
        -0.36841E+08
        -0.12020E+09
        -0.11600E+09
        -0.28711E+08
        -0.27048E+08
        -0.33656E+08
        -0.35533E+08
        -0.65355E+07
         0.80991E+07
        -0.53188E+08
         0.18415E+08
         0.10765E+09
        -0.32362E+08
        -0.59966E+08
        -0.26081E+08
        -0.92441E+07
        -0.12692E+08
         0.13822E+09
         0.28746E+09
         0.79879E+08
         0.66766E+07
        -0.26011E+08
        -0.19329E+08
         0.75370E+08
         0.16804E+09
         0.37323E+09
         0.76156E+08
        -0.46743E+08
        -0.28452E+08
        -0.39875E+08
        -0.31650E+08
        -0.58667E+08
        -0.22642E+08
        -0.56927E+08
         0.33479E+09
         0.63461E+09
         0.96872E+09
         0.13085E+10
         0.86731E+09
         0.55642E+09
         0.41411E+08
         0.32559E+08
         0.48691E+08
         0.13882E+08
         0.47337E+07
         0.24594E+08
         0.51919E+08
         0.44986E+08
        -0.35664E+08
        -0.78397E+08
        -0.30585E+09
        -0.23266E+08
        -0.14699E+09
        -0.11766E+09
         0.14603E+08
         0.21245E+09
         0.67169E+09
         0.14879E+10
         0.22912E+10
         0.27102E+10
         0.24724E+10
         0.18748E+10
         0.10553E+10
         0.49081E+09
         0.25099E+09
         0.13234E+09
         0.12088E+09
         0.15375E+09
         0.19509E+09
         0.20167E+09
         0.19740E+09
         0.19306E+09
         0.10309E+09
        -0.52744E+08
        -0.25528E+09
         0.75351E+07
         0.85210E+07
         0.35445E+08
         0.15555E+08
         0.15628E+08
         0.54451E+08
        -0.21435E+07
        -0.40758E+07
        -0.81510E+07
        -0.14410E+08
         0.39009E+08
         0.92217E+08
        -0.50355E+07
         0.59921E+08
         0.24046E+09
        -0.22716E+08
        -0.21983E+08
        -0.11564E+08
         0.25806E+08
         0.34161E+08
         0.15585E+09
         0.28540E+09
         0.99150E+08
         0.28287E+08
         0.66197E+07
        -0.13337E+08
         0.10656E+09
         0.23044E+09
         0.46388E+09
         0.13725E+09
        -0.18345E+08
         0.11972E+08
         0.33841E+08
         0.12184E+09
         0.90650E+08
         0.88289E+08
         0.32983E+07
         0.49271E+09
         0.82047E+09
         0.11721E+10
         0.14996E+10
         0.96664E+09
         0.58074E+09
         0.64458E+08
         0.11408E+09
         0.23309E+09
         0.20857E+09
         0.22875E+09
         0.30422E+09
         0.39284E+09
         0.43246E+09
         0.22958E+09
         0.12526E+09
        -0.10909E+09
         0.19591E+09
        -0.32469E+08
        -0.17150E+08
         0.19019E+09
         0.51559E+09
         0.11118E+10
         0.20643E+10
         0.28751E+10
         0.30409E+10
         0.25687E+10
         0.17859E+10
         0.96559E+09
         0.49680E+09
         0.28910E+09
         0.20480E+09
         0.30231E+09
         0.48396E+09
         0.64915E+09
         0.72509E+09
         0.78417E+09
         0.82603E+09
         0.70191E+09
         0.40633E+09
         0.44295E+08
        -0.15014E+08
        -0.19330E+08
         0.56406E+08
         0.38327E+08
         0.16759E+09
         0.27921E+09
        -0.42367E+08
        -0.11299E+08
        -0.20835E+07
         0.13543E+08
         0.14917E+08
         0.74882E+08
        -0.42448E+08
         0.64905E+08
         0.27278E+09
        -0.72844E+08
         0.86876E+07
        -0.34093E+08
         0.47756E+07
         0.36981E+08
         0.62692E+08
         0.94430E+08
         0.16438E+08
        -0.36866E+08
         0.35906E+08
        -0.10669E+09
         0.11891E+09
         0.17757E+09
         0.21880E+09
         0.60274E+08
        -0.36352E+08
        -0.46261E+07
         0.88859E+08
         0.29248E+09
         0.24110E+09
         0.18904E+09
         0.79224E+07
         0.46912E+09
         0.60522E+09
         0.63771E+09
         0.62551E+09
         0.33712E+09
         0.19412E+09
        -0.25076E+08
         0.99689E+08
         0.35768E+09
         0.36827E+09
         0.44689E+09
         0.59598E+09
         0.76797E+09
         0.88236E+09
         0.57134E+09
         0.35338E+09
         0.22551E+09
         0.45287E+09
         0.12434E+09
         0.14419E+08
         0.21353E+09
         0.56416E+09
         0.10463E+10
         0.15519E+10
         0.16092E+10
         0.12607E+10
         0.10102E+10
         0.81901E+09
         0.58244E+09
         0.44795E+09
         0.33577E+09
         0.24639E+09
         0.44804E+09
         0.83335E+09
         0.11742E+10
         0.13045E+10
         0.13626E+10
         0.14376E+10
         0.13521E+10
         0.10162E+10
         0.53601E+09
        -0.14879E+09
        -0.21179E+09
        -0.21293E+09
        -0.16828E+09
         0.45026E+08
         0.22885E+09
        -0.15467E+09
        -0.81752E+08
        -0.14292E+08
         0.62333E+08
        -0.12456E+09
        -0.19092E+09
        -0.19259E+09
        -0.51767E+08
        -0.10772E+09
        -0.13358E+09
         0.10525E+09
        -0.16729E+09
         0.13632E+09
         0.32594E+09
         0.69707E+09
         0.87851E+09
         0.35208E+09
         0.12208E+08
         0.20293E+09
        -0.21226E+09
         0.46113E+08
         0.37686E+08
        -0.13488E+09
         0.27827E+09
        -0.14671E+09
        -0.11309E+09
        -0.54358E+08
         0.13018E+09
        -0.62218E+08
        -0.19917E+09
        -0.21242E+09
        -0.73147E+07
        -0.21675E+09
        -0.67519E+09
        -0.10560E+10
        -0.37320E+09
         0.51030E+09
         0.36994E+08
         0.13916E+09
         0.59404E+09
         0.54744E+09
         0.53532E+09
         0.55191E+09
         0.66030E+09
         0.81658E+09
         0.50894E+09
         0.11404E+09
         0.52127E+09
        -0.61093E+08
        -0.15147E+09
        -0.25085E+09
        -0.20910E+09
        -0.79602E+08
        -0.10073E+09
        -0.66280E+09
        -0.17407E+10
        -0.20923E+10
        -0.40330E+09
         0.17141E+10
         0.24897E+10
         0.21620E+10
         0.14215E+10
         0.79130E+09
         0.86171E+09
         0.15642E+10
         0.21254E+10
         0.19811E+10
         0.15918E+10
         0.14799E+10
         0.14393E+10
         0.12145E+10
         0.90332E+09
        -0.23054E+09
        -0.41412E+09
        -0.84980E+09
        -0.62731E+09
        -0.38730E+09
        -0.77808E+08
        -0.80721E+08
        -0.10882E+09
         0.13580E+09
         0.25286E+09
        -0.16849E+09
        -0.14349E+09
        -0.14539E+08
        -0.22184E+09
        -0.38002E+09
         0.13982E+09
         0.51953E+09
        -0.30168E+09
         0.92556E+09
         0.14680E+10
         0.30028E+10
         0.40669E+10
         0.17832E+10
         0.78917E+09
         0.90555E+09
         0.18845E+09
         0.14880E+09
         0.66984E+09
         0.96374E+09
         0.17999E+10
        -0.14968E+09
         0.12707E+09
        -0.51323E+09
        -0.53125E+09
        -0.88529E+09
        -0.11713E+10
        -0.58305E+09
        -0.29364E+09
        -0.29348E+09
        -0.46258E+09
        -0.32520E+09
         0.14475E+10
         0.36211E+10
         0.76819E+09
         0.54666E+09
         0.10555E+10
         0.91506E+09
         0.53411E+09
         0.35885E+08
        -0.29136E+08
         0.24732E+09
         0.49600E+08
        -0.54957E+09
         0.91606E+09
        -0.13352E+10
        -0.72130E+09
        -0.28725E+09
        -0.32334E+09
        -0.51236E+09
        -0.91933E+09
        -0.18518E+10
        -0.25093E+10
        -0.13177E+10
         0.33189E+10
         0.82883E+10
         0.93144E+10
         0.70888E+10
         0.41542E+10
         0.20715E+10
         0.14060E+10
         0.23126E+10
         0.30905E+10
         0.22759E+10
         0.11622E+10
         0.92088E+09
         0.10979E+10
         0.11961E+10
         0.12852E+10
  
SCALARS                      stress_yz  double 1
LOOKUP_TABLE default
         0.33217E+08
         0.22284E+08
        -0.70945E+07
         0.36551E+08
         0.14795E+01
         0.15509E+01
         0.24437E+01
         0.16627E+01
        -0.11752E+09
        -0.12968E+09
         0.16669E+01
         0.12268E+01
         0.19857E+08
         0.21159E+08
         0.15290E+01
        -0.22145E+00
         0.15529E+08
         0.39028E+08
        -0.45147E+00
         0.42420E+00
         0.17264E+08
         0.19841E+08
         0.22830E+08
         0.53348E+00
         0.13464E+01
         0.13886E+01
         0.40533E+08
         0.28114E+08
         0.18591E+01
         0.22934E+01
        -0.48687E+07
         0.70761E+07
         0.42254E+08
         0.18587E+00
         0.80540E+00
        -0.41941E+00
        -0.24544E+08
        -0.47736E+07
         0.47924E+00
         0.81938E+00
        -0.80447E+07
        -0.12896E+08
        -0.93368E+00
        -0.16946E+01
         0.40036E+08
         0.61835E+06
        -0.68383E+00
         0.65953E-01
         0.61744E+08
         0.92653E+00
         0.21999E+08
        -0.50024E+00
         0.11671E+09
         0.17473E+01
         0.15287E+09
         0.15452E+01
         0.10485E+09
         0.42498E+08
        -0.50962E-01
        -0.24890E+00
         0.55936E+08
         0.46874E+08
         0.23187E+00
        -0.17567E+01
         0.69349E+08
         0.22062E+01
        -0.25330E+08
         0.12571E+01
        -0.12656E+09
        -0.68049E+08
        -0.13283E+00
         0.13224E+01
        -0.29559E+07
         0.17606E+01
         0.14701E+09
         0.21694E+01
         0.18465E+09
         0.19100E+01
         0.94622E+08
        -0.18174E+00
         0.63707E+08
         0.47649E+08
        -0.32027E+00
        -0.10454E+01
         0.34664E+08
        -0.20541E+01
         0.91252E+08
         0.42535E-01
         0.11440E+09
        -0.81342E+00
         0.12785E+09
         0.91171E+08
        -0.31621E+01
        -0.19516E+01
         0.80625E+08
         0.10882E+01
        -0.17248E+08
         0.13854E+01
        -0.13888E+09
         0.80373E+00
        -0.17835E+09
        -0.16932E+09
        -0.16389E+01
         0.75344E+00
        -0.17555E+09
        -0.19879E+09
        -0.63290E+01
        -0.54241E+01
        -0.12840E+09
        -0.99580E+00
        -0.36918E+08
         0.25069E+00
         0.63300E+08
        -0.19509E+00
         0.57786E+08
         0.15331E+00
        -0.45601E+08
         0.24879E+00
        -0.12188E+09
         0.58371E+00
        -0.13243E+09
         0.24893E+00
         0.25145E+08
         0.38268E+01
         0.71736E+08
         0.97121E+01
         0.79859E+08
         0.81279E+01
         0.10514E+09
         0.43724E+01
         0.10140E+09
         0.25919E+01
         0.89262E+08
         0.22302E+01
         0.11826E+09
         0.20979E+01
         0.16488E+09
         0.26235E+01
         0.18935E+09
         0.43836E+01
         0.17994E+09
         0.99863E-01
         0.16192E+09
        -0.18346E+01
         0.34617E+08
        -0.18405E+01
        -0.14428E+09
        -0.44003E+01
        -0.19745E+09
        -0.56821E+01
        -0.19236E+09
        -0.89800E+01
        -0.19719E+09
        -0.76734E+01
        -0.21967E+09
        -0.60668E+01
         0.46850E+08
         0.33478E+08
         0.62650E+07
         0.67719E+08
        -0.10899E+09
        -0.13195E+09
         0.40031E+08
         0.44763E+08
         0.33837E+08
         0.71642E+08
         0.73744E+08
         0.11494E+09
         0.56679E+08
         0.11332E+09
         0.18915E+09
         0.52137E+08
         0.17967E+07
         0.97590E+08
        -0.97955E+07
         0.50823E+07
         0.12092E+08
         0.25770E+08
         0.61839E+08
         0.48444E+08
         0.10218E+09
         0.92382E+08
         0.16948E+09
         0.19140E+09
         0.16543E+09
         0.11985E+09
         0.55106E+08
         0.72732E+08
        -0.39026E+07
        -0.83724E+08
        -0.10620E+09
        -0.46453E+08
         0.12889E+08
         0.21275E+09
         0.19361E+09
         0.15147E+09
         0.11814E+09
         0.11637E+09
         0.91082E+08
         0.11437E+09
         0.96702E+08
         0.20916E+08
        -0.35549E+08
        -0.10549E+09
        -0.15980E+09
        -0.17611E+09
        -0.17704E+09
        -0.15101E+09
        -0.16548E+09
        -0.20225E+09
        -0.10555E+09
        -0.17468E+08
         0.88081E+08
         0.16991E+09
         0.16043E+09
         0.11262E+09
         0.83268E+08
         0.78193E+08
         0.82867E+08
         0.86800E+08
         0.73747E+08
         0.29321E+08
         0.21542E+08
         0.73178E+08
         0.13424E+09
         0.10940E+09
         0.36473E+07
        -0.72893E+08
        -0.13673E+09
        -0.18855E+09
        -0.21302E+09
        -0.19856E+09
        -0.17490E+09
        -0.19549E+09
         0.34665E+08
        -0.11822E+07
        -0.17793E+08
         0.94010E+07
        -0.65318E+08
        -0.75681E+08
         0.25688E+08
         0.34181E+08
         0.39867E+08
         0.71925E+08
         0.93957E+08
         0.11729E+09
         0.35063E+08
         0.13258E+09
         0.17408E+09
         0.81557E+08
        -0.23701E+08
         0.68749E+08
         0.47270E+08
         0.70091E+07
         0.99201E+08
         0.87102E+08
         0.14359E+09
         0.12624E+09
         0.11514E+09
         0.84459E+08
         0.17584E+09
         0.18188E+09
         0.15888E+09
         0.11164E+09
        -0.52515E+08
        -0.35184E+08
        -0.11769E+09
        -0.11024E+09
        -0.69936E+08
        -0.46531E+08
        -0.17899E+08
         0.19651E+09
         0.19230E+09
         0.17517E+09
         0.16414E+09
         0.15011E+09
         0.12170E+09
         0.65700E+08
        -0.45944E+08
        -0.11931E+09
        -0.16091E+09
        -0.20202E+09
        -0.20519E+09
        -0.17097E+09
        -0.14043E+09
        -0.10501E+09
        -0.94407E+08
        -0.99051E+08
        -0.64565E+08
        -0.25073E+08
         0.35023E+08
         0.11956E+09
         0.18299E+09
         0.19311E+09
         0.17266E+09
         0.15683E+09
         0.11637E+08
         0.15705E+09
         0.13957E+09
         0.12307E+09
         0.10834E+09
         0.98338E+08
         0.28652E+08
        -0.71032E+08
        -0.14009E+09
        -0.20156E+09
        -0.22355E+09
        -0.21572E+09
        -0.18774E+09
        -0.14797E+09
        -0.10660E+09
        -0.84923E+08
        -0.36157E+08
        -0.35648E+08
        -0.14265E+08
        -0.29961E+08
         0.12579E+08
         0.10951E+07
        -0.21846E+08
        -0.40434E+08
        -0.46942E+08
        -0.49283E+08
         0.60331E+08
         0.10784E+09
         0.92887E+07
         0.10304E+09
         0.17010E+09
         0.68336E+07
        -0.88930E+08
        -0.22261E+08
        -0.29420E+08
        -0.69013E+08
         0.39102E+08
         0.59309E+08
         0.25058E+07
         0.12432E+08
        -0.20340E+08
        -0.79658E+07
         0.14646E+09
         0.14817E+09
         0.13362E+09
         0.55078E+08
        -0.94423E+08
        -0.95529E+08
        -0.12112E+09
        -0.84395E+08
         0.16093E+07
        -0.12778E+08
        -0.21895E+08
         0.18553E+09
         0.17898E+09
         0.16644E+09
         0.15854E+09
         0.13509E+09
         0.10034E+09
        -0.73667E+08
        -0.13228E+09
        -0.16916E+09
        -0.18295E+09
        -0.19828E+09
        -0.19033E+09
        -0.13061E+09
        -0.67581E+08
        -0.27530E+08
         0.75595E+07
         0.37987E+08
        -0.23567E+07
        -0.42641E+07
         0.18966E+08
         0.10704E+09
         0.17031E+09
         0.18419E+09
         0.17465E+09
         0.16967E+09
         0.16971E+09
         0.15845E+09
         0.13996E+09
         0.12531E+09
         0.80103E+08
        -0.12507E+08
        -0.13879E+09
        -0.17745E+09
        -0.18125E+09
        -0.19002E+09
        -0.18227E+09
        -0.16011E+09
        -0.11423E+09
        -0.50536E+08
         0.14180E+08
         0.50463E+08
        -0.11751E+09
        -0.88655E+08
        -0.11059E+08
        -0.62758E+08
         0.80510E+08
         0.65755E+08
        -0.80261E+08
        -0.11673E+09
        -0.12307E+09
        -0.10640E+09
         0.28887E+08
         0.97816E+08
        -0.84121E+07
         0.68139E+08
         0.15624E+09
        -0.88975E+08
        -0.13413E+09
        -0.95539E+08
        -0.10240E+09
        -0.10634E+09
        -0.11428E+08
         0.23479E+08
        -0.38181E+08
        -0.67315E+08
        -0.82399E+08
        -0.74592E+08
         0.10332E+09
         0.11601E+09
         0.11275E+09
         0.42098E+07
        -0.10094E+09
        -0.99102E+08
        -0.92995E+08
        -0.25091E+08
         0.67397E+08
         0.24166E+08
        -0.23620E+08
         0.16920E+09
         0.16636E+09
         0.15693E+09
         0.14819E+09
         0.12004E+09
         0.80085E+08
        -0.88463E+08
        -0.10717E+09
        -0.95793E+08
        -0.97132E+08
        -0.95241E+08
        -0.61495E+08
        -0.31799E+07
         0.42615E+08
         0.53428E+08
         0.89095E+08
         0.12884E+09
         0.50567E+08
         0.12794E+08
         0.11111E+08
         0.86207E+08
         0.13803E+09
         0.16219E+09
         0.16720E+09
         0.16855E+09
         0.16333E+09
         0.14748E+09
         0.13548E+09
         0.11580E+09
         0.61524E+08
        -0.12685E+08
        -0.10418E+09
        -0.11908E+09
        -0.86248E+08
        -0.74220E+08
        -0.57864E+08
        -0.21777E+08
         0.26180E+08
         0.69020E+08
         0.10340E+09
         0.12714E+09
        -0.13098E+09
        -0.11832E+09
        -0.69000E+08
        -0.95052E+08
         0.23001E+08
         0.30320E+08
        -0.11957E+09
        -0.12579E+09
        -0.12581E+09
        -0.11610E+09
        -0.81890E+08
         0.10114E+08
        -0.71318E+08
        -0.57386E+08
         0.99950E+08
        -0.12394E+09
        -0.13415E+09
        -0.12187E+09
        -0.12186E+09
        -0.11224E+09
        -0.32480E+08
         0.76893E+07
        -0.57332E+08
        -0.10580E+09
        -0.10009E+09
        -0.11810E+09
         0.87071E+07
         0.66496E+08
         0.95443E+08
        -0.25439E+08
        -0.79491E+08
        -0.55595E+08
        -0.55592E+08
        -0.44654E+07
         0.16932E+08
        -0.26112E+08
        -0.68989E+08
         0.13771E+09
         0.15076E+09
         0.15213E+09
         0.15058E+09
         0.12272E+09
         0.77594E+08
        -0.79504E+08
        -0.18178E+08
         0.43675E+08
         0.58323E+08
         0.63140E+08
         0.54440E+08
         0.47984E+08
         0.50786E+08
         0.39696E+08
         0.42181E+08
         0.67517E+08
         0.11242E+08
        -0.26646E+08
        -0.37095E+08
         0.25258E+08
         0.88303E+08
         0.13115E+09
         0.15668E+09
         0.16980E+09
         0.16998E+09
         0.15828E+09
         0.14305E+09
         0.11485E+09
         0.62768E+08
         0.15123E+08
        -0.22897E+08
         0.66036E+07
         0.60136E+08
         0.87498E+08
         0.85693E+08
         0.66285E+08
         0.60418E+08
         0.63972E+08
         0.66396E+08
         0.71148E+08
        -0.13536E+09
        -0.12157E+09
        -0.94271E+08
        -0.51235E+08
        -0.45915E+08
        -0.21554E+08
        -0.13287E+09
        -0.13835E+09
        -0.13122E+09
        -0.12508E+09
        -0.11441E+09
        -0.65427E+08
        -0.86852E+08
        -0.10746E+09
        -0.45381E+07
        -0.10327E+09
        -0.13233E+09
        -0.66973E+08
        -0.12746E+09
        -0.10888E+09
        -0.55620E+08
        -0.10559E+08
        -0.81197E+08
        -0.11710E+09
        -0.10476E+09
        -0.78940E+08
        -0.63184E+08
         0.42879E+07
         0.65071E+08
        -0.49278E+08
         0.26617E+08
         0.82990E+07
         0.40561E+08
         0.23699E+08
        -0.60317E+08
        -0.99829E+08
        -0.93436E+08
         0.78575E+08
         0.12448E+09
         0.14082E+09
         0.14728E+09
         0.11853E+09
         0.66460E+08
        -0.74017E+08
        -0.15956E+08
         0.43406E+08
         0.92806E+08
         0.10943E+09
         0.77878E+08
         0.39562E+08
         0.13012E+08
        -0.12366E+07
        -0.43168E+08
        -0.27968E+08
        -0.53449E+08
        -0.32826E+08
        -0.31472E+08
        -0.22132E+08
         0.23632E+08
         0.88744E+08
         0.13672E+09
         0.16331E+09
         0.17084E+09
         0.16332E+09
         0.14791E+09
         0.10776E+09
         0.40668E+08
        -0.13166E+08
        -0.23940E+08
         0.41085E+07
         0.44044E+08
         0.76819E+08
         0.74353E+08
         0.43855E+08
         0.15811E+08
        -0.34081E+07
        -0.22682E+08
        -0.29482E+08
        -0.54102E+08
        -0.42994E+08
        -0.25006E+08
         0.29388E+07
         0.10347E+07
         0.28874E+08
        -0.58692E+08
        -0.86490E+08
        -0.57363E+08
        -0.11304E+09
        -0.81634E+08
        -0.64150E+08
        -0.27585E+08
        -0.11525E+09
        -0.82628E+08
        -0.14052E+08
        -0.66955E+08
        -0.51988E+07
        -0.35960E+08
        -0.89058E+08
        -0.44791E+08
        -0.52071E+08
        -0.44865E+08
        -0.35015E+08
        -0.10118E+09
        -0.16437E+08
        -0.10955E+09
        -0.78795E+08
        -0.36213E+08
        -0.84018E+08
         0.43128E+08
         0.18867E+08
         0.59268E+08
         0.66655E+08
        -0.48661E+07
        -0.13611E+08
        -0.15139E+08
        -0.57621E+08
         0.97842E+07
         0.73833E+08
         0.11454E+09
         0.61432E+08
        -0.23995E+08
        -0.40388E+08
        -0.19946E+08
        -0.10913E+07
         0.50758E+08
         0.92559E+08
         0.73526E+08
         0.53713E+08
         0.42353E+08
         0.43371E+08
         0.13787E+08
         0.84119E+07
         0.47624E+08
         0.40451E+08
         0.38276E+08
        -0.86610E+07
        -0.47305E+08
         0.44862E+07
         0.77849E+08
         0.12851E+09
         0.15473E+09
         0.16787E+09
         0.14739E+09
         0.29837E+08
        -0.23135E+08
        -0.41029E+08
        -0.45141E+08
        -0.41282E+08
        -0.33992E+08
        -0.13603E+08
         0.20638E+08
         0.22981E+08
         0.20828E+08
         0.23693E+08
         0.23171E+08
         0.14236E+08
        -0.28990E+08
        -0.18873E+08
        -0.62968E+07
         0.10578E+08
         0.27845E+08
         0.55603E+08
        -0.18071E+08
        -0.34467E+08
        -0.16335E+08
        -0.39344E+08
        -0.32114E+08
        -0.25831E+08
         0.12714E+08
        -0.65202E+08
        -0.94575E+08
         0.76706E+07
         0.36693E+04
         0.33800E+07
         0.14916E+08
        -0.79616E+07
         0.37277E+07
        -0.27109E+08
        -0.87364E+07
        -0.76841E+06
        -0.56127E+08
        -0.20049E+07
        -0.11355E+09
        -0.12796E+09
        -0.10730E+09
        -0.97265E+08
         0.32772E+08
         0.12246E+08
         0.50756E+08
         0.81838E+08
         0.28698E+08
         0.15499E+08
         0.15311E+08
        -0.11775E+09
        -0.11130E+09
        -0.91515E+08
        -0.71883E+08
        -0.74816E+08
        -0.67892E+08
        -0.24366E+08
        -0.22394E+08
        -0.16276E+08
         0.25690E+08
         0.68581E+08
         0.83732E+08
         0.81293E+08
         0.82074E+08
         0.77961E+08
         0.47131E+08
         0.39225E+08
         0.74864E+08
         0.67579E+08
         0.74990E+08
         0.32732E+08
        -0.65449E+08
        -0.96765E+08
        -0.80476E+08
        -0.53776E+08
        -0.41891E+08
        -0.36613E+08
        -0.29501E+08
        -0.23843E+08
        -0.26802E+07
        -0.10988E+08
        -0.39292E+08
        -0.54311E+08
        -0.57995E+08
        -0.47525E+08
         0.39321E+07
         0.38357E+08
         0.60727E+08
         0.79289E+08
         0.80947E+08
         0.59861E+08
        -0.27276E+08
        -0.15166E+08
        -0.39267E+07
         0.40133E+07
         0.41482E+08
         0.65201E+08
        -0.59027E+07
        -0.20796E+08
        -0.79083E+07
        -0.16891E+08
        -0.14173E+08
        -0.91495E+06
         0.32685E+08
        -0.49367E+08
        -0.90221E+08
         0.51962E+07
         0.19519E+08
        -0.48359E+07
         0.31559E+08
         0.20829E+08
         0.26814E+08
        -0.48945E+07
         0.13439E+08
         0.11102E+08
        -0.26554E+08
        -0.24554E+07
        -0.10414E+09
        -0.13434E+09
        -0.11019E+09
        -0.80299E+08
         0.19814E+08
         0.52854E+07
         0.39129E+08
         0.81314E+08
         0.44790E+08
         0.27059E+08
         0.28797E+08
        -0.12258E+09
        -0.12471E+09
        -0.11551E+09
        -0.10516E+09
        -0.92167E+08
        -0.63075E+08
        -0.57187E+07
        -0.10685E+08
        -0.94037E+07
         0.21751E+08
         0.64801E+08
         0.84388E+08
         0.87814E+08
         0.92868E+08
         0.85982E+08
         0.63250E+08
         0.60024E+08
         0.85764E+08
         0.83820E+08
         0.95936E+08
         0.62591E+08
        -0.56008E+08
        -0.10652E+09
        -0.11179E+09
        -0.10698E+09
        -0.10377E+09
        -0.91602E+08
        -0.55990E+08
        -0.14155E+08
         0.27181E+08
         0.25105E+08
        -0.12594E+07
        -0.24093E+08
        -0.39315E+08
        -0.36268E+08
         0.15948E+08
         0.57976E+08
         0.83366E+08
         0.10002E+09
         0.10203E+09
         0.85047E+08
        -0.27646E+08
        -0.13257E+08
        -0.11029E+07
         0.30150E+07
         0.45193E+08
         0.64330E+08
        -0.75952E+06
        -0.16288E+08
        -0.52047E+07
        -0.77328E+07
        -0.79035E+07
         0.86581E+07
         0.44277E+08
        -0.46856E+08
        -0.88095E+08
         0.74313E+07
         0.29619E+08
        -0.71331E+07
         0.37075E+08
         0.34250E+08
         0.14524E+08
        -0.94493E+07
         0.58103E+07
         0.11877E+08
        -0.11623E+08
        -0.49756E+06
        -0.10680E+09
        -0.13249E+09
        -0.10485E+09
        -0.65091E+08
         0.23684E+08
         0.91899E+07
         0.44658E+08
         0.78458E+08
         0.52020E+08
         0.36922E+08
         0.38261E+08
        -0.12522E+09
        -0.12845E+09
        -0.11925E+09
        -0.10768E+09
        -0.88394E+08
        -0.57446E+08
        -0.61081E+07
        -0.57399E+07
         0.81771E+06
         0.34639E+08
         0.80420E+08
         0.87428E+08
         0.86933E+08
         0.88850E+08
         0.81761E+08
         0.69917E+08
         0.64819E+08
         0.89236E+08
         0.82930E+08
         0.93904E+08
         0.60014E+08
        -0.57312E+08
        -0.11091E+09
        -0.12174E+09
        -0.11895E+09
        -0.11163E+09
        -0.93940E+08
        -0.61721E+08
        -0.32979E+08
        -0.26031E+07
         0.54972E+07
        -0.58274E+07
        -0.14500E+08
        -0.16479E+08
        -0.40028E+07
         0.39023E+08
         0.69542E+08
         0.85212E+08
         0.95557E+08
         0.97676E+08
         0.85177E+08
        -0.28234E+08
        -0.18392E+08
        -0.67514E+07
         0.48433E+07
         0.36329E+08
         0.58713E+08
        -0.49617E+07
        -0.14519E+08
        -0.14609E+07
        -0.26729E+07
        -0.13742E+08
        -0.78735E+07
         0.27820E+08
        -0.50115E+08
        -0.95060E+08
         0.14890E+08
         0.39754E+08
        -0.26774E+07
         0.42738E+08
         0.45258E+08
         0.40432E+07
        -0.15046E+08
        -0.81638E+07
         0.91199E+07
        -0.50003E+07
         0.91530E+06
        -0.11308E+09
        -0.13004E+09
        -0.10226E+09
        -0.59691E+08
         0.36529E+08
         0.14996E+08
         0.59099E+08
         0.81175E+08
         0.39464E+08
         0.24616E+08
         0.22231E+08
        -0.12777E+09
        -0.13040E+09
        -0.12062E+09
        -0.10759E+09
        -0.86252E+08
        -0.57885E+08
        -0.18454E+08
        -0.12596E+08
         0.17158E+06
         0.38011E+08
         0.82192E+08
         0.89658E+08
         0.85977E+08
         0.83792E+08
         0.76959E+08
         0.57851E+08
         0.53639E+08
         0.70987E+08
         0.58908E+08
         0.67063E+08
         0.31052E+08
        -0.68645E+08
        -0.11387E+09
        -0.12539E+09
        -0.12340E+09
        -0.11284E+09
        -0.93381E+08
        -0.67216E+08
        -0.48592E+08
        -0.28030E+08
        -0.24570E+08
        -0.33301E+08
        -0.30859E+08
        -0.17344E+08
         0.76741E+07
         0.49081E+08
         0.71361E+08
         0.79982E+08
         0.85615E+08
         0.86407E+08
         0.73418E+08
        -0.28314E+08
        -0.21862E+08
        -0.10870E+08
         0.62942E+07
         0.38836E+08
         0.64862E+08
        -0.52844E+07
        -0.11333E+08
        -0.29855E+06
         0.56391E+06
        -0.16644E+08
        -0.19083E+08
         0.18013E+08
        -0.53227E+08
        -0.10306E+09
         0.14654E+08
         0.43766E+08
        -0.32277E+07
         0.45380E+08
         0.51112E+08
         0.43905E+07
        -0.15418E+08
        -0.10457E+08
         0.88774E+07
        -0.38930E+07
         0.13579E+07
        -0.11997E+09
        -0.13570E+09
        -0.11154E+09
        -0.67827E+08
         0.38694E+08
         0.18361E+08
         0.61702E+08
         0.83535E+08
         0.34677E+08
         0.12091E+08
         0.78571E+07
        -0.13250E+09
        -0.13602E+09
        -0.12843E+09
        -0.11750E+09
        -0.97040E+08
        -0.65081E+08
        -0.20251E+08
        -0.10779E+08
         0.36239E+07
         0.40287E+08
         0.79056E+08
         0.85813E+08
         0.85509E+08
         0.86784E+08
         0.82436E+08
         0.54067E+08
         0.60097E+08
         0.55381E+08
         0.40320E+08
         0.53777E+08
         0.19491E+08
        -0.76876E+08
        -0.11640E+09
        -0.12978E+09
        -0.13073E+09
        -0.12271E+09
        -0.10268E+09
        -0.71487E+08
        -0.51892E+08
        -0.31351E+08
        -0.29700E+08
        -0.37837E+08
        -0.30546E+08
        -0.15281E+08
         0.73469E+07
         0.44890E+08
         0.64345E+08
         0.76397E+08
         0.88739E+08
         0.94409E+08
         0.83819E+08
        -0.20637E+08
        -0.11040E+08
        -0.23280E+07
         0.13754E+08
         0.39105E+08
         0.63166E+08
         0.27600E+07
        -0.55332E+07
         0.16014E+07
         0.55601E+07
        -0.15145E+08
        -0.21808E+08
         0.28269E+08
        -0.53353E+08
        -0.11047E+09
         0.11115E+08
         0.44078E+08
        -0.22056E+07
         0.45395E+08
         0.55601E+08
         0.80565E+07
        -0.11746E+08
        -0.11441E+08
         0.62550E+07
         0.32007E+07
        -0.12770E+07
        -0.11409E+09
        -0.13549E+09
        -0.11097E+09
        -0.60023E+08
         0.36611E+08
         0.20232E+08
         0.58084E+08
         0.78591E+08
         0.31545E+08
         0.14783E+08
         0.18588E+08
        -0.13756E+09
        -0.13965E+09
        -0.13101E+09
        -0.12058E+09
        -0.98929E+08
        -0.64050E+08
        -0.22244E+08
        -0.77516E+07
         0.11126E+08
         0.48099E+08
         0.79454E+08
         0.79847E+08
         0.77313E+08
         0.78571E+08
         0.76661E+08
         0.43537E+08
         0.55634E+08
         0.53020E+08
         0.50583E+08
         0.69890E+08
         0.19721E+08
        -0.88218E+08
        -0.12788E+09
        -0.13908E+09
        -0.13636E+09
        -0.12806E+09
        -0.10641E+09
        -0.74699E+08
        -0.53500E+08
        -0.31083E+08
        -0.31512E+08
        -0.41263E+08
        -0.28667E+08
        -0.81506E+07
         0.13457E+08
         0.43641E+08
         0.54459E+08
         0.63423E+08
         0.78175E+08
         0.86209E+08
         0.78201E+08
        -0.17134E+08
        -0.17830E+07
         0.56375E+07
         0.13506E+08
         0.36899E+08
         0.53564E+08
         0.88569E+07
        -0.27611E+07
         0.11273E+07
         0.61730E+07
        -0.12685E+08
        -0.21122E+08
         0.40477E+08
        -0.51176E+08
        -0.11436E+09
         0.79383E+07
         0.39507E+08
        -0.29350E+07
         0.41313E+08
         0.49131E+08
         0.13013E+08
        -0.10418E+08
        -0.78787E+07
         0.52508E+07
         0.18061E+07
        -0.17545E+07
        -0.10774E+09
        -0.12988E+09
        -0.10271E+09
        -0.60286E+08
         0.36131E+08
         0.22990E+08
         0.54390E+08
         0.73706E+08
         0.38025E+08
         0.31138E+08
         0.37844E+08
        -0.13871E+09
        -0.13806E+09
        -0.12517E+09
        -0.11278E+09
        -0.91949E+08
        -0.60882E+08
        -0.19874E+08
        -0.28140E+07
         0.18503E+08
         0.55973E+08
         0.83710E+08
         0.81215E+08
         0.74329E+08
         0.70885E+08
         0.66021E+08
         0.46748E+08
         0.47672E+08
         0.83249E+08
         0.82360E+08
         0.94057E+08
         0.26497E+08
        -0.96211E+08
        -0.13515E+09
        -0.14218E+09
        -0.13216E+09
        -0.12099E+09
        -0.10331E+09
        -0.74362E+08
        -0.46036E+08
        -0.16955E+08
        -0.20272E+08
        -0.34442E+08
        -0.22818E+08
        -0.89913E+06
         0.23150E+08
         0.52172E+08
         0.59594E+08
         0.62822E+08
         0.69192E+08
         0.68674E+08
         0.60427E+08
        -0.17300E+08
        -0.95247E+06
         0.11588E+08
         0.16164E+08
         0.42841E+08
         0.55543E+08
         0.81800E+07
        -0.29453E+07
        -0.13913E+05
         0.44930E+07
        -0.10701E+08
        -0.18076E+08
         0.38086E+08
        -0.46130E+08
        -0.10870E+09
         0.72330E+07
         0.33805E+08
        -0.15789E+06
         0.33470E+08
         0.36686E+08
         0.11686E+08
        -0.16383E+08
        -0.24508E+07
         0.52390E+07
        -0.40363E+07
         0.20049E+07
        -0.10181E+09
        -0.12435E+09
        -0.97526E+08
        -0.70017E+08
         0.41461E+08
         0.28238E+08
         0.60923E+08
         0.81350E+08
         0.52264E+08
         0.43930E+08
         0.40608E+08
        -0.13313E+09
        -0.13008E+09
        -0.11472E+09
        -0.10104E+09
        -0.84970E+08
        -0.62224E+08
        -0.10785E+08
         0.44560E+07
         0.20012E+08
         0.54727E+08
         0.84239E+08
         0.86493E+08
         0.81359E+08
         0.76626E+08
         0.69504E+08
         0.63382E+08
         0.51648E+08
         0.10508E+09
         0.88179E+08
         0.91829E+08
         0.31689E+08
        -0.90692E+08
        -0.13006E+09
        -0.13153E+09
        -0.11691E+09
        -0.10456E+09
        -0.92963E+08
        -0.72443E+08
        -0.42477E+08
        -0.65745E+07
        -0.42363E+07
        -0.17514E+08
        -0.12880E+08
        -0.19299E+07
         0.15667E+08
         0.47545E+08
         0.64728E+08
         0.72305E+08
         0.75376E+08
         0.68435E+08
         0.57789E+08
        -0.16625E+08
        -0.72549E+07
         0.43238E+07
         0.16698E+08
         0.38013E+08
         0.56205E+08
         0.38814E+07
        -0.33610E+07
         0.44551E+07
         0.43438E+07
        -0.10874E+08
        -0.19185E+08
         0.24682E+08
        -0.44753E+08
        -0.10569E+09
         0.19168E+08
         0.39500E+08
         0.84767E+07
         0.44197E+08
         0.45098E+08
         0.20315E+08
        -0.80789E+07
         0.64366E+07
         0.17613E+08
        -0.38099E+07
         0.12243E+08
        -0.10666E+09
        -0.12845E+09
        -0.10051E+09
        -0.66822E+08
         0.46505E+08
         0.29015E+08
         0.63644E+08
         0.81548E+08
         0.41781E+08
         0.27603E+08
         0.22832E+08
        -0.13064E+09
        -0.12864E+09
        -0.11555E+09
        -0.10189E+09
        -0.84649E+08
        -0.58935E+08
        -0.56995E+07
         0.57294E+06
         0.60284E+07
         0.39312E+08
         0.74276E+08
         0.80579E+08
         0.77917E+08
         0.75576E+08
         0.71346E+08
         0.55173E+08
         0.48711E+08
         0.83101E+08
         0.65111E+08
         0.70452E+08
         0.23979E+08
        -0.85345E+08
        -0.12167E+09
        -0.12265E+09
        -0.11354E+09
        -0.10344E+09
        -0.89084E+08
        -0.67770E+08
        -0.36153E+08
         0.16086E+07
         0.19170E+07
        -0.16205E+08
        -0.20140E+08
        -0.20181E+08
        -0.11300E+08
         0.24452E+08
         0.51663E+08
         0.64141E+08
         0.73053E+08
         0.72936E+08
         0.60959E+08
        -0.13568E+08
        -0.88701E+07
        -0.21399E+07
         0.14613E+08
         0.25580E+08
         0.42751E+08
         0.27254E+07
        -0.43577E+07
         0.10327E+08
         0.57218E+07
        -0.97220E+07
        -0.12492E+08
         0.23323E+08
        -0.44970E+08
        -0.10885E+09
         0.30013E+08
         0.49458E+08
         0.14410E+08
         0.54617E+08
         0.58812E+08
         0.16164E+08
        -0.77650E+07
         0.46656E+07
         0.25769E+08
         0.36042E+07
         0.18444E+08
        -0.11081E+09
        -0.13855E+09
        -0.10950E+09
        -0.57375E+08
         0.42384E+08
         0.24331E+08
         0.53347E+08
         0.68947E+08
         0.25999E+08
         0.12557E+08
         0.14437E+08
        -0.13652E+09
        -0.13856E+09
        -0.12856E+09
        -0.11651E+09
        -0.95071E+08
        -0.61039E+08
        -0.73038E+07
        -0.63156E+07
        -0.75184E+07
         0.22748E+08
         0.57485E+08
         0.61686E+08
         0.58326E+08
         0.56047E+08
         0.55320E+08
         0.39243E+08
         0.35471E+08
         0.59527E+08
         0.52754E+08
         0.68228E+08
         0.33675E+08
        -0.78246E+08
        -0.12189E+09
        -0.13242E+09
        -0.13025E+09
        -0.12227E+09
        -0.10403E+09
        -0.75831E+08
        -0.46227E+08
        -0.13123E+08
        -0.10847E+08
        -0.25504E+08
        -0.30706E+08
        -0.36338E+08
        -0.35163E+08
        -0.40884E+07
         0.22360E+08
         0.35391E+08
         0.48544E+08
         0.51695E+08
         0.42523E+08
        -0.59238E+07
        -0.44826E+06
         0.47968E+07
         0.19725E+08
         0.19128E+08
         0.31569E+08
         0.48604E+07
        -0.43991E+07
         0.16035E+08
         0.83745E+07
        -0.96752E+07
        -0.63152E+07
         0.30723E+08
        -0.44071E+08
        -0.11436E+09
         0.31848E+08
         0.55665E+08
         0.19310E+08
         0.53750E+08
         0.64501E+08
         0.45807E+07
        -0.16278E+08
        -0.16990E+07
         0.23048E+08
         0.16884E+08
         0.14868E+08
        -0.10023E+09
        -0.13614E+09
        -0.99374E+08
        -0.33140E+08
         0.33087E+08
         0.13420E+08
         0.41931E+08
         0.52517E+08
         0.22550E+08
         0.17919E+08
         0.25213E+08
        -0.13835E+09
        -0.13750E+09
        -0.12469E+09
        -0.11232E+09
        -0.88891E+08
        -0.57872E+08
        -0.12361E+08
        -0.16824E+08
        -0.24894E+08
         0.21648E+06
         0.32151E+08
         0.41096E+08
         0.33973E+08
         0.28742E+08
         0.36688E+08
         0.28630E+08
         0.16666E+08
         0.68548E+08
         0.72697E+08
         0.93147E+08
         0.59217E+08
        -0.65985E+08
        -0.12025E+09
        -0.13323E+09
        -0.12979E+09
        -0.12198E+09
        -0.10447E+09
        -0.83937E+08
        -0.67471E+08
        -0.37740E+08
        -0.23468E+08
        -0.32370E+08
        -0.43042E+08
        -0.56427E+08
        -0.63490E+08
        -0.42029E+08
        -0.20578E+08
        -0.89643E+07
         0.74179E+07
         0.14860E+08
         0.13920E+08
        -0.84891E+07
        -0.64682E+07
        -0.87373E+07
         0.94177E+07
        -0.16629E+08
        -0.57483E+07
        -0.40153E+07
        -0.10753E+08
         0.14262E+08
         0.42885E+07
        -0.20282E+08
        -0.15107E+08
         0.20284E+08
        -0.50842E+08
        -0.11051E+09
         0.24814E+08
         0.48312E+08
         0.16566E+08
         0.40583E+08
         0.46214E+08
        -0.13622E+07
        -0.26333E+08
        -0.12160E+08
         0.83210E+07
         0.99117E+07
        -0.22559E+07
        -0.98831E+08
        -0.12690E+09
        -0.90361E+08
        -0.45236E+08
         0.11152E+08
        -0.15109E+08
         0.15673E+08
         0.97314E+07
        -0.19645E+08
        -0.48731E+07
         0.14506E+08
        -0.13424E+09
        -0.13104E+09
        -0.11622E+09
        -0.10277E+09
        -0.81637E+08
        -0.61235E+08
        -0.30587E+08
        -0.47875E+08
        -0.68845E+08
        -0.53233E+08
        -0.28145E+08
        -0.28399E+08
        -0.42906E+08
        -0.51664E+08
        -0.18936E+08
        -0.20861E+08
        -0.29066E+08
         0.25525E+08
         0.65968E+08
         0.10113E+09
         0.71722E+08
        -0.56029E+08
        -0.11720E+09
        -0.12904E+09
        -0.12388E+09
        -0.11268E+09
        -0.94407E+08
        -0.83102E+08
        -0.70363E+08
        -0.41193E+08
        -0.31623E+08
        -0.49201E+08
        -0.73365E+08
        -0.97258E+08
        -0.10803E+09
        -0.10281E+09
        -0.10105E+09
        -0.10188E+09
        -0.87746E+08
        -0.64532E+08
        -0.42962E+08
        -0.35366E+08
        -0.41486E+08
        -0.60154E+08
        -0.27487E+08
        -0.11289E+09
        -0.12107E+09
        -0.37769E+08
        -0.43171E+08
        -0.11785E+08
        -0.28538E+08
        -0.52879E+08
        -0.44321E+08
        -0.16259E+08
        -0.79394E+08
        -0.92241E+08
         0.36255E+03
         0.14158E+08
        -0.36179E+07
         0.41053E+07
        -0.39107E+07
        -0.13703E+08
        -0.41841E+08
        -0.33672E+08
        -0.25967E+08
        -0.31032E+08
        -0.36621E+08
        -0.11970E+09
        -0.11919E+09
        -0.95984E+08
        -0.82048E+08
        -0.37802E+08
        -0.68122E+08
        -0.43593E+08
        -0.80357E+08
        -0.94384E+08
        -0.77304E+08
        -0.35269E+08
        -0.12160E+09
        -0.12547E+09
        -0.11646E+09
        -0.10710E+09
        -0.91048E+08
        -0.75144E+08
        -0.59741E+08
        -0.83831E+08
        -0.10797E+09
        -0.12025E+09
        -0.12755E+09
        -0.13809E+09
        -0.14393E+09
        -0.14678E+09
        -0.13520E+09
        -0.94140E+08
        -0.11787E+09
        -0.53782E+08
         0.64158E+07
         0.68268E+08
         0.35627E+08
        -0.58644E+08
        -0.11399E+09
        -0.13019E+09
        -0.12924E+09
        -0.11839E+09
        -0.10174E+09
        -0.83045E+08
        -0.49473E+08
        -0.17148E+08
        -0.31378E+08
        -0.63890E+08
        -0.89014E+08
        -0.11202E+09
        -0.12210E+09
        -0.12971E+09
        -0.14094E+09
        -0.15310E+09
        -0.15705E+09
        -0.15108E+09
        -0.14092E+09
        -0.20875E+08
        -0.23227E+08
        -0.30663E+08
         0.95885E+05
        -0.81208E+08
        -0.97015E+08
        -0.29434E+08
        -0.45181E+08
        -0.81870E+07
        -0.52488E+08
        -0.49673E+08
        -0.30371E+08
        -0.38680E+07
        -0.87334E+08
        -0.72943E+08
         0.12700E+08
        -0.79476E+07
         0.22256E+08
         0.51442E+07
        -0.43044E+08
         0.31058E+08
        -0.10416E+08
         0.30276E+08
         0.63743E+07
        -0.86890E+08
        -0.13801E+08
        -0.12933E+09
        -0.11321E+09
        -0.91395E+08
        -0.96271E+08
        -0.49174E+08
        -0.77765E+08
        -0.45975E+08
        -0.67649E+08
        -0.48634E+08
        -0.24776E+08
        -0.10639E+08
        -0.10245E+09
        -0.10821E+09
        -0.10012E+09
        -0.89267E+08
        -0.76152E+08
        -0.56070E+08
         0.31818E+07
        -0.40179E+08
        -0.81281E+08
        -0.12206E+09
        -0.15058E+09
        -0.15500E+09
        -0.14451E+09
        -0.13822E+09
        -0.11174E+09
        -0.54838E+08
        -0.12747E+09
        -0.11996E+08
         0.21027E+08
         0.53149E+08
         0.14580E+08
        -0.51460E+08
        -0.95464E+08
        -0.11259E+09
        -0.10906E+09
        -0.94797E+08
        -0.73436E+08
        -0.34590E+08
         0.30294E+08
         0.74884E+08
         0.76729E+08
         0.42757E+08
        -0.14200E+08
        -0.72444E+08
        -0.11225E+09
        -0.13315E+09
        -0.14561E+09
        -0.15460E+09
        -0.15454E+09
        -0.14774E+09
        -0.14168E+09
         0.10522E+09
         0.10927E+09
         0.11480E+09
         0.11581E+09
         0.87586E+08
         0.60513E+08
         0.86521E+08
         0.69085E+08
         0.89891E+08
         0.28127E+08
         0.60080E+08
         0.57515E+08
         0.10621E+09
         0.13065E+08
        -0.54979E+08
         0.73304E+08
         0.37820E+08
         0.11073E+09
         0.38242E+08
        -0.89475E+07
         0.42610E+08
         0.16980E+08
         0.45126E+08
         0.40571E+08
        -0.59959E+08
         0.37473E+08
        -0.10558E+09
        -0.14032E+09
        -0.10061E+09
        -0.10433E+09
         0.21080E+08
         0.36704E+07
         0.41459E+08
         0.49832E+08
         0.10001E+09
         0.11536E+09
         0.12070E+09
        -0.10205E+09
        -0.95892E+08
        -0.76923E+08
        -0.57385E+08
        -0.53595E+08
        -0.29875E+08
         0.34414E+08
         0.68225E+07
        -0.31882E+08
        -0.63835E+08
        -0.86015E+08
        -0.70184E+08
        -0.40905E+08
        -0.29794E+08
         0.14525E+08
         0.94398E+08
         0.42536E+08
         0.12618E+09
         0.13891E+09
         0.11075E+09
         0.36607E+08
        -0.35806E+08
        -0.70638E+08
        -0.73470E+08
        -0.58204E+08
        -0.41788E+08
        -0.21748E+08
         0.16942E+08
         0.56368E+08
         0.69508E+08
         0.67008E+08
         0.54134E+08
         0.19664E+08
        -0.35243E+08
        -0.83143E+08
        -0.10135E+09
        -0.94000E+08
        -0.79328E+08
        -0.64522E+08
        -0.50824E+08
        -0.27193E+08
         0.12304E+09
         0.12741E+09
         0.12913E+09
         0.11794E+09
         0.10928E+09
         0.88286E+08
         0.10472E+09
         0.93163E+08
         0.10023E+09
         0.49282E+08
         0.80970E+08
         0.67843E+08
         0.10135E+09
         0.49572E+08
        -0.76805E+07
         0.65917E+08
         0.44844E+08
         0.10563E+09
         0.35472E+08
        -0.81351E+07
         0.25083E+08
        -0.72733E+07
         0.31301E+08
         0.34414E+08
        -0.43538E+08
         0.31287E+08
        -0.37258E+08
        -0.13679E+09
        -0.12290E+09
        -0.10056E+09
         0.16822E+08
        -0.95320E+06
         0.36675E+08
         0.50490E+08
         0.11889E+09
         0.12917E+09
         0.12766E+09
        -0.80090E+08
        -0.86681E+08
        -0.78782E+08
        -0.69000E+08
        -0.77068E+08
        -0.54987E+08
         0.22729E+08
        -0.32209E+07
        -0.41360E+08
        -0.67124E+08
        -0.81902E+08
        -0.54956E+08
        -0.21122E+08
        -0.39674E+07
         0.39442E+08
         0.11423E+09
         0.78086E+08
         0.13246E+09
         0.13702E+09
         0.11636E+09
         0.64170E+08
        -0.16528E+08
        -0.42993E+08
        -0.46211E+08
        -0.44316E+08
        -0.50385E+08
        -0.52593E+08
        -0.31096E+08
         0.57483E+07
         0.32543E+08
         0.40435E+08
         0.32321E+08
         0.37342E+06
        -0.53594E+08
        -0.97785E+08
        -0.10587E+09
        -0.85372E+08
        -0.59721E+08
        -0.32912E+08
         0.62798E+06
         0.48833E+08
  
SCALARS                      stress_xz  double 1
LOOKUP_TABLE default
         0.20541E+09
         0.22108E+09
         0.21238E+09
         0.20183E+09
        -0.10908E+01
         0.90911E+01
         0.50113E+01
         0.41264E+01
         0.15750E+09
         0.13865E+09
        -0.13023E+01
         0.54473E+01
         0.21998E+09
         0.21128E+09
        -0.18270E+01
         0.33406E+01
         0.18258E+09
         0.19643E+09
        -0.97511E+00
         0.26402E+01
         0.22378E+09
         0.23431E+09
         0.22363E+09
        -0.18236E+01
         0.59015E+01
         0.51466E+01
         0.21389E+09
         0.22131E+09
        -0.24367E+01
         0.54464E+01
         0.14731E+09
         0.15628E+09
         0.15679E+09
        -0.61651E+00
        -0.15376E+00
         0.73356E+00
         0.13153E+09
         0.14250E+09
        -0.10965E+01
        -0.10953E+01
         0.90570E+08
         0.72830E+08
        -0.18710E+01
        -0.22673E+01
         0.82581E+08
         0.12338E+09
        -0.24891E+01
        -0.11608E+01
         0.15766E+09
        -0.15923E+01
         0.13430E+09
        -0.89154E+00
         0.17680E+09
        -0.16402E+01
         0.10366E+09
        -0.15088E+01
         0.30925E+08
         0.15843E+09
        -0.37959E+01
         0.48271E+01
         0.12494E+09
         0.15053E+09
        -0.58836E+00
         0.21163E+01
         0.97861E+08
        -0.13417E+01
         0.12718E+09
        -0.20355E+01
         0.13142E+09
         0.17823E+09
        -0.72053E+00
         0.54233E+01
         0.21418E+09
        -0.51432E+00
         0.14508E+09
        -0.20917E+01
        -0.55434E+08
        -0.25597E+01
        -0.80527E+08
        -0.26841E+01
        -0.79494E+08
        -0.44062E+08
        -0.19696E+01
         0.16289E+01
         0.15183E+08
        -0.23994E+01
         0.59377E+08
        -0.30691E+01
         0.54400E+08
        -0.38395E+01
         0.45924E+08
         0.11551E+09
        -0.33690E+01
         0.49959E+01
         0.49401E+08
        -0.17512E+01
        -0.32915E+08
        -0.29464E+01
        -0.41386E+08
        -0.39201E+01
        -0.57386E+08
         0.33977E+08
        -0.36071E+01
         0.47133E+01
         0.88100E+08
         0.12695E+09
        -0.12783E+01
         0.89802E+01
         0.84790E+08
        -0.62119E+00
         0.15009E+09
        -0.25001E+00
         0.18160E+09
        -0.61081E+00
         0.21452E+09
        -0.40149E+00
         0.17848E+09
         0.15503E+00
        -0.44886E+07
        -0.78767E+00
        -0.96297E+08
        -0.12291E+01
        -0.22159E+09
        -0.10939E+01
        -0.95060E+08
        -0.22383E+00
        -0.71815E+08
        -0.13870E+01
        -0.48935E+08
        -0.28786E+01
        -0.18042E+07
        -0.30078E+01
         0.24571E+08
        -0.40202E+01
         0.55762E+07
        -0.50995E+01
        -0.24209E+08
        -0.57982E+01
        -0.54218E+08
        -0.74096E+01
        -0.84547E+08
        -0.75804E+01
        -0.13992E+09
        -0.54128E+01
        -0.20536E+09
        -0.48444E+01
        -0.16490E+09
        -0.56743E+01
        -0.11641E+09
        -0.58151E+01
        -0.12159E+09
        -0.53538E+01
        -0.10417E+09
        -0.21581E+01
        -0.25640E+08
        -0.68954E+00
         0.19716E+09
         0.19616E+09
         0.17640E+09
         0.14827E+09
         0.14664E+09
         0.91274E+08
         0.20146E+09
         0.19916E+09
         0.19525E+09
         0.18530E+09
         0.18822E+09
         0.14801E+09
         0.17796E+09
         0.16429E+09
         0.65610E+08
         0.18099E+09
         0.19107E+09
         0.16054E+09
         0.18639E+09
         0.18794E+09
         0.18829E+09
         0.12271E+09
         0.20311E+09
         0.19026E+09
         0.16461E+09
         0.18534E+09
         0.10427E+09
         0.51169E+08
        -0.16890E+08
         0.98070E+08
         0.19088E+09
         0.20529E+09
         0.15186E+09
         0.99139E+08
         0.14848E+09
         0.16349E+09
         0.17606E+09
        -0.31500E+08
        -0.86149E+08
        -0.12303E+09
        -0.13693E+09
        -0.79804E+08
         0.31705E+06
         0.19749E+09
         0.19697E+09
         0.18934E+09
         0.18608E+09
         0.15636E+09
         0.10634E+09
         0.59941E+08
         0.25494E+08
         0.35971E+08
         0.12057E+09
         0.98038E+08
         0.12821E+09
         0.12416E+09
         0.75827E+08
        -0.51078E+08
        -0.15855E+09
        -0.20132E+09
        -0.22687E+09
        -0.22993E+09
        -0.19522E+09
        -0.13836E+09
        -0.70291E+08
         0.83544E+08
         0.19765E+09
         0.22166E+09
         0.19911E+09
         0.17196E+09
         0.16964E+09
         0.15826E+09
         0.12518E+09
         0.82291E+08
         0.31509E+08
        -0.10942E+08
        -0.26164E+08
         0.12853E+08
        -0.16150E+09
        -0.18224E+09
        -0.19635E+09
        -0.19734E+09
        -0.20520E+09
        -0.18109E+09
        -0.14813E+09
        -0.14351E+09
        -0.17477E+09
        -0.15612E+09
        -0.11665E+09
        -0.10420E+09
        -0.14229E+09
        -0.98212E+08
        -0.78569E+08
        -0.17599E+09
        -0.17198E+09
        -0.16249E+09
        -0.14060E+09
        -0.13893E+09
         0.51830E+08
        -0.10940E+08
        -0.71440E+05
        -0.12801E+09
        -0.14950E+09
        -0.17187E+09
        -0.87128E+08
        -0.86486E+08
        -0.86849E+08
        -0.85506E+08
        -0.15505E+09
        -0.16699E+09
        -0.15170E+09
        -0.15708E+09
        -0.20252E+09
        -0.19092E+09
        -0.17854E+09
        -0.79859E+08
        -0.95949E+08
        -0.10732E+09
        -0.10793E+09
        -0.88182E+08
        -0.61226E+08
        -0.13306E+09
        -0.16066E+09
        -0.13614E+09
        -0.93645E+08
        -0.49064E+08
        -0.68936E+08
        -0.11657E+09
        -0.14604E+09
        -0.16101E+09
        -0.20547E+09
        -0.20386E+09
        -0.19513E+09
        -0.17759E+09
        -0.14057E+09
        -0.10362E+09
        -0.76490E+08
        -0.93261E+08
        -0.13054E+09
        -0.14363E+09
         0.46372E+07
        -0.96902E+08
        -0.68200E+08
         0.86717E+06
         0.75888E+08
         0.62963E+08
        -0.66734E+08
        -0.13946E+09
        -0.12984E+09
        -0.55087E+08
        -0.18168E+08
        -0.52566E+08
        -0.11391E+09
        -0.15743E+09
        -0.17914E+09
        -0.18929E+09
        -0.19043E+09
        -0.19097E+09
        -0.18409E+09
        -0.16253E+09
        -0.16015E+09
        -0.12498E+09
        -0.18616E+09
        -0.19199E+09
        -0.18331E+09
        -0.17240E+09
        -0.17328E+09
        -0.13433E+09
        -0.16000E+09
        -0.16528E+09
        -0.10556E+09
        -0.17396E+09
        -0.14528E+09
        -0.16079E+09
        -0.13093E+09
        -0.94154E+08
        -0.10547E+08
        -0.26440E+08
        -0.59204E+08
        -0.13828E+09
        -0.15262E+09
        -0.16204E+09
        -0.13810E+09
        -0.10835E+09
        -0.89659E+08
        -0.89555E+08
        -0.10522E+09
        -0.13333E+09
        -0.90794E+08
        -0.99105E+08
        -0.17042E+09
        -0.17645E+09
        -0.17710E+09
        -0.99823E+08
        -0.10151E+09
        -0.98898E+08
        -0.94876E+08
        -0.81883E+08
        -0.59003E+08
        -0.13295E+09
        -0.13873E+09
        -0.10506E+09
        -0.60555E+08
        -0.81935E+07
        -0.73895E+07
        -0.48107E+08
        -0.78205E+08
        -0.96772E+08
        -0.16640E+09
        -0.15202E+09
        -0.17040E+09
        -0.16679E+09
        -0.14287E+09
        -0.11873E+09
        -0.97020E+08
        -0.10905E+09
        -0.12568E+09
        -0.12065E+09
        -0.10258E+09
        -0.83120E+08
        -0.55440E+08
        -0.10559E+08
         0.18385E+08
         0.84325E+06
        -0.67206E+08
        -0.11047E+09
        -0.90730E+08
        -0.15796E+08
         0.37306E+08
         0.33363E+08
        -0.29695E+08
        -0.88741E+08
        -0.11555E+09
        -0.12577E+09
        -0.78567E+08
        -0.66835E+08
        -0.27315E+08
        -0.12192E+08
         0.60815E+08
         0.10713E+09
        -0.53362E+08
        -0.35540E+08
        -0.45747E+08
        -0.55787E+07
        -0.82716E+08
        -0.86735E+08
        -0.45278E+08
        -0.90978E+08
        -0.96496E+08
        -0.68734E+08
        -0.10173E+08
        -0.62629E+08
        -0.78419E+07
        -0.32551E+07
         0.19957E+08
        -0.78463E+07
         0.20663E+08
        -0.15500E+08
        -0.20048E+08
        -0.39266E+08
        -0.79957E+08
        -0.77073E+08
        -0.71818E+08
        -0.46591E+08
         0.16272E+08
         0.24627E+08
         0.55337E+08
         0.11372E+09
         0.45107E+08
         0.13578E+08
        -0.19703E+08
        -0.98709E+08
        -0.95055E+08
        -0.87539E+08
        -0.81926E+08
        -0.67209E+08
        -0.42410E+08
         0.20310E+08
         0.57891E+08
         0.88019E+08
         0.96307E+08
         0.11601E+09
         0.14084E+09
         0.15778E+09
         0.16122E+09
         0.14512E+09
         0.68862E+08
         0.90575E+08
         0.49227E+08
         0.88436E+07
        -0.54858E+08
        -0.11611E+09
        -0.12261E+09
        -0.12524E+09
        -0.12349E+09
        -0.10958E+09
        -0.90569E+08
        -0.65741E+08
        -0.36696E+08
        -0.51587E+07
         0.15066E+08
         0.29598E+08
         0.55306E+08
         0.85212E+08
         0.10040E+09
         0.11145E+09
         0.12749E+09
         0.14746E+09
         0.16511E+09
         0.16679E+09
         0.15092E+09
         0.12159E+09
         0.84869E+08
         0.93823E+08
         0.13143E+09
         0.12150E+09
         0.14246E+09
         0.14524E+09
         0.61794E+08
         0.64605E+08
         0.56968E+08
         0.43652E+08
         0.74946E+07
        -0.79043E+08
         0.90258E+07
        -0.78477E+07
        -0.11026E+09
         0.13590E+08
         0.25612E+08
         0.49497E+08
         0.87842E+07
        -0.37562E+07
        -0.45797E+07
        -0.19405E+08
        -0.13790E+08
        -0.39491E+07
        -0.29620E+07
         0.80789E+07
        -0.45634E+08
        -0.74202E+08
        -0.73708E+08
        -0.48666E+08
         0.91855E+08
         0.11024E+09
         0.11690E+09
         0.14670E+09
         0.15152E+09
         0.13495E+09
         0.76423E+08
        -0.10724E+09
        -0.95800E+08
        -0.82059E+08
        -0.71239E+08
        -0.60095E+08
        -0.42278E+08
         0.17271E+08
         0.11669E+09
         0.14534E+09
         0.13739E+09
         0.12592E+09
         0.13267E+09
         0.15057E+09
         0.16288E+09
         0.15873E+09
         0.16203E+09
         0.14831E+09
         0.14609E+09
         0.63087E+08
        -0.48722E+08
        -0.12253E+09
        -0.13638E+09
        -0.12871E+09
        -0.11516E+09
        -0.94912E+08
        -0.72045E+08
        -0.44970E+08
        -0.23828E+08
        -0.16607E+08
        -0.20140E+08
        -0.23827E+08
         0.17862E+08
         0.12249E+09
         0.15771E+09
         0.14537E+09
         0.13332E+09
         0.14250E+09
         0.16274E+09
         0.17430E+09
         0.17347E+09
         0.15871E+09
         0.85738E+08
         0.69907E+08
         0.52345E+08
         0.31904E+08
         0.20157E+08
        -0.41795E+07
         0.48612E+08
         0.53665E+08
         0.63479E+08
         0.35520E+08
         0.11121E+08
        -0.42091E+08
         0.95926E+07
         0.83102E+06
        -0.92029E+08
         0.20683E+08
         0.24285E+08
         0.38277E+08
        -0.11493E+08
        -0.14079E+08
        -0.59468E+08
        -0.43245E+08
        -0.93149E+08
        -0.50581E+08
        -0.56239E+07
        -0.36157E+08
        -0.29896E+08
        -0.63047E+08
        -0.72461E+08
        -0.45780E+08
        -0.16606E+08
        -0.15077E+08
        -0.42079E+08
        -0.55188E+08
         0.44776E+08
         0.67761E+08
         0.46811E+08
        -0.10702E+09
        -0.91164E+08
        -0.73794E+08
        -0.61714E+08
        -0.57565E+08
        -0.50064E+08
        -0.89409E+08
        -0.38029E+08
        -0.76623E+07
        -0.11899E+08
        -0.45508E+08
        -0.67477E+08
        -0.65694E+08
        -0.54516E+08
        -0.33162E+08
         0.64072E+08
         0.28704E+08
         0.13498E+09
         0.47104E+08
        -0.19825E+08
        -0.88758E+08
        -0.11758E+09
        -0.11201E+09
        -0.96183E+08
        -0.75946E+08
        -0.56160E+08
        -0.36503E+08
        -0.26217E+08
        -0.45440E+08
        -0.83129E+08
        -0.11845E+09
        -0.10203E+09
        -0.57621E+08
        -0.21368E+08
        -0.31409E+08
        -0.64321E+08
        -0.82680E+08
        -0.77997E+08
        -0.54597E+08
        -0.90462E+07
         0.24840E+08
         0.15301E+08
         0.17941E+08
        -0.94409E+07
        -0.25494E+08
        -0.45197E+08
        -0.83614E+08
         0.17899E+08
         0.99919E+07
         0.15949E+08
         0.50553E+06
         0.90329E+07
         0.76550E+07
         0.30727E+08
        -0.77469E+07
        -0.26988E+08
         0.11535E+08
         0.16066E+07
         0.33401E+07
        -0.29003E+08
        -0.35798E+08
        -0.87061E+08
        -0.61498E+08
        -0.86783E+08
        -0.49713E+08
        -0.17802E+08
        -0.29123E+08
        -0.23489E+08
        -0.32195E+08
        -0.48873E+08
        -0.36977E+08
        -0.19538E+08
        -0.27219E+08
        -0.63973E+08
        -0.12128E+09
        -0.23658E+08
         0.64838E+07
         0.32509E+08
        -0.51700E+08
        -0.58791E+08
        -0.56179E+08
        -0.52421E+08
        -0.63987E+08
        -0.59178E+08
        -0.73493E+08
        -0.61886E+08
        -0.57491E+08
        -0.53491E+08
        -0.82218E+08
        -0.10857E+09
        -0.11884E+09
        -0.11969E+09
        -0.11184E+09
         0.71218E+07
        -0.27819E+08
         0.84084E+08
         0.67875E+08
         0.46078E+08
         0.97800E+07
        -0.44499E+08
        -0.67889E+08
        -0.62626E+08
        -0.49385E+08
        -0.40705E+08
        -0.33273E+08
        -0.47586E+08
        -0.94791E+08
        -0.12869E+09
        -0.11509E+09
        -0.84816E+08
        -0.76056E+08
        -0.71993E+08
        -0.73535E+08
        -0.94986E+08
        -0.11755E+09
        -0.12542E+09
        -0.11970E+09
        -0.97797E+08
        -0.58859E+08
        -0.44652E+07
         0.10009E+08
        -0.58371E+07
        -0.22624E+08
        -0.26854E+08
        -0.54729E+08
         0.51628E+07
        -0.18280E+08
        -0.10564E+08
        -0.32259E+08
        -0.29150E+06
         0.25485E+08
         0.35117E+08
        -0.18160E+08
         0.17063E+08
         0.78772E+07
        -0.18842E+08
        -0.18951E+07
        -0.36692E+08
        -0.34510E+08
        -0.69099E+08
        -0.25747E+08
        -0.69888E+08
        -0.45495E+08
        -0.25352E+08
        -0.18752E+08
        -0.16740E+08
         0.17317E+08
         0.33706E+08
        -0.96522E+06
        -0.17739E+07
        -0.10437E+08
        -0.38335E+08
        -0.82022E+08
         0.43135E+07
         0.23167E+08
         0.38138E+08
         0.26422E+08
         0.39224E+08
         0.46805E+08
         0.51082E+08
         0.42598E+08
         0.19313E+08
        -0.59130E+08
        -0.51593E+08
        -0.48902E+08
        -0.26857E+08
        -0.40466E+08
        -0.79021E+08
        -0.85835E+08
        -0.79860E+08
        -0.71961E+08
         0.43100E+08
        -0.38213E+07
         0.97491E+08
         0.77869E+08
         0.68719E+08
         0.63358E+08
         0.48024E+08
         0.43371E+08
         0.53193E+08
         0.62817E+08
         0.57077E+08
         0.42260E+08
         0.10745E+08
        -0.41397E+08
        -0.92139E+08
        -0.87464E+08
        -0.71893E+08
        -0.70142E+08
        -0.64374E+08
        -0.50607E+08
        -0.61915E+08
        -0.86785E+08
        -0.89182E+08
        -0.71686E+08
        -0.48438E+08
        -0.26751E+08
        -0.84568E+07
         0.63328E+07
        -0.23442E+07
        -0.18186E+08
        -0.17010E+08
        -0.42601E+08
        -0.29880E+07
        -0.28914E+08
        -0.17675E+08
        -0.43956E+08
        -0.89195E+07
         0.19350E+08
         0.22156E+08
        -0.23714E+08
         0.37728E+08
         0.87013E+07
        -0.25053E+08
         0.12969E+07
        -0.36920E+08
        -0.27122E+08
        -0.44665E+08
         0.30626E+07
        -0.63208E+08
        -0.48200E+08
        -0.23123E+08
        -0.20721E+08
        -0.10319E+08
         0.42535E+08
         0.60608E+08
         0.31492E+08
         0.43078E+07
        -0.13400E+08
        -0.27985E+08
        -0.67520E+08
         0.19089E+08
         0.27531E+08
         0.28515E+08
         0.54548E+08
         0.64762E+08
         0.69394E+08
         0.71911E+08
         0.64661E+08
         0.43594E+08
        -0.66681E+08
        -0.68526E+08
        -0.69243E+08
        -0.38956E+08
        -0.41408E+08
        -0.67327E+08
        -0.68176E+08
        -0.59646E+08
        -0.53966E+08
         0.56108E+08
         0.29178E+07
         0.85585E+08
         0.54277E+08
         0.46584E+08
         0.60746E+08
         0.86592E+08
         0.90212E+08
         0.90182E+08
         0.87889E+08
         0.76968E+08
         0.59851E+08
         0.35583E+08
        -0.67481E+06
        -0.48319E+08
        -0.77212E+08
        -0.90325E+08
        -0.98700E+08
        -0.89159E+08
        -0.72469E+08
        -0.72352E+08
        -0.78515E+08
        -0.69245E+08
        -0.48720E+08
        -0.30059E+08
        -0.17633E+08
        -0.92205E+07
         0.78871E+07
        -0.18875E+07
        -0.20955E+08
        -0.18614E+08
        -0.47097E+08
        -0.29298E+07
        -0.33716E+08
        -0.21515E+08
        -0.51805E+08
        -0.77056E+07
         0.29968E+08
         0.24760E+08
        -0.24171E+08
         0.54807E+08
         0.84013E+07
        -0.29788E+08
         0.22613E+07
        -0.34008E+08
        -0.20480E+08
        -0.25042E+08
         0.23321E+08
        -0.48218E+08
        -0.45723E+08
        -0.25274E+08
        -0.22165E+08
        -0.76809E+07
         0.50777E+08
         0.71374E+08
         0.49964E+08
         0.18498E+07
        -0.20143E+08
        -0.33419E+08
        -0.74481E+08
         0.18154E+08
         0.30668E+08
         0.30985E+08
         0.66059E+08
         0.72110E+08
         0.75646E+08
         0.80538E+08
         0.78961E+08
         0.62065E+08
        -0.56713E+08
        -0.64144E+08
        -0.70105E+08
        -0.61263E+08
        -0.62910E+08
        -0.74761E+08
        -0.75234E+08
        -0.68964E+08
        -0.62386E+08
         0.49881E+08
        -0.29384E+07
         0.78627E+08
         0.44076E+08
         0.38161E+08
         0.71362E+08
         0.11002E+09
         0.10695E+09
         0.98946E+08
         0.91747E+08
         0.84595E+08
         0.76980E+08
         0.59169E+08
         0.25607E+08
        -0.21094E+08
        -0.57989E+08
        -0.77491E+08
        -0.90926E+08
        -0.89398E+08
        -0.89130E+08
        -0.95830E+08
        -0.92324E+08
        -0.79875E+08
        -0.61937E+08
        -0.42155E+08
        -0.24801E+08
        -0.90154E+07
         0.12943E+08
        -0.30016E+06
        -0.23982E+08
        -0.20071E+08
        -0.51463E+08
         0.26127E+07
        -0.34830E+08
        -0.24058E+08
        -0.55793E+08
         0.16317E+06
         0.52466E+08
         0.45168E+08
        -0.19867E+08
         0.66151E+08
         0.78896E+07
        -0.33553E+08
         0.52079E+06
        -0.33402E+08
        -0.22696E+08
        -0.20513E+08
         0.25489E+08
        -0.37367E+08
        -0.38904E+08
        -0.27233E+08
        -0.16845E+08
        -0.16142E+07
         0.55651E+08
         0.73982E+08
         0.55320E+08
        -0.28731E+07
        -0.17054E+08
        -0.42456E+08
        -0.80834E+08
         0.17370E+08
         0.38491E+08
         0.47590E+08
         0.74089E+08
         0.78480E+08
         0.79975E+08
         0.82939E+08
         0.80730E+08
         0.64412E+08
        -0.41371E+08
        -0.46520E+08
        -0.52788E+08
        -0.51628E+08
        -0.62305E+08
        -0.76212E+08
        -0.79066E+08
        -0.75426E+08
        -0.69170E+08
         0.46675E+08
        -0.52180E+07
         0.89769E+08
         0.65206E+08
         0.67498E+08
         0.10045E+09
         0.11996E+09
         0.11488E+09
         0.10653E+09
         0.96634E+08
         0.86568E+08
         0.76971E+08
         0.60693E+08
         0.27854E+08
        -0.12706E+08
        -0.40686E+08
        -0.53216E+08
        -0.65344E+08
        -0.68038E+08
        -0.78793E+08
        -0.94096E+08
        -0.92842E+08
        -0.83827E+08
        -0.70427E+08
        -0.51027E+08
        -0.29318E+08
        -0.66603E+07
         0.15337E+08
         0.22247E+07
        -0.23021E+08
        -0.21154E+08
        -0.53634E+08
         0.23296E+07
        -0.35542E+08
        -0.22592E+08
        -0.57528E+08
        -0.29438E+06
         0.56357E+08
         0.49760E+08
        -0.20540E+08
         0.65641E+08
         0.94405E+07
        -0.33978E+08
         0.19436E+07
        -0.36442E+08
        -0.30280E+08
        -0.29666E+08
         0.11956E+08
        -0.41616E+08
        -0.39654E+08
        -0.30700E+08
        -0.14568E+08
        -0.20775E+07
         0.52425E+08
         0.65905E+08
         0.42739E+08
        -0.25783E+07
        -0.11501E+08
        -0.45231E+08
        -0.80872E+08
         0.17736E+08
         0.44586E+08
         0.54548E+08
         0.72506E+08
         0.77074E+08
         0.76771E+08
         0.74098E+08
         0.65652E+08
         0.47503E+08
        -0.40238E+08
        -0.39512E+08
        -0.39906E+08
        -0.36745E+08
        -0.52733E+08
        -0.73624E+08
        -0.79764E+08
        -0.77114E+08
        -0.70995E+08
         0.43979E+08
        -0.94591E+07
         0.10400E+09
         0.83065E+08
         0.84636E+08
         0.11537E+09
         0.11920E+09
         0.11231E+09
         0.10573E+09
         0.96172E+08
         0.77335E+08
         0.55600E+08
         0.38778E+08
         0.11342E+08
        -0.24105E+08
        -0.46160E+08
        -0.51741E+08
        -0.57977E+08
        -0.52616E+08
        -0.56282E+08
        -0.76980E+08
        -0.87339E+08
        -0.84538E+08
        -0.72971E+08
        -0.54917E+08
        -0.34970E+08
        -0.83987E+07
         0.10445E+08
        -0.20453E+07
        -0.27294E+08
        -0.23276E+08
        -0.57594E+08
        -0.31030E+07
        -0.38687E+08
        -0.21496E+08
        -0.58725E+08
        -0.63616E+07
         0.52401E+08
         0.42684E+08
        -0.28220E+08
         0.55560E+08
         0.12463E+08
        -0.30849E+08
         0.20209E+07
        -0.35354E+08
        -0.30258E+08
        -0.36454E+08
         0.57921E+07
        -0.45205E+08
        -0.37555E+08
        -0.30710E+08
        -0.98982E+07
        -0.13061E+08
         0.47545E+08
         0.63437E+08
         0.38497E+08
         0.23151E+07
        -0.37344E+07
        -0.43845E+08
        -0.83154E+08
         0.18083E+08
         0.43608E+08
         0.48979E+08
         0.59529E+08
         0.67279E+08
         0.71791E+08
         0.71057E+08
         0.61603E+08
         0.41727E+08
        -0.38975E+08
        -0.34163E+08
        -0.30958E+08
        -0.23993E+08
        -0.41945E+08
        -0.71954E+08
        -0.84011E+08
        -0.83502E+08
        -0.76111E+08
         0.45494E+08
        -0.12531E+08
         0.12065E+09
         0.91724E+08
         0.87856E+08
         0.12370E+09
         0.11354E+09
         0.97153E+08
         0.90741E+08
         0.88198E+08
         0.74611E+08
         0.52464E+08
         0.32665E+08
         0.39616E+07
        -0.33753E+08
        -0.52790E+08
        -0.52203E+08
        -0.54322E+08
        -0.43600E+08
        -0.39456E+08
        -0.60678E+08
        -0.84688E+08
        -0.91623E+08
        -0.82564E+08
        -0.64836E+08
        -0.43210E+08
        -0.11917E+08
         0.32861E+07
        -0.92838E+07
        -0.30585E+08
        -0.27421E+08
        -0.59825E+08
        -0.92861E+07
        -0.40650E+08
        -0.21223E+08
        -0.56674E+08
        -0.11947E+08
         0.42766E+08
         0.29079E+08
        -0.31857E+08
         0.48486E+08
         0.15099E+08
        -0.26619E+08
         0.16210E+07
        -0.31304E+08
        -0.22626E+08
        -0.35351E+08
         0.14007E+08
        -0.44026E+08
        -0.32418E+08
        -0.23563E+08
        -0.47646E+07
        -0.16391E+08
         0.50717E+08
         0.73979E+08
         0.56343E+08
         0.66137E+07
         0.14157E+07
        -0.39055E+08
        -0.83971E+08
         0.12318E+08
         0.31967E+08
         0.34773E+08
         0.52783E+08
         0.64070E+08
         0.76941E+08
         0.85223E+08
         0.79203E+08
         0.56849E+08
        -0.36356E+08
        -0.31138E+08
        -0.28903E+08
        -0.20061E+08
        -0.35734E+08
        -0.67374E+08
        -0.81673E+08
        -0.82352E+08
        -0.76661E+08
         0.42431E+08
        -0.14633E+08
         0.11771E+09
         0.78627E+08
         0.72467E+08
         0.12182E+09
         0.10878E+09
         0.88650E+08
         0.82920E+08
         0.90002E+08
         0.91922E+08
         0.77573E+08
         0.51775E+08
         0.14864E+08
        -0.30719E+08
        -0.51871E+08
        -0.51281E+08
        -0.54452E+08
        -0.44576E+08
        -0.38668E+08
        -0.54240E+08
        -0.79528E+08
        -0.88399E+08
        -0.80457E+08
        -0.65151E+08
        -0.44582E+08
        -0.11500E+08
         0.35102E+07
        -0.13302E+08
        -0.31273E+08
        -0.34012E+08
        -0.61829E+08
        -0.65707E+07
        -0.36058E+08
        -0.20014E+08
        -0.50883E+08
        -0.78269E+07
         0.42262E+08
         0.29270E+08
        -0.24999E+08
         0.50769E+08
         0.14344E+08
        -0.25127E+08
         0.44489E+06
        -0.31076E+08
        -0.21663E+08
        -0.35427E+08
         0.16378E+08
        -0.47565E+08
        -0.33974E+08
        -0.17434E+08
        -0.82835E+07
        -0.61881E+07
         0.62055E+08
         0.83853E+08
         0.65333E+08
         0.46305E+07
        -0.31605E+07
        -0.38375E+08
        -0.82970E+08
         0.52236E+06
         0.22035E+08
         0.32092E+08
         0.59405E+08
         0.75129E+08
         0.89615E+08
         0.98521E+08
         0.91008E+08
         0.64228E+08
        -0.43671E+08
        -0.39168E+08
        -0.34375E+08
        -0.22044E+08
        -0.34136E+08
        -0.62966E+08
        -0.75802E+08
        -0.76223E+08
        -0.74341E+08
         0.30887E+08
        -0.19271E+08
         0.99567E+08
         0.70009E+08
         0.67197E+08
         0.11567E+09
         0.10776E+09
         0.93104E+08
         0.95646E+08
         0.10548E+09
         0.10749E+09
         0.92762E+08
         0.60505E+08
         0.17785E+08
        -0.30980E+08
        -0.57527E+08
        -0.63254E+08
        -0.66556E+08
        -0.51209E+08
        -0.39417E+08
        -0.51934E+08
        -0.73195E+08
        -0.78176E+08
        -0.70095E+08
        -0.58370E+08
        -0.43738E+08
        -0.10159E+08
         0.10766E+08
        -0.73451E+07
        -0.30208E+08
        -0.29778E+08
        -0.60332E+08
         0.23526E+07
        -0.32948E+08
        -0.22854E+08
        -0.53346E+08
         0.51371E+06
         0.52313E+08
         0.45317E+08
        -0.19860E+08
         0.60526E+08
         0.62420E+07
        -0.30628E+08
        -0.39587E+07
        -0.42767E+08
        -0.32344E+08
        -0.46395E+08
         0.52334E+07
        -0.62965E+08
        -0.51446E+08
        -0.24302E+08
        -0.22895E+08
        -0.27304E+07
         0.58841E+08
         0.74793E+08
         0.49310E+08
        -0.33028E+07
        -0.14508E+08
        -0.42296E+08
        -0.83661E+08
         0.87223E+07
         0.33001E+08
         0.46921E+08
         0.69244E+08
         0.79634E+08
         0.84992E+08
         0.87042E+08
         0.77861E+08
         0.52569E+08
        -0.59106E+08
        -0.49999E+08
        -0.40248E+08
        -0.28321E+08
        -0.40684E+08
        -0.66627E+08
        -0.77268E+08
        -0.76821E+08
        -0.74212E+08
         0.40044E+08
        -0.14062E+08
         0.11602E+09
         0.88761E+08
         0.86642E+08
         0.11949E+09
         0.11515E+09
         0.10684E+09
         0.10664E+09
         0.10411E+09
         0.93857E+08
         0.75441E+08
         0.48023E+08
         0.53549E+07
        -0.46941E+08
        -0.77129E+08
        -0.80005E+08
        -0.74444E+08
        -0.52956E+08
        -0.41410E+08
        -0.58635E+08
        -0.76061E+08
        -0.78925E+08
        -0.70334E+08
        -0.56529E+08
        -0.40891E+08
        -0.13759E+08
         0.10539E+08
        -0.49178E+07
        -0.29789E+08
        -0.24225E+08
        -0.58198E+08
         0.25968E+07
        -0.37319E+08
        -0.27263E+08
        -0.60295E+08
         0.20879E+06
         0.57309E+08
         0.54349E+08
        -0.24865E+08
         0.68886E+08
        -0.14071E+07
        -0.35307E+08
        -0.75020E+07
        -0.52211E+08
        -0.38381E+08
        -0.51418E+08
        -0.27291E+07
        -0.68709E+08
        -0.64652E+08
        -0.33078E+08
        -0.33432E+08
        -0.12107E+08
         0.48259E+08
         0.61564E+08
         0.35110E+08
        -0.65765E+07
        -0.21252E+08
        -0.40509E+08
        -0.85158E+08
         0.18525E+08
         0.40833E+08
         0.55073E+08
         0.72114E+08
         0.75127E+08
         0.72774E+08
         0.69323E+08
         0.60094E+08
         0.39125E+08
        -0.64004E+08
        -0.54974E+08
        -0.46230E+08
        -0.35062E+08
        -0.44908E+08
        -0.68972E+08
        -0.79441E+08
        -0.79321E+08
        -0.75041E+08
         0.51839E+08
        -0.73503E+07
         0.13796E+09
         0.10875E+09
         0.10570E+09
         0.13045E+09
         0.12703E+09
         0.11507E+09
         0.10546E+09
         0.92277E+08
         0.72884E+08
         0.50884E+08
         0.30347E+08
        -0.65146E+07
        -0.54330E+08
        -0.81662E+08
        -0.80097E+08
        -0.74248E+08
        -0.57087E+08
        -0.46733E+08
        -0.61353E+08
        -0.75644E+08
        -0.80592E+08
        -0.74592E+08
        -0.58891E+08
        -0.37917E+08
        -0.15080E+08
         0.53343E+07
        -0.49418E+07
        -0.24388E+08
        -0.18919E+08
        -0.53002E+08
        -0.22232E+07
        -0.37218E+08
        -0.25853E+08
        -0.57984E+08
        -0.40789E+07
         0.46350E+08
         0.40996E+08
        -0.27963E+08
         0.65724E+08
         0.27344E+07
        -0.30449E+08
        -0.53188E+07
        -0.42624E+08
        -0.30357E+08
        -0.44007E+08
         0.12117E+07
        -0.56031E+08
        -0.50883E+08
        -0.30227E+08
        -0.22634E+08
        -0.19707E+08
         0.47867E+08
         0.65919E+08
         0.40788E+08
         0.51597E+07
        -0.85075E+07
        -0.24391E+08
        -0.65537E+08
         0.24596E+08
         0.34495E+08
         0.41473E+08
         0.67428E+08
         0.73780E+08
         0.75408E+08
         0.73516E+08
         0.64430E+08
         0.42629E+08
        -0.50715E+08
        -0.43086E+08
        -0.32885E+08
        -0.12225E+08
        -0.15917E+08
        -0.52417E+08
        -0.68677E+08
        -0.69518E+08
        -0.68007E+08
         0.65265E+08
         0.30560E+07
         0.13888E+09
         0.98942E+08
         0.96470E+08
         0.12652E+09
         0.12867E+09
         0.11332E+09
         0.10240E+09
         0.93381E+08
         0.76570E+08
         0.53912E+08
         0.32179E+08
        -0.50905E+07
        -0.46375E+08
        -0.66316E+08
        -0.65226E+08
        -0.63217E+08
        -0.43385E+08
        -0.21723E+08
        -0.27483E+08
        -0.47142E+08
        -0.60794E+08
        -0.60281E+08
        -0.47153E+08
        -0.27848E+08
        -0.97864E+07
         0.10808E+08
         0.16499E+08
        -0.29826E+07
         0.25967E+08
        -0.64157E+07
        -0.31216E+07
        -0.32673E+08
        -0.22018E+08
        -0.51671E+08
        -0.10345E+08
         0.22327E+08
         0.24796E+08
        -0.31065E+08
         0.34687E+08
         0.10166E+08
        -0.24603E+08
         0.21619E+07
        -0.31614E+08
        -0.21840E+08
        -0.37428E+08
         0.72730E+07
        -0.42027E+08
        -0.32509E+08
        -0.21780E+08
        -0.25197E+07
        -0.21685E+08
         0.48906E+08
         0.68240E+08
         0.48972E+08
         0.32023E+08
         0.26361E+08
         0.11516E+08
        -0.39062E+07
         0.74855E+08
         0.60239E+08
         0.40853E+08
         0.53189E+08
         0.69387E+08
         0.75959E+08
         0.76313E+08
         0.67366E+08
         0.46931E+08
        -0.27916E+08
        -0.42508E+07
         0.24710E+08
         0.57953E+08
         0.56157E+08
         0.26453E+08
         0.44848E+07
         0.26366E+07
        -0.62136E+07
         0.12541E+09
         0.48439E+08
         0.15382E+09
         0.93785E+08
         0.71142E+08
         0.88154E+08
         0.10072E+09
         0.10015E+09
         0.96136E+08
         0.91653E+08
         0.79549E+08
         0.58307E+08
         0.37520E+08
         0.32993E+07
        -0.35887E+08
        -0.48478E+08
        -0.41259E+08
        -0.25639E+08
         0.15550E+08
         0.54259E+08
         0.57730E+08
         0.37272E+08
         0.18719E+08
         0.19213E+08
         0.27850E+08
         0.27210E+08
         0.70663E+07
         0.34039E+08
         0.61512E+08
         0.31299E+08
         0.10946E+09
         0.91580E+08
         0.16138E+08
        -0.10365E+08
        -0.85274E+07
        -0.30257E+08
         0.67957E+07
         0.24691E+08
         0.35015E+08
        -0.12517E+08
         0.19108E+08
         0.25501E+08
        -0.86162E+07
         0.16632E+08
        -0.54383E+07
         0.63984E+07
        -0.10953E+07
         0.36822E+08
        -0.61471E+07
         0.15645E+07
         0.25199E+07
         0.27289E+08
        -0.70454E+07
         0.50548E+08
         0.67634E+08
         0.65332E+08
         0.65111E+08
         0.62766E+08
         0.58391E+08
         0.76255E+08
         0.12660E+09
         0.12095E+09
         0.71250E+08
         0.36637E+08
         0.56909E+08
         0.67744E+08
         0.70720E+08
         0.66366E+08
         0.56459E+08
         0.74726E+07
         0.31022E+08
         0.54622E+08
         0.85732E+08
         0.98294E+08
         0.89460E+08
         0.83264E+08
         0.80748E+08
         0.93174E+08
         0.13650E+09
         0.10386E+09
         0.12771E+09
         0.11678E+09
         0.69336E+08
         0.51886E+08
         0.58855E+08
         0.72272E+08
         0.76148E+08
         0.75788E+08
         0.71034E+08
         0.58067E+08
         0.48112E+08
         0.39821E+08
         0.18186E+08
        -0.10113E+07
        -0.46026E+07
         0.77852E+07
         0.42083E+08
         0.61241E+08
         0.60743E+08
         0.60902E+08
         0.58902E+08
         0.62091E+08
         0.71066E+08
         0.83019E+08
         0.27240E+07
         0.27357E+08
         0.43490E+08
         0.10952E+08
         0.74136E+08
         0.49027E+08
         0.23136E+08
        -0.83994E+06
        -0.65632E+07
        -0.11399E+08
         0.33813E+08
         0.62147E+08
         0.61921E+08
         0.22063E+08
         0.53405E+08
         0.56483E+07
        -0.52741E+07
         0.91314E+06
        -0.35861E+08
         0.15367E+08
        -0.33722E+08
         0.31880E+08
        -0.67222E+08
        -0.64847E+08
         0.38611E+08
        -0.42616E+08
         0.39106E+08
         0.81405E+08
         0.97745E+08
         0.91353E+08
         0.35354E+07
        -0.47494E+08
         0.71067E+06
         0.38017E+07
         0.68705E+08
         0.61906E+08
         0.75108E+08
         0.65499E+08
         0.86670E+08
         0.10270E+09
         0.10838E+09
         0.98855E+08
         0.77195E+08
        -0.79243E+08
        -0.73460E+08
        -0.54957E+08
        -0.32419E+08
        -0.17098E+08
        -0.19262E+08
        -0.15162E+08
        -0.47206E+07
         0.16699E+08
         0.84647E+08
         0.99160E+08
         0.71007E+08
         0.95045E+08
         0.89796E+08
         0.87785E+08
         0.89382E+08
         0.94324E+08
         0.10511E+09
         0.11597E+09
         0.11493E+09
         0.96049E+08
         0.65894E+08
         0.22084E+08
        -0.29172E+08
        -0.72245E+08
        -0.92264E+08
        -0.79022E+08
        -0.52125E+08
        -0.34625E+08
        -0.35396E+08
        -0.32494E+08
        -0.26187E+08
        -0.11880E+08
         0.14246E+08
         0.54534E+08
        -0.13012E+09
        -0.12390E+09
        -0.11782E+09
        -0.12443E+09
        -0.11833E+09
        -0.14147E+09
        -0.14206E+09
        -0.15401E+09
        -0.13758E+09
        -0.15649E+09
        -0.15018E+09
        -0.69279E+08
        -0.93379E+08
        -0.16294E+09
         0.25594E+08
        -0.15135E+09
        -0.15212E+09
        -0.12415E+09
        -0.16554E+09
        -0.16340E+09
        -0.15362E+09
        -0.11535E+09
        -0.16610E+09
        -0.16629E+09
        -0.15157E+09
        -0.16617E+09
        -0.11178E+09
         0.19999E+08
         0.71950E+08
        -0.75474E+08
        -0.17074E+09
        -0.16822E+09
        -0.16421E+09
        -0.16754E+09
        -0.11759E+09
        -0.10975E+09
        -0.93309E+08
         0.10114E+09
         0.12692E+09
         0.13299E+09
         0.12690E+09
         0.79912E+08
        -0.17661E+08
        -0.16648E+09
        -0.16288E+09
        -0.15648E+09
        -0.15501E+09
        -0.15426E+09
        -0.15951E+09
        -0.17054E+09
        -0.17472E+09
        -0.17104E+09
        -0.11459E+09
        -0.10072E+09
        -0.85281E+08
        -0.12153E+07
         0.72069E+08
         0.12380E+09
         0.14918E+09
         0.16021E+09
         0.17203E+09
         0.17189E+09
         0.14718E+09
         0.85611E+08
        -0.25954E+08
        -0.12641E+09
        -0.16278E+09
        -0.17297E+09
        -0.17131E+09
        -0.16203E+09
        -0.15119E+09
        -0.14275E+09
        -0.14447E+09
        -0.15164E+09
        -0.16281E+09
        -0.17038E+09
        -0.16473E+09
        -0.12646E+09
        -0.12952E+09
        -0.11935E+09
        -0.11825E+09
        -0.11773E+09
        -0.12521E+09
        -0.14644E+09
        -0.13377E+09
        -0.15506E+09
        -0.13895E+09
        -0.15649E+09
        -0.14181E+09
        -0.93273E+08
        -0.83896E+08
        -0.14666E+09
        -0.46290E+08
        -0.14420E+09
        -0.15122E+09
        -0.11941E+09
        -0.15840E+09
        -0.15194E+09
        -0.15712E+09
        -0.12575E+09
        -0.16899E+09
        -0.16330E+09
        -0.14919E+09
        -0.16226E+09
        -0.10445E+09
        -0.65262E+07
         0.47531E+08
        -0.96542E+08
        -0.16224E+09
        -0.16769E+09
        -0.13928E+09
        -0.14226E+09
        -0.12636E+09
        -0.11203E+09
        -0.89692E+08
         0.85295E+08
         0.14089E+09
         0.14224E+09
         0.12145E+09
         0.46632E+08
        -0.58580E+08
        -0.16881E+09
        -0.16842E+09
        -0.16835E+09
        -0.16810E+09
        -0.16197E+09
        -0.14931E+09
        -0.15492E+09
        -0.16808E+09
        -0.16652E+09
        -0.12874E+09
        -0.11033E+09
        -0.99515E+08
        -0.40280E+08
         0.11407E+08
         0.63869E+08
         0.13267E+09
         0.16534E+09
         0.18856E+09
         0.18862E+09
         0.14631E+09
         0.48122E+08
        -0.76967E+08
        -0.15330E+09
        -0.17730E+09
        -0.18241E+09
        -0.17912E+09
        -0.17361E+09
        -0.16831E+09
        -0.16570E+09
        -0.16416E+09
        -0.15924E+09
        -0.16387E+09
        -0.17790E+09
        -0.18586E+09
        -0.15690E+09
  
SCALARS                      stress_xy  double 1
LOOKUP_TABLE default
        -0.21897E+08
         0.61168E+07
         0.58548E+08
         0.10701E+08
        -0.52465E+01
         0.28220E+01
         0.72987E+01
        -0.17904E+00
         0.12034E+09
         0.64684E+08
         0.10919E+02
         0.12399E+02
        -0.20145E+08
        -0.16204E+08
         0.22097E+01
        -0.36693E+01
        -0.16011E+08
        -0.20909E+08
        -0.41115E+01
        -0.34864E+01
        -0.25825E+08
        -0.28292E+08
        -0.14252E+08
        -0.16817E+00
        -0.83037E+01
        -0.17211E+01
        -0.15276E+08
        -0.26539E+08
         0.14452E+01
        -0.62654E+01
         0.17563E+08
        -0.38135E+08
        -0.64888E+07
         0.28570E+00
        -0.17864E+01
        -0.35551E+01
         0.20191E+08
        -0.35347E+08
         0.13380E+01
        -0.31136E+01
         0.90944E+08
         0.11917E+09
         0.32420E+01
         0.28201E+01
         0.77387E+08
         0.64056E+08
         0.45269E+01
         0.40663E+01
        -0.41009E+08
        -0.20157E+01
         0.60338E+08
         0.51908E+01
        -0.17114E+08
         0.14649E+01
         0.43091E+07
         0.81435E+00
         0.84882E+08
        -0.14191E+07
         0.54906E+01
        -0.23660E+01
         0.13969E+07
         0.29512E+08
        -0.16284E+01
         0.59067E+01
        -0.68914E+07
        -0.32018E+01
         0.79861E+07
         0.15368E+00
         0.15215E+09
         0.12626E+09
         0.18276E+02
         0.11626E+02
         0.60885E+08
         0.13021E+02
        -0.44394E+08
         0.32496E+01
         0.65412E+08
         0.40692E+01
         0.13269E+09
         0.10390E+02
         0.15393E+09
         0.14557E+09
         0.14397E+02
         0.12619E+02
         0.15032E+09
         0.35570E+01
         0.66635E+08
         0.66170E+01
         0.59111E+08
         0.56857E+01
         0.25998E+08
        -0.27567E+08
         0.12170E+01
         0.87206E+01
        -0.35027E+08
        -0.44557E+01
        -0.20732E+08
        -0.68206E+00
        -0.10877E+08
         0.27483E+01
        -0.18232E+08
         0.68363E+07
         0.46739E+01
         0.66308E+01
         0.15483E+09
         0.76904E+08
         0.38789E+02
         0.32835E+02
         0.17255E+09
         0.17864E+02
         0.13541E+09
         0.11943E+02
         0.51020E+07
         0.11678E+02
        -0.36308E+08
         0.84746E+01
        -0.70812E+08
         0.45720E+01
        -0.13774E+09
         0.34271E+01
        -0.11518E+09
         0.42024E+01
         0.14076E+09
         0.11261E+02
         0.17578E+09
         0.27159E+02
         0.15873E+09
         0.23106E+02
         0.14725E+09
         0.11970E+02
         0.16211E+09
         0.93569E+01
         0.10397E+09
         0.94285E+01
         0.53049E+08
         0.86705E+01
         0.26272E+08
         0.80364E+01
         0.47034E+08
         0.93816E+01
         0.52524E+08
        -0.78544E+01
         0.26997E+08
        -0.12209E+02
         0.36298E+08
        -0.74465E+01
         0.12388E+08
        -0.44669E+01
        -0.15050E+08
        -0.60229E+00
        -0.30042E+08
         0.12335E+02
        -0.23184E+08
         0.19325E+02
         0.11340E+08
         0.17333E+02
         0.38766E+08
         0.27828E+08
         0.35983E+08
        -0.18749E+08
         0.13565E+08
        -0.10767E+09
         0.32569E+07
         0.17899E+08
         0.37038E+08
        -0.33074E+07
        -0.20416E+08
        -0.65368E+08
        -0.42214E+08
        -0.19935E+08
        -0.57170E+08
         0.20815E+08
        -0.30376E+08
         0.27360E+08
         0.22315E+08
         0.27368E+08
         0.10123E+09
         0.16498E+09
         0.56057E+08
         0.43821E+08
        -0.16718E+08
         0.26417E+08
        -0.28848E+08
         0.49939E+07
         0.76199E+08
         0.81035E+08
         0.10413E+08
         0.46912E+07
        -0.46661E+08
        -0.12518E+09
         0.45608E+08
         0.34006E+08
        -0.30563E+07
        -0.29650E+08
         0.12713E+08
         0.60114E+08
         0.87242E+08
         0.11710E+09
         0.15443E+09
         0.11377E+08
        -0.20103E+08
        -0.13805E+08
        -0.33015E+06
        -0.20336E+08
        -0.74527E+08
        -0.12310E+09
        -0.14908E+09
        -0.15736E+09
         0.42172E+08
         0.11238E+08
         0.10678E+08
        -0.39316E+08
        -0.10196E+09
        -0.11876E+09
        -0.65637E+08
        -0.21293E+08
         0.86171E+07
         0.39195E+08
         0.69316E+08
         0.98807E+08
         0.14371E+09
         0.19290E+09
         0.12433E+09
         0.47635E+08
        -0.20164E+08
        -0.44950E+08
        -0.83120E+07
         0.75952E+07
        -0.28371E+08
        -0.86568E+08
        -0.12270E+09
        -0.15191E+09
        -0.15875E+09
        -0.10609E+09
         0.10312E+09
         0.35788E+08
        -0.20149E+08
        -0.33072E+08
        -0.53254E+08
        -0.99423E+08
         0.36623E+08
         0.63536E+08
         0.67172E+08
         0.93910E+07
        -0.62740E+07
        -0.39121E+08
        -0.40091E+08
        -0.66183E+07
        -0.17690E+08
         0.14518E+08
        -0.56082E+08
         0.55603E+08
        -0.13364E+08
         0.12634E+09
         0.15685E+09
         0.19393E+09
         0.63453E+08
         0.68536E+07
         0.58597E+08
         0.67098E+07
         0.49460E+07
         0.63754E+08
         0.11497E+09
         0.14293E+09
         0.48093E+08
         0.22368E+08
        -0.24380E+08
        -0.10638E+09
        -0.42256E+08
        -0.48144E+08
        -0.46381E+08
         0.13298E+08
         0.51827E+08
         0.87575E+08
         0.10574E+09
         0.13374E+09
         0.16594E+09
        -0.24181E+08
        -0.29874E+08
        -0.14308E+08
         0.99863E+07
        -0.10501E+08
        -0.69516E+08
        -0.11544E+09
        -0.12903E+09
        -0.12456E+09
        -0.43528E+08
        -0.45599E+08
        -0.64102E+08
        -0.70871E+08
        -0.73322E+08
        -0.52175E+08
        -0.21226E+08
         0.82180E+07
         0.37302E+08
         0.58969E+08
         0.23160E+08
         0.11515E+09
         0.15368E+09
         0.18225E+09
         0.15401E+09
         0.79896E+08
        -0.32103E+08
        -0.64388E+08
        -0.30578E+08
        -0.13343E+08
        -0.52626E+08
        -0.10679E+09
        -0.13079E+09
        -0.13300E+09
        -0.11821E+09
        -0.84933E+08
         0.12137E+08
        -0.15400E+08
        -0.49956E+08
         0.55199E+07
        -0.67938E+08
        -0.46465E+08
         0.78814E+07
        -0.83618E+07
        -0.77805E+07
        -0.32004E+08
         0.56707E+07
         0.10118E+08
        -0.89984E+07
        -0.25769E+07
         0.26107E+08
         0.36113E+07
        -0.38911E+08
         0.43660E+08
         0.32058E+07
         0.10696E+09
         0.13695E+09
         0.18570E+09
         0.79802E+08
         0.11946E+08
         0.59684E+08
         0.32598E+08
         0.30896E+08
         0.96675E+08
         0.13470E+09
         0.16017E+09
         0.86629E+08
         0.86445E+08
         0.57211E+08
        -0.10349E+08
        -0.95249E+08
        -0.87115E+08
        -0.52088E+08
         0.56852E+08
         0.89498E+08
         0.11345E+09
         0.12455E+09
         0.14699E+09
         0.17380E+09
         0.54418E+08
         0.65730E+08
         0.75662E+08
         0.89119E+08
         0.70444E+08
         0.24479E+08
        -0.30780E+08
        -0.55131E+08
        -0.50737E+08
        -0.11317E+09
        -0.75825E+08
        -0.10094E+09
        -0.69649E+08
        -0.31331E+08
         0.95806E+07
         0.38265E+08
         0.63739E+08
         0.88690E+08
         0.98766E+08
         0.10658E+09
         0.12914E+09
         0.15782E+09
         0.16450E+09
         0.14347E+09
         0.11758E+09
         0.71777E+08
         0.40276E+08
         0.51977E+08
         0.52837E+08
         0.21400E+08
        -0.24650E+08
        -0.63515E+08
        -0.66094E+08
        -0.47490E+08
        -0.35590E+08
        -0.21680E+08
         0.19773E+07
        -0.30223E+08
         0.33557E+08
        -0.10283E+08
         0.43014E+08
         0.32814E+08
        -0.21869E+08
        -0.44599E+08
        -0.25261E+08
         0.36045E+08
         0.41620E+08
         0.44052E+08
         0.12867E+08
         0.42740E+08
        -0.43188E+08
        -0.22380E+08
        -0.41971E+06
         0.84574E+07
         0.94511E+08
         0.11488E+09
         0.17294E+09
         0.76986E+08
         0.45693E+07
         0.52378E+08
         0.36782E+08
         0.52521E+08
         0.11338E+09
         0.14463E+09
         0.16143E+09
         0.95007E+08
         0.13293E+09
         0.80242E+08
         0.64637E+08
        -0.56798E+08
        -0.49899E+08
         0.19950E+07
         0.71795E+08
         0.10062E+09
         0.12121E+09
         0.13145E+09
         0.15084E+09
         0.17130E+09
         0.10891E+09
         0.14511E+09
         0.12960E+09
         0.12594E+09
         0.10758E+09
         0.84468E+08
         0.60585E+08
         0.46664E+08
         0.48859E+08
        -0.66855E+08
        -0.98315E+07
        -0.46796E+08
        -0.11204E+08
         0.17179E+08
         0.29052E+08
         0.46414E+08
         0.73599E+08
         0.99782E+08
         0.10963E+09
         0.11705E+09
         0.13202E+09
         0.14534E+09
         0.14799E+09
         0.13267E+09
         0.12737E+09
         0.13748E+09
         0.12241E+09
         0.93182E+08
         0.72242E+08
         0.53219E+08
         0.41910E+08
         0.34871E+08
         0.35426E+08
         0.43309E+08
         0.42324E+08
        -0.27229E+08
         0.33908E+08
         0.57213E+08
         0.30999E+08
         0.88384E+08
         0.95160E+08
         0.23287E+08
        -0.15273E+08
        -0.43664E+08
        -0.12795E+08
         0.13066E+08
         0.19408E+08
         0.47493E+08
         0.39673E+07
         0.31805E+08
        -0.75076E+08
        -0.10971E+08
        -0.63410E+08
        -0.64847E+07
         0.76295E+08
         0.79090E+08
         0.14764E+09
         0.33857E+08
        -0.35375E+08
         0.43262E+08
        -0.21727E+08
         0.52010E+08
         0.11503E+09
         0.14437E+09
         0.14014E+09
         0.57967E+08
         0.95372E+08
         0.73317E+08
         0.89012E+08
         0.62022E+08
         0.55370E+08
         0.60985E+08
         0.73106E+08
         0.10169E+09
         0.11980E+09
         0.12793E+09
         0.14484E+09
         0.15891E+09
         0.76703E+08
         0.11665E+09
         0.87830E+08
         0.91620E+08
         0.10788E+09
         0.11082E+09
         0.98120E+08
         0.84062E+08
         0.86647E+08
         0.47801E+08
         0.82551E+08
         0.29365E+08
         0.41015E+08
         0.26190E+08
         0.24366E+07
         0.26291E+08
         0.64916E+08
         0.93403E+08
         0.10520E+09
         0.11360E+09
         0.12197E+09
         0.12539E+09
         0.12265E+09
         0.10518E+09
         0.10241E+09
         0.13536E+09
         0.12220E+09
         0.58206E+08
         0.55868E+08
         0.90279E+08
         0.10392E+09
         0.87210E+08
         0.68892E+08
         0.65485E+08
         0.78839E+08
        -0.33741E+08
         0.24032E+08
         0.94020E+08
         0.10826E+08
         0.15997E+09
         0.15250E+09
        -0.77438E+07
        -0.19906E+08
        -0.40385E+08
        -0.12861E+07
        -0.29957E+08
        -0.41824E+08
        -0.32877E+07
        -0.18073E+08
        -0.10281E+08
        -0.82281E+08
         0.54865E+07
        -0.77705E+08
        -0.33194E+08
         0.60367E+08
        -0.38395E+07
         0.95052E+08
        -0.54883E+08
        -0.89608E+08
         0.44441E+08
        -0.63044E+08
         0.39445E+08
         0.10305E+09
         0.13665E+09
         0.10964E+09
        -0.16277E+08
         0.17472E+07
         0.13675E+08
         0.10412E+09
         0.15259E+09
         0.11067E+09
         0.39446E+08
         0.64826E+08
         0.10118E+09
         0.11672E+09
         0.12152E+09
         0.13582E+09
         0.13806E+09
        -0.20005E+08
         0.30875E+08
         0.45000E+08
         0.63984E+08
         0.77886E+08
         0.92091E+08
         0.10070E+09
         0.10517E+09
         0.12407E+09
         0.15393E+09
         0.16779E+09
         0.59534E+08
         0.20968E+08
        -0.12219E+08
        -0.52341E+08
        -0.32964E+07
         0.54104E+08
         0.83990E+08
         0.96170E+08
         0.10573E+09
         0.11118E+09
         0.10516E+09
         0.75746E+08
         0.38842E+08
         0.24463E+08
         0.38296E+08
         0.34522E+08
         0.18363E+08
         0.39135E+08
         0.70534E+08
         0.87839E+08
         0.95882E+08
         0.96158E+08
         0.10820E+09
         0.14514E+09
        -0.14937E+08
         0.95772E+07
         0.68488E+08
         0.17412E+08
         0.16075E+09
         0.13854E+09
        -0.13340E+08
        -0.94003E+07
        -0.12775E+08
         0.26045E+08
        -0.41599E+08
        -0.71338E+08
        -0.25847E+08
        -0.30258E+08
        -0.59830E+08
        -0.26651E+08
         0.31601E+08
        -0.33139E+08
        -0.35761E+08
         0.39019E+08
        -0.11017E+09
        -0.67346E+08
        -0.83895E+08
        -0.68094E+08
         0.57434E+08
        -0.32684E+08
         0.21959E+08
         0.58417E+08
         0.75681E+08
         0.58055E+08
         0.51881E+07
         0.10628E+08
         0.20316E+08
         0.74622E+08
         0.16569E+09
         0.64735E+08
         0.54832E+07
        -0.51296E+07
         0.49625E+08
         0.80148E+08
         0.84683E+08
         0.60117E+08
        -0.15841E+07
        -0.35435E+08
         0.10379E+08
         0.50232E+08
         0.76071E+08
         0.94088E+08
         0.89941E+08
         0.90028E+08
         0.95591E+08
         0.10742E+09
         0.16921E+09
         0.16787E+09
         0.26756E+08
        -0.50968E+07
        -0.33003E+08
        -0.96345E+08
        -0.64884E+08
         0.59372E+07
         0.49013E+08
         0.66202E+08
         0.77686E+08
         0.63200E+08
        -0.35032E+08
        -0.89483E+08
        -0.79142E+08
        -0.49861E+08
        -0.12395E+08
         0.86702E+07
         0.36875E+08
         0.84100E+08
         0.10688E+09
         0.98817E+08
         0.95343E+08
         0.98421E+08
         0.11820E+09
         0.14998E+09
        -0.31116E+07
         0.13249E+08
         0.66742E+08
         0.31826E+08
         0.15809E+09
         0.14441E+09
        -0.28337E+07
         0.78839E+07
         0.63548E+07
         0.41111E+08
        -0.29527E+08
        -0.71572E+08
        -0.18741E+08
        -0.23426E+08
        -0.96091E+08
        -0.50242E+07
         0.41759E+08
        -0.14853E+08
        -0.30698E+08
        -0.60801E+07
        -0.13468E+09
        -0.16485E+09
        -0.87777E+08
        -0.55886E+08
         0.57807E+08
        -0.20841E+08
         0.43227E+07
        -0.21056E+07
        -0.41066E+08
        -0.28363E+08
         0.16975E+08
         0.15305E+08
         0.36802E+08
         0.99347E+08
         0.15737E+09
         0.61640E+08
         0.80945E+07
        -0.61653E+08
        -0.38485E+08
        -0.38853E+08
        -0.57358E+08
        -0.85874E+08
        -0.13104E+09
        -0.43445E+08
         0.55754E+07
         0.58711E+08
         0.82105E+08
         0.10487E+09
         0.11844E+09
         0.11738E+09
         0.12334E+09
         0.12874E+09
         0.15173E+09
         0.16194E+09
         0.33689E+08
         0.93360E+06
        -0.29283E+08
        -0.10133E+09
        -0.11125E+09
        -0.70081E+08
        -0.45855E+08
        -0.47157E+08
        -0.60085E+08
        -0.98069E+08
        -0.14405E+09
        -0.15725E+09
        -0.14297E+09
        -0.89080E+08
        -0.38004E+08
         0.22387E+07
         0.50021E+08
         0.10931E+09
         0.15151E+09
         0.14236E+09
         0.13457E+09
         0.13354E+09
         0.14112E+09
         0.15345E+09
         0.13459E+07
         0.16742E+08
         0.68899E+08
         0.36703E+08
         0.15461E+09
         0.14368E+09
         0.39336E+07
         0.17065E+08
         0.13834E+08
         0.48537E+08
        -0.23897E+08
        -0.68597E+08
        -0.13844E+08
        -0.20967E+08
        -0.11238E+09
         0.12953E+07
         0.47006E+08
        -0.12374E+08
        -0.41307E+08
        -0.33910E+08
        -0.14262E+09
        -0.17070E+09
        -0.10027E+09
        -0.68644E+08
         0.49459E+08
        -0.24562E+08
        -0.76138E+07
        -0.33269E+08
        -0.74478E+08
        -0.81937E+08
         0.16267E+08
         0.10799E+08
         0.40934E+08
         0.11605E+09
         0.15004E+09
         0.60837E+08
         0.10998E+08
        -0.77248E+08
        -0.60992E+08
        -0.67723E+08
        -0.86044E+08
        -0.10949E+09
        -0.14660E+09
        -0.57156E+08
        -0.77276E+07
         0.47817E+08
         0.79636E+08
         0.10729E+09
         0.12278E+09
         0.12315E+09
         0.12758E+09
         0.13244E+09
         0.14001E+09
         0.15464E+09
         0.30240E+08
         0.52829E+07
        -0.23393E+08
        -0.99304E+08
        -0.11695E+09
        -0.83614E+08
        -0.73027E+08
        -0.77885E+08
        -0.89947E+08
        -0.11691E+09
        -0.15099E+09
        -0.16842E+09
        -0.16075E+09
        -0.11640E+09
        -0.64521E+08
        -0.14781E+08
         0.41620E+08
         0.10150E+09
         0.14651E+09
         0.14211E+09
         0.13583E+09
         0.13224E+09
         0.13553E+09
         0.14509E+09
         0.20230E+07
         0.18874E+08
         0.76341E+08
         0.37092E+08
         0.15565E+09
         0.14269E+09
         0.70369E+07
         0.22603E+08
         0.16796E+08
         0.54423E+08
        -0.21585E+08
        -0.69313E+08
        -0.12941E+08
        -0.18942E+08
        -0.11043E+09
         0.15722E+07
         0.51165E+08
        -0.15751E+08
        -0.54663E+08
        -0.46618E+08
        -0.14989E+09
        -0.17126E+09
        -0.10756E+09
        -0.86993E+08
         0.50412E+08
        -0.31546E+08
        -0.11439E+08
        -0.41459E+08
        -0.79679E+08
        -0.96840E+08
         0.16308E+08
         0.11576E+08
         0.41346E+08
         0.11167E+09
         0.15116E+09
         0.66305E+08
         0.11809E+08
        -0.76328E+08
        -0.63496E+08
        -0.70712E+08
        -0.87285E+08
        -0.11122E+09
        -0.14793E+09
        -0.61814E+08
        -0.11657E+08
         0.41795E+08
         0.92866E+08
         0.11551E+09
         0.11320E+09
         0.11569E+09
         0.12158E+09
         0.12881E+09
         0.14326E+09
         0.15521E+09
         0.28304E+08
         0.69690E+07
        -0.18705E+08
        -0.87178E+08
        -0.10422E+09
        -0.80864E+08
        -0.76532E+08
        -0.79962E+08
        -0.89155E+08
        -0.11656E+09
        -0.15167E+09
        -0.17189E+09
        -0.17183E+09
        -0.12841E+09
        -0.72999E+08
        -0.21713E+08
         0.36115E+08
         0.89813E+08
         0.12625E+09
         0.12769E+09
         0.12613E+09
         0.12513E+09
         0.13050E+09
         0.14213E+09
         0.30319E+07
         0.23376E+08
         0.83822E+08
         0.36756E+08
         0.15956E+09
         0.14407E+09
         0.10296E+08
         0.25454E+08
         0.17838E+08
         0.57826E+08
        -0.19836E+08
        -0.67835E+08
        -0.84199E+07
        -0.17560E+08
        -0.10130E+09
         0.52835E+06
         0.52537E+08
        -0.18064E+08
        -0.55427E+08
        -0.45144E+08
        -0.15154E+09
        -0.17158E+09
        -0.10712E+09
        -0.88111E+08
         0.51522E+08
        -0.30510E+08
        -0.10830E+08
        -0.41539E+08
        -0.77734E+08
        -0.99865E+08
         0.21515E+08
         0.19985E+08
         0.44862E+08
         0.10648E+09
         0.15683E+09
         0.78475E+08
         0.19234E+08
        -0.70937E+08
        -0.61454E+08
        -0.70458E+08
        -0.86289E+08
        -0.10719E+09
        -0.14312E+09
        -0.57723E+08
        -0.38088E+07
         0.50618E+08
         0.98615E+08
         0.11387E+09
         0.10895E+09
         0.11101E+09
         0.11785E+09
         0.12669E+09
         0.15154E+09
         0.16137E+09
         0.38147E+08
         0.12940E+08
        -0.14352E+08
        -0.76401E+08
        -0.91414E+08
        -0.75984E+08
        -0.75334E+08
        -0.80730E+08
        -0.89062E+08
        -0.11311E+09
        -0.14609E+09
        -0.16873E+09
        -0.17253E+09
        -0.12782E+09
        -0.67327E+08
        -0.12571E+08
         0.46387E+08
         0.96145E+08
         0.12273E+09
         0.12292E+09
         0.12138E+09
         0.12193E+09
         0.13045E+09
         0.14655E+09
         0.89391E+06
         0.24241E+08
         0.89763E+08
         0.38440E+08
         0.15998E+09
         0.14264E+09
         0.94662E+07
         0.24065E+08
         0.15013E+08
         0.58341E+08
        -0.20556E+08
        -0.69061E+08
        -0.74913E+07
        -0.17496E+08
        -0.98883E+08
        -0.13701E+07
         0.51082E+08
        -0.19969E+08
        -0.50793E+08
        -0.42128E+08
        -0.14999E+09
        -0.17250E+09
        -0.10391E+09
        -0.80189E+08
         0.51956E+08
        -0.25914E+08
        -0.78858E+07
        -0.40234E+08
        -0.79640E+08
        -0.10380E+09
         0.25752E+08
         0.26323E+08
         0.48952E+08
         0.10466E+09
         0.16013E+09
         0.90332E+08
         0.24022E+08
        -0.66552E+08
        -0.58640E+08
        -0.72976E+08
        -0.91926E+08
        -0.11075E+09
        -0.14445E+09
        -0.51619E+08
         0.47815E+07
         0.59442E+08
         0.10609E+09
         0.11853E+09
         0.11104E+09
         0.11052E+09
         0.11633E+09
         0.12452E+09
         0.15571E+09
         0.16086E+09
         0.52656E+08
         0.17932E+08
        -0.12986E+08
        -0.78239E+08
        -0.90076E+08
        -0.74243E+08
        -0.71264E+08
        -0.83518E+08
        -0.97678E+08
        -0.11929E+09
        -0.14831E+09
        -0.16718E+09
        -0.17102E+09
        -0.12503E+09
        -0.59720E+08
        -0.28487E+07
         0.56111E+08
         0.10773E+09
         0.13165E+09
         0.12637E+09
         0.12201E+09
         0.12080E+09
         0.12824E+09
         0.14418E+09
        -0.11399E+07
         0.21629E+08
         0.91983E+08
         0.41293E+08
         0.15978E+09
         0.14212E+09
         0.75855E+07
         0.21692E+08
         0.12058E+08
         0.54729E+08
        -0.21408E+08
        -0.70451E+08
        -0.10140E+08
        -0.20414E+08
        -0.99811E+08
        -0.44451E+07
         0.46911E+08
        -0.20879E+08
        -0.47980E+08
        -0.43850E+08
        -0.14648E+09
        -0.17162E+09
        -0.99957E+08
        -0.74091E+08
         0.46857E+08
        -0.24854E+08
        -0.12099E+08
        -0.47349E+08
        -0.89264E+08
        -0.11175E+09
         0.25168E+08
         0.25184E+08
         0.49999E+08
         0.10616E+09
         0.16337E+09
         0.92368E+08
         0.20094E+08
        -0.68599E+08
        -0.62080E+08
        -0.80036E+08
        -0.10141E+09
        -0.12003E+09
        -0.14914E+09
        -0.47911E+08
         0.73613E+07
         0.60669E+08
         0.10566E+09
         0.12022E+09
         0.11363E+09
         0.11251E+09
         0.11861E+09
         0.12588E+09
         0.15996E+09
         0.16127E+09
         0.57847E+08
         0.13620E+08
        -0.18253E+08
        -0.83648E+08
        -0.92020E+08
        -0.76277E+08
        -0.72104E+08
        -0.89355E+08
        -0.10745E+09
        -0.12803E+09
        -0.15081E+09
        -0.16581E+09
        -0.16743E+09
        -0.11910E+09
        -0.53546E+08
         0.11103E+07
         0.58063E+08
         0.11111E+09
         0.13693E+09
         0.12954E+09
         0.12427E+09
         0.12402E+09
         0.13134E+09
         0.14471E+09
         0.10096E+07
         0.20960E+08
         0.85466E+08
         0.38929E+08
         0.15825E+09
         0.14320E+09
         0.10732E+08
         0.21765E+08
         0.12573E+08
         0.49671E+08
        -0.18582E+08
        -0.64678E+08
        -0.69281E+07
        -0.23737E+08
        -0.10284E+09
        -0.78241E+07
         0.42991E+08
        -0.20733E+08
        -0.49799E+08
        -0.49133E+08
        -0.14754E+09
        -0.17066E+09
        -0.10201E+09
        -0.74252E+08
         0.37949E+08
        -0.27981E+08
        -0.23062E+08
        -0.59288E+08
        -0.94509E+08
        -0.12147E+09
         0.22667E+08
         0.21629E+08
         0.47529E+08
         0.10875E+09
         0.16251E+09
         0.80800E+08
         0.14504E+08
        -0.75432E+08
        -0.69998E+08
        -0.84598E+08
        -0.10200E+09
        -0.12023E+09
        -0.14786E+09
        -0.49530E+08
         0.74902E+07
         0.61506E+08
         0.10370E+09
         0.11887E+09
         0.11526E+09
         0.11565E+09
         0.12297E+09
         0.12969E+09
         0.15898E+09
         0.16120E+09
         0.46867E+08
         0.50897E+07
        -0.19833E+08
        -0.86914E+08
        -0.95600E+08
        -0.80454E+08
        -0.78803E+08
        -0.91931E+08
        -0.10432E+09
        -0.12548E+09
        -0.14820E+09
        -0.16346E+09
        -0.16749E+09
        -0.11838E+09
        -0.53030E+08
         0.33039E+07
         0.60059E+08
         0.11098E+09
         0.13500E+09
         0.13108E+09
         0.12750E+09
         0.12933E+09
         0.13791E+09
         0.14819E+09
         0.50315E+07
         0.24274E+08
         0.82772E+08
         0.36883E+08
         0.15670E+09
         0.14229E+09
         0.15032E+08
         0.23140E+08
         0.15406E+08
         0.49080E+08
        -0.15793E+08
        -0.59265E+08
        -0.16976E+07
        -0.24745E+08
        -0.10672E+09
        -0.68606E+07
         0.44486E+08
        -0.17868E+08
        -0.50774E+08
        -0.49275E+08
        -0.15285E+09
        -0.17092E+09
        -0.10728E+09
        -0.76403E+08
         0.38603E+08
        -0.30158E+08
        -0.25877E+08
        -0.57965E+08
        -0.88773E+08
        -0.11901E+09
         0.23171E+08
         0.20240E+08
         0.46744E+08
         0.10647E+09
         0.15965E+09
         0.76579E+08
         0.15446E+08
        -0.79597E+08
        -0.70916E+08
        -0.80304E+08
        -0.94629E+08
        -0.11286E+09
        -0.14308E+09
        -0.54272E+08
         0.49161E+07
         0.60700E+08
         0.10286E+09
         0.11802E+09
         0.11449E+09
         0.11477E+09
         0.12226E+09
         0.12895E+09
         0.15653E+09
         0.16053E+09
         0.40474E+08
         0.24867E+07
        -0.16922E+08
        -0.84401E+08
        -0.10067E+09
        -0.84159E+08
        -0.80818E+08
        -0.86901E+08
        -0.95335E+08
        -0.11690E+09
        -0.14338E+09
        -0.16160E+09
        -0.17030E+09
        -0.12336E+09
        -0.57764E+08
         0.55791E+06
         0.59264E+08
         0.10982E+09
         0.13398E+09
         0.13100E+09
         0.12702E+09
         0.12877E+09
         0.13822E+09
         0.14877E+09
         0.80118E+07
         0.26124E+08
         0.83691E+08
         0.38905E+08
         0.15847E+09
         0.14276E+09
         0.15835E+08
         0.25360E+08
         0.18927E+08
         0.53454E+08
        -0.13835E+08
        -0.56437E+08
        -0.13638E+07
        -0.19535E+08
        -0.10186E+09
        -0.67293E+06
         0.47694E+08
        -0.12410E+08
        -0.52305E+08
        -0.51791E+08
        -0.15185E+09
        -0.17272E+09
        -0.10679E+09
        -0.77384E+08
         0.42693E+08
        -0.26943E+08
        -0.17674E+08
        -0.52822E+08
        -0.88503E+08
        -0.12104E+09
         0.26157E+08
         0.21938E+08
         0.48071E+08
         0.10539E+09
         0.16198E+09
         0.77082E+08
         0.16415E+08
        -0.74009E+08
        -0.67249E+08
        -0.79431E+08
        -0.95982E+08
        -0.11393E+09
        -0.14497E+09
        -0.54304E+08
         0.29715E+07
         0.58705E+08
         0.10394E+09
         0.12027E+09
         0.11517E+09
         0.11441E+09
         0.12135E+09
         0.12815E+09
         0.15713E+09
         0.16147E+09
         0.39260E+08
         0.12002E+07
        -0.16875E+08
        -0.80410E+08
        -0.94681E+08
        -0.79017E+08
        -0.78540E+08
        -0.87141E+08
        -0.98358E+08
        -0.11676E+09
        -0.14213E+09
        -0.16533E+09
        -0.16988E+09
        -0.12412E+09
        -0.60270E+08
        -0.33651E+07
         0.55749E+08
         0.10728E+09
         0.13427E+09
         0.13110E+09
         0.12638E+09
         0.12771E+09
         0.13744E+09
         0.14892E+09
         0.68833E+07
         0.21537E+08
         0.77639E+08
         0.35572E+08
         0.15900E+09
         0.14367E+09
         0.12414E+08
         0.26741E+08
         0.19741E+08
         0.57342E+08
        -0.11527E+08
        -0.52331E+08
        -0.65365E+07
        -0.95461E+07
        -0.96749E+08
         0.23570E+07
         0.47379E+08
        -0.11631E+08
        -0.55562E+08
        -0.60513E+08
        -0.14826E+09
        -0.17335E+09
        -0.10283E+09
        -0.77256E+08
         0.42250E+08
        -0.24249E+08
        -0.47986E+07
        -0.52921E+08
        -0.95637E+08
        -0.13486E+09
         0.24812E+08
         0.21597E+08
         0.43931E+08
         0.10699E+09
         0.16324E+09
         0.71026E+08
         0.10786E+08
        -0.68755E+08
        -0.67037E+08
        -0.84360E+08
        -0.10282E+09
        -0.12125E+09
        -0.15172E+09
        -0.52666E+08
         0.17161E+07
         0.58017E+08
         0.10662E+09
         0.12513E+09
         0.11978E+09
         0.11869E+09
         0.12488E+09
         0.13037E+09
         0.15720E+09
         0.16263E+09
         0.34580E+08
        -0.31069E+07
        -0.19119E+08
        -0.75028E+08
        -0.88298E+08
        -0.74708E+08
        -0.80102E+08
        -0.93917E+08
        -0.10617E+09
        -0.12200E+09
        -0.14597E+09
        -0.16752E+09
        -0.16655E+09
        -0.12194E+09
        -0.62194E+08
        -0.56036E+07
         0.54826E+08
         0.10644E+09
         0.13438E+09
         0.13210E+09
         0.12934E+09
         0.13114E+09
         0.13993E+09
         0.15002E+09
         0.80470E+07
         0.18407E+08
         0.64579E+08
         0.26287E+08
         0.15937E+09
         0.14527E+09
         0.12609E+08
         0.28614E+08
         0.20351E+08
         0.56882E+08
        -0.72826E+07
        -0.44915E+08
        -0.68157E+07
        -0.14523E+07
        -0.94991E+08
         0.18756E+07
         0.43431E+08
        -0.11813E+08
        -0.50868E+08
        -0.61604E+08
        -0.14239E+09
        -0.16989E+09
        -0.97418E+08
        -0.71182E+08
         0.35848E+08
        -0.24654E+08
         0.39243E+07
        -0.60554E+08
        -0.10733E+09
        -0.14354E+09
         0.18529E+08
         0.16269E+08
         0.32936E+08
         0.89486E+08
         0.16161E+09
         0.55941E+08
         0.58783E+07
        -0.69641E+08
        -0.72564E+08
        -0.93267E+08
        -0.11110E+09
        -0.12805E+09
        -0.15331E+09
        -0.52331E+08
        -0.13732E+07
         0.56085E+08
         0.10013E+09
         0.11777E+09
         0.13152E+09
         0.12806E+09
         0.13186E+09
         0.13439E+09
         0.15248E+09
         0.16373E+09
         0.18573E+08
        -0.80690E+07
        -0.20345E+08
        -0.74598E+08
        -0.93400E+08
        -0.77494E+08
        -0.84700E+08
        -0.10102E+09
        -0.11312E+09
        -0.12614E+09
        -0.14601E+09
        -0.16334E+09
        -0.16054E+09
        -0.11804E+09
        -0.63280E+08
        -0.77300E+07
         0.54200E+08
         0.10447E+09
         0.13730E+09
         0.13731E+09
         0.13459E+09
         0.13626E+09
         0.14246E+09
         0.15113E+09
         0.11142E+08
         0.14350E+08
         0.41436E+08
         0.89676E+07
         0.14818E+09
         0.13311E+09
         0.10924E+08
         0.29247E+08
         0.21045E+08
         0.52977E+08
        -0.15078E+08
        -0.60354E+08
        -0.16118E+08
        -0.97085E+07
        -0.11120E+09
        -0.21289E+07
         0.37011E+08
        -0.15421E+08
        -0.46872E+08
        -0.62749E+08
        -0.13948E+09
        -0.16722E+09
        -0.97532E+08
        -0.68062E+08
         0.22725E+08
        -0.31927E+08
        -0.81823E+07
        -0.76804E+08
        -0.11612E+09
        -0.14650E+09
         0.50204E+06
        -0.36710E+07
         0.70253E+07
         0.41485E+08
         0.10978E+09
         0.16549E+08
        -0.10887E+08
        -0.82735E+08
        -0.83968E+08
        -0.10373E+09
        -0.12043E+09
        -0.13169E+09
        -0.14776E+09
        -0.61192E+08
        -0.20767E+08
         0.29545E+08
         0.60236E+08
         0.70737E+08
         0.86779E+08
         0.11700E+09
         0.13479E+09
         0.13120E+09
         0.10996E+09
         0.15246E+09
        -0.40418E+08
        -0.29574E+08
        -0.35436E+08
        -0.10479E+09
        -0.12142E+09
        -0.91750E+08
        -0.94581E+08
        -0.10998E+09
        -0.12342E+09
        -0.12967E+09
        -0.13649E+09
        -0.15827E+09
        -0.15797E+09
        -0.11683E+09
        -0.70092E+08
        -0.23741E+08
         0.29910E+08
         0.63592E+08
         0.84362E+08
         0.93654E+08
         0.10137E+09
         0.11390E+09
         0.12680E+09
         0.14012E+09
         0.12989E+08
        -0.99818E+06
        -0.11294E+08
        -0.35501E+08
         0.36699E+08
        -0.23535E+06
        -0.15046E+07
         0.23506E+08
         0.22661E+08
         0.42697E+08
        -0.48013E+08
        -0.11818E+09
        -0.55030E+08
        -0.48665E+08
        -0.13152E+09
        -0.80514E+07
         0.36830E+08
        -0.28841E+08
        -0.49868E+08
        -0.62863E+08
        -0.15676E+09
        -0.16418E+09
        -0.12358E+09
        -0.79853E+08
         0.10387E+08
        -0.50336E+08
        -0.52202E+08
        -0.90267E+08
        -0.11970E+09
        -0.12886E+09
        -0.39558E+08
        -0.46093E+08
        -0.53235E+08
        -0.63718E+08
        -0.29037E+07
        -0.69335E+08
        -0.64087E+08
        -0.10780E+09
        -0.10364E+09
        -0.11727E+09
        -0.13124E+09
        -0.13548E+09
        -0.14234E+09
        -0.86545E+08
        -0.58424E+08
        -0.29956E+08
        -0.19797E+08
        -0.21743E+08
        -0.29250E+08
        -0.33535E+08
        -0.27954E+08
        -0.31035E+08
        -0.34500E+06
         0.60777E+08
        -0.95805E+08
        -0.95654E+08
        -0.95114E+08
        -0.14590E+09
        -0.14757E+09
        -0.12012E+09
        -0.11526E+09
        -0.12581E+09
        -0.13771E+09
        -0.13866E+09
        -0.13621E+09
        -0.16051E+09
        -0.17446E+09
        -0.14249E+09
        -0.88188E+08
        -0.51426E+08
        -0.23222E+08
        -0.15024E+08
        -0.15155E+08
        -0.19273E+08
        -0.20097E+08
        -0.17750E+08
        -0.99941E+07
         0.17280E+08
         0.24135E+08
        -0.93815E+07
        -0.69570E+08
        -0.78153E+08
        -0.83376E+08
        -0.12464E+09
        -0.60466E+07
         0.24058E+08
         0.32276E+08
         0.37480E+08
        -0.73664E+08
        -0.13060E+09
        -0.90288E+08
        -0.81258E+08
        -0.12851E+09
        -0.24399E+07
         0.54692E+08
        -0.28868E+08
        -0.74842E+08
        -0.64586E+08
        -0.16141E+09
        -0.17021E+09
        -0.13349E+09
        -0.12779E+09
         0.16295E+08
        -0.69088E+08
        -0.75810E+08
        -0.79292E+08
        -0.10303E+09
        -0.10165E+09
        -0.54740E+08
        -0.68566E+08
        -0.89512E+08
        -0.13939E+09
        -0.80557E+08
        -0.10409E+09
        -0.11320E+09
        -0.10934E+09
        -0.10019E+09
        -0.10682E+09
        -0.12101E+09
        -0.12882E+09
        -0.14431E+09
        -0.88939E+08
        -0.58843E+08
        -0.46274E+08
        -0.44468E+08
        -0.48179E+08
        -0.65781E+08
        -0.92547E+08
        -0.10147E+09
        -0.12562E+09
        -0.77925E+08
        -0.55477E+08
        -0.12049E+09
        -0.12421E+09
        -0.11851E+09
        -0.13348E+09
        -0.13627E+09
        -0.12320E+09
        -0.11392E+09
        -0.11627E+09
        -0.12918E+09
        -0.14387E+09
        -0.15604E+09
        -0.17072E+09
        -0.15681E+09
        -0.12330E+09
        -0.70656E+08
        -0.45283E+08
        -0.43031E+08
        -0.44798E+08
        -0.44933E+08
        -0.52519E+08
        -0.64943E+08
        -0.77125E+08
        -0.88263E+08
        -0.88712E+08
         0.27470E+08
         0.18755E+08
        -0.81301E+07
         0.76180E+07
        -0.59622E+08
        -0.63900E+08
         0.19120E+08
         0.25939E+08
         0.41308E+08
         0.52553E+08
         0.11368E+08
        -0.13757E+08
         0.11068E+08
         0.15607E+08
        -0.44162E+08
         0.41897E+08
         0.61625E+08
         0.41358E+08
        -0.25728E+08
        -0.47240E+08
        -0.99065E+08
        -0.15024E+09
        -0.61682E+08
        -0.31188E+08
         0.48573E+08
        -0.88978E+05
         0.31982E+08
        -0.24838E+08
        -0.82534E+08
        -0.10803E+09
         0.40753E+08
         0.11466E+08
         0.45856E+08
         0.10683E+08
        -0.35831E+08
        -0.71926E+07
         0.11274E+08
        -0.30580E+08
        -0.33207E+08
        -0.60561E+08
        -0.96256E+08
        -0.13256E+09
        -0.17146E+09
        -0.31363E+08
        -0.11789E+08
        -0.62281E+07
         0.50577E+07
         0.22161E+08
         0.31996E+08
         0.16052E+08
        -0.92719E+07
        -0.35813E+08
        -0.46472E+08
        -0.10684E+09
        -0.10225E+08
        -0.91927E+07
        -0.26168E+08
        -0.44294E+08
        -0.53402E+08
        -0.45532E+08
        -0.38410E+08
        -0.55796E+08
        -0.98602E+08
        -0.15092E+09
        -0.17919E+09
        -0.15149E+09
        -0.10742E+09
        -0.72959E+08
        -0.41335E+08
        -0.18632E+08
        -0.14725E+08
        -0.17028E+08
        -0.55241E+07
         0.78672E+07
         0.61557E+07
        -0.12587E+08
        -0.48730E+08
        -0.10521E+09
         0.29135E+08
         0.43468E+08
         0.48202E+08
         0.78740E+08
        -0.42380E+07
         0.37090E+08
         0.35211E+08
         0.28629E+08
         0.50171E+08
         0.70894E+08
         0.75734E+08
         0.12306E+09
         0.80393E+08
         0.97233E+08
         0.16081E+09
         0.68763E+08
         0.67035E+08
         0.90982E+08
        -0.42302E+07
        -0.40418E+08
        -0.81885E+08
        -0.13319E+09
        -0.46286E+08
        -0.75899E+07
         0.66497E+08
         0.19836E+08
         0.14256E+09
         0.71531E+08
        -0.53077E+08
        -0.78267E+08
         0.86361E+08
         0.34374E+08
         0.12029E+09
         0.10755E+09
         0.21099E+08
         0.72513E+08
         0.89776E+08
         0.12450E+09
         0.58521E+08
        -0.19172E+08
        -0.86090E+08
        -0.13350E+09
        -0.15853E+09
        -0.21318E+08
         0.54503E+06
         0.12313E+08
         0.34280E+08
         0.70809E+08
         0.98105E+08
         0.97196E+08
         0.83660E+08
         0.75568E+08
        -0.88793E+06
        -0.68772E+08
         0.93784E+08
         0.11301E+09
         0.10064E+09
         0.11404E+09
         0.92831E+08
         0.60079E+08
         0.33513E+08
        -0.15304E+08
        -0.95491E+08
        -0.16525E+09
        -0.17700E+09
        -0.14546E+09
        -0.10809E+09
        -0.77694E+08
        -0.49626E+08
        -0.17932E+08
        -0.14714E+06
         0.33199E+07
         0.27565E+08
         0.58911E+08
         0.72848E+08
         0.68319E+08
         0.47949E+08
        -0.57324E+07
  
SCALARS                      strain_xx  double 1
LOOKUP_TABLE default
        -0.22993E-01
         0.21767E-01
         0.16583E-01
        -0.97826E-02
        -0.26785E-09
        -0.13062E-09
        -0.15821E-10
        -0.21333E-09
        -0.21238E-01
        -0.26223E-02
         0.16307E-09
        -0.15472E-09
         0.17734E-01
        -0.24752E-01
        -0.13768E-09
        -0.51503E-10
        -0.23341E-01
        -0.84693E-02
        -0.15529E-09
        -0.23285E-10
         0.10181E-01
         0.90998E-01
         0.11503E+00
        -0.15492E-09
         0.10099E-09
         0.60349E-10
        -0.22739E-01
         0.79398E-02
        -0.24582E-09
         0.59621E-10
        -0.13683E-01
         0.17024E-02
        -0.14446E-01
        -0.53669E-10
        -0.29035E-10
        -0.13724E-09
         0.13213E-01
         0.31654E-01
        -0.30617E-10
        -0.68154E-11
         0.48274E-01
         0.47183E-01
        -0.38002E-11
        -0.21086E-10
         0.20592E-01
         0.84402E-02
        -0.61684E-10
        -0.54609E-10
         0.40289E-01
         0.13286E-10
        -0.66867E-02
        -0.97330E-10
         0.13495E-01
        -0.13526E-09
         0.61570E-01
         0.69277E-10
         0.86816E-01
         0.61340E-01
         0.18260E-09
         0.17741E-09
         0.10772E-01
        -0.15852E-02
         0.45018E-10
        -0.13631E-09
        -0.10685E-02
        -0.39195E-10
        -0.13207E-01
        -0.12409E-09
        -0.13462E-01
         0.31310E-01
         0.24852E-09
        -0.15345E-10
         0.70403E-01
         0.21337E-09
         0.27134E-01
        -0.13654E-09
         0.88556E-01
         0.74194E-10
         0.71398E-01
         0.14479E-09
        -0.68005E-01
         0.19668E-01
         0.11075E-09
         0.13746E-09
         0.32483E-01
        -0.55084E-10
        -0.14266E-01
        -0.13870E-09
        -0.35330E-01
        -0.23417E-09
        -0.32058E-01
         0.11750E-01
        -0.22115E-09
        -0.15667E-09
         0.24770E-01
         0.17626E-09
         0.25745E-03
         0.69883E-10
        -0.91780E-02
         0.31336E-10
        -0.54231E-02
        -0.15433E-02
         0.10329E-09
        -0.23131E-09
        -0.59702E-01
        -0.22852E-01
         0.34161E-09
        -0.89147E-09
        -0.81561E-02
         0.25285E-09
         0.49333E-01
         0.19508E-09
         0.13652E+00
         0.19170E-09
         0.15861E+00
         0.90959E-10
         0.68076E-01
        -0.27014E-10
         0.62130E-01
        -0.37885E-10
         0.78591E-01
         0.49006E-10
        -0.50554E+00
         0.84384E-10
        -0.72363E+00
         0.99084E-10
        -0.21985E+00
        -0.77248E-10
        -0.57127E-01
        -0.88157E-10
         0.28364E-01
        -0.13933E-10
         0.57223E-01
        -0.79676E-10
         0.40812E-01
        -0.16212E-09
         0.44930E-02
        -0.19666E-09
        -0.43347E-01
        -0.31415E-09
        -0.35785E-01
        -0.23492E-09
         0.94156E-02
         0.54554E-10
         0.15055E-01
         0.12793E-09
        -0.11451E-01
         0.12783E-09
        -0.16707E-01
         0.19589E-09
        -0.83862E-02
         0.39112E-09
        -0.51574E-02
         0.36988E-09
        -0.11964E-01
         0.34714E-09
         0.12835E-02
         0.39535E-01
         0.81015E-01
         0.46878E-01
         0.12256E+00
         0.92542E-01
         0.17932E-01
        -0.11002E-02
        -0.19163E-01
         0.19380E-02
         0.24265E-01
         0.33285E-01
         0.33529E-01
         0.27556E-01
         0.52945E-01
        -0.20527E-01
        -0.86040E-02
         0.23233E-02
         0.72497E-02
         0.21072E-01
         0.24697E-01
         0.25780E-01
         0.11258E-01
         0.39546E-02
         0.17243E-01
        -0.71121E-02
         0.33437E-01
         0.36742E-01
         0.35757E-01
         0.31883E-01
         0.17547E-02
        -0.78178E-02
         0.38112E-01
         0.83348E-01
         0.16592E+00
         0.13268E+00
         0.76429E-01
         0.56529E-01
         0.50009E-01
         0.20964E-01
        -0.45605E-01
        -0.80345E-02
         0.14655E-01
         0.14847E-02
        -0.63172E-02
        -0.22874E-01
        -0.16654E-01
         0.16936E-01
         0.80276E-01
         0.15045E+00
         0.17713E+00
         0.11826E+00
         0.23802E+00
         0.18961E+00
         0.19833E+00
         0.11970E+00
         0.59601E-01
         0.42560E-01
         0.64119E-01
         0.64041E-01
        -0.10817E-01
        -0.21879E+00
        -0.34579E+00
        -0.14586E+00
        -0.57234E-01
        -0.21955E-01
        -0.96059E-02
        -0.59739E-02
        -0.17867E-02
        -0.65936E-02
        -0.50233E-01
        -0.58090E-01
         0.29925E-01
         0.17557E+00
         0.30495E+00
         0.28452E+00
         0.15889E+00
         0.12720E+00
         0.38270E-02
         0.19273E-01
         0.67757E-01
         0.31451E-01
         0.11004E+00
         0.79371E-01
        -0.29036E-02
         0.13720E-01
        -0.21506E-02
         0.81404E-02
         0.10067E-01
        -0.43601E-02
        -0.84838E-02
         0.27814E-01
         0.16534E-01
        -0.14905E-01
        -0.19767E-02
         0.12063E-02
        -0.10337E-01
        -0.68136E-02
        -0.40442E-01
        -0.48549E-01
        -0.33190E-01
        -0.17982E-01
        -0.40807E-02
        -0.20224E-01
         0.38656E-02
        -0.24025E-01
        -0.41671E-01
        -0.15040E-01
        -0.71532E-02
        -0.23795E-01
         0.29252E-01
         0.64369E-01
         0.14643E+00
         0.11441E+00
         0.47178E-01
        -0.11166E-01
        -0.49911E-01
        -0.84223E-01
        -0.10697E+00
        -0.81223E-01
        -0.58597E-01
        -0.25468E-01
        -0.24648E-01
        -0.30130E-01
        -0.23319E-01
         0.14643E-01
         0.78555E-01
         0.13471E+00
         0.15395E+00
         0.97878E-01
         0.20684E+00
         0.16859E+00
         0.18264E+00
         0.96591E-01
         0.20872E-01
        -0.13620E-01
        -0.14125E-01
        -0.37747E-01
        -0.10002E+00
        -0.13615E+00
        -0.10665E+00
        -0.10431E+00
        -0.12274E+00
        -0.12790E+00
        -0.11239E+00
        -0.76755E-01
        -0.38158E-01
        -0.99949E-02
        -0.24959E-01
        -0.23680E-01
         0.47312E-01
         0.18252E+00
         0.29854E+00
         0.27783E+00
         0.16984E+00
         0.13280E+00
         0.35109E-03
        -0.43651E-02
        -0.19812E-02
        -0.94521E-02
        -0.64166E-02
        -0.23386E-01
        -0.41877E-02
         0.68598E-02
         0.32027E-02
         0.54627E-03
         0.20998E-02
        -0.71463E-02
        -0.14380E-01
         0.73977E-02
        -0.48229E-03
        -0.43670E-02
        -0.89203E-03
        -0.35705E-02
        -0.11930E-01
        -0.14166E-01
        -0.36933E-01
        -0.43490E-01
        -0.23706E-01
        -0.14149E-01
        -0.11010E-01
        -0.10624E-01
        -0.10352E-01
        -0.27794E-01
        -0.38372E-01
        -0.21429E-01
        -0.11294E-01
        -0.10685E-01
        -0.13867E-01
        -0.25599E-01
        -0.10195E-02
        -0.15970E-02
        -0.84538E-02
        -0.22471E-01
        -0.49152E-01
        -0.68768E-01
        -0.79203E-01
        -0.57927E-01
        -0.45834E-01
        -0.12515E-01
        -0.66029E-02
        -0.40832E-02
        -0.93454E-02
        -0.15746E-01
        -0.25020E-01
        -0.38643E-01
        -0.49508E-01
        -0.41704E-01
        -0.26873E-03
        -0.45208E-02
        -0.51117E-02
        -0.11275E-01
        -0.17357E-01
        -0.20821E-01
        -0.18722E-01
        -0.44790E-01
        -0.96851E-01
        -0.11602E+00
        -0.10042E+00
        -0.89411E-01
        -0.87149E-01
        -0.87275E-01
        -0.69008E-01
        -0.35306E-01
        -0.96111E-02
         0.27823E-02
         0.40933E-02
        -0.35489E-02
        -0.19971E-01
        -0.39052E-01
        -0.51134E-01
        -0.58628E-01
        -0.48483E-01
        -0.23689E-01
        -0.30217E-02
        -0.60547E-02
        -0.11600E-01
        -0.11156E-01
        -0.22962E-01
        -0.28396E-01
        -0.45199E-02
        -0.29969E-02
        -0.40092E-02
        -0.92385E-02
        -0.34106E-02
        -0.60925E-02
        -0.10039E-01
        -0.44375E-02
        -0.60555E-02
        -0.40435E-02
        -0.71777E-02
        -0.59838E-02
        -0.10551E-01
        -0.14771E-01
        -0.26077E-01
        -0.29765E-01
        -0.15625E-01
        -0.10206E-01
        -0.17045E-01
        -0.66110E-02
        -0.16008E-01
        -0.26867E-01
        -0.31508E-01
        -0.21151E-01
        -0.84144E-02
        -0.48036E-02
        -0.16122E-01
        -0.28039E-01
        -0.25680E-01
        -0.20071E-01
        -0.13981E-01
        -0.21206E-01
        -0.37463E-01
        -0.46899E-01
        -0.48618E-01
        -0.34824E-01
        -0.28849E-01
        -0.73832E-02
        -0.16583E-02
         0.31695E-02
        -0.16464E-02
        -0.12828E-01
        -0.28654E-01
        -0.43144E-01
        -0.49698E-01
        -0.40708E-01
        -0.36854E-01
        -0.32175E-01
        -0.36357E-01
        -0.26543E-01
        -0.18520E-01
        -0.14370E-01
        -0.12066E-01
        -0.31668E-01
        -0.64395E-01
        -0.77018E-01
        -0.67534E-01
        -0.46447E-01
        -0.44378E-01
        -0.52260E-01
        -0.41348E-01
        -0.18579E-01
        -0.32627E-02
         0.39452E-02
         0.10307E-01
         0.53858E-02
        -0.17131E-01
        -0.44754E-01
        -0.58788E-01
        -0.58388E-01
        -0.47246E-01
        -0.35502E-01
        -0.72443E-03
        -0.85581E-03
        -0.18154E-02
        -0.17475E-02
        -0.58473E-02
        -0.76321E-02
        -0.13167E-02
        -0.21049E-02
        -0.31412E-02
        -0.68569E-02
        -0.19703E-02
        -0.31045E-02
        -0.38727E-02
        -0.38788E-02
        -0.52569E-02
        -0.23940E-02
        -0.56025E-02
        -0.22348E-02
        -0.57934E-02
        -0.91682E-02
        -0.12968E-01
        -0.15636E-01
        -0.67415E-02
        -0.48537E-02
        -0.12172E-01
        -0.29282E-02
        -0.11224E-01
        -0.18529E-01
        -0.21596E-01
        -0.14247E-01
        -0.24750E-02
        -0.12944E-02
        -0.38997E-02
        -0.62504E-02
        -0.60016E-02
        -0.46147E-02
        -0.43153E-02
        -0.14728E-01
        -0.24658E-01
        -0.30218E-01
        -0.29025E-01
        -0.20596E-01
        -0.16041E-01
        -0.23229E-02
         0.74263E-03
         0.36318E-02
         0.17367E-02
        -0.17620E-02
        -0.59831E-02
        -0.95504E-02
        -0.11894E-01
        -0.10401E-01
        -0.92280E-02
        -0.10623E-01
        -0.10072E-01
        -0.10625E-01
        -0.88882E-02
        -0.71032E-02
        -0.80237E-02
        -0.19541E-01
        -0.35884E-01
        -0.42615E-01
        -0.35448E-01
        -0.20479E-01
        -0.19988E-01
        -0.25546E-01
        -0.19042E-01
        -0.63864E-02
         0.15164E-02
         0.50229E-02
         0.80367E-02
         0.67358E-02
        -0.73089E-03
        -0.92504E-02
        -0.13091E-01
        -0.14606E-01
        -0.14625E-01
        -0.12714E-01
         0.34841E-03
         0.56913E-04
         0.64077E-03
         0.79138E-03
        -0.39185E-03
        -0.92189E-03
        -0.56290E-03
        -0.57581E-03
        -0.87913E-03
        -0.29505E-02
        -0.12202E-02
        -0.21635E-02
        -0.24132E-02
        -0.21747E-02
        -0.38079E-02
        -0.75462E-03
        -0.24551E-02
        -0.72798E-04
        -0.20582E-02
        -0.42802E-02
        -0.41456E-02
        -0.67281E-02
        -0.54384E-03
        -0.98301E-03
        -0.59800E-02
        -0.36616E-03
        -0.57775E-02
        -0.99528E-02
        -0.12775E-01
        -0.78104E-02
        -0.78184E-04
         0.44530E-03
         0.51748E-03
         0.93952E-03
         0.50237E-03
         0.17212E-03
        -0.18100E-02
        -0.85885E-02
        -0.14057E-01
        -0.18369E-01
        -0.18484E-01
        -0.13053E-01
        -0.88372E-02
         0.15061E-02
         0.26118E-02
         0.35181E-02
         0.20893E-02
         0.12324E-02
         0.13117E-02
         0.15733E-02
         0.73985E-03
        -0.31973E-03
         0.42613E-03
        -0.31221E-02
        -0.62298E-03
        -0.50751E-02
        -0.55683E-02
        -0.41820E-02
        -0.56316E-02
        -0.11600E-01
        -0.19090E-01
        -0.24478E-01
        -0.21858E-01
        -0.12800E-01
        -0.99040E-02
        -0.96827E-02
        -0.48733E-02
         0.17280E-02
         0.52717E-02
         0.62339E-02
         0.61212E-02
         0.47970E-02
         0.28737E-02
         0.21957E-02
         0.23373E-02
         0.44643E-03
        -0.25398E-02
        -0.42088E-02
         0.32903E-03
        -0.35385E-03
        -0.13674E-03
         0.37071E-03
        -0.11031E-02
        -0.12437E-02
        -0.68484E-03
        -0.21694E-03
        -0.15709E-03
        -0.11240E-02
        -0.10334E-02
        -0.18136E-02
        -0.23330E-02
        -0.11824E-02
        -0.22895E-02
        -0.18446E-03
        -0.93974E-03
         0.19089E-03
        -0.19283E-03
        -0.16006E-02
         0.24439E-03
        -0.19337E-02
         0.23538E-02
         0.82475E-03
        -0.25838E-02
         0.67024E-03
        -0.25793E-02
        -0.47241E-02
        -0.67946E-02
        -0.37789E-02
         0.10456E-03
         0.86345E-03
         0.37895E-03
         0.45525E-03
        -0.57620E-03
        -0.76040E-03
        -0.21193E-02
        -0.43700E-02
        -0.72991E-02
        -0.10413E-01
        -0.11129E-01
        -0.74381E-02
        -0.41315E-02
         0.30713E-02
         0.32260E-02
         0.32383E-02
         0.15354E-02
         0.57162E-03
         0.55046E-03
         0.62861E-03
        -0.40564E-04
        -0.68528E-03
        -0.74716E-03
        -0.34002E-02
        -0.14260E-02
        -0.46829E-02
        -0.47462E-02
        -0.30301E-02
        -0.32779E-02
        -0.63230E-02
        -0.10573E-01
        -0.15067E-01
        -0.14261E-01
        -0.76342E-02
        -0.38194E-02
        -0.16136E-02
         0.21011E-02
         0.54028E-02
         0.65484E-02
         0.63772E-02
         0.52309E-02
         0.32431E-02
         0.13398E-02
         0.76513E-03
         0.71328E-03
        -0.45055E-03
        -0.21726E-02
        -0.37390E-02
         0.24329E-03
        -0.52061E-03
        -0.63386E-03
         0.29952E-04
        -0.18461E-02
        -0.18675E-02
        -0.74612E-03
        -0.16297E-03
        -0.38358E-04
        -0.39297E-03
        -0.88511E-03
        -0.14894E-02
        -0.22241E-02
        -0.58158E-03
        -0.10635E-02
        -0.78647E-04
        -0.39747E-03
         0.11284E-03
         0.52181E-03
        -0.31458E-03
         0.20653E-02
         0.60824E-03
         0.31489E-02
         0.13538E-02
        -0.10189E-02
         0.87400E-03
        -0.90159E-03
        -0.20014E-02
        -0.33654E-02
        -0.15726E-02
        -0.43246E-04
         0.80947E-03
        -0.11709E-03
        -0.41238E-03
        -0.16883E-02
        -0.15768E-02
        -0.22774E-02
        -0.18040E-02
        -0.35123E-02
        -0.56991E-02
        -0.64308E-02
        -0.37431E-02
        -0.11292E-02
         0.31517E-02
         0.29518E-02
         0.27332E-02
         0.10596E-02
        -0.12719E-03
        -0.58975E-03
        -0.91583E-03
        -0.15720E-02
        -0.16927E-02
        -0.22933E-02
        -0.40413E-02
        -0.26847E-02
        -0.45718E-02
        -0.41741E-02
        -0.22638E-02
        -0.12475E-02
        -0.27228E-02
        -0.60303E-02
        -0.96254E-02
        -0.94497E-02
        -0.40360E-02
         0.52380E-03
         0.26434E-02
         0.48773E-02
         0.61318E-02
         0.59820E-02
         0.53952E-02
         0.43450E-02
         0.23708E-02
         0.82606E-04
        -0.11736E-02
        -0.16629E-02
        -0.23365E-02
        -0.30694E-02
        -0.41063E-02
         0.19206E-03
        -0.60637E-03
        -0.70355E-03
         0.11307E-04
        -0.19468E-02
        -0.19456E-02
        -0.87997E-03
        -0.19991E-03
        -0.36359E-04
        -0.13389E-03
        -0.93065E-03
        -0.15107E-02
        -0.23721E-02
        -0.36446E-03
        -0.57498E-03
        -0.59962E-04
        -0.23451E-03
         0.10944E-03
         0.86541E-03
         0.28246E-03
         0.30769E-02
         0.19927E-02
         0.38121E-02
         0.17188E-02
        -0.37888E-03
         0.10631E-02
        -0.18086E-03
        -0.79583E-03
        -0.16731E-02
        -0.47877E-03
        -0.17502E-04
         0.93873E-03
        -0.14176E-03
        -0.45659E-03
        -0.18586E-02
        -0.17460E-02
        -0.24235E-02
        -0.64423E-03
        -0.17956E-02
        -0.34414E-02
        -0.38339E-02
        -0.15448E-02
         0.62589E-03
         0.35462E-02
         0.31889E-02
         0.29518E-02
         0.11970E-02
        -0.14070E-03
        -0.72732E-03
        -0.10584E-02
        -0.16603E-02
        -0.17628E-02
        -0.25284E-02
        -0.41420E-02
        -0.30230E-02
        -0.47608E-02
        -0.42029E-02
        -0.21523E-02
        -0.48261E-03
        -0.10359E-02
        -0.38492E-02
        -0.69666E-02
        -0.64556E-02
        -0.12337E-02
         0.32287E-02
         0.50282E-02
         0.65054E-02
         0.70339E-02
         0.63710E-02
         0.55300E-02
         0.46489E-02
         0.26949E-02
         0.70710E-04
        -0.15567E-02
        -0.20144E-02
        -0.24075E-02
        -0.31477E-02
        -0.42374E-02
         0.13696E-03
        -0.76954E-03
        -0.75145E-03
         0.50879E-04
        -0.20694E-02
        -0.20112E-02
        -0.11636E-02
        -0.30454E-03
        -0.55932E-04
        -0.82400E-04
        -0.12292E-02
        -0.20127E-02
        -0.29005E-02
        -0.43779E-03
        -0.69687E-03
        -0.12555E-04
        -0.20106E-03
         0.14170E-03
         0.10818E-02
         0.45083E-03
         0.36565E-02
         0.23600E-02
         0.46693E-02
         0.21723E-02
        -0.19645E-03
         0.14528E-02
         0.28811E-04
        -0.40999E-03
        -0.12333E-02
        -0.21825E-03
         0.11682E-03
         0.13500E-02
        -0.41973E-05
        -0.24835E-03
        -0.19162E-02
        -0.18498E-02
        -0.27865E-02
        -0.32123E-03
        -0.12321E-02
        -0.28216E-02
        -0.33372E-02
        -0.12215E-02
         0.87734E-03
         0.45623E-02
         0.42025E-02
         0.39302E-02
         0.17682E-02
         0.16074E-03
        -0.48206E-03
        -0.71437E-03
        -0.13098E-02
        -0.16032E-02
        -0.25875E-02
        -0.45712E-02
        -0.31552E-02
        -0.53423E-02
        -0.49298E-02
        -0.29797E-02
        -0.83640E-03
        -0.62212E-03
        -0.31679E-02
        -0.63813E-02
        -0.61277E-02
        -0.13333E-02
         0.32579E-02
         0.56977E-02
         0.75730E-02
         0.84480E-02
         0.80513E-02
         0.72024E-02
         0.60881E-02
         0.37899E-02
         0.71452E-03
        -0.12400E-02
        -0.15913E-02
        -0.19445E-02
        -0.30544E-02
        -0.46059E-02
         0.10513E-03
        -0.87109E-03
        -0.80027E-03
         0.56100E-04
        -0.21188E-02
        -0.19867E-02
        -0.13152E-02
        -0.36218E-03
        -0.68051E-04
        -0.85632E-04
        -0.13974E-02
        -0.23069E-02
        -0.32216E-02
        -0.52135E-03
        -0.86903E-03
        -0.62275E-05
        -0.21044E-03
         0.14115E-03
         0.10414E-02
         0.30133E-03
         0.35046E-02
         0.19062E-02
         0.47706E-02
         0.22300E-02
        -0.23942E-03
         0.15655E-02
         0.22539E-05
        -0.52447E-03
        -0.16799E-02
        -0.52580E-03
         0.13930E-03
         0.14798E-02
         0.23153E-04
        -0.15902E-03
        -0.19429E-02
        -0.19117E-02
        -0.29957E-02
        -0.44677E-03
        -0.14540E-02
        -0.34122E-02
        -0.44554E-02
        -0.22631E-02
         0.75599E-04
         0.48685E-02
         0.45638E-02
         0.42339E-02
         0.18911E-02
         0.20748E-03
        -0.36834E-03
        -0.47493E-03
        -0.10293E-02
        -0.14433E-02
        -0.25779E-02
        -0.47195E-02
        -0.31012E-02
        -0.56361E-02
        -0.55136E-02
        -0.35560E-02
        -0.11905E-02
        -0.97212E-03
        -0.37031E-02
        -0.74629E-02
        -0.80121E-02
        -0.33821E-02
         0.17408E-02
         0.50185E-02
         0.73421E-02
         0.86142E-02
         0.85876E-02
         0.78099E-02
         0.64967E-02
         0.40214E-02
         0.91794E-03
        -0.87844E-03
        -0.10415E-02
        -0.14835E-02
        -0.27952E-02
        -0.45956E-02
         0.16038E-03
        -0.81050E-03
        -0.78523E-03
         0.82385E-04
        -0.20832E-02
        -0.18993E-02
        -0.11896E-02
        -0.28914E-03
        -0.34814E-04
        -0.60005E-04
        -0.12382E-02
        -0.20297E-02
        -0.30735E-02
        -0.45891E-03
        -0.79703E-03
        -0.14503E-04
        -0.19056E-03
         0.14409E-03
         0.95255E-03
         0.26785E-03
         0.32466E-02
         0.17591E-02
         0.44568E-02
         0.20774E-02
        -0.21348E-03
         0.14750E-02
        -0.16713E-04
        -0.49422E-03
        -0.14880E-02
        -0.46996E-03
         0.84992E-04
         0.13770E-02
         0.91752E-05
        -0.10565E-03
        -0.19120E-02
        -0.18897E-02
        -0.29467E-02
        -0.54730E-03
        -0.14284E-02
        -0.30439E-02
        -0.37585E-02
        -0.18410E-02
         0.14855E-03
         0.46044E-02
         0.43484E-02
         0.39960E-02
         0.16821E-02
         0.75574E-04
        -0.33066E-03
        -0.30403E-03
        -0.81587E-03
        -0.12925E-02
        -0.25059E-02
        -0.46380E-02
        -0.30395E-02
        -0.57133E-02
        -0.54945E-02
        -0.30268E-02
        -0.10153E-02
        -0.14039E-02
        -0.37404E-02
        -0.66237E-02
        -0.65736E-02
        -0.23912E-02
         0.18040E-02
         0.46917E-02
         0.68418E-02
         0.80330E-02
         0.80760E-02
         0.74101E-02
         0.61503E-02
         0.36308E-02
         0.69407E-03
        -0.60431E-03
        -0.55942E-03
        -0.11312E-02
        -0.25371E-02
        -0.44173E-02
         0.24551E-03
        -0.64283E-03
        -0.63743E-03
         0.14051E-03
        -0.19238E-02
        -0.18707E-02
        -0.94272E-03
        -0.16322E-03
         0.16993E-04
         0.31308E-05
        -0.94355E-03
        -0.15325E-02
        -0.26407E-02
        -0.29752E-03
        -0.47202E-03
        -0.81379E-05
        -0.15880E-03
         0.17493E-03
         0.94228E-03
         0.43433E-03
         0.32454E-02
         0.21733E-02
         0.42845E-02
         0.19843E-02
        -0.59502E-04
         0.13877E-02
         0.10624E-03
        -0.10239E-03
        -0.47921E-03
         0.62475E-04
         0.56079E-04
         0.12629E-02
         0.23976E-04
        -0.95028E-04
        -0.16337E-02
        -0.16051E-02
        -0.26308E-02
        -0.27037E-03
        -0.72423E-03
        -0.13908E-02
        -0.12045E-02
         0.67926E-04
         0.12563E-02
         0.43636E-02
         0.40818E-02
         0.37131E-02
         0.14907E-02
        -0.19899E-04
        -0.34374E-03
        -0.34048E-03
        -0.93506E-03
        -0.13629E-02
        -0.21497E-02
        -0.44654E-02
        -0.26731E-02
        -0.53116E-02
        -0.48464E-02
        -0.21171E-02
        -0.27753E-03
        -0.89521E-03
        -0.23635E-02
        -0.31965E-02
        -0.21087E-02
         0.10568E-02
         0.35648E-02
         0.51347E-02
         0.68043E-02
         0.77817E-02
         0.76956E-02
         0.69756E-02
         0.57480E-02
         0.32455E-02
         0.42889E-03
        -0.64673E-03
        -0.66909E-03
        -0.14042E-02
        -0.27501E-02
        -0.44484E-02
         0.25482E-03
        -0.52371E-03
        -0.41594E-03
         0.19184E-03
        -0.16273E-02
        -0.18141E-02
        -0.81639E-03
        -0.10041E-03
         0.25976E-04
         0.48324E-04
        -0.76097E-03
        -0.12567E-02
        -0.23513E-02
        -0.13622E-03
        -0.88558E-04
        -0.17064E-04
        -0.16743E-03
         0.20381E-03
         0.86792E-03
         0.42474E-03
         0.30756E-02
         0.21344E-02
         0.40532E-02
         0.18457E-02
         0.10684E-04
         0.12584E-02
         0.30204E-03
         0.18110E-03
        -0.13494E-03
         0.19702E-03
         0.33077E-04
         0.11014E-02
         0.46940E-04
        -0.11870E-03
        -0.11378E-02
        -0.11355E-02
        -0.22659E-02
         0.28019E-03
        -0.47178E-05
        -0.65254E-03
        -0.60578E-03
         0.43747E-03
         0.14161E-02
         0.40651E-02
         0.37075E-02
         0.32715E-02
         0.12256E-02
        -0.12734E-03
        -0.41864E-03
        -0.50293E-03
        -0.12003E-02
        -0.15079E-02
        -0.15194E-02
        -0.41126E-02
        -0.19327E-02
        -0.45875E-02
        -0.42412E-02
        -0.16976E-02
         0.49177E-03
         0.40182E-03
        -0.51270E-03
        -0.14351E-02
        -0.13691E-02
         0.13526E-02
         0.36526E-02
         0.49345E-02
         0.65201E-02
         0.74780E-02
         0.72895E-02
         0.64134E-02
         0.50609E-02
         0.27300E-02
         0.17249E-03
        -0.92037E-03
        -0.10958E-02
        -0.19088E-02
        -0.30524E-02
        -0.44201E-02
         0.19043E-03
        -0.57391E-03
        -0.39196E-03
         0.17859E-03
        -0.15385E-02
        -0.17433E-02
        -0.91311E-03
        -0.15995E-03
        -0.94026E-05
         0.18392E-04
        -0.84473E-03
        -0.13933E-02
        -0.24769E-02
        -0.14665E-03
        -0.22598E-04
        -0.39659E-04
        -0.20026E-03
         0.19878E-03
         0.69987E-03
         0.20671E-03
         0.25738E-02
         0.15249E-02
         0.35947E-02
         0.16209E-02
        -0.10121E-03
         0.11341E-02
         0.30684E-03
        -0.81803E-04
        -0.10398E-02
        -0.26952E-03
         0.23781E-04
         0.10065E-02
         0.74179E-04
        -0.94270E-04
        -0.10215E-02
        -0.10416E-02
        -0.22560E-02
         0.39247E-03
        -0.39112E-03
        -0.21707E-02
        -0.31611E-02
        -0.13590E-02
         0.39571E-03
         0.37347E-02
         0.34647E-02
         0.30357E-02
         0.10937E-02
        -0.14455E-03
        -0.36777E-03
        -0.44772E-03
        -0.11527E-02
        -0.14535E-02
        -0.13586E-02
        -0.39479E-02
        -0.16766E-02
        -0.44127E-02
        -0.43791E-02
        -0.19737E-02
         0.63458E-03
         0.89072E-03
        -0.10490E-02
        -0.46285E-02
        -0.61438E-02
        -0.20376E-02
         0.20840E-02
         0.38915E-02
         0.55324E-02
         0.66241E-02
         0.66930E-02
         0.60436E-02
         0.47096E-02
         0.25010E-02
         0.16474E-03
        -0.82617E-03
        -0.10097E-02
        -0.18541E-02
        -0.29161E-02
        -0.42286E-02
         0.17339E-03
        -0.61599E-03
        -0.47238E-03
         0.14610E-03
        -0.16493E-02
        -0.17875E-02
        -0.96927E-03
        -0.18806E-03
        -0.83626E-05
         0.41653E-04
        -0.91801E-03
        -0.14993E-02
        -0.25703E-02
        -0.18086E-03
        -0.95066E-04
        -0.31778E-04
        -0.16498E-03
         0.18791E-03
         0.73049E-03
         0.21957E-03
         0.26007E-02
         0.14345E-02
         0.36156E-02
         0.16566E-02
        -0.92740E-04
         0.11936E-02
         0.29267E-03
        -0.24625E-03
        -0.15423E-02
        -0.43067E-03
         0.54008E-04
         0.10900E-02
         0.84282E-04
        -0.69706E-04
        -0.11647E-02
        -0.11640E-02
        -0.23366E-02
         0.25283E-03
        -0.89036E-03
        -0.32804E-02
        -0.48218E-02
        -0.24341E-02
        -0.85398E-04
         0.38425E-02
         0.36449E-02
         0.32080E-02
         0.11977E-02
        -0.75147E-04
        -0.31468E-03
        -0.35515E-03
        -0.10041E-02
        -0.13896E-02
        -0.15169E-02
        -0.40569E-02
        -0.18322E-02
        -0.45629E-02
        -0.45992E-02
        -0.21694E-02
         0.48889E-03
         0.57596E-03
        -0.24298E-02
        -0.75328E-02
        -0.95034E-02
        -0.44334E-02
         0.11698E-02
         0.37937E-02
         0.55041E-02
         0.65326E-02
         0.68151E-02
         0.63921E-02
         0.49624E-02
         0.26417E-02
         0.28460E-03
        -0.74484E-03
        -0.83546E-03
        -0.15771E-02
        -0.28102E-02
        -0.42925E-02
         0.28469E-03
        -0.45312E-03
        -0.37176E-03
         0.21681E-03
        -0.15910E-02
        -0.17786E-02
        -0.75867E-03
        -0.42724E-04
         0.78409E-04
         0.17333E-03
        -0.72065E-03
        -0.12390E-02
        -0.22243E-02
        -0.45956E-04
        -0.31758E-04
         0.74004E-04
        -0.61754E-04
         0.23839E-03
         0.10584E-02
         0.54451E-03
         0.33392E-02
         0.21605E-02
         0.43330E-02
         0.20898E-02
         0.89925E-04
         0.14733E-02
         0.46013E-03
         0.11054E-03
        -0.80652E-03
         0.27578E-04
         0.12312E-03
         0.12477E-02
         0.11581E-03
        -0.27930E-04
        -0.10522E-02
        -0.10106E-02
        -0.20813E-02
         0.42747E-03
        -0.31484E-03
        -0.21341E-02
        -0.33230E-02
        -0.13062E-02
         0.73972E-03
         0.43790E-02
         0.39437E-02
         0.33462E-02
         0.12809E-02
        -0.27697E-04
        -0.32291E-03
        -0.36694E-03
        -0.99371E-03
        -0.13830E-02
        -0.13880E-02
        -0.40199E-02
        -0.16985E-02
        -0.43019E-02
        -0.41213E-02
        -0.17825E-02
         0.40321E-03
         0.50474E-03
        -0.17341E-02
        -0.58704E-02
        -0.74440E-02
        -0.29423E-02
         0.22595E-02
         0.49904E-02
         0.67786E-02
         0.76786E-02
         0.76361E-02
         0.67793E-02
         0.50629E-02
         0.26778E-02
         0.31251E-03
        -0.87651E-03
        -0.96706E-03
        -0.15866E-02
        -0.29036E-02
        -0.43981E-02
         0.37151E-03
        -0.27198E-03
        -0.24129E-03
         0.27420E-03
        -0.14626E-02
        -0.17658E-02
        -0.49370E-03
         0.97552E-04
         0.14906E-03
         0.27540E-03
        -0.46018E-03
        -0.85312E-03
        -0.17150E-02
         0.91575E-04
         0.62813E-04
         0.18356E-03
         0.16822E-04
         0.30045E-03
         0.12910E-02
         0.85198E-03
         0.38355E-02
         0.29762E-02
         0.46318E-02
         0.23333E-02
         0.27564E-03
         0.16505E-02
         0.63456E-03
         0.61115E-03
         0.33269E-03
         0.62654E-03
         0.22363E-03
         0.13697E-02
         0.17295E-03
        -0.33525E-04
        -0.89046E-03
        -0.82290E-03
        -0.17514E-02
         0.76550E-03
         0.74632E-03
        -0.71648E-04
        -0.45341E-03
         0.77038E-03
         0.20788E-02
         0.45212E-02
         0.39778E-02
         0.33551E-02
         0.13628E-02
         0.66296E-04
        -0.28540E-03
        -0.43286E-03
        -0.11560E-02
        -0.14932E-02
        -0.12408E-02
        -0.38524E-02
        -0.16423E-02
        -0.39486E-02
        -0.32739E-02
        -0.11324E-02
         0.35329E-03
         0.94327E-03
         0.64922E-03
        -0.15486E-02
        -0.24604E-02
         0.97040E-03
         0.46690E-02
         0.63024E-02
         0.74888E-02
         0.79868E-02
         0.75714E-02
         0.65255E-02
         0.49561E-02
         0.27568E-02
         0.45718E-03
        -0.84756E-03
        -0.11376E-02
        -0.18978E-02
        -0.31762E-02
        -0.44259E-02
         0.47673E-03
        -0.14447E-03
         0.76320E-04
         0.47536E-03
        -0.97857E-03
        -0.14735E-02
        -0.40377E-03
         0.21511E-03
         0.23426E-03
         0.41663E-03
        -0.34154E-03
        -0.69913E-03
        -0.15937E-02
         0.24153E-03
         0.25572E-03
         0.19799E-03
         0.56817E-04
         0.43899E-03
         0.11952E-02
         0.87876E-03
         0.36195E-02
         0.30088E-02
         0.41998E-02
         0.21197E-02
         0.47304E-03
         0.15466E-02
         0.91218E-03
         0.10836E-02
         0.97687E-03
         0.87398E-03
         0.38576E-03
         0.13999E-02
         0.44295E-03
         0.28670E-03
        -0.23752E-03
        -0.35371E-03
        -0.15720E-02
         0.12879E-02
         0.16895E-02
         0.12053E-02
         0.93106E-03
         0.15306E-02
         0.23701E-02
         0.41478E-02
         0.37982E-02
         0.32965E-02
         0.14406E-02
         0.28643E-03
         0.92907E-04
         0.25022E-04
        -0.76032E-03
        -0.12124E-02
        -0.37547E-03
        -0.32622E-02
        -0.10306E-02
        -0.37364E-02
        -0.29618E-02
        -0.75259E-03
         0.67272E-03
         0.20067E-02
         0.29240E-02
         0.12859E-02
        -0.81976E-04
         0.20155E-02
         0.50799E-02
         0.63274E-02
         0.69665E-02
         0.71474E-02
         0.68083E-02
         0.61869E-02
         0.48417E-02
         0.26942E-02
         0.59961E-03
        -0.36699E-03
        -0.53135E-03
        -0.15135E-02
        -0.30427E-02
        -0.41726E-02
         0.73629E-03
         0.31302E-03
         0.12654E-02
         0.12370E-02
         0.80498E-03
        -0.62383E-04
        -0.25078E-03
         0.46038E-03
         0.37424E-03
         0.68190E-03
        -0.85526E-04
        -0.36239E-03
        -0.13545E-02
         0.68508E-03
         0.10196E-02
         0.82572E-04
         0.11420E-04
         0.78635E-03
         0.60011E-03
         0.49560E-03
         0.22722E-02
         0.19445E-02
         0.27031E-02
         0.12445E-02
         0.73895E-03
         0.99658E-03
         0.15625E-02
         0.19642E-02
         0.20424E-02
         0.98572E-03
         0.67250E-03
         0.11818E-02
         0.13015E-02
         0.16118E-02
         0.21912E-02
         0.16305E-02
        -0.62855E-03
         0.25564E-02
         0.35749E-02
         0.37393E-02
         0.36995E-02
         0.25642E-02
         0.19320E-02
         0.29586E-02
         0.30807E-02
         0.28795E-02
         0.14255E-02
         0.86491E-03
         0.14093E-02
         0.18617E-02
         0.11525E-02
         0.37280E-03
         0.28170E-02
        -0.11962E-02
         0.22834E-02
        -0.18188E-02
        -0.21338E-02
         0.93114E-04
         0.21989E-02
         0.45106E-02
         0.71718E-02
         0.74128E-02
         0.52981E-02
         0.32094E-02
         0.34043E-02
         0.42169E-02
         0.44659E-02
         0.47007E-02
         0.49835E-02
         0.52935E-02
         0.43296E-02
         0.24540E-02
         0.11439E-02
         0.13122E-02
         0.17554E-02
         0.58648E-03
        -0.13134E-02
        -0.25727E-02
         0.94130E-03
         0.96865E-03
         0.29692E-02
         0.20620E-02
         0.36585E-02
         0.21808E-02
        -0.70098E-04
         0.75110E-03
         0.37329E-03
         0.73103E-03
         0.23518E-03
        -0.17279E-04
        -0.83918E-03
         0.12323E-02
         0.17402E-02
        -0.48125E-03
        -0.46021E-03
         0.91477E-03
        -0.75532E-03
        -0.89435E-03
        -0.51549E-03
        -0.10068E-02
         0.47550E-03
        -0.35065E-03
         0.18130E-03
        -0.21552E-03
         0.17948E-02
         0.15427E-02
         0.97937E-03
        -0.34425E-03
         0.41302E-03
         0.36828E-03
         0.17832E-02
         0.27560E-02
         0.58530E-02
         0.46921E-02
         0.11837E-02
         0.31294E-02
         0.36169E-02
         0.31602E-02
         0.28444E-02
         0.97312E-03
        -0.58406E-03
         0.13686E-02
         0.21181E-02
         0.23350E-02
         0.98749E-03
         0.82035E-03
         0.20375E-02
         0.31356E-02
         0.28680E-02
         0.22886E-02
         0.77104E-02
         0.28638E-02
         0.77822E-02
         0.22878E-02
        -0.44546E-03
         0.81973E-03
         0.32269E-02
         0.57510E-02
         0.83398E-02
         0.81236E-02
         0.53820E-02
         0.11278E-02
        -0.13297E-02
        -0.11810E-02
        -0.14715E-03
         0.17993E-02
         0.34660E-02
         0.49407E-02
         0.42104E-02
         0.21066E-02
         0.82996E-03
         0.15675E-02
         0.29229E-02
         0.25461E-02
         0.15919E-02
         0.10172E-02
         0.66273E-03
         0.92367E-03
         0.10379E-02
         0.36052E-03
         0.23601E-02
         0.17112E-02
         0.83717E-03
         0.64950E-03
         0.83944E-03
         0.93559E-03
         0.42119E-03
         0.71755E-03
         0.14430E-02
         0.35983E-03
         0.34166E-03
         0.10958E-02
         0.92717E-03
         0.27425E-03
         0.41724E-02
         0.32297E-02
         0.11177E-01
         0.95604E-02
         0.11824E-01
         0.61774E-02
         0.10521E-02
         0.41941E-02
         0.87339E-03
         0.11436E-02
         0.15984E-02
         0.25098E-02
         0.27828E-03
         0.34923E-02
        -0.89697E-03
        -0.60887E-03
         0.29924E-02
         0.21932E-02
         0.18816E-02
         0.58155E-03
         0.63181E-03
         0.42055E-03
         0.10331E-02
         0.36617E-02
         0.69481E-02
         0.10602E-01
         0.94469E-02
         0.86585E-02
         0.36989E-02
        -0.77074E-03
        -0.29079E-02
        -0.23099E-02
        -0.79732E-03
         0.57484E-03
         0.49128E-02
         0.48341E-02
         0.48208E-02
         0.38108E-02
         0.17301E-02
         0.12529E-02
         0.13948E-02
         0.74823E-03
        -0.55838E-03
        -0.21635E-02
        -0.18777E-02
         0.34744E-02
         0.12540E-01
         0.19508E-01
         0.21979E-01
         0.21174E-01
         0.18602E-01
         0.16278E-01
         0.13446E-01
         0.70277E-02
        -0.15138E-02
        -0.63277E-02
        -0.43308E-02
        -0.12719E-03
         0.30631E-02
         0.44437E-02
        -0.20514E-04
        -0.96578E-04
        -0.78567E-02
        -0.55253E-02
        -0.69954E-02
        -0.37284E-02
         0.37013E-02
         0.17191E-03
         0.30613E-02
         0.28207E-02
         0.85967E-03
         0.28133E-02
         0.71366E-02
        -0.27115E-02
        -0.40085E-02
         0.96387E-02
         0.82794E-02
        -0.68361E-03
         0.23409E-01
         0.21705E-01
         0.52167E-01
         0.51836E-01
         0.47361E-01
         0.29364E-01
         0.93150E-02
         0.21484E-01
         0.43194E-03
         0.85059E-02
         0.16101E-01
         0.20276E-01
         0.39552E-02
         0.17010E-01
        -0.76821E-02
        -0.10346E-01
        -0.10964E-01
        -0.10329E-01
        -0.69658E-04
        -0.33908E-02
         0.33568E-02
         0.95772E-02
         0.14000E-01
         0.25405E-01
         0.41545E-01
         0.38596E-01
         0.31333E-01
         0.27812E-01
         0.15577E-01
        -0.95412E-03
        -0.14400E-01
        -0.15596E-01
        -0.10015E-01
        -0.55888E-02
        -0.95460E-02
         0.16823E-02
        -0.11855E-01
        -0.96654E-03
         0.42143E-02
         0.23250E-02
        -0.31690E-02
        -0.77098E-02
        -0.86060E-02
        -0.46672E-02
         0.16378E-02
         0.25264E-01
         0.64662E-01
         0.90319E-01
         0.90141E-01
         0.73746E-01
         0.56564E-01
         0.43032E-01
         0.36528E-01
         0.22751E-01
        -0.31474E-02
        -0.21458E-01
        -0.19057E-01
        -0.63016E-02
         0.36743E-02
         0.59007E-02
  
SCALARS                      strain_yy  double 1
LOOKUP_TABLE default
         0.19199E-01
         0.45922E-01
         0.11542E-01
        -0.20359E-01
         0.88735E-10
         0.16809E-09
         0.95867E-10
        -0.43630E-10
         0.27184E-02
        -0.31132E-01
        -0.77044E-11
        -0.21224E-09
         0.63142E-01
         0.29643E-01
         0.19432E-09
         0.12221E-09
         0.75376E-02
         0.82741E-02
         0.10143E-10
         0.29984E-10
         0.59084E-01
         0.94759E-01
         0.11205E+00
         0.20011E-09
         0.19114E-09
         0.23525E-09
         0.25597E-01
         0.46682E-01
         0.75035E-10
         0.54119E-10
        -0.16597E-02
         0.44693E-02
        -0.67365E-02
        -0.26334E-10
        -0.11936E-10
        -0.10598E-10
         0.21096E-01
         0.18820E-02
         0.14595E-10
        -0.38712E-11
         0.55485E-01
        -0.14902E-01
         0.99654E-10
         0.27978E-10
         0.10320E+00
         0.43816E-01
         0.13536E-09
         0.62967E-10
        -0.11361E-01
        -0.10636E-10
         0.26392E-01
         0.37833E-10
        -0.95423E-02
         0.90620E-13
        -0.56881E-01
        -0.70193E-10
        -0.11601E+00
        -0.46689E-01
        -0.20386E-09
        -0.63285E-10
        -0.16191E-01
         0.12218E-01
        -0.38535E-10
        -0.13305E-12
        -0.30889E-01
        -0.58522E-10
        -0.47893E-01
        -0.19564E-09
         0.52054E-01
         0.49253E-01
         0.27447E-10
         0.84563E-10
         0.81679E-01
         0.17545E-09
        -0.14681E-01
        -0.37222E-11
        -0.98982E-01
        -0.78424E-10
        -0.18799E+00
        -0.17877E-09
        -0.17465E+00
        -0.15909E+00
        -0.28556E-09
        -0.35238E-09
        -0.10169E+00
        -0.19306E-09
         0.11142E+00
         0.17297E-09
         0.85623E-01
         0.12234E-09
         0.67853E-01
         0.15911E-01
        -0.31077E-10
        -0.32456E-10
        -0.32343E-01
        -0.21301E-10
        -0.60203E-01
        -0.12131E-09
        -0.66160E-01
        -0.20097E-09
        -0.50901E-01
        -0.45000E-01
        -0.33148E-09
        -0.32122E-09
         0.11997E+00
         0.12017E+00
         0.75962E-10
        -0.21831E-09
         0.43797E-01
         0.92753E-10
         0.94033E-01
         0.15588E-09
         0.16152E+00
         0.27783E-09
         0.16302E+00
         0.18979E-09
         0.13705E+00
         0.88709E-10
         0.63356E-01
         0.17967E-10
         0.14032E+00
         0.38119E-10
         0.34241E+00
        -0.27972E-09
         0.12912E+00
        -0.54679E-09
        -0.21035E+00
        -0.28707E-09
        -0.23050E+00
        -0.21660E-09
        -0.79835E-01
        -0.11255E-09
         0.66684E-01
        -0.77271E-11
         0.16374E+00
         0.12971E-09
         0.21507E+00
         0.30074E-09
         0.15808E+00
         0.56592E-09
         0.84169E-01
         0.30525E-09
         0.25993E-01
         0.75726E-10
        -0.17942E-01
         0.31277E-11
        -0.42489E-01
        -0.28281E-09
        -0.28369E-01
        -0.36723E-09
         0.12078E-01
        -0.60986E-09
         0.36646E-01
        -0.44634E-09
         0.68774E-01
        -0.38093E-09
         0.13471E-01
         0.32722E-01
         0.54606E-02
        -0.17782E-01
         0.15732E-01
         0.13019E-01
         0.51667E-01
         0.28820E-01
         0.81583E-02
         0.14671E-01
         0.51679E-01
         0.67551E-01
         0.81309E-01
         0.23603E-01
         0.12705E-01
         0.42748E-02
         0.13520E-01
        -0.13524E-01
         0.33673E-01
         0.66517E-02
         0.45096E-01
        -0.25446E-01
         0.66917E-01
         0.43325E-01
        -0.79403E-02
         0.21419E-01
        -0.17466E-01
        -0.71117E-01
        -0.13299E+00
        -0.57600E-01
        -0.20329E-01
        -0.41432E-02
        -0.29965E-01
        -0.25837E-01
         0.33324E-01
         0.32586E-01
         0.59783E-01
        -0.69622E-01
        -0.15206E+00
        -0.21393E+00
        -0.23484E+00
        -0.20344E+00
        -0.13112E+00
         0.52609E-01
         0.22064E-01
        -0.20808E-02
        -0.24952E-01
        -0.40627E-01
        -0.40167E-01
        -0.14772E-01
         0.37683E-01
         0.26395E-01
         0.91633E-01
         0.13351E+00
         0.50825E-01
         0.76420E-01
         0.11205E+00
         0.97104E-01
         0.30461E-01
        -0.90056E-01
        -0.20296E+00
        -0.11628E+00
        -0.11513E+00
        -0.31054E+00
        -0.25534E+00
        -0.90548E-01
         0.23940E-01
         0.84699E-01
         0.96555E-01
         0.57763E-01
         0.69344E-02
        -0.37164E-01
        -0.72835E-01
        -0.78314E-01
         0.37526E-02
         0.15769E+00
         0.21282E+00
         0.17628E+00
         0.21317E-02
         0.13284E-01
         0.33616E-02
        -0.50216E-02
         0.23748E-01
         0.45010E-01
         0.29196E-01
         0.17028E-01
         0.50167E-02
         0.13894E-01
         0.36218E-01
         0.49173E-01
         0.52108E-01
         0.19579E-01
         0.10745E-01
         0.46801E-02
         0.16293E-01
        -0.10151E-01
         0.25975E-01
         0.98937E-02
         0.12514E-01
        -0.25197E-01
         0.10439E-01
         0.19054E-01
        -0.16867E-02
         0.44260E-02
        -0.90380E-02
        -0.51815E-01
        -0.10705E+00
        -0.44261E-01
        -0.14082E-01
        -0.14537E-01
        -0.82862E-02
         0.16822E-01
         0.19035E-01
         0.18367E-01
         0.34810E-01
        -0.48544E-01
        -0.10817E+00
        -0.16432E+00
        -0.20030E+00
        -0.16872E+00
        -0.10416E+00
        -0.34446E-02
        -0.20685E-01
        -0.38915E-01
        -0.39056E-01
        -0.32175E-01
        -0.51375E-02
         0.45415E-01
         0.96213E-01
         0.77480E-01
         0.36375E-01
         0.78209E-01
         0.33785E-01
         0.54272E-01
         0.78843E-01
         0.67871E-01
         0.11252E-01
        -0.72117E-01
        -0.15210E+00
        -0.19429E+00
        -0.20892E+00
        -0.23101E+00
        -0.19292E+00
        -0.96044E-01
        -0.40162E-01
        -0.21058E-01
        -0.25237E-01
        -0.40297E-01
        -0.60561E-01
        -0.77799E-01
        -0.86496E-01
        -0.53764E-01
         0.38138E-01
         0.15748E+00
         0.19826E+00
         0.15186E+00
        -0.92741E-04
         0.39344E-02
         0.30007E-02
         0.60921E-03
         0.17748E-01
         0.30474E-01
         0.12923E-01
         0.89594E-02
         0.46502E-02
         0.10480E-01
         0.19239E-01
         0.27616E-01
         0.25080E-01
         0.12497E-01
         0.94616E-02
         0.40838E-02
         0.13063E-01
        -0.33036E-02
         0.13667E-01
         0.77276E-02
        -0.53675E-02
        -0.22521E-01
        -0.11418E-01
         0.41138E-02
         0.17050E-02
        -0.22263E-02
        -0.31405E-02
        -0.32291E-01
        -0.73093E-01
        -0.26476E-01
        -0.64515E-02
        -0.11907E-01
         0.33861E-03
         0.16343E-01
         0.12116E-01
         0.95912E-02
         0.15185E-01
        -0.27333E-01
        -0.74788E-01
        -0.12683E+00
        -0.16226E+00
        -0.12272E+00
        -0.70577E-01
        -0.18095E-01
        -0.23287E-01
        -0.29516E-01
        -0.24454E-01
        -0.14426E-01
         0.52130E-02
         0.33351E-01
         0.58759E-01
         0.48044E-01
         0.17499E-01
         0.36700E-01
         0.21124E-01
         0.28591E-01
         0.40348E-01
         0.38193E-01
         0.91096E-02
        -0.44464E-01
        -0.11830E+00
        -0.17481E+00
        -0.20696E+00
        -0.20190E+00
        -0.14358E+00
        -0.91567E-01
        -0.61227E-01
        -0.53281E-01
        -0.51540E-01
        -0.43331E-01
        -0.40231E-01
        -0.39659E-01
        -0.30667E-01
        -0.82292E-03
         0.47137E-01
         0.96852E-01
         0.10544E+00
         0.74621E-01
         0.22933E-02
         0.30080E-02
         0.13635E-02
        -0.26035E-03
         0.37805E-02
         0.39259E-02
         0.78055E-02
         0.71549E-02
         0.57241E-02
         0.90458E-02
         0.11746E-01
         0.16365E-01
         0.13036E-01
         0.94550E-02
         0.95546E-02
         0.37632E-02
         0.98153E-02
         0.74942E-03
         0.71064E-02
         0.56749E-02
        -0.47923E-02
        -0.16278E-01
        -0.63551E-02
         0.18659E-02
         0.44943E-02
        -0.47135E-03
         0.13497E-02
        -0.16490E-01
        -0.43661E-01
        -0.13450E-01
        -0.18264E-02
        -0.42828E-02
        -0.12676E-02
         0.28370E-03
         0.41075E-02
         0.45587E-02
         0.76387E-02
        -0.11282E-01
        -0.44800E-01
        -0.85478E-01
        -0.11675E+00
        -0.83985E-01
        -0.47906E-01
        -0.85752E-02
        -0.10087E-01
        -0.11266E-01
        -0.84050E-02
        -0.56784E-02
        -0.27600E-02
         0.11009E-02
         0.50638E-02
         0.48098E-02
         0.66424E-02
         0.76422E-02
         0.10142E-01
         0.13730E-01
         0.20045E-01
         0.22341E-01
         0.12550E-01
        -0.18447E-01
        -0.82133E-01
        -0.14572E+00
        -0.18277E+00
        -0.16751E+00
        -0.11433E+00
        -0.66287E-01
        -0.37863E-01
        -0.27996E-01
        -0.24646E-01
        -0.19328E-01
        -0.14596E-01
        -0.11681E-01
        -0.90094E-02
        -0.45347E-02
         0.20974E-02
         0.10990E-01
         0.15436E-01
         0.12716E-01
         0.27512E-02
         0.26887E-02
         0.71323E-03
        -0.32042E-03
        -0.20807E-02
        -0.53065E-02
         0.51150E-02
         0.50011E-02
         0.44483E-02
         0.60201E-02
         0.76725E-02
         0.10607E-01
         0.74511E-02
         0.71717E-02
         0.96266E-02
         0.29825E-02
         0.59402E-02
         0.19663E-02
         0.34169E-02
         0.34640E-02
        -0.25545E-02
        -0.85541E-02
        -0.27092E-02
         0.99017E-03
         0.40107E-02
         0.30573E-03
         0.35732E-02
        -0.57281E-02
        -0.21120E-01
        -0.54938E-02
        -0.18121E-03
        -0.13035E-02
        -0.16316E-02
        -0.46522E-02
         0.10602E-03
         0.20943E-02
         0.43638E-02
         0.42189E-03
        -0.18413E-01
        -0.43684E-01
        -0.65283E-01
        -0.47214E-01
        -0.26604E-01
        -0.34752E-02
        -0.42187E-02
        -0.46109E-02
        -0.32827E-02
        -0.35191E-02
        -0.59758E-02
        -0.93194E-02
        -0.11971E-01
        -0.91333E-02
        -0.68489E-04
        -0.47924E-02
         0.32257E-02
         0.62182E-02
         0.10365E-01
         0.14306E-01
         0.14080E-01
         0.17753E-02
        -0.37091E-01
        -0.82633E-01
        -0.11222E+00
        -0.10715E+00
        -0.70860E-01
        -0.34771E-01
        -0.17308E-01
        -0.10974E-01
        -0.94617E-02
        -0.82633E-02
        -0.61212E-02
        -0.41963E-02
        -0.42805E-02
        -0.80482E-02
        -0.13293E-01
        -0.17037E-01
        -0.15461E-01
        -0.10179E-01
         0.15618E-02
         0.16590E-02
         0.47278E-03
        -0.31584E-04
        -0.19592E-02
        -0.37803E-02
         0.26390E-02
         0.23401E-02
         0.22140E-02
         0.26923E-02
         0.42557E-02
         0.63088E-02
         0.39425E-02
         0.42541E-02
         0.74316E-02
         0.17749E-02
         0.25976E-02
         0.14661E-02
         0.12024E-02
         0.15230E-02
        -0.14942E-02
        -0.27669E-02
        -0.21213E-02
        -0.48532E-04
         0.21020E-02
        -0.14164E-03
         0.30818E-02
        -0.37551E-03
        -0.64073E-02
        -0.11947E-02
         0.13661E-03
        -0.91534E-03
        -0.74293E-03
        -0.29290E-02
        -0.36058E-03
         0.13520E-02
         0.26003E-02
         0.46984E-02
        -0.28138E-02
        -0.13600E-01
        -0.23381E-01
        -0.16818E-01
        -0.88698E-02
        -0.27660E-02
        -0.31389E-02
        -0.33434E-02
        -0.22333E-02
        -0.21634E-02
        -0.37603E-02
        -0.61769E-02
        -0.81227E-02
        -0.62050E-02
        -0.88733E-03
        -0.42780E-02
         0.17954E-02
         0.33278E-02
         0.50158E-02
         0.83376E-02
         0.11541E-01
         0.91843E-02
        -0.70455E-02
        -0.28075E-01
        -0.43301E-01
        -0.41165E-01
        -0.24719E-01
        -0.11467E-01
        -0.65052E-02
        -0.53878E-02
        -0.58681E-02
        -0.56863E-02
        -0.45645E-02
        -0.30544E-02
        -0.28157E-02
        -0.51595E-02
        -0.86635E-02
        -0.11733E-01
        -0.10918E-01
        -0.74813E-02
         0.56101E-03
         0.86865E-03
         0.19239E-03
        -0.96204E-04
        -0.14284E-02
        -0.20848E-02
         0.11388E-02
         0.61593E-03
         0.72776E-03
         0.63354E-03
         0.19880E-02
         0.34382E-02
         0.22247E-02
         0.19689E-02
         0.46842E-02
         0.76742E-03
         0.59050E-03
         0.73854E-03
        -0.12556E-03
         0.17839E-03
        -0.10515E-02
         0.13999E-03
        -0.22064E-02
        -0.82324E-03
         0.72770E-03
        -0.61134E-03
         0.20480E-02
         0.19815E-02
         0.15352E-02
         0.67193E-03
         0.38242E-04
        -0.85705E-03
        -0.36604E-03
        -0.15429E-02
        -0.31366E-03
         0.10749E-02
         0.18186E-02
         0.52747E-02
         0.48511E-02
         0.37178E-02
         0.23672E-02
         0.92951E-03
         0.66712E-03
        -0.26694E-02
        -0.26119E-02
        -0.26213E-02
        -0.16986E-02
        -0.13587E-02
        -0.20284E-02
        -0.32206E-02
        -0.41213E-02
        -0.31245E-02
        -0.67478E-03
        -0.28781E-02
         0.17249E-02
         0.25026E-02
         0.29360E-02
         0.47662E-02
         0.75943E-02
         0.99556E-02
         0.92189E-02
         0.70297E-02
         0.39604E-02
         0.17968E-02
         0.27128E-02
         0.20019E-02
        -0.10996E-02
        -0.37180E-02
        -0.48139E-02
        -0.43786E-02
        -0.35817E-02
        -0.24684E-02
        -0.19613E-02
        -0.28536E-02
        -0.44423E-02
        -0.58869E-02
        -0.52015E-02
        -0.37798E-02
         0.13684E-03
         0.53381E-03
        -0.88915E-05
        -0.34314E-03
        -0.15936E-02
        -0.21564E-02
         0.44844E-03
        -0.16150E-03
         0.72729E-04
        -0.30349E-03
         0.82590E-03
         0.19340E-02
         0.14437E-02
         0.73317E-03
         0.29716E-02
         0.19985E-03
        -0.35873E-03
         0.33022E-03
        -0.87236E-03
        -0.54274E-03
        -0.10624E-02
         0.12903E-02
        -0.24667E-02
        -0.13614E-02
         0.29310E-04
        -0.95038E-03
         0.12919E-02
         0.26441E-02
         0.46169E-02
         0.12540E-02
        -0.16254E-03
        -0.90881E-03
        -0.53183E-03
        -0.15756E-02
        -0.42005E-03
         0.95979E-03
         0.15093E-02
         0.47997E-02
         0.72868E-02
         0.10469E-01
         0.13262E-01
         0.83349E-02
         0.45044E-02
        -0.26820E-02
        -0.23781E-02
        -0.22943E-02
        -0.15301E-02
        -0.12690E-02
        -0.18625E-02
        -0.29112E-02
        -0.36927E-02
        -0.29389E-02
        -0.71376E-03
        -0.30115E-02
         0.17212E-02
         0.22419E-02
         0.21528E-02
         0.30820E-02
         0.52375E-02
         0.91850E-02
         0.14771E-01
         0.21321E-01
         0.25447E-01
         0.21208E-01
         0.14851E-01
         0.80382E-02
         0.80450E-03
        -0.32103E-02
        -0.42177E-02
        -0.37302E-02
        -0.30938E-02
        -0.22132E-02
        -0.17824E-02
        -0.24508E-02
        -0.37934E-02
        -0.50824E-02
        -0.46786E-02
        -0.37491E-02
         0.59468E-04
         0.51834E-03
        -0.22645E-04
        -0.42543E-03
        -0.19698E-02
        -0.27680E-02
         0.25413E-03
        -0.43721E-03
        -0.10136E-03
        -0.64092E-03
         0.42175E-03
         0.14598E-02
         0.12931E-02
         0.24901E-03
         0.23330E-02
         0.63653E-04
        -0.63539E-03
         0.29342E-03
        -0.11549E-02
        -0.78823E-03
        -0.12730E-02
         0.14215E-02
        -0.27860E-02
        -0.16832E-02
        -0.18757E-03
        -0.12128E-02
         0.97525E-03
         0.28456E-02
         0.55438E-02
         0.14015E-02
        -0.27402E-03
        -0.10860E-02
        -0.70153E-03
        -0.19596E-02
        -0.48941E-03
         0.11033E-02
         0.15891E-02
         0.45742E-02
         0.81667E-02
         0.12765E-01
         0.16578E-01
         0.10302E-01
         0.53979E-02
        -0.30450E-02
        -0.26470E-02
        -0.24679E-02
        -0.16789E-02
        -0.15043E-02
        -0.23309E-02
        -0.36757E-02
        -0.46954E-02
        -0.37544E-02
        -0.79074E-03
        -0.39867E-02
         0.20771E-02
         0.24585E-02
         0.21268E-02
         0.26908E-02
         0.44695E-02
         0.88491E-02
         0.17104E-01
         0.26791E-01
         0.32264E-01
         0.26389E-01
         0.17801E-01
         0.92014E-02
         0.10838E-02
        -0.30832E-02
        -0.44247E-02
        -0.39835E-02
        -0.32216E-02
        -0.23283E-02
        -0.20311E-02
        -0.30842E-02
        -0.49033E-02
        -0.65346E-02
        -0.61857E-02
        -0.51999E-02
         0.89447E-04
         0.63803E-03
         0.85916E-04
        -0.32810E-03
        -0.21760E-02
        -0.31618E-02
         0.26718E-03
        -0.58716E-03
        -0.10939E-03
        -0.84663E-03
         0.35522E-03
         0.15098E-02
         0.15411E-02
         0.79140E-04
         0.23304E-02
         0.13901E-03
        -0.68323E-03
         0.46500E-03
        -0.13141E-02
        -0.96427E-03
        -0.17756E-02
         0.96005E-03
        -0.34381E-02
        -0.20148E-02
        -0.30897E-03
        -0.14848E-02
         0.87797E-03
         0.30125E-02
         0.60181E-02
         0.13754E-02
        -0.32615E-03
        -0.14095E-02
        -0.76202E-03
        -0.22259E-02
        -0.42917E-03
         0.14328E-02
         0.19764E-02
         0.49035E-02
         0.91742E-02
         0.14425E-01
         0.18395E-01
         0.10868E-01
         0.52036E-02
        -0.38150E-02
        -0.34128E-02
        -0.32664E-02
        -0.22653E-02
        -0.20168E-02
        -0.30113E-02
        -0.46030E-02
        -0.57944E-02
        -0.44616E-02
        -0.75324E-03
        -0.46944E-02
         0.27577E-02
         0.31951E-02
         0.26488E-02
         0.29415E-02
         0.46096E-02
         0.96610E-02
         0.19912E-01
         0.31314E-01
         0.35990E-01
         0.27108E-01
         0.17174E-01
         0.85228E-02
         0.29030E-03
        -0.40088E-02
        -0.56385E-02
        -0.51460E-02
        -0.42733E-02
        -0.31970E-02
        -0.28610E-02
        -0.42816E-02
        -0.65114E-02
        -0.82907E-02
        -0.76632E-02
        -0.63034E-02
         0.30133E-04
         0.59743E-03
         0.13027E-03
        -0.28017E-03
        -0.20774E-02
        -0.31422E-02
         0.17326E-03
        -0.72547E-03
        -0.15433E-03
        -0.96610E-03
         0.26941E-03
         0.14810E-02
         0.15418E-02
        -0.12076E-04
         0.23087E-02
         0.21058E-03
        -0.71994E-03
         0.54616E-03
        -0.13521E-02
        -0.97697E-03
        -0.19641E-02
         0.10259E-02
        -0.36825E-02
        -0.21011E-02
        -0.33724E-03
        -0.15648E-02
         0.87570E-03
         0.32323E-02
         0.66818E-02
         0.16206E-02
        -0.40042E-03
        -0.16610E-02
        -0.82929E-03
        -0.23323E-02
        -0.28710E-03
         0.15583E-02
         0.20476E-02
         0.50105E-02
         0.96381E-02
         0.15531E-01
         0.20293E-01
         0.12396E-01
         0.59863E-02
        -0.41456E-02
        -0.39442E-02
        -0.40322E-02
        -0.29071E-02
        -0.25646E-02
        -0.35571E-02
        -0.51140E-02
        -0.62092E-02
        -0.46179E-02
        -0.53169E-03
        -0.45256E-02
         0.30936E-02
         0.33952E-02
         0.26967E-02
         0.29362E-02
         0.45638E-02
         0.96745E-02
         0.20495E-01
         0.33141E-01
         0.39360E-01
         0.30766E-01
         0.19045E-01
         0.86975E-02
        -0.88082E-04
        -0.44942E-02
        -0.62465E-02
        -0.60332E-02
        -0.53806E-02
        -0.42501E-02
        -0.38387E-02
        -0.53706E-02
        -0.75668E-02
        -0.89311E-02
        -0.79409E-02
        -0.62729E-02
        -0.19335E-04
         0.45810E-03
        -0.11732E-04
        -0.39016E-03
        -0.22312E-02
        -0.32704E-02
         0.17368E-04
        -0.79315E-03
        -0.19038E-03
        -0.10266E-02
         0.11320E-03
         0.12297E-02
         0.12126E-02
        -0.76270E-04
         0.22508E-02
         0.22383E-03
        -0.78601E-03
         0.49771E-03
        -0.13286E-02
        -0.10015E-02
        -0.18646E-02
         0.12681E-02
        -0.35183E-02
        -0.19920E-02
        -0.39581E-03
        -0.15021E-02
         0.90199E-03
         0.33281E-02
         0.70747E-02
         0.17753E-02
        -0.50934E-03
        -0.17520E-02
        -0.96984E-03
        -0.24843E-02
        -0.50947E-03
         0.12410E-02
         0.16778E-02
         0.52335E-02
         0.99483E-02
         0.15999E-01
         0.21602E-01
         0.13742E-01
         0.67770E-02
        -0.40452E-02
        -0.40353E-02
        -0.42750E-02
        -0.31824E-02
        -0.28533E-02
        -0.37953E-02
        -0.52711E-02
        -0.62905E-02
        -0.47112E-02
        -0.79949E-03
        -0.46319E-02
         0.24788E-02
         0.26849E-02
         0.21365E-02
         0.25520E-02
         0.44407E-02
         0.10273E-01
         0.21224E-01
         0.33394E-01
         0.41979E-01
         0.34454E-01
         0.20983E-01
         0.93184E-02
         0.43405E-04
        -0.43054E-02
        -0.61885E-02
        -0.62573E-02
        -0.57165E-02
        -0.46558E-02
        -0.42942E-02
        -0.56905E-02
        -0.76929E-02
        -0.88936E-02
        -0.78532E-02
        -0.63144E-02
        -0.10540E-04
         0.35722E-03
        -0.21415E-03
        -0.46585E-03
        -0.26721E-02
        -0.35251E-02
        -0.75984E-04
        -0.82229E-03
        -0.16835E-03
        -0.10413E-02
         0.60497E-04
         0.11501E-02
         0.97425E-03
        -0.49223E-04
         0.24591E-02
         0.25613E-03
        -0.78262E-03
         0.48532E-03
        -0.12327E-02
        -0.99616E-03
        -0.16656E-02
         0.14174E-02
        -0.32330E-02
        -0.18067E-02
        -0.42875E-03
        -0.13981E-02
         0.94630E-03
         0.32273E-02
         0.67734E-02
         0.16982E-02
        -0.57795E-03
        -0.17655E-02
        -0.10231E-02
        -0.25090E-02
        -0.10750E-02
         0.74585E-03
         0.13009E-02
         0.56206E-02
         0.99920E-02
         0.15350E-01
         0.20609E-01
         0.13336E-01
         0.67939E-02
        -0.38199E-02
        -0.39445E-02
        -0.42521E-02
        -0.32439E-02
        -0.29343E-02
        -0.37532E-02
        -0.51087E-02
        -0.60944E-02
        -0.47186E-02
        -0.16717E-02
        -0.53941E-02
         0.14170E-02
         0.19394E-02
         0.17070E-02
         0.23648E-02
         0.47835E-02
         0.11541E-01
         0.21902E-01
         0.32010E-01
         0.40046E-01
         0.34014E-01
         0.21633E-01
         0.97594E-02
         0.19303E-03
        -0.39648E-02
        -0.58882E-02
        -0.61452E-02
        -0.56437E-02
        -0.47047E-02
        -0.44113E-02
        -0.54565E-02
        -0.71374E-02
        -0.84437E-02
        -0.77379E-02
        -0.68077E-02
        -0.15448E-06
         0.34597E-03
        -0.20780E-03
        -0.35514E-03
        -0.27288E-02
        -0.33983E-02
        -0.10571E-03
        -0.85594E-03
        -0.15041E-03
        -0.10344E-02
         0.67274E-04
         0.11781E-02
         0.96021E-03
        -0.26738E-04
         0.25386E-02
         0.33722E-03
        -0.75887E-03
         0.55218E-03
        -0.10597E-02
        -0.96600E-03
        -0.12602E-02
         0.15766E-02
        -0.27587E-02
        -0.15093E-02
        -0.40790E-03
        -0.12186E-02
         0.95193E-03
         0.31194E-02
         0.63628E-02
         0.15797E-02
        -0.57941E-03
        -0.17486E-02
        -0.94870E-03
        -0.22962E-02
        -0.12319E-02
         0.64578E-03
         0.12619E-02
         0.56034E-02
         0.96995E-02
         0.14527E-01
         0.18945E-01
         0.12180E-01
         0.64180E-02
        -0.34654E-02
        -0.38192E-02
        -0.43024E-02
        -0.33786E-02
        -0.30509E-02
        -0.37120E-02
        -0.48541E-02
        -0.56816E-02
        -0.43832E-02
        -0.19881E-02
        -0.56514E-02
         0.11540E-02
         0.18680E-02
         0.16485E-02
         0.22857E-02
         0.47890E-02
         0.11559E-01
         0.21397E-01
         0.30688E-01
         0.36423E-01
         0.30978E-01
         0.21309E-01
         0.10442E-01
         0.84634E-03
        -0.33572E-02
        -0.53384E-02
        -0.59498E-02
        -0.57393E-02
        -0.49841E-02
        -0.47277E-02
        -0.54872E-02
        -0.68218E-02
        -0.78716E-02
        -0.72351E-02
        -0.67774E-02
        -0.31049E-04
         0.37455E-03
        -0.92808E-04
        -0.27740E-03
        -0.23342E-02
        -0.30008E-02
        -0.67962E-04
        -0.86064E-03
        -0.16651E-03
        -0.10205E-02
         0.11809E-03
         0.12628E-02
         0.10891E-02
        -0.18389E-04
         0.24776E-02
         0.34038E-03
        -0.76229E-03
         0.54887E-03
        -0.10299E-02
        -0.96519E-03
        -0.10840E-02
         0.17112E-02
        -0.26795E-02
        -0.14672E-02
        -0.41387E-03
        -0.11962E-02
         0.91082E-03
         0.30387E-02
         0.61811E-02
         0.15012E-02
        -0.60204E-03
        -0.17693E-02
        -0.92420E-03
        -0.21591E-02
        -0.92110E-03
         0.84747E-03
         0.14321E-02
         0.53051E-02
         0.93466E-02
         0.14222E-01
         0.18491E-01
         0.11805E-01
         0.63198E-02
        -0.33993E-02
        -0.38030E-02
        -0.43590E-02
        -0.34530E-02
        -0.31040E-02
        -0.37172E-02
        -0.47627E-02
        -0.54899E-02
        -0.40735E-02
        -0.15560E-02
        -0.48625E-02
         0.15333E-02
         0.21953E-02
         0.18263E-02
         0.23477E-02
         0.46140E-02
         0.10697E-01
         0.20287E-01
         0.30240E-01
         0.35746E-01
         0.30446E-01
         0.21472E-01
         0.11118E-01
         0.14423E-02
        -0.32817E-02
        -0.52215E-02
        -0.58773E-02
        -0.58386E-02
        -0.51016E-02
        -0.48101E-02
        -0.56127E-02
        -0.69174E-02
        -0.77313E-02
        -0.67360E-02
        -0.58903E-02
        -0.12230E-03
         0.27616E-03
        -0.19288E-03
        -0.40108E-03
        -0.22525E-02
        -0.28961E-02
        -0.11769E-03
        -0.88066E-03
        -0.23110E-03
        -0.10475E-02
         0.47902E-04
         0.11661E-02
         0.10186E-02
        -0.12900E-03
         0.21993E-02
         0.19276E-03
        -0.80322E-03
         0.39541E-03
        -0.11501E-02
        -0.98257E-03
        -0.12045E-02
         0.17371E-02
        -0.28196E-02
        -0.16422E-02
        -0.45266E-03
        -0.13102E-02
         0.77204E-03
         0.30411E-02
         0.65851E-02
         0.16080E-02
        -0.62316E-03
        -0.17229E-02
        -0.95656E-03
        -0.21447E-02
        -0.89587E-03
         0.76362E-03
         0.13385E-02
         0.49004E-02
         0.93275E-02
         0.15162E-01
         0.20552E-01
         0.13200E-01
         0.69117E-02
        -0.34231E-02
        -0.36602E-02
        -0.40833E-02
        -0.31716E-02
        -0.28280E-02
        -0.34869E-02
        -0.45440E-02
        -0.52345E-02
        -0.39066E-02
        -0.14367E-02
        -0.44878E-02
         0.14753E-02
         0.21516E-02
         0.17862E-02
         0.22909E-02
         0.42959E-02
         0.96610E-02
         0.19988E-01
         0.32557E-01
         0.40763E-01
         0.35235E-01
         0.23243E-01
         0.11231E-01
         0.15841E-02
        -0.32429E-02
        -0.50348E-02
        -0.55246E-02
        -0.54491E-02
        -0.45886E-02
        -0.42255E-02
        -0.52111E-02
        -0.65927E-02
        -0.73127E-02
        -0.63199E-02
        -0.54665E-02
        -0.16950E-03
         0.17179E-03
        -0.34105E-03
        -0.50112E-03
        -0.23106E-02
        -0.28372E-02
        -0.17222E-03
        -0.85161E-03
        -0.32294E-03
        -0.10846E-02
        -0.90734E-04
         0.83482E-03
         0.79512E-03
        -0.26748E-03
         0.17194E-02
        -0.67641E-05
        -0.94514E-03
         0.23549E-03
        -0.12961E-02
        -0.11530E-02
        -0.12208E-02
         0.15188E-02
        -0.26466E-02
        -0.17104E-02
        -0.58360E-03
        -0.13375E-02
         0.60044E-03
         0.29470E-02
         0.67931E-02
         0.14924E-02
        -0.57725E-03
        -0.15672E-02
        -0.90321E-03
        -0.20171E-02
        -0.10956E-02
         0.45718E-03
         0.10601E-02
         0.44480E-02
         0.92619E-02
         0.15957E-01
         0.22353E-01
         0.14142E-01
         0.70158E-02
        -0.32045E-02
        -0.33378E-02
        -0.36427E-02
        -0.27551E-02
        -0.24044E-02
        -0.30196E-02
        -0.40197E-02
        -0.46681E-02
        -0.36187E-02
        -0.16773E-02
        -0.44119E-02
         0.93558E-03
         0.17468E-02
         0.14932E-02
         0.18251E-02
         0.35058E-02
         0.87004E-02
         0.20026E-01
         0.35008E-01
         0.45527E-01
         0.38827E-01
         0.23895E-01
         0.10844E-01
         0.19002E-02
        -0.25202E-02
        -0.44738E-02
        -0.49883E-02
        -0.48819E-02
        -0.39704E-02
        -0.35346E-02
        -0.44191E-02
        -0.56701E-02
        -0.63777E-02
        -0.57576E-02
        -0.52795E-02
        -0.22484E-03
         0.69353E-04
        -0.35662E-03
        -0.42411E-03
        -0.19784E-02
        -0.22478E-02
        -0.21693E-03
        -0.81907E-03
        -0.40937E-03
        -0.10960E-02
        -0.14539E-03
         0.62219E-03
         0.61769E-03
        -0.29473E-03
         0.13785E-02
        -0.12973E-03
        -0.10203E-02
         0.15540E-03
        -0.13413E-02
        -0.11716E-02
        -0.13072E-02
         0.14431E-02
        -0.26457E-02
        -0.17577E-02
        -0.72146E-03
        -0.13570E-02
         0.46398E-03
         0.25746E-02
         0.62063E-02
         0.12563E-02
        -0.50367E-03
        -0.14759E-02
        -0.68728E-03
        -0.15461E-02
        -0.10972E-02
         0.22599E-03
         0.80612E-03
         0.39143E-02
         0.84264E-02
         0.14823E-01
         0.21180E-01
         0.13468E-01
         0.67173E-02
        -0.31197E-02
        -0.31762E-02
        -0.33735E-02
        -0.24457E-02
        -0.19495E-02
        -0.22953E-02
        -0.30242E-02
        -0.35137E-02
        -0.27587E-02
        -0.17271E-02
        -0.36781E-02
         0.49031E-03
         0.13900E-02
         0.12646E-02
         0.14559E-02
         0.27496E-02
         0.75070E-02
         0.18306E-01
         0.32779E-01
         0.43640E-01
         0.37636E-01
         0.22913E-01
         0.99049E-02
         0.13717E-02
        -0.25221E-02
        -0.43859E-02
        -0.47978E-02
        -0.45190E-02
        -0.34909E-02
        -0.28714E-02
        -0.33177E-02
        -0.41578E-02
        -0.47497E-02
        -0.43216E-02
        -0.40613E-02
        -0.35309E-03
        -0.29865E-04
        -0.25404E-03
        -0.22621E-03
        -0.14852E-02
        -0.13321E-02
        -0.27946E-03
        -0.89117E-03
        -0.52378E-03
        -0.11606E-02
        -0.46914E-04
         0.82477E-03
         0.60883E-03
        -0.14733E-03
         0.17341E-02
        -0.77037E-04
        -0.10372E-02
         0.15817E-03
        -0.11873E-02
        -0.99744E-03
        -0.12653E-02
         0.19245E-02
        -0.26378E-02
        -0.16151E-02
        -0.76193E-03
        -0.11939E-02
         0.58920E-03
         0.26108E-02
         0.62402E-02
         0.14341E-02
        -0.26534E-03
        -0.12096E-02
        -0.25916E-03
        -0.72360E-03
        -0.77899E-03
         0.37685E-03
         0.78555E-03
         0.42151E-02
         0.85069E-02
         0.14604E-01
         0.20912E-01
         0.14047E-01
         0.76563E-02
        -0.29235E-02
        -0.28070E-02
        -0.28386E-02
        -0.18884E-02
        -0.12259E-02
        -0.12092E-02
        -0.14924E-02
        -0.16261E-02
        -0.12958E-02
        -0.12590E-02
        -0.29988E-02
         0.98381E-03
         0.15269E-02
         0.13004E-02
         0.16787E-02
         0.31859E-02
         0.78982E-02
         0.18199E-01
         0.31893E-01
         0.42430E-01
         0.39806E-01
         0.25514E-01
         0.10018E-01
         0.63188E-03
        -0.31001E-02
        -0.43105E-02
        -0.42836E-02
        -0.38128E-02
        -0.26809E-02
        -0.18856E-02
        -0.18252E-02
        -0.20321E-02
        -0.21149E-02
        -0.18357E-02
        -0.24640E-02
        -0.58767E-03
        -0.15572E-03
        -0.83055E-04
         0.16845E-03
        -0.79755E-03
         0.21526E-03
        -0.29485E-03
        -0.99542E-03
        -0.71016E-03
        -0.11612E-02
         0.35718E-03
         0.16557E-02
         0.85333E-03
         0.32743E-03
         0.29651E-02
         0.52049E-04
        -0.10462E-02
         0.22826E-03
        -0.10246E-02
        -0.92218E-03
        -0.10649E-02
         0.20212E-02
        -0.23244E-02
        -0.13265E-02
        -0.60353E-03
        -0.97362E-03
         0.10840E-02
         0.30194E-02
         0.64797E-02
         0.16898E-02
         0.21122E-03
        -0.94416E-03
         0.62993E-03
         0.86462E-03
        -0.36796E-03
         0.68889E-03
         0.90568E-03
         0.53116E-02
         0.90930E-02
         0.14380E-01
         0.19990E-01
         0.14121E-01
         0.80840E-02
        -0.27798E-02
        -0.27300E-02
        -0.26319E-02
        -0.13099E-02
        -0.21888E-04
         0.77794E-03
         0.13501E-02
         0.19134E-02
         0.13875E-02
        -0.72494E-03
        -0.22557E-02
         0.19432E-02
         0.19688E-02
         0.16977E-02
         0.27723E-02
         0.50765E-02
         0.98110E-02
         0.18802E-01
         0.30052E-01
         0.39065E-01
         0.39885E-01
         0.27121E-01
         0.10376E-01
         0.10637E-02
        -0.28060E-02
        -0.43455E-02
        -0.44630E-02
        -0.36994E-02
        -0.19241E-02
        -0.33358E-03
         0.73798E-03
         0.17637E-02
         0.28355E-02
         0.25735E-02
         0.27237E-04
        -0.93455E-03
        -0.29143E-03
         0.16705E-03
         0.46586E-03
         0.55217E-03
         0.21452E-02
        -0.19426E-03
        -0.10491E-02
        -0.96608E-03
        -0.11294E-02
         0.93220E-03
         0.26591E-02
         0.12974E-02
         0.93036E-03
         0.42611E-02
        -0.80451E-04
        -0.10074E-02
         0.12296E-03
        -0.12033E-02
        -0.83822E-03
        -0.13409E-02
         0.19719E-02
        -0.34634E-02
        -0.20410E-02
        -0.34595E-03
        -0.20235E-02
         0.16461E-02
         0.34177E-02
         0.63870E-02
         0.19088E-02
         0.10201E-03
        -0.22760E-02
         0.13471E-02
         0.24451E-02
         0.66490E-03
         0.11973E-02
         0.11207E-02
         0.63978E-02
         0.94704E-02
         0.13420E-01
         0.17286E-01
         0.12500E-01
         0.75956E-02
        -0.50551E-02
        -0.55883E-02
        -0.54041E-02
        -0.26029E-02
         0.44886E-03
         0.26127E-02
         0.42216E-02
         0.55194E-02
         0.42210E-02
         0.88839E-03
         0.12932E-03
         0.31157E-02
         0.24932E-02
         0.23523E-02
         0.40190E-02
         0.68141E-02
         0.11547E-01
         0.18764E-01
         0.26339E-01
         0.31753E-01
         0.34302E-01
         0.26678E-01
         0.12026E-01
         0.20905E-02
        -0.36347E-02
        -0.76005E-02
        -0.89646E-02
        -0.73238E-02
        -0.32910E-02
         0.53290E-03
         0.31268E-02
         0.54287E-02
         0.77414E-02
         0.72013E-02
         0.35178E-02
        -0.13305E-02
        -0.81649E-03
         0.34538E-03
         0.38144E-04
         0.31150E-02
         0.35082E-02
        -0.56391E-03
        -0.12497E-02
        -0.13517E-02
        -0.14011E-02
         0.68835E-03
         0.24131E-02
         0.67527E-03
         0.81287E-03
         0.44198E-02
        -0.17105E-02
        -0.17621E-02
        -0.57346E-03
        -0.41324E-02
        -0.16941E-02
        -0.45135E-02
         0.33972E-02
        -0.10478E-01
        -0.71852E-02
        -0.14390E-03
        -0.74158E-02
         0.17540E-02
         0.43684E-02
         0.88350E-02
         0.33445E-02
        -0.20050E-02
        -0.81203E-02
         0.80419E-03
         0.22929E-02
         0.28585E-02
         0.12173E-02
         0.21785E-03
         0.70667E-02
         0.10654E-01
         0.15868E-01
         0.21708E-01
         0.17642E-01
         0.12311E-01
        -0.14637E-01
        -0.16088E-01
        -0.15474E-01
        -0.87267E-02
        -0.14668E-02
         0.29534E-02
         0.50335E-02
         0.61315E-02
         0.46424E-02
         0.48973E-02
         0.63068E-02
         0.30638E-02
         0.11707E-02
         0.16476E-02
         0.40800E-02
         0.76633E-02
         0.12948E-01
         0.20095E-01
         0.28895E-01
         0.39723E-01
         0.51649E-01
         0.48020E-01
         0.25830E-01
         0.46517E-02
        -0.97129E-02
        -0.19701E-01
        -0.23430E-01
        -0.19429E-01
        -0.96433E-02
        -0.64373E-03
         0.44103E-02
         0.70892E-02
         0.87518E-02
         0.84115E-02
         0.73827E-02
        -0.16948E-02
        -0.21758E-02
         0.36396E-03
        -0.91576E-03
         0.71178E-02
         0.48378E-02
        -0.19801E-02
        -0.18312E-02
        -0.17715E-02
        -0.19704E-02
        -0.10468E-02
         0.35188E-04
        -0.19769E-02
        -0.51436E-03
         0.28035E-02
        -0.60365E-02
        -0.41420E-02
        -0.18153E-02
        -0.12013E-01
        -0.49187E-02
        -0.11079E-01
         0.81502E-02
        -0.23958E-01
        -0.18418E-01
         0.32798E-03
        -0.18536E-01
         0.12345E-02
         0.69076E-02
         0.17715E-01
         0.79268E-02
        -0.64297E-02
        -0.19216E-01
        -0.56972E-03
         0.75729E-03
         0.55046E-02
        -0.23193E-03
        -0.28847E-02
         0.72322E-02
         0.13824E-01
         0.25149E-01
         0.39045E-01
         0.37122E-01
         0.28802E-01
        -0.31828E-01
        -0.33835E-01
        -0.31679E-01
        -0.19129E-01
        -0.51352E-02
         0.30862E-02
         0.51504E-02
         0.49285E-02
         0.31108E-02
         0.97934E-02
         0.16181E-01
        -0.41209E-04
        -0.34398E-02
        -0.15503E-02
         0.21248E-02
         0.75049E-02
         0.14824E-01
         0.24280E-01
         0.40273E-01
         0.68220E-01
         0.10172E+00
         0.10465E+00
         0.61886E-01
         0.12966E-01
        -0.19789E-01
        -0.39315E-01
        -0.45511E-01
        -0.37337E-01
        -0.18781E-01
        -0.25333E-02
         0.65048E-02
         0.93634E-02
         0.79311E-02
         0.71841E-02
         0.12440E-01
  
SCALARS                      strain_zz  double 1
LOOKUP_TABLE default
        -0.23244E+00
        -0.24763E+00
        -0.24206E+00
        -0.23299E+00
        -0.14078E-09
        -0.14217E-09
        -0.14243E-09
        -0.14561E-09
        -0.24021E+00
        -0.24286E+00
        -0.13984E-09
        -0.15902E-09
        -0.23620E+00
        -0.23027E+00
        -0.14252E-09
        -0.14835E-09
        -0.23011E+00
        -0.23584E+00
        -0.13185E-09
        -0.14036E-09
        -0.21337E+00
        -0.18251E+00
        -0.22617E+00
        -0.13031E-09
        -0.93959E-10
        -0.10922E-09
        -0.20035E+00
        -0.12526E+00
        -0.13053E-09
        -0.78232E-10
        -0.22348E+00
        -0.23906E+00
        -0.22710E+00
        -0.14053E-09
        -0.13840E-09
        -0.12988E-09
        -0.24162E+00
        -0.25239E+00
        -0.15495E-09
        -0.14814E-09
        -0.27764E+00
        -0.25160E+00
        -0.14288E-09
        -0.12772E-09
        -0.28637E+00
        -0.24792E+00
        -0.15716E-09
        -0.16455E-09
        -0.24722E+00
        -0.14232E-09
        -0.24280E+00
        -0.17005E-09
        -0.19594E+00
        -0.11989E-09
        -0.18437E+00
        -0.11055E-09
        -0.14394E+00
        -0.23681E+00
        -0.94940E-10
        -0.14078E-09
        -0.24169E+00
        -0.25934E+00
        -0.15295E-09
        -0.18742E-09
        -0.23440E+00
        -0.15270E-09
        -0.23086E+00
        -0.17985E-09
        -0.24240E+00
        -0.23463E+00
        -0.12305E-09
        -0.12157E-09
        -0.23185E+00
        -0.11542E-09
        -0.57454E-01
        -0.57019E-10
         0.59681E-02
        -0.37874E-10
         0.74585E-01
        -0.19355E-10
         0.11910E+00
        -0.54466E-01
        -0.81772E-11
        -0.58086E-10
        -0.18005E+00
        -0.10678E-09
        -0.29228E+00
        -0.17493E-09
        -0.29964E+00
        -0.19976E-09
        -0.31052E+00
        -0.28530E+00
        -0.21238E-09
        -0.20538E-09
        -0.25689E+00
        -0.17915E-09
        -0.23522E+00
        -0.18127E-09
        -0.23126E+00
        -0.20347E-09
        -0.24384E+00
        -0.24375E+00
        -0.20589E-09
        -0.19055E-09
        -0.27928E+00
        -0.34957E+00
        -0.87078E-10
        -0.10055E-09
        -0.18855E+00
        -0.70726E-10
        -0.15617E+00
        -0.61189E-10
        -0.11418E+00
        -0.53698E-10
         0.10332E-01
        -0.37173E-10
         0.17784E+00
        -0.16211E-10
         0.37352E+00
         0.78898E-12
         0.75944E+00
         0.21085E-10
         0.80888E+00
         0.39217E-10
         0.35927E+00
         0.31617E-10
        -0.46349E-02
        -0.10831E-10
        -0.13496E+00
        -0.55264E-10
        -0.25386E+00
        -0.80153E-10
        -0.34706E+00
        -0.96168E-10
        -0.39004E+00
        -0.11145E-09
        -0.43475E+00
        -0.12671E-09
        -0.42623E+00
        -0.15356E-09
        -0.37255E+00
        -0.17973E-09
        -0.32716E+00
        -0.16769E-09
        -0.28374E+00
        -0.14873E-09
        -0.25349E+00
        -0.15154E-09
        -0.25879E+00
        -0.16524E-09
        -0.28976E+00
        -0.17027E-09
        -0.30165E+00
        -0.14575E-09
        -0.29859E+00
        -0.11616E-09
        -0.69368E-01
        -0.96855E-01
        -0.90501E-01
        -0.58042E-01
        -0.10359E+00
        -0.47612E-01
        -0.11464E+00
        -0.92270E-01
        -0.57165E-01
        -0.78310E-01
        -0.12236E+00
        -0.12518E+00
        -0.13430E+00
        -0.10849E+00
        -0.94842E-01
        -0.62437E-01
        -0.55632E-01
        -0.58645E-01
        -0.61877E-01
        -0.60654E-01
        -0.73676E-01
        -0.67544E-01
        -0.70976E-01
        -0.67950E-01
        -0.76319E-01
        -0.63435E-01
        -0.94207E-01
        -0.81973E-01
        -0.55918E-01
        -0.71532E-01
        -0.51688E-01
        -0.35847E-01
        -0.40956E-01
        -0.18490E-01
        -0.15428E+00
        -0.14169E+00
        -0.13412E+00
        -0.53804E-01
        -0.64697E-02
         0.64129E-01
         0.13013E+00
         0.36565E-02
        -0.50842E-01
        -0.47641E-01
         0.57075E-03
         0.55849E-01
         0.41765E-01
         0.41177E-01
         0.61412E-01
         0.80734E-01
         0.82367E-01
         0.11035E-01
        -0.25117E+00
        -0.19481E+00
        -0.22771E+00
        -0.19026E+00
        -0.15747E+00
        -0.11689E+00
        -0.40673E-01
         0.95393E-01
         0.32892E+00
         0.63208E+00
         0.56243E+00
         0.14218E+00
        -0.44382E-02
        -0.81936E-01
        -0.11206E+00
        -0.91621E-01
        -0.35719E-01
         0.67286E-01
         0.15116E+00
         0.20721E+00
         0.28702E+00
         0.36827E+00
         0.35610E+00
         0.19996E+00
         0.28117E-01
        -0.93257E-01
        -0.66760E-02
        -0.27428E-01
        -0.20783E-01
         0.76474E-02
        -0.19038E-01
         0.24052E-01
        -0.39076E-01
        -0.20345E-01
         0.37609E-02
        -0.52845E-02
        -0.55753E-01
        -0.85615E-01
        -0.70116E-01
        -0.48980E-01
        -0.91283E-01
        -0.26817E-02
         0.93767E-02
         0.46154E-02
         0.31992E-02
         0.12717E-01
         0.16750E-01
         0.91666E-02
         0.21825E-01
         0.34044E-02
         0.21516E-02
         0.90628E-02
        -0.39649E-01
        -0.35973E-01
        -0.42714E-01
        -0.36183E-02
         0.22745E-01
         0.39625E-01
         0.29595E-01
         0.44300E-01
        -0.59008E-01
        -0.61825E-01
        -0.63689E-01
        -0.87030E-01
        -0.78323E-01
        -0.74317E-01
        -0.82169E-01
        -0.64014E-01
        -0.24153E-01
         0.40896E-01
         0.76278E-01
         0.10790E+00
         0.88344E-01
         0.77961E-01
         0.84330E-01
         0.88410E-01
         0.78024E-01
         0.57137E-01
        -0.11765E+00
        -0.51767E-01
        -0.13875E+00
        -0.12532E+00
        -0.12298E+00
        -0.13815E+00
        -0.14933E+00
        -0.13906E+00
        -0.10186E+00
        -0.96351E-01
        -0.11915E+00
        -0.10749E+00
        -0.62885E-01
        -0.36803E-02
         0.36179E-01
         0.61518E-01
         0.97342E-01
         0.14712E+00
         0.16822E+00
         0.16090E+00
         0.16334E+00
         0.17522E+00
         0.13523E+00
         0.56836E-01
         0.35564E-01
         0.12996E-01
         0.37771E-02
        -0.22963E-02
         0.21610E-02
         0.12747E-01
         0.80259E-02
         0.15845E-01
        -0.53994E-02
         0.23715E-02
         0.84583E-02
         0.96992E-02
        -0.11792E-01
        -0.30834E-01
        -0.17695E-01
        -0.77007E-02
        -0.39391E-01
         0.13613E-01
         0.13250E-01
         0.14693E-01
         0.14774E-01
         0.18146E-01
         0.26474E-01
         0.20086E-01
         0.24148E-01
         0.16249E-01
         0.14811E-01
         0.17530E-01
        -0.37821E-02
        -0.44752E-02
        -0.14697E-01
         0.11447E-01
         0.21894E-01
         0.18906E-01
         0.19106E-01
         0.14292E-01
        -0.15665E-02
        -0.59239E-02
        -0.10379E-01
        -0.43804E-01
        -0.47491E-01
        -0.56348E-01
        -0.71177E-01
        -0.41312E-01
        -0.51244E-02
         0.18789E-01
         0.11589E-01
        -0.21352E-02
        -0.89894E-03
        -0.45120E-02
        -0.10750E-01
        -0.13503E-01
        -0.12917E-01
         0.80093E-02
        -0.70564E-02
         0.11193E-01
        -0.14702E-01
        -0.20064E-01
        -0.38230E-01
        -0.70725E-01
        -0.10158E+00
        -0.11141E+00
        -0.10978E+00
        -0.12239E+00
        -0.12715E+00
        -0.10439E+00
        -0.47651E-01
         0.15139E-01
         0.48122E-01
         0.43766E-01
         0.20969E-01
        -0.61656E-02
        -0.31253E-01
        -0.55865E-01
        -0.76698E-01
        -0.85377E-01
        -0.78485E-01
        -0.48002E-01
        -0.53156E-02
         0.18492E-01
         0.74409E-02
         0.70203E-02
         0.76764E-02
         0.88106E-02
         0.83766E-02
         0.28071E-02
         0.84337E-02
         0.10965E-01
         0.91902E-02
         0.14130E-01
         0.74467E-02
        -0.21346E-02
         0.48882E-02
         0.94603E-02
        -0.99188E-02
         0.11258E-01
         0.12365E-01
         0.10726E-01
         0.13513E-01
         0.16909E-01
         0.21550E-01
         0.20406E-01
         0.17614E-01
         0.13471E-01
         0.17351E-01
         0.11636E-01
         0.10899E-01
         0.98074E-02
         0.37927E-02
         0.16819E-01
         0.98593E-02
         0.59544E-02
         0.72621E-02
         0.96098E-03
         0.11361E-01
         0.10341E-01
         0.80246E-02
        -0.16982E-01
        -0.22569E-01
        -0.28106E-01
        -0.35502E-01
        -0.11989E-01
         0.88582E-02
         0.91236E-02
        -0.28585E-02
        -0.17792E-01
        -0.15606E-01
        -0.18457E-01
        -0.25229E-01
        -0.30046E-01
        -0.33693E-01
        -0.12226E-01
         0.15894E-01
         0.71417E-02
         0.18006E-01
         0.12253E-01
        -0.89858E-03
        -0.24933E-01
        -0.57308E-01
        -0.79052E-01
        -0.90587E-01
        -0.94931E-01
        -0.82833E-01
        -0.55800E-01
        -0.17584E-01
         0.21525E-01
         0.38131E-01
         0.28550E-01
         0.43628E-02
        -0.23281E-01
        -0.44941E-01
        -0.62968E-01
        -0.83662E-01
        -0.98382E-01
        -0.95176E-01
        -0.73237E-01
        -0.39961E-01
        -0.99519E-02
         0.41308E-02
         0.37237E-02
         0.23413E-02
         0.20145E-02
         0.11487E-02
        -0.10077E-02
         0.58491E-02
         0.77287E-02
         0.55585E-02
         0.10398E-01
         0.62852E-02
         0.13464E-02
         0.38453E-02
         0.78648E-02
        -0.38095E-02
         0.36056E-02
         0.79806E-02
         0.29064E-02
         0.67639E-02
         0.11267E-01
         0.11019E-01
         0.12912E-01
         0.80573E-02
         0.54460E-02
         0.13263E-01
         0.35316E-02
         0.89037E-02
         0.79103E-02
         0.28390E-02
         0.13051E-01
         0.18115E-02
         0.16860E-02
         0.10058E-02
        -0.85528E-03
         0.27376E-02
         0.34288E-02
         0.38322E-02
        -0.12229E-01
        -0.20856E-01
        -0.28090E-01
        -0.35404E-01
        -0.10987E-01
         0.67697E-02
         0.45066E-02
         0.11648E-02
        -0.15721E-02
        -0.14898E-02
        -0.24579E-02
        -0.48635E-02
        -0.75839E-02
        -0.98931E-02
        -0.50053E-02
         0.37106E-02
        -0.71747E-03
         0.58487E-02
         0.50259E-02
         0.73621E-03
        -0.10746E-01
        -0.33584E-01
        -0.63377E-01
        -0.90605E-01
        -0.10119E+00
        -0.87342E-01
        -0.51801E-01
        -0.11204E-01
         0.13585E-01
         0.19376E-01
         0.14694E-01
         0.66601E-02
        -0.95048E-03
        -0.54216E-02
        -0.75678E-02
        -0.11849E-01
        -0.18472E-01
        -0.22551E-01
        -0.20661E-01
        -0.13634E-01
        -0.62295E-02
         0.10489E-02
         0.10294E-02
         0.29237E-04
        -0.59858E-03
        -0.27201E-03
        -0.24775E-03
         0.25277E-02
         0.34804E-02
         0.18264E-02
         0.51980E-02
         0.32527E-02
         0.15144E-02
         0.20469E-02
         0.42095E-02
        -0.13355E-02
        -0.53684E-04
         0.33474E-02
        -0.59819E-03
         0.23378E-02
         0.54857E-02
         0.47562E-02
         0.66606E-02
         0.26453E-02
         0.12187E-02
         0.71640E-02
         0.27931E-05
         0.50681E-02
         0.46774E-02
         0.16173E-02
         0.72834E-02
        -0.80991E-03
        -0.48640E-04
        -0.77409E-03
        -0.19394E-03
         0.17783E-03
         0.62356E-03
         0.13255E-02
        -0.71613E-02
        -0.13824E-01
        -0.19441E-01
        -0.24197E-01
        -0.68315E-02
         0.39427E-02
         0.12459E-02
         0.12702E-02
         0.24473E-02
         0.21068E-02
         0.21035E-02
         0.24053E-02
         0.26309E-02
         0.27935E-02
         0.89882E-03
         0.44282E-03
        -0.28468E-03
         0.14923E-02
         0.21591E-02
         0.17180E-02
        -0.26356E-02
        -0.16207E-01
        -0.39812E-01
        -0.65427E-01
        -0.77540E-01
        -0.64258E-01
        -0.32311E-01
        -0.46011E-02
         0.79665E-02
         0.92217E-02
         0.59423E-02
         0.34970E-02
         0.35501E-02
         0.51601E-02
         0.73256E-02
         0.94313E-02
         0.10318E-01
         0.90397E-02
         0.60828E-02
         0.28133E-02
         0.38373E-03
         0.38872E-04
         0.11869E-03
        -0.24199E-03
        -0.63025E-03
        -0.26445E-03
        -0.23817E-03
         0.74309E-03
         0.11131E-02
         0.34469E-03
         0.20014E-02
         0.12147E-02
         0.87920E-03
         0.78543E-03
         0.17101E-02
        -0.92393E-04
        -0.49557E-03
         0.11004E-02
        -0.74613E-03
         0.71534E-03
         0.23135E-02
         0.19719E-02
         0.33127E-02
         0.63725E-03
         0.89893E-04
         0.31429E-02
        -0.51694E-03
         0.23414E-02
         0.25142E-02
         0.14836E-02
         0.35426E-02
        -0.87096E-03
        -0.56373E-03
        -0.79275E-03
        -0.38465E-03
        -0.46110E-04
         0.11036E-03
         0.39769E-03
        -0.27301E-02
        -0.58937E-02
        -0.82750E-02
        -0.10077E-01
        -0.18960E-02
         0.26155E-02
        -0.10908E-03
        -0.44266E-04
         0.52266E-03
         0.36346E-03
         0.39704E-03
         0.69639E-03
         0.10412E-02
         0.13371E-02
         0.37688E-03
         0.15698E-03
        -0.83420E-04
         0.59548E-03
         0.94333E-03
         0.11136E-02
         0.58568E-04
        -0.53675E-02
        -0.17447E-01
        -0.31946E-01
        -0.38245E-01
        -0.29779E-01
        -0.12673E-01
         0.12862E-03
         0.48408E-02
         0.40985E-02
         0.17536E-02
         0.51789E-03
         0.85242E-03
         0.17471E-02
         0.25563E-02
         0.35144E-02
         0.43433E-02
         0.42950E-02
         0.32625E-02
         0.17633E-02
         0.44272E-03
        -0.75042E-04
        -0.10199E-03
        -0.11023E-03
        -0.21529E-03
        -0.78920E-04
        -0.28018E-03
         0.18047E-04
         0.20012E-03
         0.63925E-04
         0.59885E-03
         0.17894E-03
         0.84599E-04
        -0.37302E-04
         0.41411E-03
        -0.55869E-04
        -0.17437E-03
         0.38523E-03
        -0.24980E-03
         0.24858E-03
         0.84229E-03
         0.53351E-03
         0.10918E-02
         0.70832E-04
        -0.21078E-04
         0.10975E-02
        -0.25554E-03
         0.73786E-03
         0.93483E-03
         0.68192E-03
         0.12951E-02
        -0.40389E-03
        -0.39015E-03
        -0.41326E-03
        -0.43333E-03
        -0.74467E-06
        -0.62354E-04
        -0.96781E-04
        -0.86530E-03
        -0.17894E-02
        -0.23742E-02
        -0.29793E-02
        -0.48368E-03
         0.95839E-03
        -0.23361E-03
        -0.35601E-03
        -0.35055E-03
        -0.39782E-03
        -0.49012E-03
        -0.60143E-03
        -0.69099E-03
        -0.76155E-03
        -0.54826E-03
         0.12974E-03
        -0.14185E-04
         0.17666E-04
        -0.67763E-04
        -0.88071E-04
        -0.18364E-03
        -0.14551E-02
        -0.55813E-02
        -0.10440E-01
        -0.11899E-01
        -0.93077E-02
        -0.42385E-02
         0.12864E-03
         0.12228E-02
         0.74523E-03
         0.21281E-03
        -0.17528E-03
        -0.28459E-03
        -0.23889E-03
        -0.33533E-03
        -0.65951E-03
        -0.98946E-03
        -0.11488E-02
        -0.11265E-02
        -0.88481E-03
        -0.43868E-03
        -0.26447E-04
        -0.22006E-04
         0.66972E-04
         0.81808E-04
         0.97830E-04
        -0.26522E-03
         0.18395E-06
         0.30986E-04
         0.42034E-04
         0.21971E-03
         0.78310E-04
         0.15729E-03
         0.12210E-03
         0.13361E-03
        -0.87978E-04
         0.77284E-04
         0.19765E-03
         0.10017E-03
         0.13227E-03
         0.33175E-03
        -0.44447E-04
         0.26064E-04
         0.59647E-04
         0.78643E-04
         0.49277E-03
         0.49562E-04
         0.30544E-03
         0.55635E-03
         0.75776E-03
         0.64165E-03
         0.46181E-04
        -0.95810E-05
         0.56547E-04
        -0.19103E-03
         0.22553E-03
         0.13839E-03
         0.78008E-04
        -0.54953E-03
        -0.59950E-03
        -0.28031E-04
         0.45392E-03
         0.68867E-03
         0.37344E-03
         0.89677E-04
         0.28850E-05
        -0.90372E-04
        -0.13524E-03
        -0.26811E-03
        -0.58128E-03
        -0.10533E-02
        -0.15650E-02
        -0.90944E-03
         0.40928E-03
         0.74609E-04
         0.31548E-03
         0.29107E-03
         0.42205E-03
         0.38718E-03
        -0.70999E-03
        -0.34074E-02
        -0.51018E-02
        -0.31693E-02
        -0.11469E-03
         0.17812E-03
        -0.78150E-03
        -0.11582E-02
        -0.63115E-03
         0.28243E-04
         0.29412E-03
         0.12667E-03
        -0.11776E-03
        -0.37495E-03
        -0.11237E-02
        -0.22460E-02
        -0.30929E-02
        -0.32480E-02
        -0.24501E-02
        -0.10326E-02
         0.22321E-04
         0.51100E-04
         0.71258E-04
         0.10099E-03
         0.19085E-04
        -0.12855E-03
         0.76031E-04
         0.71149E-04
         0.71028E-04
         0.17941E-03
         0.98923E-04
         0.13206E-03
         0.21697E-03
         0.93518E-04
        -0.19339E-03
         0.12958E-03
         0.16581E-03
         0.14054E-03
         0.12591E-03
         0.23867E-03
         0.47556E-04
         0.10593E-03
         0.87549E-04
         0.10860E-03
         0.32787E-03
         0.13198E-03
         0.14812E-03
         0.21335E-03
         0.21497E-03
         0.37990E-03
         0.13204E-03
         0.12211E-03
         0.13517E-03
        -0.12013E-04
         0.10853E-03
         0.15422E-03
         0.18523E-03
        -0.60505E-03
        -0.86277E-03
        -0.79742E-03
        -0.63161E-03
         0.13820E-04
         0.18157E-03
         0.17241E-03
         0.19001E-03
         0.12979E-03
        -0.12775E-04
        -0.19518E-03
        -0.36719E-03
        -0.56077E-03
        -0.81904E-03
        -0.43992E-03
         0.14249E-03
        -0.13940E-03
         0.33437E-03
         0.46084E-03
         0.56967E-03
         0.29592E-03
        -0.89401E-03
        -0.26643E-02
        -0.40272E-02
        -0.36878E-02
        -0.18174E-02
        -0.72753E-03
        -0.54049E-03
        -0.35929E-03
        -0.16813E-03
         0.48957E-04
         0.32943E-03
         0.40590E-03
         0.21255E-03
        -0.27362E-03
        -0.10522E-02
        -0.16980E-02
        -0.19146E-02
        -0.18251E-02
        -0.13332E-02
        -0.61586E-03
         0.73884E-04
         0.50550E-04
         0.23214E-04
         0.44138E-04
        -0.97310E-04
        -0.88670E-04
         0.67398E-04
         0.11126E-03
         0.74594E-04
         0.13252E-03
         0.31994E-04
        -0.15660E-03
        -0.53602E-04
         0.32923E-04
        -0.35071E-03
         0.55444E-04
         0.92984E-04
         0.59832E-04
         0.64331E-04
         0.17080E-03
         0.20214E-03
         0.35875E-03
         0.77260E-04
         0.55979E-04
         0.17518E-03
         0.81208E-04
        -0.34030E-04
        -0.16812E-03
        -0.44160E-03
         0.15704E-03
         0.96933E-04
         0.12261E-03
         0.16380E-04
        -0.48731E-04
        -0.82554E-04
        -0.10372E-04
        -0.15680E-04
        -0.67821E-03
        -0.11992E-02
        -0.18426E-02
        -0.22763E-02
        -0.90596E-03
         0.11657E-03
         0.62651E-04
         0.89295E-04
         0.70543E-04
         0.65376E-04
        -0.18230E-04
        -0.12864E-03
        -0.15312E-03
        -0.13591E-03
        -0.10829E-03
        -0.18036E-03
        -0.37509E-03
        -0.35850E-05
        -0.88618E-04
        -0.28133E-03
        -0.60700E-03
        -0.12302E-02
        -0.18015E-02
        -0.27929E-02
        -0.45101E-02
        -0.47274E-02
        -0.18444E-02
         0.44447E-03
         0.89238E-03
         0.49923E-03
         0.11000E-03
        -0.27975E-05
         0.57678E-05
        -0.22750E-04
        -0.11358E-03
        -0.28458E-03
        -0.39574E-03
        -0.26941E-03
        -0.13717E-03
        -0.20629E-03
        -0.34087E-03
         0.13658E-03
         0.11478E-03
         0.43679E-04
         0.67740E-04
        -0.19899E-03
        -0.34303E-03
         0.14355E-03
         0.15281E-03
         0.97486E-04
         0.12056E-03
         0.11362E-03
        -0.49287E-04
         0.56120E-04
         0.12090E-03
        -0.22490E-03
         0.10297E-03
         0.51582E-04
         0.13215E-03
         0.37022E-04
         0.77040E-04
         0.16064E-03
         0.30326E-03
         0.11853E-03
         0.80370E-04
         0.98683E-04
         0.12091E-03
         0.13457E-03
         0.12977E-03
         0.92374E-04
         0.12830E-03
         0.16526E-03
         0.10828E-03
         0.94398E-04
        -0.12461E-03
        -0.12126E-03
        -0.20589E-04
         0.26251E-04
        -0.15103E-03
         0.15529E-03
         0.26780E-03
         0.28657E-03
         0.25900E-03
         0.39027E-03
         0.96134E-04
        -0.13925E-04
        -0.18358E-03
        -0.42366E-04
         0.14266E-03
         0.12320E-03
        -0.19460E-03
        -0.54480E-03
        -0.51320E-03
        -0.24086E-03
        -0.66494E-03
        -0.10879E-03
        -0.11895E-03
        -0.12118E-03
        -0.44609E-03
        -0.13013E-02
        -0.13492E-02
         0.43519E-03
         0.16618E-02
         0.11784E-02
         0.13576E-02
         0.13714E-02
         0.94965E-03
         0.51351E-03
         0.21803E-03
         0.63547E-04
        -0.23797E-03
        -0.56729E-03
        -0.39825E-03
         0.22059E-03
         0.49776E-03
        -0.13705E-03
        -0.91526E-03
        -0.12174E-02
        -0.11083E-02
         0.14289E-04
        -0.71144E-05
        -0.11290E-03
        -0.48912E-04
        -0.26696E-03
        -0.27629E-03
         0.45394E-04
         0.59883E-04
         0.29786E-04
         0.45849E-04
         0.34936E-04
        -0.10105E-03
         0.53406E-05
         0.80731E-04
        -0.10802E-03
         0.61344E-04
        -0.29709E-04
         0.67912E-04
        -0.42484E-04
        -0.12610E-03
         0.36618E-04
         0.55375E-05
        -0.68998E-05
         0.25875E-07
        -0.52368E-04
         0.37913E-04
         0.17386E-03
         0.26518E-03
         0.36478E-03
        -0.14464E-03
         0.98267E-04
        -0.22677E-05
         0.13856E-03
         0.71066E-04
        -0.21821E-03
        -0.13849E-03
        -0.40815E-04
         0.37795E-03
         0.13016E-02
         0.21104E-02
         0.23568E-02
         0.61270E-03
        -0.48086E-04
        -0.41568E-04
        -0.13800E-03
        -0.29152E-03
        -0.17477E-03
         0.72465E-04
         0.32504E-03
         0.33378E-03
         0.14540E-03
        -0.11905E-03
        -0.25952E-03
        -0.45991E-03
        -0.22114E-03
        -0.11554E-03
        -0.71256E-04
        -0.46260E-03
        -0.90931E-03
         0.27457E-03
         0.38694E-02
         0.73518E-02
         0.62270E-02
         0.16423E-02
         0.44063E-03
         0.76698E-03
         0.43715E-03
        -0.56214E-06
        -0.18998E-03
        -0.37610E-03
        -0.61217E-03
        -0.56982E-03
         0.19140E-04
         0.78411E-03
         0.79937E-03
         0.17849E-03
        -0.49539E-03
        -0.72292E-03
        -0.57094E-04
        -0.27892E-04
        -0.10345E-03
        -0.80815E-04
        -0.10450E-03
         0.10129E-03
         0.44960E-04
         0.19119E-04
        -0.46159E-04
        -0.23897E-04
         0.96691E-04
         0.13843E-03
         0.85580E-04
         0.10603E-03
         0.33067E-03
        -0.41924E-04
        -0.69860E-04
        -0.48935E-04
        -0.70286E-04
        -0.12302E-03
        -0.66659E-04
        -0.13663E-03
        -0.13543E-03
        -0.88526E-04
        -0.10400E-03
        -0.98236E-04
         0.11075E-03
         0.98981E-04
         0.60395E-04
        -0.19204E-03
        -0.59277E-04
        -0.15454E-03
         0.32324E-04
         0.19196E-03
        -0.11574E-03
        -0.43022E-04
         0.42372E-04
         0.70745E-03
         0.10204E-02
         0.11008E-02
         0.93830E-03
        -0.43769E-04
        -0.31515E-03
        -0.21468E-03
        -0.28677E-03
        -0.34217E-03
        -0.25045E-03
        -0.10188E-03
         0.15347E-03
         0.50284E-03
         0.79693E-03
         0.50248E-03
        -0.12592E-03
        -0.49815E-04
         0.46223E-04
         0.17212E-03
         0.15529E-03
         0.18282E-03
         0.77169E-03
         0.23417E-02
         0.37913E-02
         0.40520E-02
         0.26015E-02
        -0.24171E-03
        -0.62225E-03
        -0.10259E-04
         0.17650E-04
        -0.22446E-03
        -0.43901E-03
        -0.52714E-03
        -0.50091E-03
        -0.43447E-03
        -0.24641E-03
         0.21175E-03
         0.88587E-03
         0.13860E-02
         0.11077E-02
         0.41523E-03
        -0.82749E-04
        -0.41939E-04
        -0.13493E-03
        -0.20823E-03
        -0.16303E-03
        -0.12262E-04
        -0.16461E-04
        -0.53612E-04
        -0.69831E-04
        -0.75012E-04
         0.68429E-05
         0.10319E-03
         0.23623E-04
        -0.10336E-04
         0.31155E-03
        -0.80026E-04
        -0.32854E-04
        -0.17546E-03
         0.35953E-04
         0.10030E-04
         0.56461E-04
        -0.59543E-05
         0.52199E-04
         0.11492E-04
        -0.86274E-04
        -0.73494E-04
        -0.51634E-04
        -0.15443E-03
        -0.28814E-03
        -0.94825E-04
        -0.20257E-03
        -0.12812E-03
        -0.24070E-03
        -0.12540E-03
        -0.16154E-03
        -0.58133E-04
         0.25664E-04
         0.36607E-03
        -0.34720E-04
        -0.57598E-03
        -0.78273E-03
        -0.42502E-03
        -0.14154E-03
        -0.33174E-04
        -0.67283E-04
         0.41664E-04
         0.31897E-04
        -0.55273E-04
        -0.79921E-04
         0.14100E-03
         0.46805E-03
         0.26284E-03
        -0.19393E-03
        -0.79002E-04
         0.33901E-04
         0.13291E-03
         0.35260E-04
         0.26062E-03
         0.12024E-02
         0.19942E-02
         0.86632E-03
        -0.12802E-02
        -0.14591E-02
        -0.79973E-03
        -0.41742E-03
        -0.28776E-03
        -0.17007E-04
         0.15102E-03
         0.35053E-04
         0.74983E-05
         0.27562E-03
         0.57761E-03
         0.43816E-03
         0.24618E-03
         0.65294E-03
         0.11442E-02
         0.11315E-02
         0.53864E-03
        -0.15680E-03
        -0.21405E-03
        -0.22935E-03
        -0.27471E-03
        -0.20964E-03
        -0.19398E-03
        -0.29339E-03
        -0.22584E-03
        -0.10377E-03
        -0.12242E-03
        -0.36659E-03
        -0.36846E-03
        -0.34244E-03
        -0.35083E-03
        -0.39847E-03
        -0.15196E-03
        -0.53873E-04
        -0.25613E-03
        -0.87797E-05
        -0.73886E-05
         0.67882E-04
        -0.25106E-04
         0.17650E-03
         0.25838E-04
        -0.10921E-04
        -0.50026E-04
        -0.31596E-03
        -0.27302E-03
        -0.19335E-03
         0.70329E-04
        -0.20349E-03
         0.10367E-04
        -0.29351E-03
        -0.24518E-03
        -0.21359E-03
        -0.23594E-03
        -0.26149E-03
        -0.80371E-03
        -0.14365E-02
        -0.15891E-02
        -0.11738E-02
        -0.69137E-04
         0.12319E-03
         0.17163E-03
         0.27186E-03
         0.54321E-03
         0.44115E-03
         0.27011E-03
         0.14819E-03
         0.15614E-03
         0.21249E-03
        -0.57468E-04
        -0.15475E-03
        -0.45607E-04
        -0.23496E-03
        -0.29023E-03
        -0.37175E-03
        -0.21644E-03
        -0.25086E-04
        -0.14599E-02
        -0.45057E-02
        -0.56454E-02
        -0.27674E-02
         0.26829E-03
         0.28617E-03
        -0.12288E-03
         0.24439E-03
         0.54262E-03
         0.55940E-03
         0.69253E-03
         0.11015E-02
         0.14678E-02
         0.14272E-02
         0.11985E-02
         0.11155E-02
         0.74784E-03
         0.33146E-03
         0.90431E-04
        -0.10595E-03
        -0.18654E-03
        -0.14756E-03
        -0.12626E-03
         0.36019E-04
         0.24612E-03
        -0.24299E-03
        -0.16760E-03
        -0.80607E-04
        -0.10502E-03
        -0.32055E-03
        -0.35661E-03
        -0.33385E-03
        -0.30047E-03
        -0.31193E-03
        -0.16919E-03
        -0.93756E-04
        -0.18937E-03
        -0.12920E-03
        -0.11505E-03
        -0.97839E-04
        -0.10059E-03
        -0.70412E-04
        -0.12296E-03
        -0.16307E-04
        -0.12342E-03
        -0.15976E-03
         0.16708E-03
         0.55205E-03
         0.99768E-04
        -0.94831E-04
         0.13351E-04
        -0.49445E-04
         0.16680E-03
        -0.11076E-03
        -0.25069E-03
        -0.31632E-03
        -0.48928E-05
         0.61883E-03
         0.12893E-02
         0.17799E-02
         0.10630E-02
         0.31230E-03
        -0.28126E-05
         0.19773E-03
         0.47009E-03
         0.42764E-03
         0.49820E-03
         0.72254E-03
         0.96366E-03
         0.11733E-02
         0.64463E-03
        -0.51053E-04
         0.38354E-03
        -0.40056E-03
        -0.51464E-03
        -0.38954E-03
        -0.20382E-03
         0.11486E-03
         0.79888E-03
         0.22480E-02
         0.36980E-02
         0.38330E-02
         0.28381E-02
         0.10590E-02
         0.15459E-03
         0.86211E-04
         0.90985E-04
         0.22856E-03
         0.57069E-03
         0.94246E-03
         0.12366E-02
         0.17726E-02
         0.24599E-02
         0.26937E-02
         0.22514E-02
         0.15311E-02
         0.89559E-03
        -0.17067E-03
        -0.18154E-03
        -0.21384E-03
        -0.24966E-03
         0.35415E-04
         0.36956E-03
        -0.99512E-04
        -0.67596E-04
        -0.17695E-03
        -0.99965E-04
        -0.66227E-04
        -0.11696E-03
        -0.19934E-03
        -0.26402E-04
         0.62602E-04
        -0.26780E-03
        -0.24024E-03
        -0.31120E-03
        -0.25840E-03
        -0.35411E-03
        -0.20764E-03
        -0.28114E-03
        -0.29955E-03
        -0.27149E-03
        -0.21976E-03
        -0.28495E-03
         0.27795E-04
         0.50542E-04
        -0.75532E-04
        -0.41914E-03
        -0.25331E-03
        -0.22667E-03
        -0.16838E-03
         0.18344E-03
        -0.12781E-03
        -0.25953E-03
        -0.27439E-03
         0.50560E-03
         0.10330E-02
         0.12077E-02
         0.98306E-03
        -0.21068E-03
        -0.47794E-03
        -0.32244E-03
        -0.20013E-03
         0.11018E-04
         0.83582E-04
         0.29712E-03
         0.71364E-03
         0.12312E-02
         0.17398E-02
         0.10187E-02
        -0.31618E-04
         0.56568E-03
        -0.35970E-03
        -0.49419E-03
        -0.41816E-03
        -0.23274E-03
         0.28013E-03
         0.18501E-02
         0.42434E-02
         0.55269E-02
         0.35981E-02
         0.51713E-03
         0.34343E-03
         0.44727E-03
         0.15580E-04
        -0.37927E-03
        -0.45107E-03
        -0.13536E-03
         0.28891E-03
         0.77587E-03
         0.16085E-02
         0.27189E-02
         0.34582E-02
         0.34257E-02
         0.26443E-02
         0.15010E-02
        -0.19801E-03
        -0.15957E-03
        -0.28674E-03
        -0.45671E-03
        -0.86696E-04
         0.10021E-03
         0.20064E-04
         0.33008E-04
        -0.19554E-03
        -0.18315E-04
         0.10446E-03
         0.23091E-04
        -0.83010E-04
         0.13503E-03
         0.14586E-03
        -0.35925E-03
        -0.14919E-03
        -0.50368E-03
        -0.90792E-04
        -0.69410E-04
         0.14930E-03
         0.13946E-03
        -0.22752E-04
        -0.15254E-03
        -0.12323E-03
        -0.33479E-03
         0.73915E-04
        -0.15090E-03
        -0.60829E-03
        -0.31922E-03
        -0.49581E-03
        -0.35204E-03
        -0.45757E-03
        -0.11326E-03
        -0.12248E-03
        -0.22514E-03
        -0.20360E-03
         0.28669E-03
         0.25612E-03
        -0.17596E-03
        -0.93898E-03
        -0.13612E-02
        -0.57964E-03
        -0.22377E-03
        -0.16443E-03
         0.26922E-03
         0.32308E-03
         0.44665E-03
         0.71121E-03
         0.11209E-02
         0.15923E-02
         0.73550E-03
         0.68028E-04
         0.47747E-03
        -0.20318E-03
        -0.36229E-03
        -0.36936E-03
        -0.29221E-03
        -0.26125E-04
         0.86767E-03
         0.22261E-02
         0.26057E-02
         0.63432E-04
        -0.27877E-02
        -0.69356E-03
         0.75348E-03
         0.56384E-03
         0.21026E-03
        -0.13703E-03
         0.13233E-03
         0.10586E-02
         0.21292E-02
         0.29687E-02
         0.35632E-02
         0.38801E-02
         0.35295E-02
         0.24210E-02
         0.12148E-02
         0.74324E-05
         0.12826E-04
        -0.17143E-03
        -0.45513E-03
         0.14306E-03
         0.44679E-03
         0.21297E-03
         0.19017E-03
         0.66266E-04
         0.68385E-04
         0.25413E-03
         0.32223E-03
         0.16704E-03
         0.13570E-03
         0.36792E-03
        -0.27385E-03
         0.23456E-03
        -0.54487E-03
         0.42707E-03
         0.50711E-03
         0.10111E-02
         0.74795E-03
         0.84115E-03
         0.30346E-03
         0.45454E-05
        -0.13739E-03
        -0.12048E-03
        -0.33482E-03
        -0.49725E-03
         0.13634E-04
        -0.55370E-03
         0.10976E-04
        -0.50696E-03
         0.94175E-04
        -0.15813E-04
        -0.17741E-03
        -0.88097E-04
         0.50483E-03
         0.71981E-03
         0.64288E-03
         0.10245E-03
        -0.99636E-03
        -0.32402E-03
         0.57597E-03
         0.10114E-02
         0.24134E-02
         0.21350E-02
         0.19279E-02
         0.20405E-02
         0.24653E-02
         0.30485E-02
         0.14755E-02
         0.95339E-04
         0.10027E-02
        -0.43206E-03
        -0.40113E-03
         0.46746E-04
         0.48447E-03
         0.12085E-02
         0.30961E-02
         0.59984E-02
         0.70864E-02
         0.29963E-02
        -0.26623E-02
        -0.20198E-02
         0.94203E-03
         0.21413E-02
         0.20973E-02
         0.18966E-02
         0.29547E-02
         0.53713E-02
         0.76312E-02
         0.84827E-02
         0.83916E-02
         0.78832E-02
         0.63580E-02
         0.41498E-02
         0.22709E-02
        -0.14598E-03
        -0.47452E-03
        -0.80897E-03
        -0.71943E-03
        -0.44229E-03
         0.64028E-03
        -0.28980E-03
         0.19893E-04
         0.23389E-03
         0.29893E-03
        -0.35881E-03
        -0.57404E-03
        -0.60027E-03
        -0.30992E-03
        -0.71392E-03
        -0.45141E-03
         0.71106E-03
        -0.76860E-03
         0.88532E-03
         0.10931E-02
         0.19529E-02
         0.43972E-03
         0.20606E-02
         0.67591E-03
         0.41077E-03
        -0.53609E-04
        -0.44885E-03
        -0.11368E-02
        -0.29762E-02
        -0.26205E-03
        -0.56571E-03
         0.77520E-03
        -0.49717E-03
         0.44477E-03
        -0.12215E-02
        -0.12906E-02
        -0.91348E-03
        -0.12106E-02
        -0.27225E-02
        -0.57314E-02
        -0.94692E-02
        -0.72694E-02
        -0.32670E-02
         0.19608E-02
         0.34169E-02
         0.66220E-02
         0.54980E-02
         0.43951E-02
         0.39652E-02
         0.42672E-02
         0.49865E-02
         0.25142E-02
        -0.16037E-02
         0.77556E-03
        -0.22383E-02
        -0.15879E-02
        -0.94555E-03
        -0.71040E-03
        -0.62476E-03
        -0.72468E-03
        -0.27659E-02
        -0.89934E-02
        -0.16737E-01
        -0.18687E-01
        -0.11610E-01
        -0.15363E-02
         0.41992E-02
         0.55619E-02
         0.60753E-02
         0.88443E-02
         0.13573E-01
         0.16890E-01
         0.16630E-01
         0.14592E-01
         0.12591E-01
         0.98467E-02
         0.65276E-02
         0.35278E-02
        -0.12692E-02
        -0.25483E-02
        -0.35262E-02
        -0.22346E-02
        -0.33458E-02
        -0.72517E-03
        -0.19486E-02
        -0.51451E-03
         0.20124E-03
         0.10815E-02
        -0.20306E-02
        -0.36251E-02
        -0.33915E-02
        -0.11856E-02
        -0.40483E-02
        -0.12011E-02
         0.18981E-02
        -0.17543E-02
         0.17391E-02
         0.30394E-02
         0.37915E-02
         0.84190E-03
         0.36429E-02
         0.93523E-03
         0.18332E-02
        -0.23804E-03
        -0.86365E-03
        -0.33024E-02
        -0.10623E-01
        -0.65321E-03
        -0.49610E-03
         0.23441E-02
        -0.48417E-03
         0.58586E-03
        -0.52461E-02
        -0.50342E-02
        -0.39409E-02
        -0.62311E-02
        -0.13077E-01
        -0.24830E-01
        -0.36976E-01
        -0.25074E-01
        -0.99901E-02
         0.40181E-02
         0.78445E-02
         0.14565E-01
         0.12114E-01
         0.94218E-02
         0.77545E-02
         0.70294E-02
         0.70090E-02
         0.28606E-02
        -0.63276E-02
        -0.15441E-02
        -0.70831E-02
        -0.54937E-02
        -0.52741E-02
        -0.66381E-02
        -0.90653E-02
        -0.14545E-01
        -0.28778E-01
        -0.51903E-01
        -0.67946E-01
        -0.59157E-01
        -0.32478E-01
        -0.64902E-02
         0.63867E-02
         0.98168E-02
         0.12363E-01
         0.19018E-01
         0.28194E-01
         0.33341E-01
         0.30914E-01
         0.25023E-01
         0.19053E-01
         0.13093E-01
         0.73783E-02
         0.29334E-02
        -0.13365E-02
        -0.33793E-02
        -0.49167E-02
        -0.27972E-02
        -0.49636E-02
        -0.14942E-02
        -0.21760E-02
         0.24661E-03
         0.10898E-02
         0.30694E-02
        -0.18501E-02
        -0.40151E-02
        -0.41926E-02
        -0.15934E-03
        -0.41448E-02
        -0.10094E-02
         0.39241E-02
        -0.17382E-02
         0.30802E-02
         0.61250E-02
         0.54473E-02
         0.32927E-02
         0.41602E-02
         0.14061E-02
         0.46502E-02
         0.10674E-03
         0.81424E-03
        -0.34509E-02
        -0.16646E-01
         0.80820E-03
         0.31793E-03
         0.39823E-02
         0.34659E-03
         0.13181E-02
        -0.72238E-02
        -0.68530E-02
        -0.52480E-02
        -0.76395E-02
        -0.20192E-01
        -0.39616E-01
        -0.55609E-01
        -0.37927E-01
        -0.13072E-01
         0.49588E-02
         0.10462E-01
         0.19243E-01
         0.16773E-01
         0.13556E-01
         0.11245E-01
         0.95266E-02
         0.85896E-02
         0.33121E-02
        -0.75891E-02
        -0.21567E-02
        -0.81026E-02
        -0.60551E-02
        -0.58164E-02
        -0.76091E-02
        -0.11295E-01
        -0.20891E-01
        -0.43242E-01
        -0.72404E-01
        -0.87762E-01
        -0.73619E-01
        -0.40153E-01
        -0.81659E-02
         0.61994E-02
         0.99177E-02
         0.14258E-01
         0.23271E-01
         0.35123E-01
         0.42166E-01
         0.39372E-01
         0.31719E-01
         0.23091E-01
         0.14934E-01
         0.78631E-02
         0.27655E-02
  
SCALARS                      strain_yz  double 1
LOOKUP_TABLE default
         0.27784E-01
         0.32901E-01
         0.94480E-02
         0.30926E-01
         0.49192E-10
         0.51564E-10
         0.81248E-10
         0.55280E-10
        -0.96967E-01
        -0.81400E-01
         0.55421E-10
         0.40789E-10
         0.40958E-01
         0.30263E-01
         0.50835E-10
        -0.73628E-11
         0.30348E-02
         0.32867E-01
        -0.15010E-10
         0.14104E-10
         0.64242E-01
         0.86895E-01
         0.39206E-01
         0.17737E-10
         0.44764E-10
         0.46168E-10
         0.78476E-01
         0.13837E+00
         0.61812E-10
         0.76251E-10
        -0.12955E-01
        -0.47694E-02
         0.13214E-01
         0.61798E-11
         0.26778E-10
        -0.13945E-10
        -0.26904E-01
        -0.11000E-01
         0.15934E-10
         0.27243E-10
        -0.27841E-02
        -0.82894E-03
        -0.31043E-10
        -0.56342E-10
         0.58629E-01
         0.83203E-03
        -0.22736E-10
         0.21928E-11
         0.47478E-01
         0.30805E-10
         0.23094E-01
        -0.16632E-10
         0.11005E+00
         0.58095E-10
         0.13647E+00
         0.51374E-10
         0.12975E+00
         0.42052E-01
        -0.16944E-11
        -0.82754E-11
         0.46630E-01
         0.62209E-01
         0.77091E-11
        -0.58408E-10
         0.53088E-01
         0.73353E-10
         0.12307E-01
         0.41797E-10
        -0.13735E+00
        -0.54684E-01
        -0.44165E-11
         0.43966E-10
         0.18898E-02
         0.58536E-10
         0.19201E+00
         0.72127E-10
         0.22954E+00
         0.63503E-10
         0.22683E+00
        -0.60427E-11
         0.21384E+00
         0.14302E+00
        -0.10648E-10
        -0.34757E-10
         0.68280E-01
        -0.68293E-10
         0.12785E+00
         0.14142E-11
         0.16220E+00
        -0.27045E-10
         0.17845E+00
         0.13024E+00
        -0.10513E-09
        -0.64887E-10
         0.10692E+00
         0.36180E-10
         0.58208E-01
         0.46062E-10
        -0.20333E-01
         0.26722E-10
        -0.11791E+00
        -0.10443E+00
        -0.54491E-10
         0.25050E-10
        -0.32189E+00
        -0.33695E+00
        -0.21043E-09
        -0.18034E-09
        -0.16486E+00
        -0.33109E-10
        -0.60951E-01
         0.83351E-11
         0.12131E-01
        -0.64862E-11
         0.11130E+00
         0.50973E-11
         0.16887E+00
         0.82718E-11
         0.17625E+00
         0.19407E-10
         0.28197E-01
         0.82764E-11
         0.12262E+00
         0.12723E-09
         0.30397E+00
         0.32291E-09
         0.36595E+00
         0.27024E-09
         0.30275E+00
         0.14538E-09
         0.20062E+00
         0.86174E-10
         0.17039E+00
         0.74150E-10
         0.22722E+00
         0.69751E-10
         0.34803E+00
         0.87227E-10
         0.39634E+00
         0.14575E-09
         0.30546E+00
         0.33202E-11
         0.22065E+00
        -0.60997E-10
         0.12389E+00
        -0.61192E-10
        -0.20284E-01
        -0.14630E-09
        -0.14056E+00
        -0.18892E-09
        -0.26153E+00
        -0.29857E-09
        -0.30329E+00
        -0.25513E-09
        -0.30886E+00
        -0.20171E-09
         0.18931E-01
         0.19140E-01
        -0.10001E-01
         0.27964E-01
        -0.11923E+00
        -0.10848E+00
         0.45009E-01
         0.36045E-01
         0.54219E-02
         0.42773E-01
         0.10356E+00
         0.16021E+00
         0.69850E-01
         0.13141E+00
         0.25536E+00
         0.84494E-02
        -0.12470E-01
         0.28077E-01
        -0.15801E-01
        -0.69140E-02
         0.32103E-01
         0.48671E-01
         0.10412E+00
         0.40666E-01
         0.59129E-01
         0.72995E-01
         0.17476E+00
         0.21182E+00
         0.23749E+00
         0.90713E-01
         0.59957E-01
         0.10684E+00
         0.37328E-01
        -0.19682E-01
        -0.14000E+00
        -0.55314E-01
         0.10197E-01
         0.33123E+00
         0.36989E+00
         0.37146E+00
         0.34858E+00
         0.27733E+00
         0.16090E+00
         0.17688E+00
         0.20581E+00
         0.19535E+00
         0.11856E+00
         0.46126E-01
        -0.42530E-01
        -0.16428E+00
        -0.28067E+00
        -0.17191E+00
        -0.28293E+00
        -0.34189E+00
        -0.14726E+00
        -0.34115E-01
         0.78593E-01
         0.20530E+00
         0.32604E+00
         0.41476E+00
         0.40757E+00
         0.24081E+00
         0.21961E+00
         0.34862E+00
         0.27267E+00
         0.16356E+00
         0.14351E+00
         0.23316E+00
         0.36107E+00
         0.38664E+00
         0.26539E+00
         0.11898E+00
        -0.50712E-01
        -0.31666E+00
        -0.62383E+00
        -0.66959E+00
        -0.48195E+00
        -0.37130E+00
         0.89633E-02
        -0.24649E-02
        -0.20784E-01
         0.59507E-02
        -0.92573E-01
        -0.10302E+00
         0.13012E-01
         0.12048E-01
         0.81285E-02
         0.15690E-01
         0.56961E-01
         0.94451E-01
         0.20151E-01
         0.83029E-01
         0.18793E+00
         0.28254E-01
        -0.74770E-02
         0.25639E-01
         0.10731E-01
        -0.88513E-03
         0.61554E-01
         0.83721E-01
         0.82973E-01
         0.48792E-01
         0.26445E-01
         0.54902E-01
         0.11690E+00
         0.15506E+00
         0.20984E+00
         0.72356E-01
         0.11244E-01
         0.27777E-01
        -0.19887E-01
        -0.68594E-01
        -0.10612E+00
        -0.58824E-01
        -0.19746E-01
         0.26209E+00
         0.31243E+00
         0.35655E+00
         0.39115E+00
         0.30850E+00
         0.18704E+00
         0.84843E-01
         0.45085E-01
        -0.17451E-01
        -0.54827E-01
        -0.10805E+00
        -0.17708E+00
        -0.24998E+00
        -0.30675E+00
        -0.18009E+00
        -0.19362E+00
        -0.23058E+00
        -0.12728E+00
        -0.55725E-01
         0.12852E-01
         0.11275E+00
         0.24617E+00
         0.36707E+00
         0.43009E+00
         0.44447E+00
         0.42803E+00
         0.42679E+00
         0.36368E+00
         0.25308E+00
         0.18257E+00
         0.16031E+00
         0.13970E+00
         0.58442E-01
        -0.55876E-01
        -0.15742E+00
        -0.27531E+00
        -0.44407E+00
        -0.61252E+00
        -0.59735E+00
        -0.40745E+00
        -0.27670E+00
        -0.70526E-02
        -0.10158E-01
        -0.69638E-02
        -0.54219E-02
        -0.36346E-02
        -0.71316E-02
        -0.48946E-02
        -0.85178E-02
        -0.77962E-02
        -0.10428E-01
         0.19712E-01
         0.45499E-01
         0.21427E-02
         0.32215E-01
         0.10567E+00
         0.71428E-02
        -0.17682E-01
         0.60987E-03
        -0.26363E-02
        -0.16140E-01
         0.23920E-01
         0.44581E-01
         0.12732E-01
         0.97387E-02
        -0.65597E-02
         0.66526E-02
         0.51708E-01
         0.79919E-01
         0.12334E+00
         0.23203E-01
        -0.19430E-01
        -0.22275E-01
        -0.29707E-01
        -0.29126E-01
        -0.94682E-02
        -0.12045E-01
        -0.11400E-01
         0.16202E+00
         0.21418E+00
         0.26598E+00
         0.30617E+00
         0.21048E+00
         0.11191E+00
        -0.76990E-02
        -0.40320E-01
        -0.78843E-01
        -0.84208E-01
        -0.95005E-01
        -0.95976E-01
        -0.77859E-01
        -0.54062E-01
        -0.22839E-01
        -0.11733E-01
         0.17716E-02
        -0.13343E-01
        -0.11906E-01
         0.12854E-02
         0.59084E-01
         0.16321E+00
         0.26821E+00
         0.35040E+00
         0.40122E+00
         0.41669E+00
         0.38853E+00
         0.29325E+00
         0.19042E+00
         0.95972E-01
         0.20852E-01
        -0.38582E-01
        -0.85913E-01
        -0.12182E+00
        -0.15392E+00
        -0.16685E+00
        -0.15326E+00
        -0.11850E+00
        -0.66532E-01
        -0.91185E-02
         0.13085E-01
        -0.11730E-01
        -0.85844E-02
        -0.10467E-02
        -0.71328E-02
         0.18650E-01
         0.17648E-01
        -0.82972E-02
        -0.13808E-01
        -0.15206E-01
        -0.18510E-01
         0.27991E-02
         0.18206E-01
        -0.10900E-02
         0.70191E-02
         0.50349E-01
        -0.88142E-02
        -0.22546E-01
        -0.10396E-01
        -0.14484E-01
        -0.23648E-01
        -0.57950E-03
         0.12522E-01
        -0.73889E-02
        -0.82492E-02
        -0.18505E-01
        -0.82043E-02
         0.17180E-01
         0.35999E-01
         0.65899E-01
        -0.14979E-02
        -0.14129E-01
        -0.15360E-01
        -0.15582E-01
        -0.60733E-02
         0.18975E-01
         0.58528E-02
        -0.29832E-02
         0.90725E-01
         0.13582E+00
         0.18014E+00
         0.21241E+00
         0.12816E+00
         0.56706E-01
        -0.15658E-01
        -0.24186E-01
        -0.33140E-01
        -0.30913E-01
        -0.30327E-01
        -0.23464E-01
        -0.49565E-02
         0.17740E-01
         0.19664E-01
         0.40840E-01
         0.55232E-01
         0.22814E-01
         0.58728E-02
         0.37468E-02
         0.29734E-01
         0.89784E-01
         0.17666E+00
         0.27120E+00
         0.34055E+00
         0.34957E+00
         0.28442E+00
         0.19444E+00
         0.10961E+00
         0.40467E-01
        -0.64968E-02
        -0.36691E-01
        -0.48453E-01
        -0.49853E-01
        -0.52316E-01
        -0.46353E-01
        -0.24499E-01
         0.98841E-02
         0.44657E-01
         0.65631E-01
         0.66683E-01
        -0.93150E-02
        -0.73793E-02
        -0.42652E-02
        -0.52576E-02
         0.24279E-02
         0.35561E-02
        -0.88206E-02
        -0.12560E-01
        -0.12120E-01
        -0.16499E-01
        -0.58787E-02
         0.53091E-03
        -0.54215E-02
        -0.52167E-02
         0.14279E-01
        -0.85757E-02
        -0.16778E-01
        -0.72815E-02
        -0.12174E-01
        -0.17938E-01
        -0.50061E-02
         0.16728E-02
        -0.64436E-02
        -0.84051E-02
        -0.17761E-01
        -0.63713E-02
        -0.95392E-03
         0.10045E-01
         0.31230E-01
        -0.76309E-02
        -0.33731E-02
        -0.31777E-02
        -0.32720E-02
        -0.12156E-02
         0.22231E-02
        -0.20844E-02
        -0.50693E-02
         0.37501E-01
         0.69560E-01
         0.10564E+00
         0.13580E+00
         0.77964E-01
         0.29773E-01
        -0.63872E-02
        -0.41862E-02
        -0.16079E-02
         0.70437E-03
         0.20857E-02
         0.27725E-02
         0.47135E-02
         0.84200E-02
         0.59866E-02
         0.95238E-02
         0.14149E-01
         0.38917E-02
        -0.15134E-02
        -0.28446E-02
         0.60519E-02
         0.33592E-01
         0.88442E-01
         0.16706E+00
         0.23668E+00
         0.25402E+00
         0.20073E+00
         0.11907E+00
         0.54483E-01
         0.16887E-01
        -0.21727E-02
        -0.99473E-02
        -0.89596E-02
        -0.39485E-02
         0.21931E-03
         0.31172E-02
         0.53459E-02
         0.10107E-01
         0.16540E-01
         0.19399E-01
         0.17957E-01
        -0.46131E-02
        -0.40421E-02
        -0.31344E-02
        -0.17035E-02
        -0.26001E-02
        -0.11667E-02
        -0.52737E-02
        -0.70893E-02
        -0.57763E-02
        -0.91955E-02
        -0.54802E-02
        -0.37923E-02
        -0.38940E-02
        -0.61136E-02
        -0.82861E-03
        -0.34335E-02
        -0.78002E-02
        -0.22265E-02
        -0.54985E-02
        -0.87973E-02
        -0.34853E-02
        -0.13061E-02
        -0.39090E-02
        -0.41596E-02
        -0.10426E-01
        -0.26242E-02
        -0.52228E-02
        -0.82277E-03
         0.92599E-02
        -0.65337E-02
         0.88497E-03
         0.27730E-03
         0.13489E-02
         0.81433E-03
        -0.32253E-02
        -0.33430E-02
        -0.33783E-02
         0.84062E-02
         0.24823E-01
         0.44735E-01
         0.62013E-01
         0.32802E-01
         0.10176E-01
        -0.29523E-02
        -0.65245E-03
         0.15761E-02
         0.37134E-02
         0.52268E-02
         0.46926E-02
         0.25860E-02
         0.44335E-03
        -0.27286E-03
        -0.29915E-02
        -0.29869E-02
        -0.21104E-02
        -0.14093E-02
        -0.14779E-02
        -0.12219E-02
         0.49643E-02
         0.29304E-01
         0.75712E-01
         0.12160E+00
         0.13253E+00
         0.98242E-01
         0.51122E-01
         0.19227E-01
         0.33109E-02
        -0.34378E-02
        -0.48764E-02
        -0.32684E-02
        -0.38866E-03
         0.30639E-02
         0.45838E-02
         0.21240E-02
        -0.14227E-02
        -0.28970E-02
        -0.32028E-02
        -0.29890E-02
        -0.17988E-02
        -0.14295E-02
        -0.83142E-03
         0.97708E-04
         0.44987E-04
         0.12854E-02
        -0.19515E-02
        -0.28755E-02
        -0.19072E-02
        -0.37578E-02
        -0.27145E-02
        -0.24404E-02
        -0.91761E-03
        -0.38320E-02
        -0.43763E-02
        -0.46720E-03
        -0.22260E-02
        -0.17271E-03
        -0.11954E-02
        -0.29605E-02
        -0.16793E-02
        -0.20831E-02
        -0.18811E-02
        -0.11641E-02
        -0.47426E-02
        -0.54651E-03
        -0.48275E-02
        -0.47542E-02
        -0.27557E-02
        -0.47260E-02
         0.14339E-02
         0.62733E-03
         0.19705E-02
         0.23003E-02
        -0.17695E-03
        -0.45273E-03
        -0.50352E-03
        -0.41501E-02
        -0.39745E-03
         0.51452E-02
         0.10421E-01
         0.34650E-02
        -0.10584E-02
        -0.16414E-02
        -0.75252E-03
        -0.41643E-04
         0.16884E-02
         0.31563E-02
         0.36430E-02
         0.35066E-02
         0.31439E-02
         0.25457E-02
         0.72994E-03
         0.27902E-03
         0.15827E-02
         0.22704E-02
         0.23442E-02
        -0.41048E-04
        -0.35099E-02
        -0.28692E-03
         0.13465E-01
         0.29243E-01
         0.32564E-01
         0.22236E-01
         0.94409E-02
         0.70473E-03
        -0.25588E-02
        -0.39122E-02
        -0.46568E-02
        -0.42760E-02
        -0.30485E-02
        -0.94707E-03
         0.89272E-03
         0.95400E-03
         0.74319E-03
         0.15959E-02
         0.16340E-02
         0.71331E-03
        -0.96387E-03
        -0.62748E-03
        -0.20936E-03
         0.35170E-03
         0.11609E-02
         0.25570E-02
        -0.60088E-03
        -0.11459E-02
        -0.54312E-03
        -0.13079E-02
        -0.10678E-02
        -0.85897E-03
         0.42248E-03
        -0.21678E-02
        -0.39502E-02
         0.25500E-03
         0.35898E-06
         0.11237E-03
         0.49624E-03
        -0.26431E-03
         0.15628E-03
        -0.12346E-02
        -0.39760E-03
        -0.25400E-04
        -0.18659E-02
        -0.66636E-04
        -0.37753E-02
        -0.54901E-02
        -0.71819E-02
        -0.32338E-02
         0.10896E-02
         0.40719E-03
         0.16876E-02
         0.27214E-02
         0.99681E-03
         0.51520E-03
         0.50893E-03
        -0.76891E-02
        -0.10496E-01
        -0.12645E-01
        -0.13835E-01
        -0.92113E-02
        -0.49484E-02
        -0.95372E-03
        -0.76342E-03
        -0.55537E-03
         0.85439E-03
         0.22805E-02
         0.34412E-02
         0.46430E-02
         0.56341E-02
         0.44766E-02
         0.24281E-02
         0.25580E-02
         0.30213E-02
         0.36762E-02
         0.39324E-02
         0.18948E-02
        -0.34410E-02
        -0.10185E-01
        -0.15531E-01
        -0.18592E-01
        -0.20029E-01
        -0.14597E-01
        -0.78326E-02
        -0.33534E-02
        -0.56904E-03
        -0.13967E-02
        -0.33304E-02
        -0.39812E-02
        -0.35778E-02
        -0.20834E-02
         0.14744E-03
         0.20376E-02
         0.42353E-02
         0.65930E-02
         0.64270E-02
         0.41584E-02
        -0.90686E-03
        -0.50421E-03
        -0.13056E-03
         0.13350E-03
         0.18437E-02
         0.33327E-02
        -0.19626E-03
        -0.69140E-03
        -0.26292E-03
        -0.56145E-03
        -0.47121E-03
        -0.30209E-04
         0.10867E-02
        -0.16413E-02
        -0.35613E-02
         0.17276E-03
         0.64924E-03
        -0.16080E-03
         0.10497E-02
         0.69290E-03
         0.14563E-02
        -0.29452E-03
         0.67426E-03
         0.36931E-03
        -0.88278E-03
        -0.81522E-04
        -0.34622E-02
        -0.56557E-02
        -0.85338E-02
        -0.26695E-02
         0.65887E-03
         0.17590E-03
         0.13012E-02
         0.27046E-02
         0.16287E-02
         0.89964E-03
         0.95744E-03
        -0.86891E-02
        -0.13642E-01
        -0.18364E-01
        -0.22019E-01
        -0.13623E-01
        -0.60951E-02
        -0.27802E-03
        -0.40749E-03
        -0.35071E-03
         0.72366E-03
         0.21553E-02
         0.36807E-02
         0.54556E-02
         0.71125E-02
         0.55322E-02
         0.35643E-02
         0.45720E-02
         0.39585E-02
         0.47744E-02
         0.51624E-02
         0.32819E-02
        -0.25261E-02
        -0.12548E-01
        -0.24201E-01
        -0.34072E-01
        -0.38592E-01
        -0.28518E-01
        -0.12944E-01
        -0.20926E-02
         0.25103E-02
         0.15676E-02
        -0.86926E-03
        -0.23503E-02
        -0.28594E-02
        -0.18248E-02
         0.66198E-03
         0.35061E-02
         0.66888E-02
         0.96820E-02
         0.95899E-02
         0.69977E-02
        -0.91916E-03
        -0.44075E-03
        -0.36667E-04
         0.10029E-03
         0.22289E-02
         0.36685E-02
        -0.25262E-04
        -0.54150E-03
        -0.17303E-03
        -0.25695E-03
        -0.26276E-03
         0.28815E-03
         0.14720E-02
        -0.15579E-02
        -0.37908E-02
         0.24707E-03
         0.98505E-03
        -0.23718E-03
         0.12331E-02
         0.11392E-02
         0.90492E-03
        -0.71277E-03
         0.25873E-03
         0.39513E-03
        -0.38639E-03
        -0.16413E-04
        -0.35505E-02
        -0.58288E-02
        -0.86766E-02
        -0.21639E-02
         0.78759E-03
         0.30581E-03
         0.14852E-02
         0.29617E-02
         0.21112E-02
         0.12276E-02
         0.12721E-02
        -0.10032E-01
        -0.15984E-01
        -0.20844E-01
        -0.23994E-01
        -0.13986E-01
        -0.62567E-02
        -0.42757E-03
        -0.32364E-03
        -0.30112E-04
         0.11621E-02
         0.28301E-02
         0.45702E-02
         0.63136E-02
         0.78508E-02
         0.59809E-02
         0.43892E-02
         0.54450E-02
         0.46469E-02
         0.54648E-02
         0.58919E-02
         0.38986E-02
        -0.27509E-02
        -0.15872E-01
        -0.31559E-01
        -0.42124E-01
        -0.43237E-01
        -0.30193E-01
        -0.15390E-01
        -0.55316E-02
        -0.42701E-03
        -0.16578E-03
        -0.16007E-02
        -0.23317E-02
        -0.22796E-02
        -0.87358E-03
         0.19963E-02
         0.51282E-02
         0.80330E-02
         0.10628E-01
         0.10338E-01
         0.77010E-02
        -0.93874E-03
        -0.61148E-03
        -0.22448E-03
         0.16106E-03
         0.18379E-02
         0.33949E-02
        -0.16498E-03
        -0.48267E-03
        -0.48554E-04
        -0.88740E-04
        -0.45686E-03
        -0.26143E-03
         0.92464E-03
        -0.16662E-02
        -0.44226E-02
         0.49505E-03
         0.13220E-02
        -0.89010E-04
         0.14214E-02
         0.15052E-02
         0.24025E-03
        -0.11336E-02
        -0.62566E-03
         0.30350E-03
        -0.16623E-03
         0.30519E-04
        -0.37587E-02
        -0.63039E-02
        -0.93187E-02
        -0.19840E-02
         0.12146E-02
         0.49888E-03
         0.19653E-02
         0.32894E-02
         0.16945E-02
         0.81825E-03
         0.73884E-03
        -0.11025E-01
        -0.17695E-01
        -0.23087E-01
        -0.26184E-01
        -0.14858E-01
        -0.66252E-02
        -0.11691E-02
        -0.74039E-03
        -0.16283E-03
         0.15186E-02
         0.35462E-02
         0.53278E-02
         0.67111E-02
         0.77068E-02
         0.57889E-02
         0.37796E-02
         0.44078E-02
         0.38175E-02
         0.41141E-02
         0.45157E-02
         0.27261E-02
        -0.41438E-02
        -0.18051E-01
        -0.35682E-01
        -0.47614E-01
        -0.47345E-01
        -0.32639E-01
        -0.17905E-01
        -0.85583E-02
        -0.35620E-02
        -0.32726E-02
        -0.42440E-02
        -0.39559E-02
        -0.28160E-02
        -0.60366E-03
         0.27337E-02
         0.57414E-02
         0.78744E-02
         0.96219E-02
         0.90261E-02
         0.63719E-02
        -0.94140E-03
        -0.72689E-03
        -0.36142E-03
         0.20932E-03
         0.20473E-02
         0.38963E-02
        -0.17569E-03
        -0.37675E-03
        -0.99046E-05
         0.18870E-04
        -0.55336E-03
        -0.63402E-03
         0.59867E-03
        -0.17697E-02
        -0.49722E-02
         0.48720E-03
         0.14554E-02
        -0.10731E-03
         0.15092E-02
         0.16998E-02
         0.25590E-03
        -0.11310E-02
        -0.70414E-03
         0.29540E-03
        -0.12942E-03
         0.45202E-04
        -0.39877E-02
        -0.69190E-02
        -0.10791E-01
        -0.22545E-02
         0.12867E-02
         0.61078E-03
         0.20519E-02
         0.35468E-02
         0.15781E-02
         0.40173E-03
         0.26087E-03
        -0.11808E-01
        -0.19237E-01
        -0.26181E-01
        -0.31053E-01
        -0.17867E-01
        -0.75908E-02
        -0.11931E-02
        -0.63093E-03
        -0.42763E-05
         0.16572E-02
         0.35518E-02
         0.52197E-02
         0.67957E-02
         0.81569E-02
         0.64032E-02
         0.37669E-02
         0.51951E-02
         0.28747E-02
         0.28252E-02
         0.36034E-02
         0.20039E-02
        -0.50356E-02
        -0.19029E-01
        -0.38116E-01
        -0.53752E-01
        -0.57009E-01
        -0.39378E-01
        -0.19851E-01
        -0.91417E-02
        -0.38797E-02
        -0.36189E-02
        -0.44904E-02
        -0.39568E-02
        -0.27826E-02
        -0.73110E-03
         0.22372E-02
         0.48169E-02
         0.73757E-02
         0.10169E-01
         0.10232E-01
         0.76552E-02
        -0.68613E-03
        -0.36704E-03
        -0.77400E-04
         0.45733E-03
         0.21693E-02
         0.40487E-02
         0.91762E-04
        -0.18394E-03
         0.53254E-04
         0.18497E-03
        -0.50349E-03
        -0.72429E-03
         0.93983E-03
        -0.17738E-02
        -0.55045E-02
         0.36956E-03
         0.14657E-02
        -0.73319E-04
         0.15096E-02
         0.18489E-02
         0.44195E-03
        -0.86093E-03
        -0.72384E-03
         0.20813E-03
         0.10643E-03
        -0.42397E-04
        -0.37923E-02
        -0.63528E-02
        -0.10252E-01
        -0.19949E-02
         0.12174E-02
         0.67310E-03
         0.19316E-02
         0.34423E-02
         0.14797E-02
         0.49133E-03
         0.61783E-03
        -0.12212E-01
        -0.18814E-01
        -0.25303E-01
        -0.30881E-01
        -0.17997E-01
        -0.75194E-02
        -0.12258E-02
        -0.44531E-03
         0.40057E-03
         0.19205E-02
         0.34499E-02
         0.47117E-02
         0.61358E-02
         0.75750E-02
         0.62591E-02
         0.31837E-02
         0.50493E-02
         0.24878E-02
         0.31305E-02
         0.41549E-02
         0.19374E-02
        -0.63461E-02
        -0.21293E-01
        -0.38835E-01
        -0.52836E-01
        -0.58134E-01
        -0.40781E-01
        -0.20246E-01
        -0.89075E-02
        -0.35768E-02
        -0.36010E-02
        -0.46118E-02
        -0.37187E-02
        -0.21531E-02
        -0.21770E-03
         0.20938E-02
         0.36842E-02
         0.58414E-02
         0.91563E-02
         0.99405E-02
         0.77234E-02
        -0.56965E-03
        -0.59252E-04
         0.18744E-03
         0.44908E-03
         0.20057E-02
         0.33637E-02
         0.29447E-03
        -0.91765E-04
         0.37485E-04
         0.20537E-03
        -0.42168E-03
        -0.70145E-03
         0.13458E-02
        -0.17015E-02
        -0.56498E-02
         0.26392E-03
         0.13137E-02
        -0.97552E-04
         0.13738E-02
         0.16338E-02
         0.67731E-03
        -0.75969E-03
        -0.48719E-03
         0.17471E-03
         0.60069E-04
        -0.58254E-04
        -0.35812E-02
        -0.58552E-02
        -0.93673E-02
        -0.20038E-02
         0.12015E-02
         0.76489E-03
         0.18087E-02
         0.30633E-02
         0.16985E-02
         0.10352E-02
         0.12582E-02
        -0.12019E-01
        -0.17692E-01
        -0.22941E-01
        -0.27714E-01
        -0.16622E-01
        -0.72882E-02
        -0.10054E-02
        -0.17991E-03
         0.77075E-03
         0.22085E-02
         0.35854E-02
         0.46080E-02
         0.56336E-02
         0.65257E-02
         0.52062E-02
         0.32573E-02
         0.41476E-02
         0.34856E-02
         0.45146E-02
         0.50819E-02
         0.19805E-02
        -0.71554E-02
        -0.22043E-01
        -0.37244E-01
        -0.47588E-01
        -0.51639E-01
        -0.38342E-01
        -0.19844E-01
        -0.75539E-02
        -0.22561E-02
        -0.26703E-02
        -0.38879E-02
        -0.31418E-02
        -0.15587E-02
         0.39783E-03
         0.26056E-02
         0.39048E-02
         0.54046E-02
         0.75409E-02
         0.74854E-02
         0.56881E-02
        -0.57520E-03
        -0.31655E-04
         0.38528E-03
         0.53741E-03
         0.22306E-02
         0.32622E-02
         0.27196E-03
        -0.97866E-04
        -0.45652E-06
         0.14953E-03
        -0.35573E-03
        -0.60023E-03
         0.12663E-02
        -0.15337E-02
        -0.51480E-02
         0.24046E-03
         0.11242E-02
        -0.52104E-05
         0.11132E-02
         0.12201E-02
         0.60759E-03
        -0.11653E-02
        -0.17651E-03
         0.17439E-03
        -0.13416E-03
         0.66770E-04
        -0.33842E-02
        -0.57563E-02
        -0.92372E-02
        -0.23274E-02
         0.13786E-02
         0.93936E-03
         0.20258E-02
         0.32115E-02
         0.22616E-02
         0.14605E-02
         0.13501E-02
        -0.11161E-01
        -0.16690E-01
        -0.21754E-01
        -0.25994E-01
        -0.16009E-01
        -0.75736E-02
        -0.54219E-03
         0.15181E-03
         0.83475E-03
         0.21672E-02
         0.36258E-02
         0.48442E-02
         0.58893E-02
         0.65595E-02
         0.50602E-02
         0.41855E-02
         0.42902E-02
         0.43578E-02
         0.47977E-02
         0.49621E-02
         0.20907E-02
        -0.63209E-02
        -0.20074E-01
        -0.34272E-01
        -0.44070E-01
        -0.46994E-01
        -0.36189E-01
        -0.20003E-01
        -0.71294E-02
        -0.12518E-02
        -0.13771E-02
        -0.25801E-02
        -0.24436E-02
        -0.16608E-02
        -0.14805E-03
         0.22062E-02
         0.41416E-02
         0.59284E-02
         0.75055E-02
         0.66952E-02
         0.49515E-02
        -0.55273E-03
        -0.24122E-03
         0.14375E-03
         0.55520E-03
         0.18983E-02
         0.31299E-02
         0.12904E-03
        -0.11172E-03
         0.14813E-03
         0.14453E-03
        -0.36143E-03
        -0.63712E-03
         0.82047E-03
        -0.14878E-02
        -0.49007E-02
         0.63729E-03
         0.13135E-02
         0.28187E-03
         0.14698E-02
         0.14997E-02
         0.11773E-02
        -0.55578E-03
         0.28279E-03
         0.58570E-03
        -0.12664E-03
         0.40707E-03
        -0.35453E-02
        -0.61862E-02
        -0.97293E-02
        -0.22211E-02
         0.15463E-02
         0.96501E-03
         0.21162E-02
         0.31278E-02
         0.17500E-02
         0.91747E-03
         0.75881E-03
        -0.11202E-01
        -0.17467E-01
        -0.23167E-01
        -0.27408E-01
        -0.16276E-01
        -0.71678E-02
        -0.32943E-03
        -0.22684E-04
         0.17491E-03
         0.14884E-02
         0.30347E-02
         0.43490E-02
         0.53926E-02
         0.61217E-02
         0.49030E-02
         0.34960E-02
         0.38297E-02
         0.33810E-02
         0.35680E-02
         0.38874E-02
         0.16853E-02
        -0.58682E-02
        -0.19201E-01
        -0.34708E-01
        -0.46575E-01
        -0.49553E-01
        -0.36409E-01
        -0.18950E-01
        -0.60040E-02
        -0.14781E-03
        -0.71752E-03
        -0.24945E-02
        -0.29794E-02
        -0.28585E-02
        -0.17658E-02
         0.66973E-03
         0.29707E-02
         0.48286E-02
         0.67985E-02
         0.67277E-02
         0.49853E-02
        -0.45112E-03
        -0.29491E-03
        -0.71126E-04
         0.48589E-03
         0.12124E-02
         0.22366E-02
         0.90617E-04
        -0.14490E-03
         0.34338E-03
         0.19031E-03
        -0.32313E-03
        -0.41473E-03
         0.77534E-03
        -0.14950E-02
        -0.46383E-02
         0.99788E-03
         0.16446E-02
         0.47913E-03
         0.18161E-02
         0.19557E-02
         0.10224E-02
        -0.54349E-03
         0.19075E-03
         0.85675E-03
         0.11986E-03
         0.61313E-03
        -0.36832E-02
        -0.65983E-02
        -0.10661E-01
        -0.19071E-02
         0.14092E-02
         0.80899E-03
         0.17739E-02
         0.24306E-02
         0.10307E-02
         0.41726E-03
         0.47972E-03
        -0.11581E-01
        -0.19366E-01
        -0.26942E-01
        -0.32689E-01
        -0.18493E-01
        -0.74573E-02
        -0.43142E-03
        -0.32415E-03
        -0.41163E-03
         0.78887E-03
         0.20862E-02
         0.30058E-02
         0.36675E-02
         0.41172E-02
         0.35190E-02
         0.23684E-02
         0.24922E-02
         0.23080E-02
         0.28304E-02
         0.36989E-02
         0.20727E-02
        -0.51825E-02
        -0.19752E-01
        -0.39897E-01
        -0.57570E-01
        -0.62481E-01
        -0.43535E-01
        -0.21253E-01
        -0.79916E-02
        -0.17571E-02
        -0.18162E-02
        -0.31908E-02
        -0.35328E-02
        -0.36277E-02
        -0.28524E-02
        -0.96051E-03
         0.51003E-03
         0.16396E-02
         0.36411E-02
         0.41747E-02
         0.30743E-02
        -0.19696E-03
        -0.14888E-04
         0.15949E-03
         0.65583E-03
         0.80505E-03
         0.14100E-02
         0.16160E-03
        -0.14629E-03
         0.53315E-03
         0.27848E-03
        -0.32165E-03
        -0.20954E-03
         0.10215E-02
        -0.14653E-02
        -0.41207E-02
         0.10589E-02
         0.18509E-02
         0.64204E-03
         0.17873E-02
         0.21447E-02
         0.27369E-03
        -0.11980E-02
        -0.16516E-03
         0.76633E-03
         0.56136E-03
         0.49426E-03
        -0.33318E-02
        -0.56626E-02
        -0.91281E-02
        -0.11012E-02
         0.11001E-02
         0.44613E-03
         0.13942E-02
         0.17468E-02
         0.77706E-03
         0.59567E-03
         0.83821E-03
        -0.10445E-01
        -0.17550E-01
        -0.24615E-01
        -0.30309E-01
        -0.16766E-01
        -0.69466E-02
        -0.66911E-03
        -0.76138E-03
        -0.11110E-02
         0.73701E-05
         0.10696E-02
         0.15520E-02
         0.17124E-02
         0.17004E-02
         0.19184E-02
         0.15926E-02
         0.99107E-03
         0.23878E-02
         0.34598E-02
         0.43253E-02
         0.27601E-02
        -0.38262E-02
        -0.17298E-01
        -0.36532E-01
        -0.54253E-01
        -0.60307E-01
        -0.42275E-01
        -0.22700E-01
        -0.11384E-01
        -0.44337E-02
        -0.28421E-02
        -0.35274E-02
        -0.40871E-02
        -0.45397E-02
        -0.40200E-02
        -0.25861E-02
        -0.20953E-02
        -0.19637E-02
        -0.34783E-03
         0.72619E-03
         0.69362E-03
        -0.28224E-03
        -0.21506E-03
        -0.29050E-03
         0.31310E-03
        -0.55185E-03
        -0.19003E-03
        -0.13350E-03
        -0.35746E-03
         0.47422E-03
         0.14272E-03
        -0.67434E-03
        -0.50180E-03
         0.67440E-03
        -0.16904E-02
        -0.39877E-02
         0.82499E-03
         0.16066E-02
         0.55079E-03
         0.13496E-02
         0.15368E-02
        -0.83295E-04
        -0.18490E-02
        -0.66830E-03
         0.27690E-03
         0.32959E-03
        -0.74937E-04
        -0.32854E-02
        -0.54059E-02
        -0.88535E-02
        -0.16649E-02
         0.37076E-03
        -0.50233E-03
         0.52106E-03
         0.32375E-03
        -0.65273E-03
        -0.16226E-03
         0.48215E-03
        -0.96044E-02
        -0.16038E-01
        -0.22687E-01
        -0.28146E-01
        -0.16402E-01
        -0.77126E-02
        -0.14526E-02
        -0.19808E-02
        -0.28244E-02
        -0.17699E-02
        -0.93554E-03
        -0.94352E-03
        -0.14248E-02
        -0.19848E-02
        -0.62778E-03
        -0.90774E-03
        -0.18799E-02
         0.10800E-02
         0.30257E-02
         0.40447E-02
         0.28645E-02
        -0.26069E-02
        -0.14592E-01
        -0.32333E-01
        -0.49071E-01
        -0.54974E-01
        -0.40034E-01
        -0.22432E-01
        -0.10486E-01
        -0.41379E-02
        -0.31394E-02
        -0.43894E-02
        -0.57349E-02
        -0.67830E-02
        -0.67455E-02
        -0.59424E-02
        -0.64400E-02
        -0.74017E-02
        -0.60616E-02
        -0.38275E-02
        -0.25469E-02
        -0.11757E-02
        -0.13793E-02
        -0.20001E-02
        -0.91415E-03
        -0.39791E-02
        -0.40251E-02
        -0.12557E-02
        -0.14350E-02
        -0.39157E-03
        -0.94845E-03
        -0.17581E-02
        -0.14730E-02
        -0.54077E-03
        -0.26396E-02
        -0.44592E-02
        -0.14158E-06
         0.47147E-03
        -0.12053E-03
         0.13737E-03
        -0.12909E-03
        -0.70148E-03
        -0.31267E-02
        -0.15518E-02
        -0.86257E-03
        -0.10316E-02
        -0.12173E-02
        -0.39791E-02
        -0.62326E-02
        -0.10745E-01
        -0.38518E-02
        -0.12569E-02
        -0.22650E-02
        -0.14497E-02
        -0.26723E-02
        -0.42245E-02
        -0.26743E-02
        -0.11732E-02
        -0.93017E-02
        -0.15483E-01
        -0.23124E-01
        -0.30616E-01
        -0.20344E-01
        -0.10853E-01
        -0.26084E-02
        -0.37573E-02
        -0.56988E-02
        -0.53905E-02
        -0.53239E-02
        -0.61077E-02
        -0.75446E-02
        -0.91448E-02
        -0.59222E-02
        -0.62311E-02
        -0.82624E-02
        -0.29249E-02
         0.59773E-03
         0.27254E-02
         0.22502E-02
        -0.23895E-02
        -0.13009E-01
        -0.29864E-01
        -0.48047E-01
        -0.58166E-01
        -0.47700E-01
        -0.25244E-01
        -0.77825E-02
        -0.18822E-02
        -0.27654E-02
        -0.49528E-02
        -0.71833E-02
        -0.10027E-01
        -0.12270E-01
        -0.13404E-01
        -0.15364E-01
        -0.17830E-01
        -0.16963E-01
        -0.13358E-01
        -0.10291E-01
        -0.69384E-03
        -0.77235E-03
        -0.10198E-02
         0.29404E-05
        -0.35393E-02
        -0.44215E-02
        -0.97869E-03
        -0.15019E-02
        -0.27159E-03
        -0.17446E-02
        -0.16514E-02
        -0.12530E-02
        -0.12889E-03
        -0.29033E-02
        -0.43791E-02
         0.42195E-03
        -0.26270E-03
         0.73958E-03
         0.17270E-03
        -0.14295E-02
         0.24469E-02
        -0.87086E-03
         0.20234E-02
         0.21290E-03
        -0.28885E-02
        -0.45868E-03
        -0.49267E-02
        -0.78810E-02
        -0.12170E-01
        -0.59534E-02
        -0.16347E-02
        -0.25886E-02
        -0.15280E-02
        -0.25781E-02
        -0.28863E-02
        -0.12868E-02
        -0.35429E-03
        -0.91762E-02
        -0.14848E-01
        -0.21168E-01
        -0.26414E-01
        -0.18554E-01
        -0.93814E-02
         0.14741E-03
        -0.27915E-02
        -0.71131E-02
        -0.87578E-02
        -0.94661E-02
        -0.94491E-02
        -0.97937E-02
        -0.11175E-01
        -0.68911E-02
        -0.43494E-02
        -0.94270E-02
        -0.41031E-03
         0.19678E-02
         0.32999E-02
         0.25274E-02
        -0.19969E-02
        -0.11012E-01
        -0.24190E-01
        -0.37088E-01
        -0.44236E-01
        -0.35395E-01
        -0.11763E-01
         0.72378E-02
         0.12202E-01
         0.89040E-02
         0.37181E-02
        -0.27105E-02
        -0.11004E-01
        -0.18194E-01
        -0.21163E-01
        -0.21518E-01
        -0.22277E-01
        -0.20818E-01
        -0.17125E-01
        -0.13597E-01
         0.67842E-02
         0.75033E-02
         0.94305E-02
         0.87221E-02
         0.84425E-02
         0.53801E-02
         0.55047E-02
         0.43326E-02
         0.57336E-02
         0.17502E-02
         0.32374E-02
         0.25217E-02
         0.57198E-02
         0.62182E-03
        -0.28061E-02
         0.69968E-02
         0.32453E-02
         0.79396E-02
         0.68470E-02
         0.39902E-03
         0.15631E-01
         0.79355E-02
         0.16756E-01
         0.95949E-02
        -0.33508E-02
         0.74022E-02
        -0.44722E-02
        -0.10737E-01
        -0.15231E-01
        -0.81893E-02
         0.26747E-02
         0.21159E-02
         0.40004E-02
         0.52381E-02
         0.11379E-01
         0.11313E-01
         0.86130E-02
        -0.10387E-01
        -0.17237E-01
        -0.21364E-01
        -0.21488E-01
        -0.14660E-01
        -0.43537E-02
         0.12312E-01
         0.46211E-02
        -0.51498E-02
        -0.10626E-01
        -0.12572E-01
        -0.95535E-02
        -0.52098E-02
        -0.38086E-02
         0.20629E-02
         0.13320E-01
         0.41162E-02
         0.16410E-01
         0.12327E-01
         0.81733E-02
         0.46228E-02
        -0.15205E-02
        -0.11365E-01
        -0.22563E-01
        -0.27804E-01
        -0.26774E-01
        -0.14029E-01
         0.14032E-01
         0.38208E-01
         0.45470E-01
         0.39431E-01
         0.27775E-01
         0.11345E-01
        -0.89123E-02
        -0.26051E-01
        -0.31925E-01
        -0.27367E-01
        -0.20656E-01
        -0.13896E-01
        -0.81937E-02
        -0.30978E-02
         0.16301E-01
         0.17672E-01
         0.20738E-01
         0.18174E-01
         0.19909E-01
         0.14649E-01
         0.13682E-01
         0.11993E-01
         0.14571E-01
         0.72791E-02
         0.91326E-02
         0.67025E-02
         0.13179E-01
         0.48798E-02
        -0.23970E-02
         0.17004E-01
         0.10829E-01
         0.17000E-01
         0.18314E-01
         0.46259E-02
         0.27976E-01
         0.89514E-02
         0.29979E-01
         0.21689E-01
        -0.36593E-02
         0.16205E-01
        -0.46360E-02
        -0.18658E-01
        -0.31084E-01
        -0.16605E-01
         0.55451E-02
         0.35939E-02
         0.81491E-02
         0.11277E-01
         0.24688E-01
         0.24548E-01
         0.19497E-01
        -0.15870E-01
        -0.28850E-01
        -0.38467E-01
        -0.45861E-01
        -0.38729E-01
        -0.20580E-01
         0.20632E-01
         0.48957E-02
        -0.13102E-01
        -0.20468E-01
        -0.22205E-01
        -0.14862E-01
        -0.49655E-02
        -0.10034E-03
         0.91102E-02
         0.27841E-01
         0.16426E-01
         0.32319E-01
         0.24099E-01
         0.14632E-01
         0.66925E-02
        -0.33470E-02
        -0.17193E-01
        -0.33168E-01
        -0.47940E-01
        -0.65466E-01
        -0.65557E-01
        -0.23688E-01
         0.30594E-01
         0.58231E-01
         0.55062E-01
         0.37091E-01
         0.92371E-02
        -0.23155E-01
        -0.47828E-01
        -0.52792E-01
        -0.41385E-01
        -0.26158E-01
        -0.11620E-01
        -0.31708E-03
         0.84388E-02
  
SCALARS                      strain_xz  double 1
LOOKUP_TABLE default
         0.19513E+00
         0.28234E+00
         0.25910E+00
         0.18043E+00
        -0.36269E-10
         0.30226E-09
         0.16662E-09
         0.13719E-09
         0.25283E+00
         0.19194E+00
        -0.43298E-10
         0.18111E-09
         0.27075E+00
         0.21366E+00
        -0.60744E-10
         0.11107E-09
         0.12945E+00
         0.16695E+00
        -0.32420E-10
         0.87783E-10
         0.26341E+00
         0.31742E+00
         0.31500E+00
        -0.60631E-10
         0.19621E-09
         0.17111E-09
         0.20170E+00
         0.24455E+00
        -0.81015E-10
         0.18108E-09
         0.87258E-01
         0.11428E+00
         0.99945E-01
        -0.20498E-10
        -0.51123E-11
         0.24389E-10
         0.10183E+00
         0.11952E+00
        -0.36456E-10
        -0.36418E-10
         0.10701E+00
         0.74302E-01
        -0.62208E-10
        -0.75384E-10
         0.11156E+00
         0.11087E+00
        -0.82759E-10
        -0.38593E-10
         0.13754E+00
        -0.52941E-10
         0.10984E+00
        -0.29642E-10
         0.12771E+00
        -0.54532E-10
         0.82245E-01
        -0.50164E-10
         0.54026E-01
         0.14041E+00
        -0.12621E-09
         0.16049E-09
         0.88723E-01
         0.13160E+00
        -0.19562E-10
         0.70364E-10
         0.61214E-01
        -0.44609E-10
         0.89718E-01
        -0.67678E-10
         0.28172E+00
         0.28788E+00
        -0.23956E-10
         0.18032E-09
         0.29386E+00
        -0.17100E-10
         0.71706E-01
        -0.69543E-10
        -0.32525E-01
        -0.85106E-10
        -0.10251E+00
        -0.89243E-10
        -0.15590E+00
        -0.20437E-01
        -0.65486E-10
         0.54158E-10
         0.42221E-01
        -0.79774E-10
         0.93552E-01
        -0.10204E-09
         0.90926E-01
        -0.12765E-09
         0.84620E-01
         0.11476E+00
        -0.11201E-09
         0.16610E-09
         0.43050E-01
        -0.58225E-10
        -0.56138E-02
        -0.97963E-10
         0.14264E-02
        -0.13033E-09
         0.14185E-01
         0.10325E+00
        -0.11993E-09
         0.15671E-09
         0.35004E+00
         0.43717E+00
        -0.42500E-10
         0.29857E-09
         0.24862E+00
        -0.20653E-10
         0.19069E+00
        -0.83123E-11
         0.15579E+00
        -0.20308E-10
         0.15888E+00
        -0.13349E-10
         0.11612E+00
         0.51545E-11
        -0.62466E-01
        -0.26189E-10
        -0.22287E+00
        -0.40866E-10
        -0.31700E+00
        -0.36370E-10
        -0.43319E+00
        -0.74419E-11
        -0.27055E+00
        -0.46116E-10
        -0.13041E+00
        -0.95706E-10
        -0.19367E-01
        -0.10000E-09
         0.35441E-01
        -0.13366E-09
         0.36103E-01
        -0.16955E-09
        -0.20106E-02
        -0.19278E-09
        -0.45300E-01
        -0.24635E-09
        -0.28902E-01
        -0.25203E-09
        -0.47966E-01
        -0.17996E-09
        -0.11601E+00
        -0.16107E-09
        -0.12880E+00
        -0.18866E-09
        -0.97228E-01
        -0.19334E-09
        -0.70272E-01
        -0.17801E-09
        -0.18506E-02
        -0.71752E-10
         0.12778E+00
        -0.22926E-10
         0.15871E+00
         0.21525E+00
         0.20072E+00
         0.11445E+00
         0.23414E+00
         0.16325E+00
         0.24846E+00
         0.20259E+00
         0.11839E+00
         0.15161E+00
         0.23768E+00
         0.20006E+00
         0.23618E+00
         0.18990E+00
         0.12587E+00
         0.89338E-01
         0.10860E+00
         0.84697E-01
         0.13013E+00
         0.12208E+00
         0.23151E+00
         0.16188E+00
         0.25621E+00
         0.16340E+00
         0.13217E+00
         0.14167E+00
         0.12813E+00
         0.91257E-01
         0.37806E-01
         0.10376E+00
         0.99952E-01
         0.16081E+00
         0.87725E-01
         0.11248E+00
         0.30195E+00
         0.27504E+00
         0.24603E+00
         0.32540E-01
        -0.45782E-01
        -0.13314E+00
        -0.20537E+00
        -0.61215E-01
         0.62655E-01
         0.23655E+00
         0.24505E+00
         0.28262E+00
         0.22494E+00
         0.16113E+00
         0.14859E+00
         0.17010E+00
         0.17972E+00
         0.15354E+00
         0.38882E+00
         0.33569E+00
         0.34463E+00
         0.24749E+00
         0.15147E+00
         0.70196E-01
        -0.60889E-02
        -0.14864E+00
        -0.35983E+00
        -0.49217E+00
        -0.45463E+00
        -0.25032E+00
        -0.43827E-02
         0.24867E+00
         0.40324E+00
         0.42144E+00
         0.36352E+00
         0.34148E+00
         0.39243E+00
         0.36767E+00
         0.29338E+00
         0.29098E+00
         0.28924E+00
         0.21468E+00
         0.19273E+00
         0.24661E+00
        -0.47808E-01
        -0.69542E-01
        -0.11110E+00
        -0.88424E-01
        -0.20117E+00
        -0.22195E+00
        -0.66630E-01
        -0.57706E-01
        -0.46745E-01
        -0.50780E-01
        -0.76624E-01
        -0.89848E-01
        -0.81719E-01
        -0.76504E-01
        -0.10345E+00
        -0.76543E-01
        -0.53859E-01
        -0.62836E-01
        -0.52915E-01
        -0.49734E-01
        -0.63916E-02
        -0.35344E-01
        -0.30548E-01
        -0.59806E-01
        -0.56789E-01
        -0.90593E-01
        -0.78048E-01
        -0.96750E-01
        -0.13802E+00
        -0.80375E-01
        -0.94993E-01
        -0.12065E+00
        -0.10547E+00
        -0.17327E+00
        -0.22271E+00
        -0.16618E+00
        -0.10646E+00
        -0.13031E+00
        -0.17579E+00
        -0.22916E+00
        -0.26081E+00
        -0.19589E+00
        -0.10903E+00
        -0.91598E-01
        -0.15646E+00
        -0.19052E+00
        -0.14829E+00
        -0.12433E+00
        -0.17017E+00
        -0.28604E+00
        -0.40502E+00
        -0.31435E+00
        -0.32091E+00
        -0.32246E+00
        -0.26514E+00
        -0.16430E+00
        -0.10972E+00
        -0.11310E+00
        -0.13627E+00
        -0.21401E+00
        -0.32547E+00
        -0.35793E+00
        -0.27450E+00
        -0.22877E+00
        -0.15823E+00
        -0.30816E-01
         0.28192E-01
        -0.11379E-01
        -0.11446E+00
        -0.23737E+00
        -0.26927E+00
        -0.20237E+00
        -0.18610E+00
        -0.30117E+00
        -0.53682E+00
        -0.69418E+00
        -0.60334E+00
        -0.41456E+00
        -0.69898E-01
        -0.82505E-01
        -0.99019E-01
        -0.75629E-01
        -0.13194E+00
        -0.11248E+00
        -0.78716E-01
        -0.69885E-01
        -0.58336E-01
        -0.55425E-01
        -0.80728E-01
        -0.87065E-01
        -0.83154E-01
        -0.77024E-01
        -0.97823E-01
        -0.63842E-01
        -0.48389E-01
        -0.63177E-01
        -0.49674E-01
        -0.42746E-01
        -0.37014E-01
        -0.46767E-01
        -0.52991E-01
        -0.59444E-01
        -0.52313E-01
        -0.74572E-01
        -0.75092E-01
        -0.88013E-01
        -0.11418E+00
        -0.65125E-01
        -0.65354E-01
        -0.86557E-01
        -0.64087E-01
        -0.85135E-01
        -0.15866E+00
        -0.13246E+00
        -0.99615E-01
        -0.12092E+00
        -0.15528E+00
        -0.19065E+00
        -0.21455E+00
        -0.15611E+00
        -0.90237E-01
        -0.82408E-01
        -0.11209E+00
        -0.12409E+00
        -0.90267E-01
        -0.58809E-01
        -0.64862E-01
        -0.10152E+00
        -0.13599E+00
        -0.12199E+00
        -0.21474E+00
        -0.18596E+00
        -0.18809E+00
        -0.12988E+00
        -0.95747E-01
        -0.10572E+00
        -0.13966E+00
        -0.21125E+00
        -0.29358E+00
        -0.31173E+00
        -0.27695E+00
        -0.22785E+00
        -0.14793E+00
        -0.70754E-01
        -0.45772E-01
        -0.59783E-01
        -0.98870E-01
        -0.15071E+00
        -0.16095E+00
        -0.10345E+00
        -0.52843E-01
        -0.67943E-01
        -0.13851E+00
        -0.19555E+00
        -0.19641E+00
        -0.17408E+00
        -0.12239E-01
        -0.11539E-01
        -0.92069E-02
        -0.60095E-02
         0.31975E-02
         0.20007E-01
        -0.10624E-01
        -0.89404E-02
        -0.94493E-02
        -0.58143E-02
        -0.14403E-01
        -0.24588E-01
        -0.13639E-01
        -0.15853E-01
        -0.41107E-01
        -0.10475E-01
        -0.52946E-02
        -0.10984E-01
        -0.58637E-02
        -0.62910E-02
        -0.59251E-02
        -0.15928E-01
        -0.61851E-02
        -0.77781E-02
        -0.91388E-02
        -0.93423E-02
        -0.21375E-01
        -0.34059E-01
        -0.54145E-01
        -0.22267E-01
        -0.16157E-02
        -0.27184E-02
         0.48018E-02
         0.19400E-01
        -0.18946E-02
        -0.81431E-02
        -0.10879E-01
        -0.64147E-01
        -0.88845E-01
        -0.11206E+00
        -0.13077E+00
        -0.85614E-01
        -0.42789E-01
        -0.63830E-02
        -0.85644E-03
         0.85567E-02
         0.13918E-01
         0.23806E-01
         0.36775E-01
         0.52707E-01
         0.67317E-01
         0.46296E-01
         0.92425E-02
         0.21781E-01
        -0.23421E-03
        -0.11361E-01
        -0.23145E-01
        -0.50986E-01
        -0.94078E-01
        -0.15295E+00
        -0.21338E+00
        -0.23284E+00
        -0.21039E+00
        -0.14814E+00
        -0.80303E-01
        -0.37115E-01
        -0.18900E-01
        -0.94295E-02
        -0.21775E-02
         0.59050E-02
         0.17471E-01
         0.36257E-01
         0.60797E-01
         0.85646E-01
         0.10460E+00
         0.10862E+00
         0.87134E-01
         0.50932E-01
         0.55315E-02
         0.55756E-02
         0.78620E-02
         0.65557E-02
         0.15085E-01
         0.18959E-01
         0.40772E-02
         0.53868E-02
         0.47361E-02
         0.47248E-02
         0.21031E-03
        -0.77767E-02
         0.24065E-03
        -0.11240E-02
        -0.19219E-01
         0.87901E-03
         0.26290E-02
         0.28251E-02
         0.30899E-03
        -0.20564E-02
        -0.37775E-02
        -0.99737E-02
        -0.27038E-02
        -0.72871E-03
        -0.17365E-02
         0.38296E-03
        -0.64671E-02
        -0.17235E-01
        -0.32129E-01
        -0.13233E-01
         0.38357E-02
         0.53008E-02
         0.63358E-02
         0.14347E-01
         0.16509E-01
         0.10919E-01
         0.51949E-02
        -0.34954E-01
        -0.51600E-01
        -0.66758E-01
        -0.77042E-01
        -0.49469E-01
        -0.24888E-01
         0.64712E-03
         0.80195E-02
         0.14786E-01
         0.13238E-01
         0.12678E-01
         0.17333E-01
         0.27368E-01
         0.37698E-01
         0.29171E-01
         0.28724E-01
         0.29758E-01
         0.20289E-01
         0.58223E-02
        -0.65804E-02
        -0.25284E-01
        -0.55951E-01
        -0.94743E-01
        -0.13319E+00
        -0.14673E+00
        -0.12770E+00
        -0.77939E-01
        -0.39745E-01
        -0.25419E-01
        -0.17445E-01
        -0.94883E-02
         0.40127E-03
         0.13069E-01
         0.22791E-01
         0.24702E-01
         0.26972E-01
         0.37623E-01
         0.53441E-01
         0.62209E-01
         0.56869E-01
         0.40709E-01
         0.29218E-02
         0.23241E-02
         0.17403E-02
         0.10611E-02
         0.11880E-02
        -0.11509E-03
         0.19304E-02
         0.27004E-02
         0.27945E-02
         0.23651E-02
         0.52697E-03
        -0.24255E-02
         0.43292E-03
        -0.10242E-04
        -0.73905E-02
         0.68807E-03
         0.13999E-02
         0.12726E-02
        -0.49286E-03
        -0.13675E-02
        -0.38469E-02
        -0.50448E-02
        -0.44507E-02
        -0.17958E-02
        -0.85583E-03
        -0.12022E-02
        -0.24137E-02
        -0.72364E-02
        -0.14000E-01
        -0.61703E-02
        -0.55217E-03
        -0.50151E-03
        -0.13990E-02
        -0.18877E-02
         0.24572E-02
         0.22684E-02
         0.16926E-02
        -0.14393E-01
        -0.21490E-01
        -0.27867E-01
        -0.32095E-01
        -0.20987E-01
        -0.10722E-01
        -0.34793E-02
        -0.13966E-02
        -0.16043E-03
        -0.47487E-03
        -0.21615E-02
        -0.39475E-02
        -0.42598E-02
        -0.31262E-02
        -0.15910E-02
         0.58746E-02
         0.46333E-02
         0.55339E-02
         0.28097E-02
        -0.10386E-02
        -0.81993E-02
        -0.22275E-01
        -0.40254E-01
        -0.56667E-01
        -0.61912E-01
        -0.53560E-01
        -0.32005E-01
        -0.16442E-01
        -0.13820E-01
        -0.13672E-01
        -0.11518E-01
        -0.77883E-02
        -0.37755E-02
        -0.49835E-03
        -0.81259E-03
        -0.38617E-02
        -0.62951E-02
        -0.52144E-02
        -0.12017E-02
         0.32105E-02
         0.43465E-02
         0.50875E-03
         0.59651E-03
        -0.31390E-03
        -0.84757E-03
        -0.19447E-02
        -0.37189E-02
         0.59523E-03
         0.33226E-03
         0.53025E-03
         0.17108E-04
         0.30073E-03
         0.29212E-03
         0.10226E-02
        -0.25706E-03
        -0.14164E-02
         0.38348E-03
         0.53585E-04
         0.11102E-03
        -0.96426E-03
        -0.11890E-02
        -0.32637E-02
        -0.24561E-02
        -0.36120E-02
        -0.16532E-02
        -0.83236E-03
        -0.96862E-03
        -0.10335E-02
        -0.18331E-02
        -0.31195E-02
        -0.20548E-02
        -0.64973E-03
        -0.90524E-03
        -0.21270E-02
        -0.41844E-02
        -0.85983E-03
         0.21595E-03
         0.10815E-02
        -0.32046E-02
        -0.39960E-02
        -0.45245E-02
        -0.50381E-02
        -0.38785E-02
        -0.26049E-02
        -0.29645E-02
        -0.23356E-02
        -0.22386E-02
        -0.17785E-02
        -0.28029E-02
        -0.53808E-02
        -0.78126E-02
        -0.88798E-02
        -0.64875E-02
         0.61316E-03
        -0.80084E-03
         0.27981E-02
         0.36391E-02
         0.25564E-02
         0.71020E-03
        -0.34381E-02
        -0.81344E-02
        -0.92185E-02
        -0.79597E-02
        -0.78912E-02
        -0.51904E-02
        -0.42079E-02
        -0.77617E-02
        -0.94902E-02
        -0.83471E-02
        -0.64668E-02
        -0.55163E-02
        -0.41127E-02
        -0.34215E-02
        -0.53527E-02
        -0.92558E-02
        -0.11835E-01
        -0.10783E-01
        -0.67206E-02
        -0.30897E-02
        -0.14844E-03
         0.33278E-03
        -0.19408E-03
        -0.75219E-03
        -0.11197E-02
        -0.25142E-02
         0.17163E-03
        -0.60780E-03
        -0.35123E-03
        -0.10726E-02
        -0.96819E-05
         0.84777E-03
         0.11680E-02
        -0.60377E-03
         0.71312E-03
         0.26190E-03
        -0.62654E-03
        -0.63020E-04
        -0.12198E-02
        -0.11473E-02
        -0.28724E-02
        -0.11616E-02
        -0.30898E-02
        -0.15123E-02
        -0.84271E-03
        -0.62337E-03
        -0.55633E-03
         0.74482E-03
         0.24750E-02
        -0.30864E-04
        -0.58974E-04
        -0.34690E-03
        -0.12745E-02
        -0.27272E-02
         0.14995E-03
         0.77055E-03
         0.12685E-02
         0.18655E-02
         0.44655E-02
         0.74461E-02
         0.95426E-02
         0.52251E-02
         0.15216E-02
        -0.23126E-02
        -0.17573E-02
        -0.16674E-02
        -0.89247E-03
        -0.13453E-02
        -0.32470E-02
        -0.49255E-02
        -0.54173E-02
        -0.40754E-02
         0.24392E-02
         0.72726E-03
         0.39557E-02
         0.41850E-02
         0.34375E-02
         0.29983E-02
         0.37211E-02
         0.70313E-02
         0.13735E-01
         0.19664E-01
         0.17671E-01
         0.94061E-02
         0.19520E-02
        -0.45549E-02
        -0.71995E-02
        -0.68967E-02
        -0.54404E-02
        -0.48724E-02
        -0.36546E-02
        -0.21196E-02
        -0.26630E-02
        -0.53227E-02
        -0.69447E-02
        -0.56312E-02
        -0.30068E-02
        -0.11369E-02
        -0.28116E-03
         0.21060E-03
        -0.77938E-04
        -0.60467E-03
        -0.75514E-03
        -0.21664E-02
        -0.99380E-04
        -0.96139E-03
        -0.58766E-03
        -0.14616E-02
        -0.29659E-03
         0.64393E-03
         0.73729E-03
        -0.78848E-03
         0.14902E-02
         0.28930E-03
        -0.83308E-03
         0.43120E-04
        -0.12273E-02
        -0.90170E-03
        -0.24693E-02
         0.16904E-03
        -0.34057E-02
        -0.16021E-02
        -0.76886E-03
        -0.68882E-03
        -0.34305E-03
         0.17921E-02
         0.48646E-02
         0.10473E-02
         0.14322E-03
        -0.44547E-03
        -0.93053E-03
        -0.22453E-02
         0.69418E-03
         0.91578E-03
         0.94885E-03
         0.39763E-02
         0.76913E-02
         0.11958E-01
         0.15621E-01
         0.96482E-02
         0.41769E-02
        -0.30366E-02
        -0.26111E-02
        -0.25821E-02
        -0.12948E-02
        -0.13767E-02
        -0.29358E-02
        -0.42910E-02
        -0.45609E-02
        -0.34177E-02
         0.34405E-02
         0.12563E-02
         0.39878E-02
         0.31605E-02
         0.24837E-02
         0.27571E-02
         0.63288E-02
         0.13651E-01
         0.22461E-01
         0.29471E-01
         0.28294E-01
         0.17491E-01
         0.71804E-02
        -0.12877E-02
        -0.62556E-02
        -0.81518E-02
        -0.79652E-02
        -0.74374E-02
        -0.54841E-02
        -0.33143E-02
        -0.33865E-02
        -0.53692E-02
        -0.61922E-02
        -0.43819E-02
        -0.19035E-02
        -0.63125E-03
        -0.30656E-03
         0.26232E-03
        -0.62722E-04
        -0.69673E-03
        -0.90233E-03
        -0.26652E-02
        -0.97433E-04
        -0.11211E-02
        -0.71536E-03
        -0.17225E-02
        -0.25623E-03
         0.99723E-03
         0.82421E-03
        -0.80370E-03
         0.23604E-02
         0.27933E-03
        -0.99052E-03
         0.75184E-04
        -0.11304E-02
        -0.68086E-03
        -0.17082E-02
         0.16367E-02
        -0.31260E-02
        -0.15196E-02
        -0.84044E-03
        -0.73683E-03
        -0.25537E-03
         0.22355E-02
         0.60579E-02
         0.16613E-02
         0.61499E-04
        -0.66969E-03
        -0.11112E-02
        -0.28106E-02
         0.73692E-03
         0.10202E-02
         0.10313E-02
         0.54001E-02
         0.95360E-02
         0.14240E-01
         0.18891E-01
         0.12556E-01
         0.64987E-02
        -0.32130E-02
        -0.31258E-02
        -0.33834E-02
        -0.20534E-02
        -0.22127E-02
        -0.39302E-02
        -0.55884E-02
        -0.61080E-02
        -0.44745E-02
         0.35311E-02
         0.10187E-02
         0.41687E-02
         0.30955E-02
         0.24363E-02
         0.36323E-02
         0.91820E-02
         0.18549E-01
         0.28232E-01
         0.34858E-01
         0.34063E-01
         0.24019E-01
         0.13070E-01
         0.25130E-02
        -0.42980E-02
        -0.74951E-02
        -0.84266E-02
        -0.85179E-02
        -0.68080E-02
        -0.52119E-02
        -0.59038E-02
        -0.79868E-02
        -0.86456E-02
        -0.66154E-02
        -0.33099E-02
        -0.12093E-02
        -0.29974E-03
         0.43038E-03
        -0.99677E-05
        -0.79736E-03
        -0.99915E-03
        -0.29557E-02
         0.86774E-04
        -0.11581E-02
        -0.79991E-03
        -0.18551E-02
         0.53200E-05
         0.17450E-02
         0.15023E-02
        -0.66060E-03
         0.30977E-02
         0.26232E-03
        -0.11157E-02
         0.17312E-04
        -0.11102E-02
        -0.75452E-03
        -0.14152E-02
         0.17785E-02
        -0.24734E-02
        -0.12927E-02
        -0.90555E-03
        -0.55986E-03
        -0.53670E-04
         0.27076E-02
         0.69358E-02
         0.18393E-02
        -0.95527E-04
        -0.56690E-03
        -0.14116E-02
        -0.32743E-02
         0.74589E-03
         0.12801E-02
         0.15830E-02
         0.65333E-02
         0.11332E-01
         0.16576E-01
         0.21387E-01
         0.13861E-01
         0.69538E-02
        -0.24623E-02
        -0.24554E-02
        -0.28408E-02
        -0.20604E-02
        -0.26866E-02
        -0.45909E-02
        -0.63270E-02
        -0.69367E-02
        -0.51036E-02
         0.34921E-02
         0.97169E-03
         0.48312E-02
         0.44280E-02
         0.41532E-02
         0.56501E-02
         0.11121E-01
         0.21421E-01
         0.33127E-01
         0.40609E-01
         0.38429E-01
         0.25873E-01
         0.13704E-01
         0.30256E-02
        -0.31560E-02
        -0.55931E-02
        -0.62562E-02
        -0.66729E-02
        -0.56741E-02
        -0.51883E-02
        -0.68890E-02
        -0.90865E-02
        -0.95247E-02
        -0.75992E-02
        -0.40404E-02
        -0.13754E-02
        -0.22144E-03
         0.50997E-03
         0.73920E-04
        -0.76539E-03
        -0.11009E-02
        -0.32133E-02
         0.77329E-04
        -0.11818E-02
        -0.75116E-03
        -0.19128E-02
        -0.98799E-05
         0.18743E-02
         0.16547E-02
        -0.68294E-03
         0.31967E-02
         0.31388E-03
        -0.11298E-02
         0.64620E-04
        -0.12113E-02
        -0.10066E-02
        -0.18496E-02
         0.81508E-03
        -0.25340E-02
        -0.13177E-02
        -0.10208E-02
        -0.48416E-03
        -0.69082E-04
         0.26923E-02
         0.65988E-02
         0.14210E-02
        -0.85731E-04
        -0.38225E-03
        -0.15039E-02
        -0.34324E-02
         0.81367E-03
         0.14826E-02
         0.18140E-02
         0.66341E-02
         0.11607E-01
         0.16795E-01
         0.20524E-01
         0.12147E-01
         0.53296E-02
        -0.22523E-02
        -0.20325E-02
        -0.21481E-02
        -0.15093E-02
        -0.23711E-02
        -0.45606E-02
        -0.65271E-02
        -0.72936E-02
        -0.54504E-02
         0.35351E-02
         0.58349E-03
         0.52822E-02
         0.51850E-02
         0.48993E-02
         0.63400E-02
         0.11583E-01
         0.21554E-01
         0.33676E-01
         0.41937E-01
         0.36872E-01
         0.20425E-01
         0.92320E-02
         0.77514E-03
        -0.39696E-02
        -0.55836E-02
        -0.57078E-02
        -0.58314E-02
        -0.44187E-02
        -0.35959E-02
        -0.54955E-02
        -0.84068E-02
        -0.95800E-02
        -0.81265E-02
        -0.47965E-02
        -0.20907E-02
        -0.27923E-03
         0.34731E-03
        -0.68070E-04
        -0.90744E-03
        -0.12779E-02
        -0.36863E-02
        -0.10325E-03
        -0.12863E-02
        -0.71470E-03
        -0.19525E-02
        -0.21153E-03
         0.17428E-02
         0.14195E-02
        -0.93827E-03
         0.27974E-02
         0.41436E-03
        -0.10257E-02
         0.67190E-04
        -0.11751E-02
        -0.10059E-02
        -0.21376E-02
         0.38300E-03
        -0.25658E-02
        -0.12479E-02
        -0.10211E-02
        -0.32891E-03
        -0.43426E-03
         0.22369E-02
         0.60525E-02
         0.12797E-02
         0.76962E-04
        -0.12400E-03
        -0.14578E-02
        -0.36406E-02
         0.86018E-03
         0.14499E-02
         0.16288E-02
         0.54415E-02
         0.98144E-02
         0.15047E-01
         0.19102E-01
         0.11331E-01
         0.47726E-02
        -0.20469E-02
        -0.16716E-02
        -0.16069E-02
        -0.95628E-03
        -0.18204E-02
        -0.43143E-02
        -0.68512E-02
        -0.80769E-02
        -0.61272E-02
         0.38022E-02
         0.35569E-03
         0.55370E-02
         0.52047E-02
         0.47043E-02
         0.65649E-02
         0.11552E-01
         0.18997E-01
         0.28251E-01
         0.36941E-01
         0.34586E-01
         0.19278E-01
         0.79906E-02
        -0.40130E-03
        -0.47421E-02
        -0.58403E-02
        -0.54781E-02
        -0.53140E-02
        -0.36084E-02
        -0.24247E-02
        -0.40280E-02
        -0.77063E-02
        -0.10344E-01
        -0.95953E-02
        -0.62738E-02
        -0.31039E-02
        -0.39618E-03
         0.10928E-03
        -0.30871E-03
        -0.10168E-02
        -0.14801E-02
        -0.37571E-02
        -0.30879E-03
        -0.13515E-02
        -0.70561E-03
        -0.18843E-02
        -0.39723E-03
         0.14225E-02
         0.96739E-03
        -0.10592E-02
         0.24100E-02
         0.50202E-03
        -0.88510E-03
         0.53892E-04
        -0.10404E-02
        -0.75211E-03
        -0.19742E-02
         0.89929E-03
        -0.23261E-02
        -0.10771E-02
        -0.78346E-03
        -0.15822E-03
        -0.54498E-03
         0.22887E-02
         0.68298E-02
         0.18731E-02
         0.21989E-03
         0.47235E-04
        -0.12986E-02
        -0.34886E-02
         0.55229E-03
         0.10630E-02
         0.11567E-02
         0.47074E-02
         0.90167E-02
         0.15254E-01
         0.21390E-01
         0.13879E-01
         0.63631E-02
        -0.17631E-02
        -0.14253E-02
        -0.14365E-02
        -0.79012E-03
        -0.15296E-02
        -0.38892E-02
        -0.63936E-02
        -0.76887E-02
        -0.59826E-02
         0.34399E-02
         0.23492E-03
         0.49131E-02
         0.42514E-02
         0.37132E-02
         0.60019E-02
         0.10793E-01
         0.17124E-01
         0.25393E-01
         0.36055E-01
         0.39353E-01
         0.26524E-01
         0.11776E-01
         0.65731E-03
        -0.42729E-02
        -0.53478E-02
        -0.50076E-02
        -0.49928E-02
        -0.35144E-02
        -0.23969E-02
        -0.35963E-02
        -0.69533E-02
        -0.95973E-02
        -0.90332E-02
        -0.60699E-02
        -0.30833E-02
        -0.38233E-03
         0.11673E-03
        -0.44230E-03
        -0.10397E-02
        -0.17669E-02
        -0.36319E-02
        -0.21854E-03
        -0.11989E-02
        -0.66543E-03
        -0.16918E-02
        -0.26027E-03
         0.14057E-02
         0.97376E-03
        -0.83116E-03
         0.24152E-02
         0.47690E-03
        -0.83553E-03
         0.14794E-04
        -0.10329E-02
        -0.72016E-03
        -0.19312E-02
         0.10384E-02
        -0.24145E-02
        -0.11289E-02
        -0.57970E-03
        -0.27526E-03
        -0.20574E-03
         0.28759E-02
         0.78381E-02
         0.21721E-02
         0.15396E-03
        -0.10497E-03
        -0.12759E-02
        -0.32746E-02
         0.22509E-04
         0.73283E-03
         0.10677E-02
         0.51177E-02
         0.10350E-01
         0.17566E-01
         0.24371E-01
         0.15704E-01
         0.70788E-02
        -0.20314E-02
        -0.17390E-02
        -0.16756E-02
        -0.87155E-03
        -0.14684E-02
        -0.35855E-02
        -0.57115E-02
        -0.66960E-02
        -0.53839E-02
         0.25051E-02
        -0.28309E-03
         0.41495E-02
         0.38596E-02
         0.34910E-02
         0.55994E-02
         0.99885E-02
         0.17120E-01
         0.28557E-01
         0.41921E-01
         0.45153E-01
         0.30773E-01
         0.13348E-01
         0.96670E-03
        -0.41816E-02
        -0.55048E-02
        -0.56152E-02
        -0.56709E-02
        -0.38491E-02
        -0.23728E-02
        -0.33352E-02
        -0.61525E-02
        -0.80438E-02
        -0.71907E-02
        -0.47944E-02
        -0.27822E-02
        -0.33772E-03
         0.35795E-03
        -0.24427E-03
        -0.10043E-02
        -0.14882E-02
        -0.33649E-02
         0.78113E-04
        -0.10955E-02
        -0.75986E-03
        -0.17736E-02
         0.17006E-04
         0.17396E-02
         0.15070E-02
        -0.66028E-03
         0.28167E-02
         0.20754E-03
        -0.10184E-02
        -0.13161E-03
        -0.14216E-02
        -0.10753E-02
        -0.27527E-02
         0.25710E-03
        -0.34182E-02
        -0.17099E-02
        -0.80802E-03
        -0.76109E-03
        -0.90791E-04
         0.28391E-02
         0.72410E-02
         0.16394E-02
        -0.10980E-03
        -0.48229E-03
        -0.14062E-02
        -0.32081E-02
         0.36504E-03
         0.10973E-02
         0.15604E-02
         0.60774E-02
         0.11506E-01
         0.17776E-01
         0.23093E-01
         0.14080E-01
         0.58862E-02
        -0.28729E-02
        -0.22627E-02
        -0.19244E-02
        -0.10707E-02
        -0.16613E-02
        -0.36422E-02
        -0.55459E-02
        -0.63696E-02
        -0.50746E-02
         0.29739E-02
         0.84261E-04
         0.47320E-02
         0.47667E-02
         0.44632E-02
         0.59200E-02
         0.10523E-01
         0.19891E-01
         0.33592E-01
         0.44821E-01
         0.43134E-01
         0.27069E-01
         0.11016E-01
        -0.76538E-03
        -0.62753E-02
        -0.76696E-02
        -0.71598E-02
        -0.63130E-02
        -0.38611E-02
        -0.23270E-02
        -0.35866E-02
        -0.61246E-02
        -0.76537E-02
        -0.67096E-02
        -0.43348E-02
        -0.24778E-02
        -0.45740E-03
         0.35039E-03
        -0.16357E-03
        -0.99038E-03
        -0.11514E-02
        -0.30587E-02
         0.86253E-04
        -0.12408E-02
        -0.90642E-03
        -0.20046E-02
         0.68901E-05
         0.19056E-02
         0.18071E-02
        -0.82667E-03
         0.29373E-02
        -0.46777E-04
        -0.11739E-02
        -0.24942E-03
        -0.17356E-02
        -0.12760E-02
        -0.32904E-02
        -0.30069E-03
        -0.40017E-02
        -0.21490E-02
        -0.10998E-02
        -0.11114E-02
        -0.40257E-03
         0.23034E-02
         0.62018E-02
         0.11671E-02
        -0.21865E-03
        -0.70650E-03
        -0.13469E-02
        -0.30011E-02
         0.73378E-03
         0.13576E-02
         0.18312E-02
         0.62703E-02
         0.11358E-01
         0.16598E-01
         0.20561E-01
         0.11869E-01
         0.46716E-02
        -0.32695E-02
        -0.24997E-02
        -0.21285E-02
        -0.12146E-02
        -0.16290E-02
        -0.33900E-02
        -0.51857E-02
        -0.60528E-02
        -0.47771E-02
         0.35628E-02
         0.72123E-03
         0.53491E-02
         0.56103E-02
         0.53385E-02
         0.63433E-02
         0.11311E-01
         0.21951E-01
         0.35717E-01
         0.44429E-01
         0.38703E-01
         0.20952E-01
         0.76744E-02
        -0.22679E-02
        -0.73769E-02
        -0.84963E-02
        -0.73756E-02
        -0.62617E-02
        -0.40642E-02
        -0.25690E-02
        -0.35775E-02
        -0.56582E-02
        -0.71152E-02
        -0.65379E-02
        -0.41882E-02
        -0.20101E-02
        -0.50133E-03
         0.17734E-03
        -0.16434E-03
        -0.81079E-03
        -0.79603E-03
        -0.23669E-02
        -0.73986E-04
        -0.12374E-02
        -0.85954E-03
        -0.19278E-02
        -0.13566E-03
         0.15413E-02
         0.13632E-02
        -0.92969E-03
         0.23694E-02
         0.90935E-04
        -0.10123E-02
        -0.17681E-03
        -0.14167E-02
        -0.10091E-02
        -0.26700E-02
         0.42334E-04
        -0.31692E-02
        -0.16908E-02
        -0.10049E-02
        -0.75219E-03
        -0.65520E-03
         0.19920E-02
         0.61707E-02
         0.13555E-02
         0.17158E-03
        -0.28259E-03
        -0.81091E-03
        -0.21794E-02
         0.84685E-03
         0.11469E-02
         0.13790E-02
         0.51445E-02
         0.10043E-01
         0.15931E-01
         0.20706E-01
         0.12181E-01
         0.49421E-02
        -0.25577E-02
        -0.19060E-02
        -0.14386E-02
        -0.40595E-03
        -0.52936E-03
        -0.19782E-02
        -0.35277E-02
        -0.42798E-02
        -0.35458E-02
         0.37814E-02
         0.14042E-02
         0.48397E-02
         0.46190E-02
         0.43408E-02
         0.54405E-02
         0.97959E-02
         0.18982E-01
         0.31697E-01
         0.42342E-01
         0.39301E-01
         0.21475E-01
         0.77516E-02
        -0.16852E-02
        -0.58855E-02
        -0.66741E-02
        -0.59930E-02
        -0.53464E-02
        -0.31757E-02
        -0.11685E-02
        -0.13599E-02
        -0.28300E-02
        -0.42153E-02
        -0.40966E-02
        -0.26013E-02
        -0.10241E-02
        -0.32526E-03
         0.35933E-03
         0.54858E-03
        -0.98949E-04
         0.86254E-03
        -0.21516E-03
        -0.10390E-03
        -0.10863E-02
        -0.73197E-03
        -0.17179E-02
        -0.34401E-03
         0.74267E-03
         0.82456E-03
        -0.10328E-02
         0.12524E-02
         0.33804E-03
        -0.81800E-03
         0.71981E-04
        -0.10505E-02
        -0.72593E-03
        -0.20350E-02
         0.44276E-03
        -0.21770E-02
        -0.10796E-02
        -0.72410E-03
        -0.83097E-04
        -0.72101E-03
         0.20841E-02
         0.67140E-02
         0.18024E-02
         0.10649E-02
         0.87716E-03
         0.38316E-03
        -0.12977E-03
         0.24886E-02
         0.20027E-02
         0.13583E-02
         0.37598E-02
         0.89116E-02
         0.15707E-01
         0.21532E-01
         0.13270E-01
         0.55661E-02
        -0.13110E-02
        -0.17241E-03
         0.10159E-02
         0.19278E-02
         0.18671E-02
         0.87903E-03
         0.14784E-03
         0.97844E-04
        -0.20946E-03
         0.63388E-02
         0.40740E-02
         0.61715E-02
         0.41625E-02
         0.28094E-02
         0.33720E-02
         0.64463E-02
         0.14167E-01
         0.27001E-01
         0.39663E-01
         0.40112E-01
         0.24009E-01
         0.87446E-02
        -0.77258E-03
        -0.44778E-02
        -0.48642E-02
        -0.39084E-02
        -0.25267E-02
         0.52548E-03
         0.30659E-02
         0.32582E-02
         0.24633E-02
         0.18111E-02
         0.20362E-02
         0.23267E-02
         0.23023E-02
         0.23522E-03
         0.11318E-02
         0.20457E-02
         0.10413E-02
         0.38595E-02
         0.30439E-02
         0.53635E-03
        -0.34450E-03
        -0.28343E-03
        -0.10058E-02
         0.22587E-03
         0.82121E-03
         0.11640E-02
        -0.41609E-03
         0.92950E-03
         0.84792E-03
        -0.28667E-03
         0.55332E-03
        -0.18049E-03
         0.21275E-03
        -0.92466E-04
         0.26157E-02
        -0.29999E-03
         0.53419E-04
         0.83821E-04
         0.90827E-03
        -0.23439E-03
         0.26666E-02
         0.78556E-02
         0.30658E-02
         0.21652E-02
         0.20877E-02
         0.19421E-02
         0.25364E-02
         0.57257E-02
         0.41834E-02
         0.23686E-02
         0.28160E-02
         0.77428E-02
         0.15240E-01
         0.22345E-01
         0.15393E-01
         0.79419E-02
         0.32035E-03
         0.13834E-02
         0.28444E-02
         0.38429E-02
         0.41017E-02
         0.39567E-02
         0.44218E-02
         0.52802E-02
         0.40796E-02
         0.11220E-01
         0.90025E-02
         0.10021E-01
         0.57748E-02
         0.27215E-02
         0.24458E-02
         0.41238E-02
         0.97297E-02
         0.20698E-01
         0.33993E-01
         0.39355E-01
         0.28263E-01
         0.13564E-01
         0.43047E-02
         0.80679E-04
        -0.12954E-02
        -0.12315E-02
        -0.23896E-03
         0.28783E-02
         0.56300E-02
         0.62884E-02
         0.70148E-02
         0.80030E-02
         0.87875E-02
         0.84854E-02
         0.76738E-02
         0.91084E-04
         0.91008E-03
         0.14468E-02
         0.36447E-03
         0.32426E-02
         0.22339E-02
         0.76929E-03
        -0.27583E-04
        -0.21819E-03
        -0.37896E-03
         0.11244E-02
         0.26290E-02
         0.20585E-02
         0.73388E-03
         0.35971E-02
         0.18772E-03
        -0.17620E-03
         0.30758E-04
        -0.11930E-02
         0.50993E-03
        -0.27586E-02
         0.28185E-02
        -0.46587E-02
        -0.21558E-02
         0.12834E-02
        -0.14167E-02
         0.14901E-02
         0.57725E-02
         0.13639E-01
         0.56464E-02
         0.11743E-03
        -0.15791E-02
         0.22822E-04
         0.14356E-03
         0.43075E-02
         0.32865E-02
         0.24979E-02
         0.66541E-02
         0.13931E-01
         0.25233E-01
         0.36407E-01
         0.25635E-01
         0.12812E-01
        -0.49191E-02
        -0.51829E-02
        -0.51444E-02
        -0.24143E-02
        -0.10964E-02
        -0.12107E-02
        -0.10422E-02
        -0.21051E-03
         0.11420E-02
         0.90276E-02
         0.91213E-02
         0.91741E-02
         0.71988E-02
         0.51015E-02
         0.63077E-02
         0.97731E-02
         0.17244E-01
         0.31978E-01
         0.52081E-01
         0.63407E-01
         0.49062E-01
         0.21544E-01
         0.19532E-02
        -0.76363E-02
        -0.11258E-01
        -0.11907E-01
        -0.11669E-01
        -0.90596E-02
        -0.61747E-02
        -0.57692E-02
        -0.50092E-02
        -0.34385E-02
        -0.14991E-03
         0.38995E-02
         0.74050E-02
        -0.90939E-02
        -0.95210E-02
        -0.11420E-01
        -0.10420E-01
        -0.13918E-01
        -0.14287E-01
        -0.98343E-02
        -0.10569E-01
        -0.90958E-02
        -0.10084E-01
        -0.84528E-02
        -0.30903E-02
        -0.53080E-02
        -0.79167E-02
         0.10328E-02
        -0.13694E-01
        -0.11772E-01
        -0.92747E-02
        -0.22027E-01
        -0.16415E-01
        -0.39755E-01
        -0.27928E-01
        -0.45834E-01
        -0.29711E-01
        -0.94068E-02
        -0.26369E-01
        -0.48178E-02
         0.77517E-03
         0.89503E-02
        -0.73622E-02
        -0.17371E-01
        -0.28181E-01
        -0.15564E-01
        -0.18655E-01
        -0.16698E-01
        -0.13061E-01
        -0.75194E-02
         0.91975E-02
         0.21182E-01
         0.34945E-01
         0.45939E-01
         0.20818E-01
        -0.72845E-02
        -0.44747E-01
        -0.44667E-01
        -0.46986E-01
        -0.36458E-01
        -0.29198E-01
        -0.28974E-01
        -0.31515E-01
        -0.32352E-01
        -0.22608E-01
        -0.19091E-01
        -0.11630E-01
        -0.12258E-01
        -0.48375E-03
         0.44535E-02
         0.93730E-02
         0.17662E-01
         0.33565E-01
         0.61009E-01
         0.88690E-01
         0.91334E-01
         0.50612E-01
        -0.17774E-01
        -0.66512E-01
        -0.83153E-01
        -0.81683E-01
        -0.73799E-01
        -0.68537E-01
        -0.64444E-01
        -0.57885E-01
        -0.54383E-01
        -0.53302E-01
        -0.52024E-01
        -0.43570E-01
        -0.28187E-01
        -0.13274E-01
        -0.22548E-01
        -0.24401E-01
        -0.28013E-01
        -0.24113E-01
        -0.33532E-01
        -0.32843E-01
        -0.25419E-01
        -0.26499E-01
        -0.22563E-01
        -0.25445E-01
        -0.23965E-01
        -0.15755E-01
        -0.18487E-01
        -0.22866E-01
        -0.85945E-02
        -0.33119E-01
        -0.29152E-01
        -0.21770E-01
        -0.51959E-01
        -0.40909E-01
        -0.88087E-01
        -0.68756E-01
        -0.97958E-01
        -0.67520E-01
        -0.25571E-01
        -0.60017E-01
        -0.16129E-01
        -0.61333E-02
         0.32909E-02
        -0.26148E-01
        -0.38182E-01
        -0.61286E-01
        -0.32528E-01
        -0.38579E-01
        -0.39369E-01
        -0.32914E-01
        -0.22660E-01
         0.84463E-02
         0.30501E-01
         0.47661E-01
         0.55856E-01
         0.12901E-01
        -0.35090E-01
        -0.93894E-01
        -0.90905E-01
        -0.93212E-01
        -0.74398E-01
        -0.58535E-01
        -0.56324E-01
        -0.61195E-01
        -0.63486E-01
        -0.47239E-01
        -0.45236E-01
        -0.33201E-01
        -0.35503E-01
        -0.14203E-01
        -0.35399E-02
         0.36361E-02
         0.16690E-01
         0.45469E-01
         0.90403E-01
         0.12645E+00
         0.11610E+00
         0.40875E-01
        -0.72969E-01
        -0.15029E+00
        -0.16838E+00
        -0.15788E+00
        -0.13930E+00
        -0.12595E+00
        -0.11876E+00
        -0.10835E+00
        -0.99907E-01
        -0.95442E-01
        -0.92987E-01
        -0.81683E-01
        -0.59515E-01
        -0.35981E-01
  
SCALARS                      strain_xy  double 1
LOOKUP_TABLE default
        -0.22073E-01
         0.32716E-01
         0.10890E+00
         0.37072E-01
        -0.17444E-09
         0.93825E-10
         0.24267E-09
        -0.59529E-11
         0.23762E+00
         0.18411E+00
         0.36302E-09
         0.41223E-09
        -0.81703E-03
        -0.18453E-01
         0.73470E-10
        -0.12200E-09
        -0.17853E-01
        -0.23122E-01
        -0.13670E-09
        -0.11591E-09
        -0.37275E-02
         0.52729E-01
         0.63049E-01
        -0.55912E-11
        -0.27608E-09
        -0.57225E-10
        -0.10040E-01
         0.31881E-01
         0.48051E-10
        -0.20831E-09
         0.76229E-02
        -0.33650E-01
        -0.67202E-02
         0.94990E-11
        -0.59395E-10
        -0.11820E-09
         0.21395E-01
        -0.31073E-01
         0.44485E-10
        -0.10352E-09
         0.14106E+00
         0.15229E+00
         0.10779E-09
         0.93764E-10
         0.13774E+00
         0.74714E-01
         0.15051E-09
         0.13520E-09
        -0.40597E-01
        -0.67018E-10
         0.63821E-01
         0.17259E-09
        -0.11594E-01
         0.48707E-10
         0.94544E-02
         0.27076E-10
         0.11917E+00
         0.72343E-02
         0.18255E-09
        -0.78664E-10
         0.10888E-01
         0.48097E-01
        -0.54141E-10
         0.19639E-09
         0.22547E-01
        -0.10645E-09
         0.76196E-01
         0.51095E-11
         0.31206E+00
         0.22892E+00
         0.60763E-09
         0.38653E-09
         0.13872E+00
         0.43293E-09
         0.34658E-01
         0.10804E-09
         0.12621E+00
         0.13529E-09
         0.35482E+00
         0.34544E-09
         0.64310E+00
         0.40552E+00
         0.47867E-09
         0.41957E-09
         0.22200E+00
         0.11826E-09
         0.12671E+00
         0.22000E-09
         0.11412E+00
         0.18904E-09
         0.73499E-01
         0.18016E-01
         0.40463E-10
         0.28994E-09
         0.23187E-01
        -0.14814E-09
         0.66066E-01
        -0.22677E-10
         0.12366E+00
         0.91377E-10
         0.16638E+00
         0.16483E+00
         0.15540E-09
         0.22046E-09
         0.43162E+00
         0.26087E+00
         0.12896E-08
         0.10917E-08
         0.35438E+00
         0.59393E-09
         0.21700E+00
         0.39707E-09
         0.15139E+00
         0.38827E-09
         0.17979E+00
         0.28176E-09
         0.16644E+00
         0.15201E-09
         0.16379E+00
         0.11394E-09
         0.44517E+00
         0.13972E-09
         0.10485E+01
         0.37440E-09
         0.11264E+01
         0.90299E-09
         0.74541E+00
         0.76822E-09
         0.48185E+00
         0.39798E-09
         0.36264E+00
         0.31110E-09
         0.25736E+00
         0.31348E-09
         0.17309E+00
         0.28828E-09
         0.11547E+00
         0.26719E-09
         0.14962E+00
         0.31192E-09
         0.11680E+00
        -0.26114E-09
         0.57966E-01
        -0.40593E-09
         0.85579E-01
        -0.24758E-09
         0.12890E+00
        -0.14852E-09
         0.17142E+00
        -0.20025E-10
         0.20914E+00
         0.41013E-09
         0.22944E+00
         0.64251E-09
         0.21590E+00
         0.57629E-09
         0.31204E-01
         0.55908E-01
         0.85061E-01
         0.23960E-01
         0.13278E+00
         0.64183E-01
         0.34584E-01
         0.25670E-01
         0.15998E-01
        -0.62839E-03
         0.14859E-01
        -0.16280E-02
         0.14369E-01
         0.45148E-02
         0.36648E-02
         0.33740E-03
        -0.17612E-01
         0.38529E-02
         0.18945E-01
         0.22933E-01
         0.13793E+00
         0.20549E+00
         0.96786E-01
         0.46426E-01
        -0.79504E-02
         0.23229E-01
        -0.86010E-02
         0.34980E-01
         0.16854E+00
         0.85829E-01
        -0.88085E-03
         0.35420E-02
        -0.30219E-02
        -0.74584E-02
         0.15757E+00
         0.11180E+00
         0.54357E-01
         0.34307E-01
         0.12343E+00
         0.30330E+00
         0.50134E+00
         0.40443E+00
         0.29867E+00
         0.47863E-01
         0.11256E-01
         0.11702E-03
         0.25831E-03
        -0.35393E-03
        -0.16648E-01
        -0.54646E-01
        -0.94089E-01
        -0.24099E-01
         0.18129E+00
         0.18934E+00
         0.95840E-01
         0.14840E-01
        -0.25452E-01
        -0.15877E-01
         0.29510E-01
         0.13943E+00
         0.37665E+00
         0.70342E+00
         0.85725E+00
         0.68189E+00
         0.50793E+00
         0.39252E+00
         0.27230E+00
         0.14666E+00
         0.40992E-01
         0.34385E-02
         0.17494E-01
         0.33786E-01
         0.12171E-01
        -0.82928E-01
        -0.20595E+00
        -0.26313E+00
        -0.13518E+00
         0.67507E-01
         0.36333E-01
         0.38129E-01
         0.27334E-01
        -0.80864E-04
         0.32181E-01
        -0.39021E-01
         0.37510E-01
         0.32553E-01
         0.15371E-01
         0.78986E-02
         0.20375E-01
         0.76276E-02
         0.91692E-02
         0.14736E-01
         0.26002E-01
        -0.36679E-02
        -0.12608E-01
         0.10877E-01
        -0.43915E-02
         0.33044E-01
         0.78355E-01
         0.17383E+00
         0.24487E-01
         0.24424E-03
         0.22162E-01
        -0.68138E-02
         0.19130E-01
         0.78785E-01
         0.20005E+00
         0.11576E+00
         0.26606E-02
        -0.11529E-01
        -0.16621E-01
        -0.70093E-01
         0.42486E-01
         0.14690E-01
         0.79161E-02
         0.71445E-01
         0.15317E+00
         0.27818E+00
         0.37950E+00
         0.35516E+00
         0.27852E+00
        -0.18436E-01
        -0.47135E-01
        -0.53755E-01
        -0.26537E-01
        -0.27722E-01
        -0.78004E-01
        -0.16529E+00
        -0.22706E+00
        -0.14142E+00
         0.65382E-01
         0.83687E-01
        -0.16546E-01
        -0.31863E-01
        -0.19069E-01
         0.15204E-01
         0.69271E-01
         0.15328E+00
         0.27934E+00
         0.37408E+00
         0.38007E+00
         0.41287E+00
         0.41252E+00
         0.30797E+00
         0.17806E+00
         0.62747E-01
        -0.39216E-01
        -0.11226E+00
        -0.91501E-01
        -0.54708E-01
        -0.91865E-01
        -0.22283E+00
        -0.36884E+00
        -0.39124E+00
        -0.23001E+00
        -0.32304E-01
         0.66928E-02
         0.13187E-02
        -0.11486E-01
         0.35193E-02
        -0.28584E-01
        -0.23238E-01
         0.71534E-02
         0.12064E-02
        -0.37801E-03
        -0.44259E-02
         0.66325E-02
         0.12498E-01
         0.38284E-02
         0.37445E-02
         0.27728E-01
        -0.52723E-03
        -0.75127E-02
         0.12111E-01
        -0.37788E-03
         0.28267E-01
         0.51420E-01
         0.11784E+00
         0.20676E-01
         0.52605E-03
         0.16491E-01
         0.55747E-02
         0.16499E-01
         0.63700E-01
         0.14377E+00
         0.81227E-01
         0.24817E-01
         0.25029E-01
         0.16997E-01
        -0.58798E-02
        -0.46809E-01
        -0.34957E-01
        -0.12710E-01
         0.67437E-01
         0.13355E+00
         0.21980E+00
         0.28798E+00
         0.25214E+00
         0.19167E+00
         0.12091E-01
         0.19440E-01
         0.31166E-01
         0.38765E-01
         0.32302E-01
         0.10760E-01
        -0.20930E-01
        -0.45370E-01
        -0.35397E-01
        -0.79766E-01
        -0.51634E-01
        -0.65828E-01
        -0.30038E-01
        -0.40624E-02
         0.23296E-01
         0.65432E-01
         0.14126E+00
         0.25319E+00
         0.31917E+00
         0.33930E+00
         0.36008E+00
         0.31455E+00
         0.20928E+00
         0.12098E+00
         0.65078E-01
         0.29759E-01
         0.13383E-01
         0.26298E-01
         0.35884E-01
         0.12969E-01
        -0.26140E-01
        -0.61734E-01
        -0.78715E-01
        -0.57880E-01
        -0.33948E-01
        -0.17639E-02
         0.40955E-03
        -0.35996E-02
         0.45117E-02
        -0.46710E-02
         0.11196E-01
         0.35396E-02
        -0.22658E-02
        -0.50382E-02
        -0.32806E-02
         0.45499E-02
         0.99558E-02
         0.71664E-02
         0.24925E-02
         0.17727E-01
        -0.40765E-02
        -0.26983E-02
         0.10846E-02
         0.14440E-02
         0.22217E-01
         0.30092E-01
         0.71065E-01
         0.14584E-01
         0.56713E-03
         0.12290E-01
         0.51821E-02
         0.12004E-01
         0.42541E-01
         0.94264E-01
         0.53802E-01
         0.15612E-01
         0.21129E-01
         0.15823E-01
         0.17168E-01
        -0.16784E-01
        -0.98674E-02
         0.80505E-03
         0.45145E-01
         0.91697E-01
         0.15166E+00
         0.20284E+00
         0.16742E+00
         0.11951E+00
         0.17900E-01
         0.28941E-01
         0.36998E-01
         0.35169E-01
         0.32116E-01
         0.30888E-01
         0.30135E-01
         0.29697E-01
         0.21922E-01
        -0.31228E-01
        -0.10332E-01
        -0.17190E-01
        -0.19850E-02
         0.60632E-02
         0.14886E-01
         0.38400E-01
         0.95225E-01
         0.18775E+00
         0.25307E+00
         0.28218E+00
         0.26684E+00
         0.19505E+00
         0.11934E+00
         0.70857E-01
         0.46966E-01
         0.40473E-01
         0.40203E-01
         0.40451E-01
         0.38979E-01
         0.33206E-01
         0.32688E-01
         0.37448E-01
         0.39171E-01
         0.35861E-01
         0.22363E-01
        -0.18320E-02
         0.20954E-02
         0.35028E-02
         0.17636E-02
         0.96585E-02
         0.13567E-01
         0.17241E-02
        -0.12528E-02
        -0.38534E-02
        -0.97322E-03
         0.98738E-03
         0.20665E-02
         0.37017E-02
         0.51000E-03
         0.54706E-02
        -0.50160E-02
        -0.67121E-03
        -0.36443E-02
        -0.67677E-03
         0.12301E-01
         0.10065E-01
         0.32017E-01
         0.27854E-02
        -0.27651E-02
         0.82097E-02
        -0.10317E-02
         0.67644E-02
         0.24249E-01
         0.53489E-01
         0.30307E-01
         0.25168E-02
         0.50112E-02
         0.43185E-02
         0.97280E-02
         0.66670E-02
         0.46183E-02
         0.45408E-02
         0.22051E-01
         0.50021E-01
         0.86062E-01
         0.11697E+00
         0.93068E-01
         0.61000E-01
         0.53029E-02
         0.96452E-02
         0.11786E-01
         0.10729E-01
         0.11712E-01
         0.15581E-01
         0.20221E-01
         0.23063E-01
         0.18267E-01
         0.72626E-02
         0.16353E-01
         0.39608E-02
         0.47034E-02
         0.34884E-02
         0.18498E-02
         0.10961E-01
         0.45100E-01
         0.10328E+00
         0.14939E+00
         0.17194E+00
         0.15037E+00
         0.92754E-01
         0.48356E-01
         0.25497E-01
         0.16778E-01
         0.16943E-01
         0.16660E-01
         0.13212E-01
         0.13223E-01
         0.18451E-01
         0.26645E-01
         0.31969E-01
         0.30965E-01
         0.26691E-01
         0.22943E-01
        -0.11503E-02
         0.79892E-03
         0.31264E-02
         0.35959E-03
         0.89360E-02
         0.80425E-02
        -0.30930E-03
        -0.98793E-03
        -0.17790E-02
         0.10286E-03
        -0.14337E-02
        -0.24341E-02
        -0.14751E-03
        -0.10034E-02
        -0.11818E-02
        -0.27357E-02
         0.37945E-03
        -0.25833E-02
        -0.14322E-02
         0.48150E-02
        -0.50544E-03
         0.83872E-02
        -0.26577E-02
        -0.31824E-02
         0.45826E-02
        -0.20952E-02
         0.29051E-02
         0.10808E-01
         0.22108E-01
         0.12537E-01
        -0.54118E-03
         0.60315E-04
         0.45413E-03
         0.35557E-02
         0.81404E-02
         0.37096E-02
         0.14301E-02
         0.70914E-02
         0.19844E-01
         0.34805E-01
         0.46372E-01
         0.35546E-01
         0.21054E-01
        -0.75184E-03
         0.11979E-02
         0.23239E-02
         0.25600E-02
         0.37421E-02
         0.62938E-02
         0.93569E-02
         0.11384E-01
         0.89116E-02
         0.11480E-01
         0.16920E-01
         0.24031E-02
         0.11049E-02
        -0.77304E-03
        -0.52487E-02
        -0.32635E-02
         0.12956E-01
         0.39049E-01
         0.59261E-01
         0.69057E-01
         0.55908E-01
         0.27892E-01
         0.88135E-02
         0.15074E-02
         0.77100E-03
         0.28619E-02
         0.34190E-02
         0.27683E-02
         0.41551E-02
         0.86835E-02
         0.14446E-01
         0.17989E-01
         0.16775E-01
         0.13495E-01
         0.13881E-01
        -0.49663E-03
         0.31870E-03
         0.22775E-02
         0.57878E-03
         0.69175E-02
         0.61617E-02
        -0.44344E-03
        -0.31271E-03
        -0.42484E-03
         0.86553E-03
        -0.13835E-02
        -0.27122E-02
        -0.85641E-03
        -0.10072E-02
        -0.32709E-02
        -0.88608E-03
         0.10505E-02
        -0.11018E-02
        -0.11886E-02
         0.12970E-02
        -0.41223E-02
        -0.26900E-02
        -0.34923E-02
        -0.22621E-02
         0.26917E-02
        -0.10857E-02
         0.96554E-03
         0.33007E-02
         0.45981E-02
         0.31819E-02
         0.17249E-03
         0.35480E-03
         0.67533E-03
         0.25733E-02
         0.60264E-02
         0.21558E-02
         0.18682E-03
        -0.97996E-03
         0.23189E-02
         0.46454E-02
         0.46525E-02
         0.31596E-02
        -0.76479E-04
        -0.14135E-02
         0.40405E-03
         0.19677E-02
         0.25323E-02
         0.32077E-02
         0.45118E-02
         0.63122E-02
         0.79217E-02
         0.64864E-02
         0.87140E-02
         0.13291E-01
         0.90127E-03
        -0.32090E-03
        -0.17312E-02
        -0.55081E-02
        -0.76796E-02
        -0.50939E-02
        -0.25435E-03
         0.17654E-02
         0.30275E-02
        -0.11153E-02
        -0.84054E-02
        -0.95782E-02
        -0.69733E-02
        -0.39763E-02
        -0.72222E-03
         0.11119E-02
         0.26647E-02
         0.42376E-02
         0.65720E-02
         0.95835E-02
         0.11827E-01
         0.11856E-01
         0.10400E-01
         0.10878E-01
        -0.10343E-03
         0.44084E-03
         0.22195E-02
         0.10581E-02
         0.65901E-02
         0.66530E-02
        -0.93857E-04
         0.26213E-03
         0.21128E-03
         0.13669E-02
        -0.98127E-03
        -0.23775E-02
        -0.61943E-03
        -0.77888E-03
        -0.40138E-02
        -0.16703E-03
         0.13884E-02
        -0.49385E-03
        -0.10201E-02
        -0.20169E-03
        -0.55978E-02
        -0.75475E-02
        -0.38663E-02
        -0.18560E-02
         0.19219E-02
        -0.69192E-03
         0.14346E-03
        -0.92759E-04
        -0.32959E-02
        -0.94489E-03
         0.56438E-03
         0.50999E-03
         0.12236E-02
         0.33026E-02
         0.54689E-02
         0.20531E-02
         0.27360E-03
        -0.46631E-02
        -0.57464E-02
        -0.93478E-02
        -0.14914E-01
        -0.11637E-01
        -0.95930E-02
        -0.16898E-02
         0.19943E-03
         0.20124E-02
         0.27322E-02
         0.34870E-02
         0.48664E-02
         0.68772E-02
         0.88452E-02
         0.74792E-02
         0.77735E-02
         0.12214E-01
         0.13200E-02
        -0.77560E-04
        -0.14875E-02
        -0.48179E-02
        -0.91017E-02
        -0.13318E-01
        -0.18295E-01
        -0.25792E-01
        -0.29763E-01
        -0.28318E-01
        -0.25377E-01
        -0.17997E-01
        -0.10894E-01
        -0.63156E-02
        -0.22088E-02
         0.52289E-03
         0.29248E-02
         0.46398E-02
         0.65545E-02
         0.93211E-02
         0.11854E-01
         0.12876E-01
         0.11985E-01
         0.11528E-01
         0.44765E-04
         0.55704E-03
         0.22913E-02
         0.12202E-02
         0.68756E-02
         0.73909E-02
         0.13129E-03
         0.56738E-03
         0.45995E-03
         0.16137E-02
        -0.79382E-03
        -0.22777E-02
        -0.45575E-03
        -0.69700E-03
        -0.44372E-02
         0.43088E-04
         0.15628E-02
        -0.41141E-03
        -0.13725E-02
        -0.11268E-02
        -0.77537E-02
        -0.10935E-01
        -0.52943E-02
        -0.22793E-02
         0.16444E-02
        -0.81540E-03
        -0.25311E-03
        -0.14030E-02
        -0.61976E-02
        -0.27254E-02
         0.54086E-03
         0.36030E-03
         0.13609E-02
         0.38577E-02
         0.54587E-02
         0.20269E-02
         0.37082E-03
        -0.63379E-02
        -0.89282E-02
        -0.14254E-01
        -0.21738E-01
        -0.17405E-01
        -0.14241E-01
        -0.25548E-02
        -0.28384E-03
         0.17935E-02
         0.26503E-02
         0.35674E-02
         0.53525E-02
         0.79505E-02
         0.10362E-01
         0.86730E-02
         0.76309E-02
         0.12672E-01
         0.12355E-02
         0.85285E-04
        -0.12936E-02
        -0.46288E-02
        -0.97693E-02
        -0.16926E-01
        -0.25703E-01
        -0.35448E-01
        -0.40981E-01
        -0.39323E-01
        -0.34420E-01
        -0.24883E-01
        -0.15904E-01
        -0.96599E-02
        -0.42177E-02
        -0.36155E-03
         0.27777E-02
         0.47278E-02
         0.69691E-02
         0.10454E-01
         0.13810E-01
         0.15132E-01
         0.13815E-01
         0.12752E-01
         0.67272E-04
         0.62814E-03
         0.25389E-02
         0.12331E-02
         0.77421E-02
         0.82535E-02
         0.23478E-03
         0.75149E-03
         0.55845E-03
         0.18093E-02
        -0.71650E-03
        -0.22998E-02
        -0.42343E-03
        -0.62961E-03
        -0.47536E-02
         0.52300E-04
         0.17011E-02
        -0.52368E-03
        -0.18160E-02
        -0.15491E-02
        -0.95111E-02
        -0.12922E-01
        -0.66118E-02
        -0.28873E-02
         0.16761E-02
        -0.10467E-02
        -0.38025E-03
        -0.18267E-02
        -0.69839E-02
        -0.32207E-02
         0.54224E-03
         0.38704E-03
         0.13746E-02
         0.42119E-02
         0.61380E-02
         0.22100E-02
         0.39994E-03
        -0.72773E-02
        -0.10422E-01
        -0.15922E-01
        -0.23507E-01
        -0.19027E-01
        -0.16122E-01
        -0.32951E-02
        -0.47655E-03
         0.20995E-02
         0.31176E-02
         0.40633E-02
         0.60444E-02
         0.90599E-02
         0.11865E-01
         0.97714E-02
         0.86027E-02
         0.14378E-01
         0.11644E-02
         0.11091E-03
        -0.12858E-02
        -0.47608E-02
        -0.10507E-01
        -0.19381E-01
        -0.30071E-01
        -0.39438E-01
        -0.43545E-01
        -0.42272E-01
        -0.38673E-01
        -0.29229E-01
        -0.19460E-01
        -0.11970E-01
        -0.55087E-02
        -0.74453E-03
         0.32618E-02
         0.55927E-02
         0.81925E-02
         0.12287E-01
         0.16239E-01
         0.17587E-01
         0.15619E-01
         0.14236E-01
         0.10082E-03
         0.77792E-03
         0.27878E-02
         0.12220E-02
         0.81977E-02
         0.84960E-02
         0.34324E-03
         0.84627E-03
         0.59308E-03
         0.19225E-02
        -0.65825E-03
        -0.22500E-02
        -0.27209E-03
        -0.58367E-03
        -0.48112E-02
         0.17598E-04
         0.17467E-02
        -0.60061E-03
        -0.18414E-02
        -0.15001E-02
        -0.95795E-02
        -0.12898E-01
        -0.66097E-02
        -0.29239E-02
         0.17130E-02
        -0.10118E-02
        -0.36004E-03
        -0.20364E-02
        -0.76138E-02
        -0.33220E-02
         0.71536E-03
         0.66732E-03
         0.14914E-02
         0.43111E-02
         0.67382E-02
         0.26155E-02
         0.64794E-03
        -0.75167E-02
        -0.11136E-01
        -0.17398E-01
        -0.25461E-01
        -0.20038E-01
        -0.16316E-01
        -0.31519E-02
        -0.69653E-04
         0.28556E-02
         0.39428E-02
         0.49112E-02
         0.67719E-02
         0.95425E-02
         0.12221E-01
         0.99836E-02
         0.94846E-02
         0.15145E-01
         0.16733E-02
         0.45041E-03
        -0.11105E-02
        -0.47531E-02
        -0.10628E-01
        -0.19952E-01
        -0.31776E-01
        -0.42721E-01
        -0.46991E-01
        -0.44042E-01
        -0.38737E-01
        -0.29102E-01
        -0.19550E-01
        -0.11780E-01
        -0.51075E-02
        -0.47919E-04
         0.43304E-02
         0.69399E-02
         0.98267E-02
         0.13874E-01
         0.17231E-01
         0.18093E-01
         0.15944E-01
         0.14543E-01
         0.29754E-04
         0.80652E-03
         0.29852E-02
         0.12779E-02
         0.85913E-02
         0.87764E-02
         0.31536E-03
         0.80012E-03
         0.49915E-03
         0.19396E-02
        -0.68253E-03
        -0.22920E-02
        -0.24256E-03
        -0.58159E-03
        -0.49312E-02
        -0.45524E-04
         0.16983E-02
        -0.66395E-03
        -0.16875E-02
        -0.13999E-02
        -0.90405E-02
        -0.12545E-01
        -0.60643E-02
        -0.26612E-02
         0.17274E-02
        -0.85922E-03
        -0.26218E-03
        -0.20964E-02
        -0.82478E-02
        -0.34531E-02
         0.85625E-03
         0.87800E-03
         0.16274E-02
         0.44399E-02
         0.72853E-02
         0.30092E-02
         0.80623E-03
        -0.74711E-02
        -0.11232E-01
        -0.18665E-01
        -0.27872E-01
        -0.21334E-01
        -0.16551E-01
        -0.26969E-02
         0.33989E-03
         0.32943E-02
         0.43659E-02
         0.53662E-02
         0.71507E-02
         0.97410E-02
         0.12336E-01
         0.10170E-01
         0.10332E-01
         0.15743E-01
         0.23716E-02
         0.71442E-03
        -0.10084E-02
        -0.47768E-02
        -0.11162E-01
        -0.20311E-01
        -0.31442E-01
        -0.45225E-01
        -0.52137E-01
        -0.46838E-01
        -0.39171E-01
        -0.28315E-01
        -0.18667E-01
        -0.10923E-01
        -0.43073E-02
         0.63250E-03
         0.49066E-02
         0.75945E-02
         0.10569E-01
         0.14450E-01
         0.17424E-01
         0.18079E-01
         0.16205E-01
         0.14989E-01
        -0.37854E-04
         0.71953E-03
         0.30587E-02
         0.13727E-02
         0.90791E-02
         0.94062E-02
         0.25263E-03
         0.72120E-03
         0.40089E-03
         0.18195E-02
        -0.71113E-03
        -0.23392E-02
        -0.33218E-03
        -0.67864E-03
        -0.51842E-02
        -0.14777E-03
         0.15596E-02
        -0.69420E-03
        -0.15942E-02
        -0.14573E-02
        -0.84349E-02
        -0.12371E-01
        -0.55173E-02
        -0.24591E-02
         0.15579E-02
        -0.82429E-03
        -0.40226E-03
        -0.22379E-02
        -0.85721E-02
        -0.37166E-02
         0.83684E-03
         0.83986E-03
         0.16622E-02
         0.46455E-02
         0.76547E-02
         0.30756E-02
         0.67402E-03
        -0.76367E-02
        -0.11072E-01
        -0.18711E-01
        -0.28725E-01
        -0.22260E-01
        -0.17064E-01
        -0.23853E-02
         0.42564E-03
         0.31934E-02
         0.42199E-02
         0.52252E-02
         0.70614E-02
         0.98966E-02
         0.12865E-01
         0.10828E-01
         0.10994E-01
         0.16779E-01
         0.24861E-02
         0.46451E-03
        -0.11764E-02
        -0.48964E-02
        -0.11970E-01
        -0.20956E-01
        -0.30210E-01
        -0.44520E-01
        -0.54215E-01
        -0.49787E-01
        -0.40590E-01
        -0.27743E-01
        -0.17398E-01
        -0.99415E-02
        -0.36854E-02
         0.85367E-03
         0.47456E-02
         0.73440E-02
         0.10138E-01
         0.13924E-01
         0.17454E-01
         0.18870E-01
         0.17574E-01
         0.16388E-01
         0.33596E-04
         0.69723E-03
         0.28419E-02
         0.12941E-02
         0.88200E-02
         0.92940E-02
         0.35725E-03
         0.72361E-03
         0.41802E-03
         0.16513E-02
        -0.61716E-03
        -0.21474E-02
        -0.22574E-03
        -0.78915E-03
        -0.52599E-02
        -0.26011E-03
         0.14293E-02
        -0.68933E-03
        -0.16548E-02
        -0.16330E-02
        -0.80320E-02
        -0.12252E-01
        -0.52414E-02
        -0.24652E-02
         0.12617E-02
        -0.92865E-03
        -0.76671E-03
        -0.26783E-02
        -0.88606E-02
        -0.40398E-02
         0.75366E-03
         0.72125E-03
         0.15801E-02
         0.45158E-02
         0.72574E-02
         0.26899E-02
         0.48730E-03
        -0.79894E-02
        -0.11479E-01
        -0.18686E-01
        -0.28298E-01
        -0.22419E-01
        -0.17354E-01
        -0.23054E-02
         0.39125E-03
         0.30836E-02
         0.40920E-02
         0.50883E-02
         0.68566E-02
         0.96840E-02
         0.12758E-01
         0.10762E-01
         0.10549E-01
         0.16628E-01
         0.18708E-02
         0.52094E-04
        -0.11573E-02
        -0.46272E-02
        -0.11967E-01
        -0.21240E-01
        -0.30485E-01
        -0.43634E-01
        -0.52414E-01
        -0.50027E-01
        -0.40913E-01
        -0.26754E-01
        -0.16010E-01
        -0.91385E-02
        -0.33820E-02
         0.97078E-03
         0.46896E-02
         0.72631E-02
         0.98306E-02
         0.13355E-01
         0.17037E-01
         0.18874E-01
         0.17872E-01
         0.16570E-01
         0.16730E-03
         0.80752E-03
         0.27524E-02
         0.12261E-02
         0.83191E-02
         0.85578E-02
         0.50036E-03
         0.76930E-03
         0.51223E-03
         0.16317E-02
        -0.52428E-03
        -0.19669E-02
        -0.51076E-04
        -0.82264E-03
        -0.51667E-02
        -0.22806E-03
         0.14790E-02
        -0.59406E-03
        -0.16872E-02
        -0.16377E-02
        -0.81175E-02
        -0.12298E-01
        -0.53074E-02
        -0.25370E-02
         0.12834E-02
        -0.10012E-02
        -0.86024E-03
        -0.26929E-02
        -0.86896E-02
        -0.39581E-02
         0.77041E-03
         0.67483E-03
         0.15540E-02
         0.42003E-02
         0.69096E-02
         0.25497E-02
         0.51914E-03
        -0.80097E-02
        -0.11607E-01
        -0.18494E-01
        -0.27564E-01
        -0.21861E-01
        -0.17112E-01
        -0.24406E-02
         0.26456E-03
         0.30127E-02
         0.40729E-02
         0.50768E-02
         0.67051E-02
         0.91758E-02
         0.11824E-01
         0.98405E-02
         0.10047E-01
         0.15696E-01
         0.16031E-02
        -0.57331E-04
        -0.10031E-02
        -0.43586E-02
        -0.11468E-01
        -0.20860E-01
        -0.31027E-01
        -0.43486E-01
        -0.50479E-01
        -0.48052E-01
        -0.40013E-01
        -0.26809E-01
        -0.15919E-01
        -0.90130E-02
        -0.34962E-02
         0.83137E-03
         0.46448E-02
         0.72636E-02
         0.98105E-02
         0.13120E-01
         0.16226E-01
         0.17469E-01
         0.16223E-01
         0.15163E-01
         0.26638E-03
         0.86902E-03
         0.27830E-02
         0.12933E-02
         0.80704E-02
         0.81139E-02
         0.52708E-03
         0.84310E-03
         0.62927E-03
         0.17771E-02
        -0.45919E-03
        -0.18729E-02
        -0.39976E-04
        -0.64942E-03
        -0.47914E-02
        -0.22336E-04
         0.15856E-02
        -0.41258E-03
        -0.17380E-02
        -0.17212E-02
        -0.87280E-02
        -0.12856E-01
        -0.56181E-02
        -0.25693E-02
         0.14194E-02
        -0.89422E-03
        -0.58754E-03
        -0.25624E-02
        -0.89885E-02
        -0.40258E-02
         0.86967E-03
         0.73118E-03
         0.15981E-02
         0.40399E-02
         0.67853E-02
         0.25665E-02
         0.55142E-03
        -0.76934E-02
        -0.11867E-01
        -0.19576E-01
        -0.29299E-01
        -0.22727E-01
        -0.17496E-01
        -0.25455E-02
         0.18703E-03
         0.28787E-02
         0.39344E-02
         0.49104E-02
         0.64501E-02
         0.86874E-02
         0.11049E-01
         0.91932E-02
         0.97953E-02
         0.15069E-01
         0.15450E-02
        -0.10801E-03
        -0.99013E-03
        -0.42165E-02
        -0.10639E-01
        -0.20326E-01
        -0.32698E-01
        -0.47076E-01
        -0.54364E-01
        -0.49583E-01
        -0.40204E-01
        -0.28083E-01
        -0.17293E-01
        -0.96785E-02
        -0.37880E-02
         0.57897E-03
         0.43888E-02
         0.68847E-02
         0.94344E-02
         0.12618E-01
         0.15314E-01
         0.16215E-01
         0.14898E-01
         0.14137E-01
         0.22888E-03
         0.71634E-03
         0.25815E-02
         0.11825E-02
         0.76919E-02
         0.76847E-02
         0.41310E-03
         0.88901E-03
         0.65633E-03
         0.19063E-02
        -0.38271E-03
        -0.17373E-02
        -0.21335E-03
        -0.31740E-03
        -0.41249E-02
         0.78370E-04
         0.15750E-02
        -0.38670E-03
        -0.18460E-02
        -0.20110E-02
        -0.92104E-02
        -0.13643E-01
        -0.58055E-02
        -0.25644E-02
         0.14046E-02
        -0.80449E-03
        -0.15949E-03
        -0.25337E-02
        -0.97852E-02
        -0.44849E-02
         0.82496E-03
         0.71980E-03
         0.14605E-02
         0.37689E-02
         0.64696E-02
         0.23642E-02
         0.36291E-03
        -0.69671E-02
        -0.11942E-01
        -0.21167E-01
        -0.32257E-01
        -0.24713E-01
        -0.18669E-01
        -0.25980E-02
         0.12349E-03
         0.27202E-02
         0.36980E-02
         0.45384E-02
         0.59557E-02
         0.81172E-02
         0.10430E-01
         0.86815E-02
         0.94084E-02
         0.14494E-01
         0.13195E-02
        -0.31880E-03
        -0.10903E-02
        -0.38461E-02
        -0.95672E-02
        -0.19315E-01
        -0.33807E-01
        -0.51698E-01
        -0.60833E-01
        -0.53860E-01
        -0.42044E-01
        -0.29366E-01
        -0.18212E-01
        -0.10231E-01
        -0.42205E-02
         0.28836E-03
         0.41388E-02
         0.64137E-02
         0.86620E-02
         0.11584E-01
         0.14306E-01
         0.15401E-01
         0.14184E-01
         0.13474E-01
         0.26758E-03
         0.61214E-03
         0.21472E-02
         0.87382E-03
         0.66984E-02
         0.65011E-02
         0.41943E-03
         0.95128E-03
         0.67661E-03
         0.18910E-02
        -0.24181E-03
        -0.14916E-02
        -0.22399E-03
        -0.48341E-04
        -0.34239E-02
         0.62344E-04
         0.14437E-02
        -0.39275E-03
        -0.16899E-02
        -0.20472E-02
        -0.85085E-02
        -0.12948E-01
        -0.53952E-02
        -0.23624E-02
         0.11917E-02
        -0.81797E-03
         0.13049E-03
        -0.25213E-02
        -0.10194E-01
        -0.47727E-02
         0.61605E-03
         0.54256E-03
         0.10950E-02
         0.29747E-02
         0.55661E-02
         0.18617E-02
         0.19829E-03
        -0.59478E-02
        -0.11230E-01
        -0.21323E-01
        -0.32948E-01
        -0.25087E-01
        -0.18405E-01
        -0.25581E-02
        -0.27494E-04
         0.24731E-02
         0.33325E-02
         0.39159E-02
         0.49610E-02
         0.67017E-02
         0.86424E-02
         0.71656E-02
         0.81667E-02
         0.13016E-01
         0.65377E-03
        -0.46664E-03
        -0.99006E-03
        -0.33103E-02
        -0.82784E-02
        -0.17072E-01
        -0.31752E-01
        -0.51521E-01
        -0.62069E-01
        -0.53958E-01
        -0.40536E-01
        -0.27605E-01
        -0.17003E-01
        -0.97147E-02
        -0.42925E-02
         0.78772E-04
         0.38927E-02
         0.58751E-02
         0.74630E-02
         0.96344E-02
         0.11972E-01
         0.12959E-01
         0.11996E-01
         0.11760E-01
         0.37048E-03
         0.47721E-03
         0.13777E-02
         0.29803E-03
         0.49268E-02
         0.44268E-02
         0.36339E-03
         0.97232E-03
         0.69967E-03
         0.17611E-02
        -0.50096E-03
        -0.20048E-02
        -0.53330E-03
        -0.32285E-03
        -0.40143E-02
        -0.70799E-04
         0.12303E-02
        -0.51273E-03
        -0.15575E-02
        -0.20855E-02
        -0.74735E-02
        -0.11728E-01
        -0.49656E-02
        -0.22597E-02
         0.75537E-03
        -0.10603E-02
        -0.27207E-03
        -0.32748E-02
        -0.11562E-01
        -0.53940E-02
         0.16651E-04
        -0.12103E-03
         0.23349E-03
         0.13791E-02
         0.36502E-02
         0.55136E-03
        -0.35947E-03
        -0.66087E-02
        -0.12324E-01
        -0.23219E-01
        -0.35664E-01
        -0.26808E-01
        -0.18251E-01
        -0.28111E-02
        -0.84924E-03
         0.12216E-02
         0.20050E-02
         0.23521E-02
         0.28851E-02
         0.38896E-02
         0.51868E-02
         0.43633E-02
         0.53588E-02
         0.10370E-01
        -0.16277E-02
        -0.13291E-02
        -0.14143E-02
        -0.40758E-02
        -0.91681E-02
        -0.17833E-01
        -0.33265E-01
        -0.54140E-01
        -0.66279E-01
        -0.56725E-01
        -0.37993E-01
        -0.24078E-01
        -0.14885E-01
        -0.88807E-02
        -0.45684E-02
        -0.10422E-02
         0.23166E-02
         0.39685E-02
         0.48823E-02
         0.60503E-02
         0.75533E-02
         0.82121E-02
         0.79467E-02
         0.87155E-02
         0.43189E-03
        -0.33211E-04
        -0.37550E-03
        -0.11805E-02
         0.12940E-02
        -0.74023E-05
        -0.49859E-04
         0.78137E-03
         0.75334E-03
         0.14192E-02
        -0.15958E-02
        -0.39265E-02
        -0.18266E-02
        -0.16181E-02
        -0.66308E-02
        -0.26765E-03
         0.12242E-02
        -0.95901E-03
        -0.16576E-02
        -0.20897E-02
        -0.78609E-02
        -0.12079E-01
        -0.55934E-02
        -0.26533E-02
         0.34503E-03
        -0.16733E-02
        -0.17358E-02
        -0.47297E-02
        -0.13363E-01
        -0.60312E-02
        -0.13153E-02
        -0.15325E-02
        -0.17701E-02
        -0.21186E-02
        -0.10556E-03
        -0.23978E-02
        -0.21291E-02
        -0.94380E-02
        -0.15058E-01
        -0.26174E-01
        -0.40010E-01
        -0.30330E-01
        -0.19957E-01
        -0.37424E-02
        -0.25897E-02
        -0.14835E-02
        -0.87779E-03
        -0.90741E-03
        -0.12937E-02
        -0.16914E-02
        -0.15488E-02
        -0.13585E-02
         0.31813E-03
         0.52329E-02
        -0.67454E-02
        -0.45037E-02
        -0.36703E-02
        -0.70098E-02
        -0.13021E-01
        -0.22007E-01
        -0.36977E-01
        -0.58093E-01
        -0.74023E-01
        -0.66340E-01
        -0.42154E-01
        -0.25236E-01
        -0.15940E-01
        -0.96880E-02
        -0.55226E-02
        -0.32454E-02
        -0.11578E-02
        -0.37714E-03
        -0.34717E-03
        -0.63597E-03
        -0.63739E-03
        -0.51156E-03
         0.31149E-04
         0.20786E-02
         0.80249E-03
        -0.31200E-03
        -0.23116E-02
        -0.25983E-02
        -0.36046E-02
        -0.56798E-02
        -0.20097E-03
         0.79961E-03
         0.10730E-02
         0.12457E-02
        -0.24485E-02
        -0.54991E-02
        -0.29987E-02
        -0.27020E-02
        -0.86548E-02
        -0.80822E-04
         0.18182E-02
        -0.96001E-03
        -0.24881E-02
        -0.21472E-02
        -0.12157E-01
        -0.16353E-01
        -0.89526E-02
        -0.42472E-02
         0.54156E-03
        -0.22970E-02
        -0.28886E-02
        -0.54677E-02
        -0.13931E-01
        -0.61935E-02
        -0.18201E-02
        -0.22796E-02
        -0.29762E-02
        -0.53129E-02
        -0.44434E-02
        -0.52625E-02
        -0.37635E-02
        -0.11299E-01
        -0.16199E-01
        -0.26489E-01
        -0.41089E-01
        -0.33353E-01
        -0.24256E-01
        -0.54068E-02
        -0.39680E-02
        -0.36961E-02
        -0.30014E-02
        -0.29264E-02
        -0.39207E-02
        -0.61520E-02
        -0.79684E-02
        -0.77021E-02
        -0.53964E-02
        -0.26012E-02
        -0.11234E-01
        -0.78792E-02
        -0.60811E-02
        -0.91282E-02
        -0.15383E-01
        -0.23898E-01
        -0.36461E-01
        -0.55211E-01
        -0.74163E-01
        -0.76416E-01
        -0.56697E-01
        -0.37441E-01
        -0.24852E-01
        -0.14745E-01
        -0.72347E-02
        -0.49255E-02
        -0.46725E-02
        -0.49151E-02
        -0.46134E-02
        -0.51111E-02
        -0.67922E-02
        -0.86635E-02
        -0.91987E-02
        -0.71918E-02
         0.17632E-02
         0.13285E-02
        -0.65218E-03
         0.51412E-03
        -0.56822E-02
        -0.52468E-02
         0.12792E-02
         0.17386E-02
         0.25570E-02
         0.32508E-02
         0.62525E-03
        -0.59719E-03
         0.60088E-03
         0.74630E-03
        -0.24342E-02
         0.33244E-02
         0.44600E-02
         0.27629E-02
        -0.37744E-02
        -0.45769E-02
        -0.26376E-01
        -0.35838E-01
        -0.17619E-01
        -0.61515E-02
         0.28478E-02
        -0.33781E-03
         0.13514E-02
        -0.23374E-02
        -0.16414E-01
        -0.96093E-02
         0.39237E-02
         0.21630E-02
         0.39959E-02
         0.13627E-02
        -0.41387E-02
        -0.77577E-03
         0.80807E-03
        -0.45909E-02
        -0.10671E-01
        -0.26410E-01
        -0.50730E-01
        -0.49306E-01
        -0.44559E-01
        -0.78936E-02
        -0.19316E-02
         0.16435E-03
         0.27896E-02
         0.52992E-02
         0.66812E-02
         0.44094E-02
         0.72097E-03
        -0.30036E-02
        -0.67648E-02
        -0.11072E-01
        -0.18237E-02
        -0.88967E-03
        -0.17875E-02
        -0.38511E-02
        -0.81949E-02
        -0.15153E-01
        -0.27228E-01
        -0.52265E-01
        -0.88616E-01
        -0.11513E+00
        -0.10800E+00
        -0.84042E-01
        -0.58445E-01
        -0.35115E-01
        -0.15759E-01
        -0.53605E-02
        -0.29422E-02
        -0.23381E-02
         0.26351E-02
         0.74284E-02
         0.67969E-02
         0.13757E-02
        -0.53798E-02
        -0.99658E-02
         0.25742E-02
         0.50775E-02
         0.61573E-02
         0.10824E-01
        -0.37359E-02
         0.51291E-02
         0.42607E-02
         0.30323E-02
         0.56810E-02
         0.81242E-02
         0.88073E-02
         0.13118E-01
         0.10599E-01
         0.10206E-01
         0.14739E-01
         0.12713E-01
         0.10059E-01
         0.12934E-01
        -0.35746E-02
        -0.11811E-01
        -0.51247E-01
        -0.79358E-01
        -0.29958E-01
        -0.57301E-02
         0.70032E-02
         0.61701E-02
         0.13203E-01
         0.44525E-02
        -0.27873E-01
        -0.22525E-01
         0.18549E-01
         0.13265E-01
         0.23398E-01
         0.23157E-01
         0.21813E-02
         0.13596E-01
         0.13816E-01
         0.12902E-01
         0.23310E-03
        -0.33339E-01
        -0.80400E-01
        -0.90621E-01
        -0.93990E-01
        -0.10533E-01
         0.39680E-02
         0.10118E-01
         0.16786E-01
         0.25187E-01
         0.33345E-01
         0.33157E-01
         0.28135E-01
         0.18230E-01
        -0.31627E-02
        -0.19691E-01
         0.24134E-01
         0.19321E-01
         0.11295E-01
         0.10296E-01
         0.83790E-02
         0.14443E-02
        -0.16099E-01
        -0.59432E-01
        -0.13200E+00
        -0.19564E+00
        -0.20504E+00
        -0.17341E+00
        -0.12118E+00
        -0.72453E-01
        -0.33537E-01
        -0.61566E-02
         0.35835E-02
         0.62962E-02
         0.21006E-01
         0.36486E-01
         0.39435E-01
         0.30912E-01
         0.16209E-01
        -0.18710E-02
  
SCALARS                      strain_eq  double 1
LOOKUP_TABLE default
         0.29844E+00
         0.38956E+00
         0.38049E+00
         0.28818E+00
         0.33443E-09
         0.42519E-09
         0.37967E-09
         0.27379E-09
         0.46025E+00
         0.37831E+00
         0.46164E-09
         0.57912E-09
         0.37422E+00
         0.31446E+00
         0.25868E-09
         0.25052E-09
         0.24183E+00
         0.27657E+00
         0.23314E-09
         0.20627E-09
         0.36163E+00
         0.42642E+00
         0.43697E+00
         0.24368E-09
         0.43895E-09
         0.30582E-09
         0.30022E+00
         0.34435E+00
         0.26892E-09
         0.34312E-09
         0.20946E+00
         0.23889E+00
         0.21946E+00
         0.12759E-09
         0.13828E-09
         0.20870E-09
         0.23395E+00
         0.25225E+00
         0.14671E-09
         0.17810E-09
         0.31113E+00
         0.28656E+00
         0.20537E-09
         0.18768E-09
         0.32944E+00
         0.25717E+00
         0.26691E-09
         0.22146E-09
         0.26896E+00
         0.15712E-09
         0.24905E+00
         0.26039E-09
         0.25269E+00
         0.18278E-09
         0.24762E+00
         0.14994E-09
         0.27034E+00
         0.26470E+00
         0.34874E-09
         0.28205E-09
         0.22967E+00
         0.27618E+00
         0.14978E-09
         0.31365E-09
         0.21609E+00
         0.20926E-09
         0.23633E+00
         0.25655E-09
         0.54947E+00
         0.47258E+00
         0.73814E-09
         0.50981E-09
         0.42941E+00
         0.56091E-09
         0.24587E+00
         0.20870E-09
         0.32355E+00
         0.21947E-09
         0.53023E+00
         0.45311E-09
         0.82322E+00
         0.51595E+00
         0.61152E-09
         0.58126E-09
         0.32173E+00
         0.26043E-09
         0.34675E+00
         0.36276E-09
         0.35922E+00
         0.37880E-09
         0.35671E+00
         0.30843E+00
         0.31140E-09
         0.44685E-09
         0.25206E+00
         0.27917E-09
         0.22289E+00
         0.22646E-09
         0.24408E+00
         0.29986E-09
         0.31161E+00
         0.32548E+00
         0.40492E-09
         0.47650E-09
         0.78351E+00
         0.76707E+00
         0.15381E-08
         0.15230E-08
         0.55778E+00
         0.72392E-09
         0.37416E+00
         0.50445E-09
         0.31879E+00
         0.52867E-09
         0.35754E+00
         0.36956E-09
         0.36005E+00
         0.19195E-09
         0.42503E+00
         0.14107E-09
         0.85631E+00
         0.17667E-09
         0.15181E+01
         0.51786E-09
         0.15847E+01
         0.11970E-08
         0.10386E+01
         0.97267E-09
         0.71007E+00
         0.53858E-09
         0.52655E+00
         0.40637E-09
         0.46276E+00
         0.41547E-09
         0.48055E+00
         0.43891E-09
         0.57978E+00
         0.50167E-09
         0.61730E+00
         0.73075E-09
         0.49175E+00
         0.54414E-09
         0.37991E+00
         0.54075E-09
         0.31971E+00
         0.38337E-09
         0.29825E+00
         0.43003E-09
         0.35143E+00
         0.48130E-09
         0.46067E+00
         0.86870E-09
         0.50440E+00
         0.93928E-09
         0.52326E+00
         0.82694E-09
         0.19670E+00
         0.27285E+00
         0.27084E+00
         0.15229E+00
         0.36455E+00
         0.25308E+00
         0.31202E+00
         0.25212E+00
         0.14675E+00
         0.19319E+00
         0.31949E+00
         0.31909E+00
         0.31359E+00
         0.28259E+00
         0.34068E+00
         0.11674E+00
         0.13631E+00
         0.11425E+00
         0.16350E+00
         0.15302E+00
         0.32184E+00
         0.31356E+00
         0.34770E+00
         0.21218E+00
         0.17933E+00
         0.19392E+00
         0.26378E+00
         0.28515E+00
         0.36016E+00
         0.20359E+00
         0.14203E+00
         0.22500E+00
         0.12172E+00
         0.15088E+00
         0.46451E+00
         0.38397E+00
         0.32102E+00
         0.39567E+00
         0.47185E+00
         0.60317E+00
         0.77641E+00
         0.59437E+00
         0.41475E+00
         0.35034E+00
         0.37022E+00
         0.39977E+00
         0.29660E+00
         0.19969E+00
         0.20026E+00
         0.31325E+00
         0.43161E+00
         0.28545E+00
         0.66148E+00
         0.64425E+00
         0.51189E+00
         0.34799E+00
         0.25876E+00
         0.28232E+00
         0.38394E+00
         0.54677E+00
         0.82640E+00
         0.11693E+01
         0.12725E+01
         0.97852E+00
         0.69915E+00
         0.57776E+00
         0.59324E+00
         0.59024E+00
         0.59944E+00
         0.60008E+00
         0.56267E+00
         0.48211E+00
         0.42124E+00
         0.60894E+00
         0.91299E+00
         0.92128E+00
         0.65662E+00
         0.55523E+00
         0.70408E-01
         0.96236E-01
         0.14624E+00
         0.10577E+00
         0.27469E+00
         0.29631E+00
         0.98046E-01
         0.81493E-01
         0.57843E-01
         0.63570E-01
         0.12539E+00
         0.17102E+00
         0.12122E+00
         0.14020E+00
         0.26092E+00
         0.95193E-01
         0.66275E-01
         0.79891E-01
         0.66636E-01
         0.70420E-01
         0.12114E+00
         0.23098E+00
         0.11112E+00
         0.91698E-01
         0.76833E-01
         0.12395E+00
         0.16716E+00
         0.23633E+00
         0.38404E+00
         0.18689E+00
         0.11279E+00
         0.14893E+00
         0.13011E+00
         0.23898E+00
         0.31688E+00
         0.23070E+00
         0.14391E+00
         0.35740E+00
         0.46495E+00
         0.60755E+00
         0.72499E+00
         0.61020E+00
         0.41933E+00
         0.15097E+00
         0.20708E+00
         0.24906E+00
         0.20211E+00
         0.20515E+00
         0.31210E+00
         0.49752E+00
         0.66254E+00
         0.46284E+00
         0.48128E+00
         0.49364E+00
         0.38928E+00
         0.24523E+00
         0.17684E+00
         0.22413E+00
         0.35642E+00
         0.53792E+00
         0.72175E+00
         0.81518E+00
         0.76387E+00
         0.76842E+00
         0.68857E+00
         0.47979E+00
         0.31328E+00
         0.21549E+00
         0.23076E+00
         0.33475E+00
         0.36568E+00
         0.33660E+00
         0.42750E+00
         0.70333E+00
         0.10670E+01
         0.11801E+01
         0.90748E+00
         0.59989E+00
         0.81547E-01
         0.96138E-01
         0.11544E+00
         0.88602E-01
         0.15684E+00
         0.13714E+00
         0.92219E-01
         0.81849E-01
         0.68467E-01
         0.66356E-01
         0.98023E-01
         0.11938E+00
         0.10006E+00
         0.97431E-01
         0.17253E+00
         0.75167E-01
         0.62012E-01
         0.75349E-01
         0.60534E-01
         0.65132E-01
         0.86665E-01
         0.16109E+00
         0.73353E-01
         0.71826E-01
         0.65558E-01
         0.88309E-01
         0.10740E+00
         0.15962E+00
         0.26442E+00
         0.12661E+00
         0.86324E-01
         0.10907E+00
         0.86080E-01
         0.10767E+00
         0.19158E+00
         0.15908E+00
         0.11787E+00
         0.25035E+00
         0.35205E+00
         0.47244E+00
         0.56749E+00
         0.43560E+00
         0.28509E+00
         0.99432E-01
         0.14108E+00
         0.17524E+00
         0.15093E+00
         0.13548E+00
         0.13623E+00
         0.15578E+00
         0.18801E+00
         0.15795E+00
         0.26531E+00
         0.22508E+00
         0.23162E+00
         0.15742E+00
         0.12045E+00
         0.15772E+00
         0.27276E+00
         0.43927E+00
         0.62268E+00
         0.72067E+00
         0.73029E+00
         0.69508E+00
         0.54413E+00
         0.35248E+00
         0.20447E+00
         0.12244E+00
         0.13537E+00
         0.20407E+00
         0.23872E+00
         0.22519E+00
         0.21419E+00
         0.21038E+00
         0.23815E+00
         0.27428E+00
         0.25497E+00
         0.21560E+00
         0.20829E-01
         0.18422E-01
         0.16186E-01
         0.16670E-01
         0.30237E-01
         0.40855E-01
         0.18991E-01
         0.22089E-01
         0.23453E-01
         0.27582E-01
         0.21245E-01
         0.39831E-01
         0.22682E-01
         0.23269E-01
         0.78759E-01
         0.19413E-01
         0.30420E-01
         0.20186E-01
         0.23621E-01
         0.42592E-01
         0.45087E-01
         0.91246E-01
         0.28353E-01
         0.19094E-01
         0.34310E-01
         0.19012E-01
         0.38027E-01
         0.80088E-01
         0.15326E+00
         0.71631E-01
         0.26624E-01
         0.31159E-01
         0.29963E-01
         0.38325E-01
         0.37382E-01
         0.24852E-01
         0.19562E-01
         0.14055E+00
         0.22123E+00
         0.31232E+00
         0.38642E+00
         0.27322E+00
         0.16706E+00
         0.30811E-01
         0.44416E-01
         0.60741E-01
         0.58248E-01
         0.60955E-01
         0.69182E-01
         0.82409E-01
         0.10029E+00
         0.72346E-01
         0.68857E-01
         0.74869E-01
         0.47476E-01
         0.30311E-01
         0.35764E-01
         0.76323E-01
         0.16403E+00
         0.29993E+00
         0.46745E+00
         0.58003E+00
         0.59833E+00
         0.50425E+00
         0.34636E+00
         0.20471E+00
         0.11144E+00
         0.66423E-01
         0.66409E-01
         0.77153E-01
         0.86381E-01
         0.10090E+00
         0.11908E+00
         0.14074E+00
         0.15790E+00
         0.16237E+00
         0.14245E+00
         0.10521E+00
         0.13332E-01
         0.11596E-01
         0.11368E-01
         0.10155E-01
         0.21499E-01
         0.28282E-01
         0.13087E-01
         0.17623E-01
         0.16910E-01
         0.22838E-01
         0.10752E-01
         0.13013E-01
         0.10696E-01
         0.11130E-01
         0.29902E-01
         0.12290E-01
         0.21727E-01
         0.10516E-01
         0.16094E-01
         0.28020E-01
         0.19619E-01
         0.42732E-01
         0.12407E-01
         0.11884E-01
         0.27226E-01
         0.83566E-02
         0.16228E-01
         0.40088E-01
         0.84293E-01
         0.42483E-01
         0.70375E-02
         0.94104E-02
         0.10259E-01
         0.21061E-01
         0.21407E-01
         0.14770E-01
         0.11517E-01
         0.66308E-01
         0.11941E+00
         0.18195E+00
         0.23448E+00
         0.15737E+00
         0.87425E-01
         0.10846E-01
         0.15694E-01
         0.22467E-01
         0.19962E-01
         0.20429E-01
         0.28248E-01
         0.41599E-01
         0.54347E-01
         0.42092E-01
         0.36842E-01
         0.43533E-01
         0.26217E-01
         0.13987E-01
         0.14471E-01
         0.33954E-01
         0.82255E-01
         0.16746E+00
         0.28694E+00
         0.38176E+00
         0.40189E+00
         0.31890E+00
         0.19020E+00
         0.96443E-01
         0.48420E-01
         0.27443E-01
         0.24611E-01
         0.27709E-01
         0.32152E-01
         0.33570E-01
         0.39281E-01
         0.56567E-01
         0.76668E-01
         0.86160E-01
         0.78674E-01
         0.59533E-01
         0.66303E-02
         0.56904E-02
         0.55312E-02
         0.24899E-02
         0.10958E-01
         0.99101E-02
         0.71619E-02
         0.94859E-02
         0.80701E-02
         0.12201E-01
         0.79545E-02
         0.81303E-02
         0.61265E-02
         0.88436E-02
         0.11103E-01
         0.53675E-02
         0.99958E-02
         0.43980E-02
         0.71276E-02
         0.13054E-01
         0.80184E-02
         0.13959E-01
         0.80041E-02
         0.65199E-02
         0.15327E-01
         0.41310E-02
         0.10055E-01
         0.17527E-01
         0.34136E-01
         0.19855E-01
         0.15149E-02
         0.10654E-02
         0.25014E-02
         0.53689E-02
         0.10514E-01
         0.64504E-02
         0.54431E-02
         0.23142E-01
         0.47189E-01
         0.76936E-01
         0.10174E+00
         0.63560E-01
         0.31580E-01
         0.60136E-02
         0.41561E-02
         0.54994E-02
         0.60513E-02
         0.82710E-02
         0.10834E-01
         0.13474E-01
         0.15351E-01
         0.11646E-01
         0.15312E-01
         0.21000E-01
         0.76396E-02
         0.65164E-02
         0.66752E-02
         0.13820E-01
         0.31523E-01
         0.68789E-01
         0.13072E+00
         0.18558E+00
         0.19474E+00
         0.14261E+00
         0.73275E-01
         0.32305E-01
         0.19173E-01
         0.15437E-01
         0.13158E-01
         0.10232E-01
         0.82080E-02
         0.96826E-02
         0.14783E-01
         0.20713E-01
         0.24054E-01
         0.22470E-01
         0.18955E-01
         0.18527E-01
         0.22959E-02
         0.19825E-02
         0.28364E-02
         0.13341E-02
         0.84300E-02
         0.86736E-02
         0.27125E-02
         0.35232E-02
         0.24320E-02
         0.48588E-02
         0.41021E-02
         0.53340E-02
         0.32916E-02
         0.51464E-02
         0.77849E-02
         0.14536E-02
         0.31161E-02
         0.15601E-02
         0.23249E-02
         0.45947E-02
         0.66325E-02
         0.57706E-02
         0.67517E-02
         0.36311E-02
         0.72085E-02
         0.19868E-02
         0.66803E-02
         0.84174E-02
         0.92253E-02
         0.81912E-02
         0.19641E-02
         0.17274E-02
         0.35244E-02
         0.64074E-02
         0.70526E-02
         0.27741E-02
         0.26924E-02
         0.86131E-02
         0.10151E-01
         0.14782E-01
         0.19013E-01
         0.94463E-02
         0.51754E-02
         0.53871E-02
         0.44422E-02
         0.48580E-02
         0.44891E-02
         0.62475E-02
         0.93118E-02
         0.12602E-01
         0.14646E-01
         0.11304E-01
         0.10156E-01
         0.15802E-01
         0.42939E-02
         0.66374E-02
         0.64520E-02
         0.78990E-02
         0.13253E-01
         0.20459E-01
         0.34157E-01
         0.48870E-01
         0.47396E-01
         0.29068E-01
         0.15852E-01
         0.14945E-01
         0.14443E-01
         0.12850E-01
         0.11384E-01
         0.10343E-01
         0.85581E-02
         0.74952E-02
         0.10433E-01
         0.16009E-01
         0.19994E-01
         0.19395E-01
         0.15207E-01
         0.13790E-01
         0.11567E-02
         0.11443E-02
         0.26369E-02
         0.15881E-02
         0.80836E-02
         0.90355E-02
         0.10187E-02
         0.15482E-02
         0.79027E-03
         0.25903E-02
         0.19500E-02
         0.36682E-02
         0.26938E-02
         0.28739E-02
         0.70433E-02
         0.51612E-03
         0.18395E-02
         0.68564E-03
         0.21047E-02
         0.16241E-02
         0.75233E-02
         0.90518E-02
         0.65986E-02
         0.31782E-02
         0.34655E-02
         0.15223E-02
         0.46326E-02
         0.69895E-02
         0.10653E-01
         0.43532E-02
         0.14628E-02
         0.13481E-02
         0.28759E-02
         0.60190E-02
         0.65766E-02
         0.30067E-02
         0.27520E-02
         0.11423E-01
         0.16225E-01
         0.22408E-01
         0.28705E-01
         0.19644E-01
         0.13169E-01
         0.48585E-02
         0.38225E-02
         0.42531E-02
         0.37952E-02
         0.51773E-02
         0.80130E-02
         0.11431E-01
         0.14032E-01
         0.11459E-01
         0.10011E-01
         0.15009E-01
         0.64913E-02
         0.76595E-02
         0.73508E-02
         0.75826E-02
         0.12862E-01
         0.22862E-01
         0.35522E-01
         0.48194E-01
         0.51782E-01
         0.42356E-01
         0.33057E-01
         0.22875E-01
         0.15635E-01
         0.12295E-01
         0.98231E-02
         0.90492E-02
         0.80801E-02
         0.68970E-02
         0.83175E-02
         0.12835E-01
         0.16967E-01
         0.18520E-01
         0.16735E-01
         0.14924E-01
         0.11100E-02
         0.11119E-02
         0.27137E-02
         0.16191E-02
         0.85699E-02
         0.10079E-01
         0.80423E-03
         0.15664E-02
         0.91848E-03
         0.26568E-02
         0.13977E-02
         0.32296E-02
         0.27298E-02
         0.22826E-02
         0.70694E-02
         0.40366E-03
         0.22529E-02
         0.57854E-03
         0.27183E-02
         0.19894E-02
         0.99253E-02
         0.12790E-01
         0.82649E-02
         0.37938E-02
         0.23904E-02
         0.18066E-02
         0.41162E-02
         0.74554E-02
         0.14234E-01
         0.47545E-02
         0.10237E-02
         0.13611E-02
         0.24950E-02
         0.62482E-02
         0.68122E-02
         0.32453E-02
         0.28652E-02
         0.13774E-01
         0.21912E-01
         0.32058E-01
         0.42368E-01
         0.29123E-01
         0.19052E-01
         0.59726E-02
         0.45684E-02
         0.48184E-02
         0.38918E-02
         0.52210E-02
         0.84826E-02
         0.12610E-01
         0.16016E-01
         0.12988E-01
         0.10731E-01
         0.16313E-01
         0.72915E-02
         0.79321E-02
         0.78039E-02
         0.78154E-02
         0.14247E-01
         0.30018E-01
         0.50564E-01
         0.69992E-01
         0.77551E-01
         0.63399E-01
         0.45720E-01
         0.30129E-01
         0.20667E-01
         0.15988E-01
         0.12227E-01
         0.10596E-01
         0.90899E-02
         0.75789E-02
         0.91776E-02
         0.14555E-01
         0.19753E-01
         0.22254E-01
         0.20446E-01
         0.17701E-01
         0.11296E-02
         0.12429E-02
         0.29978E-02
         0.16639E-02
         0.96769E-02
         0.11297E-01
         0.10204E-02
         0.17649E-02
         0.10731E-02
         0.29855E-02
         0.14007E-02
         0.35666E-02
         0.33552E-02
         0.21825E-02
         0.77902E-02
         0.46179E-03
         0.26109E-02
         0.78670E-03
         0.31734E-02
         0.25182E-02
         0.11688E-01
         0.15207E-01
         0.96864E-02
         0.45014E-02
         0.22467E-02
         0.22525E-02
         0.41972E-02
         0.79123E-02
         0.15477E-01
         0.50143E-02
         0.11471E-02
         0.18633E-02
         0.27397E-02
         0.70161E-02
         0.77122E-02
         0.36845E-02
         0.34047E-02
         0.16125E-01
         0.25775E-01
         0.36498E-01
         0.47048E-01
         0.32147E-01
         0.21763E-01
         0.72169E-02
         0.57474E-02
         0.62099E-02
         0.50880E-02
         0.64788E-02
         0.10171E-01
         0.14796E-01
         0.18537E-01
         0.14724E-01
         0.12077E-01
         0.18579E-01
         0.80964E-02
         0.88648E-02
         0.88034E-02
         0.89344E-02
         0.16878E-01
         0.36915E-01
         0.62275E-01
         0.82156E-01
         0.86363E-01
         0.69704E-01
         0.52360E-01
         0.35476E-01
         0.23835E-01
         0.18008E-01
         0.14249E-01
         0.12533E-01
         0.10947E-01
         0.97663E-02
         0.12158E-01
         0.18346E-01
         0.23868E-01
         0.25922E-01
         0.22999E-01
         0.19802E-01
         0.11489E-02
         0.15159E-02
         0.32967E-02
         0.17114E-02
         0.10065E-01
         0.11510E-01
         0.11746E-02
         0.18710E-02
         0.11610E-02
         0.31884E-02
         0.14856E-02
         0.39910E-02
         0.35712E-02
         0.22181E-02
         0.85952E-02
         0.67124E-03
         0.29049E-02
         0.84052E-03
         0.32867E-02
         0.27380E-02
         0.11657E-01
         0.15197E-01
         0.95471E-02
         0.44733E-02
         0.22754E-02
         0.22483E-02
         0.44188E-02
         0.86866E-02
         0.17000E-01
         0.51405E-02
         0.16696E-02
         0.21594E-02
         0.33513E-02
         0.75596E-02
         0.82271E-02
         0.40316E-02
         0.36615E-02
         0.17649E-01
         0.28607E-01
         0.40638E-01
         0.51764E-01
         0.34529E-01
         0.22402E-01
         0.71002E-02
         0.57479E-02
         0.66680E-02
         0.61224E-02
         0.79350E-02
         0.11646E-01
         0.15888E-01
         0.19207E-01
         0.15097E-01
         0.12645E-01
         0.19016E-01
         0.81900E-02
         0.88231E-02
         0.87749E-02
         0.98498E-02
         0.18821E-01
         0.40524E-01
         0.69293E-01
         0.91858E-01
         0.94829E-01
         0.74432E-01
         0.54061E-01
         0.36150E-01
         0.23998E-01
         0.17435E-01
         0.13644E-01
         0.12049E-01
         0.11222E-01
         0.11110E-01
         0.14575E-01
         0.20749E-01
         0.25268E-01
         0.26298E-01
         0.22730E-01
         0.19469E-01
         0.11305E-02
         0.15828E-02
         0.35321E-02
         0.17680E-02
         0.10576E-01
         0.12096E-01
         0.10673E-02
         0.18427E-02
         0.10564E-02
         0.32572E-02
         0.14383E-02
         0.39976E-02
         0.33892E-02
         0.23244E-02
         0.91020E-02
         0.70087E-03
         0.29681E-02
         0.89405E-03
         0.32516E-02
         0.29218E-02
         0.11090E-01
         0.14684E-01
         0.89309E-02
         0.41714E-02
         0.23520E-02
         0.20650E-02
         0.46749E-02
         0.93227E-02
         0.18409E-01
         0.52561E-02
         0.18414E-02
         0.22446E-02
         0.35768E-02
         0.79308E-02
         0.88086E-02
         0.43160E-02
         0.36071E-02
         0.18371E-01
         0.30144E-01
         0.43947E-01
         0.56601E-01
         0.36843E-01
         0.22599E-01
         0.65885E-02
         0.54456E-02
         0.65934E-02
         0.63838E-02
         0.82556E-02
         0.11913E-01
         0.16233E-01
         0.19737E-01
         0.15756E-01
         0.13512E-01
         0.19896E-01
         0.81230E-02
         0.85875E-02
         0.85937E-02
         0.99977E-02
         0.19844E-01
         0.41535E-01
         0.71254E-01
         0.98483E-01
         0.10476E+00
         0.79657E-01
         0.54606E-01
         0.35417E-01
         0.23175E-01
         0.16538E-01
         0.12809E-01
         0.11380E-01
         0.10755E-01
         0.10872E-01
         0.14440E-01
         0.20629E-01
         0.25285E-01
         0.26756E-01
         0.23807E-01
         0.20590E-01
         0.87975E-03
         0.11795E-02
         0.35775E-02
         0.20121E-02
         0.11209E-01
         0.12985E-01
         0.84157E-03
         0.18481E-02
         0.95855E-03
         0.32043E-02
         0.12918E-02
         0.38078E-02
         0.30484E-02
         0.24593E-02
         0.95318E-02
         0.69744E-03
         0.28171E-02
         0.91446E-03
         0.31424E-02
         0.30881E-02
         0.10492E-01
         0.14483E-01
         0.83229E-02
         0.38728E-02
         0.21835E-02
         0.19080E-02
         0.45019E-02
         0.86115E-02
         0.17827E-01
         0.52770E-02
         0.17746E-02
         0.21694E-02
         0.34934E-02
         0.81518E-02
         0.91986E-02
         0.42236E-02
         0.32242E-02
         0.18366E-01
         0.28842E-01
         0.42233E-01
         0.56089E-01
         0.37183E-01
         0.22930E-01
         0.61318E-02
         0.50719E-02
         0.62093E-02
         0.61965E-02
         0.79016E-02
         0.11421E-01
         0.16153E-01
         0.20236E-01
         0.16574E-01
         0.14105E-01
         0.21033E-01
         0.79690E-02
         0.84142E-02
         0.84837E-02
         0.10064E-01
         0.20941E-01
         0.41959E-01
         0.68010E-01
         0.94395E-01
         0.10544E+00
         0.82412E-01
         0.56116E-01
         0.34838E-01
         0.21946E-01
         0.15665E-01
         0.12211E-01
         0.10713E-01
         0.98529E-02
         0.10090E-01
         0.13327E-01
         0.19399E-01
         0.25081E-01
         0.27536E-01
         0.25321E-01
         0.22246E-01
         0.83001E-03
         0.96537E-03
         0.33307E-02
         0.19984E-02
         0.10897E-01
         0.12609E-01
         0.93062E-03
         0.19080E-02
         0.95690E-03
         0.30235E-02
         0.11622E-02
         0.33902E-02
         0.28347E-02
         0.24913E-02
         0.95691E-02
         0.77220E-03
         0.25447E-02
         0.93951E-03
         0.29774E-02
         0.29362E-02
         0.99596E-02
         0.14378E-01
         0.77588E-02
         0.36723E-02
         0.17504E-02
         0.18000E-02
         0.43534E-02
         0.82931E-02
         0.17632E-01
         0.57883E-02
         0.17243E-02
         0.20832E-02
         0.32468E-02
         0.77121E-02
         0.87386E-02
         0.37042E-02
         0.29491E-02
         0.18127E-01
         0.27656E-01
         0.40240E-01
         0.54240E-01
         0.37342E-01
         0.23563E-01
         0.56243E-02
         0.46796E-02
         0.59812E-02
         0.61899E-02
         0.78105E-02
         0.10976E-01
         0.15424E-01
         0.19379E-01
         0.15899E-01
         0.13508E-01
         0.20597E-01
         0.75120E-02
         0.82252E-02
         0.82718E-02
         0.93399E-02
         0.20745E-01
         0.41632E-01
         0.65294E-01
         0.89059E-01
         0.10086E+00
         0.82923E-01
         0.57041E-01
         0.33466E-01
         0.20043E-01
         0.14276E-01
         0.11108E-01
         0.99429E-02
         0.93932E-02
         0.99932E-02
         0.13043E-01
         0.18527E-01
         0.24106E-01
         0.26544E-01
         0.24324E-01
         0.21580E-01
         0.83830E-03
         0.10969E-02
         0.32680E-02
         0.19830E-02
         0.10407E-01
         0.11724E-01
         0.10272E-02
         0.17975E-02
         0.98083E-03
         0.28450E-02
         0.10538E-02
         0.32616E-02
         0.28787E-02
         0.22303E-02
         0.91029E-02
         0.72955E-03
         0.24387E-02
         0.84769E-03
         0.28116E-02
         0.26272E-02
         0.99259E-02
         0.14436E-01
         0.76666E-02
         0.36754E-02
         0.16716E-02
         0.18052E-02
         0.41147E-02
         0.84293E-02
         0.17961E-01
         0.59966E-02
         0.19043E-02
         0.21382E-02
         0.33873E-02
         0.73957E-02
         0.84709E-02
         0.36650E-02
         0.30117E-02
         0.17478E-01
         0.27426E-01
         0.40456E-01
         0.54230E-01
         0.37443E-01
         0.23674E-01
         0.55533E-02
         0.46695E-02
         0.59654E-02
         0.61757E-02
         0.78235E-02
         0.10848E-01
         0.14740E-01
         0.18019E-01
         0.14643E-01
         0.13007E-01
         0.19476E-01
         0.74262E-02
         0.81708E-02
         0.80889E-02
         0.89039E-02
         0.19419E-01
         0.39847E-01
         0.64904E-01
         0.89884E-01
         0.99693E-01
         0.81907E-01
         0.56711E-01
         0.33464E-01
         0.19623E-01
         0.13700E-01
         0.10736E-01
         0.99569E-02
         0.94743E-02
         0.99813E-02
         0.12854E-01
         0.18010E-01
         0.22738E-01
         0.24371E-01
         0.21866E-01
         0.19617E-01
         0.83692E-03
         0.12608E-02
         0.32622E-02
         0.20391E-02
         0.99913E-02
         0.11121E-01
         0.10458E-02
         0.17717E-02
         0.11704E-02
         0.30291E-02
         0.10529E-02
         0.34277E-02
         0.30169E-02
         0.20518E-02
         0.87491E-02
         0.80029E-03
         0.27360E-02
         0.72629E-03
         0.32924E-02
         0.30276E-02
         0.10909E-01
         0.14976E-01
         0.84738E-02
         0.40970E-02
         0.19289E-02
         0.20385E-02
         0.42133E-02
         0.87627E-02
         0.18286E-01
         0.57984E-02
         0.21215E-02
         0.22440E-02
         0.35616E-02
         0.71860E-02
         0.81926E-02
         0.35832E-02
         0.30494E-02
         0.17663E-01
         0.28827E-01
         0.42544E-01
         0.56171E-01
         0.37767E-01
         0.23552E-01
         0.61208E-02
         0.49711E-02
         0.58482E-02
         0.57370E-02
         0.73139E-02
         0.10323E-01
         0.13938E-01
         0.16906E-01
         0.13804E-01
         0.12607E-01
         0.18621E-01
         0.72115E-02
         0.80192E-02
         0.80211E-02
         0.89938E-02
         0.18893E-01
         0.40420E-01
         0.69427E-01
         0.96392E-01
         0.10425E+00
         0.82845E-01
         0.56186E-01
         0.34555E-01
         0.21752E-01
         0.15481E-01
         0.11994E-01
         0.10646E-01
         0.96683E-02
         0.97315E-02
         0.12237E-01
         0.17132E-01
         0.21264E-01
         0.22581E-01
         0.20330E-01
         0.18439E-01
         0.83715E-03
         0.10694E-02
         0.30186E-02
         0.19226E-02
         0.93735E-02
         0.10266E-01
         0.83142E-03
         0.19073E-02
         0.13802E-02
         0.33261E-02
         0.86879E-03
         0.32663E-02
         0.30017E-02
         0.20335E-02
         0.80568E-02
         0.11669E-02
         0.30586E-02
         0.82897E-03
         0.38517E-02
         0.37088E-02
         0.11721E-01
         0.15916E-01
         0.91394E-02
         0.45580E-02
         0.21202E-02
         0.23793E-02
         0.43286E-02
         0.89163E-02
         0.19024E-01
         0.59141E-02
         0.19640E-02
         0.22146E-02
         0.31643E-02
         0.64464E-02
         0.77128E-02
         0.33172E-02
         0.29423E-02
         0.17586E-01
         0.30328E-01
         0.45896E-01
         0.60979E-01
         0.39917E-01
         0.24520E-01
         0.65674E-02
         0.51297E-02
         0.57088E-02
         0.52255E-02
         0.63894E-02
         0.90088E-02
         0.12374E-01
         0.15251E-01
         0.12558E-01
         0.12066E-01
         0.17690E-01
         0.70844E-02
         0.82056E-02
         0.84107E-02
         0.91361E-02
         0.18351E-01
         0.41366E-01
         0.74965E-01
         0.10707E+00
         0.11647E+00
         0.89423E-01
         0.58502E-01
         0.36563E-01
         0.23494E-01
         0.16845E-01
         0.12732E-01
         0.10792E-01
         0.97969E-02
         0.95291E-02
         0.11350E-01
         0.15476E-01
         0.19258E-01
         0.20569E-01
         0.18551E-01
         0.17090E-01
         0.79210E-03
         0.78507E-03
         0.25241E-02
         0.16370E-02
         0.80976E-02
         0.84860E-02
         0.69076E-03
         0.19322E-02
         0.14567E-02
         0.32687E-02
         0.63138E-03
         0.26353E-02
         0.24854E-02
         0.20205E-02
         0.68577E-02
         0.12620E-02
         0.30735E-02
         0.96841E-03
         0.36190E-02
         0.38160E-02
         0.10822E-01
         0.15258E-01
         0.84420E-02
         0.42160E-02
         0.20224E-02
         0.22517E-02
         0.39761E-02
         0.78224E-02
         0.18061E-01
         0.59890E-02
         0.15505E-02
         0.18712E-02
         0.23283E-02
         0.48802E-02
         0.66642E-02
         0.27163E-02
         0.24604E-02
         0.15449E-01
         0.27599E-01
         0.43588E-01
         0.59530E-01
         0.39156E-01
         0.24118E-01
         0.61831E-02
         0.47873E-02
         0.52585E-02
         0.45009E-02
         0.49940E-02
         0.67195E-02
         0.93605E-02
         0.11790E-01
         0.98683E-02
         0.10695E-01
         0.15778E-01
         0.64379E-02
         0.75195E-02
         0.77268E-02
         0.81570E-02
         0.15621E-01
         0.36173E-01
         0.68549E-01
         0.10292E+00
         0.11545E+00
         0.88459E-01
         0.57643E-01
         0.35842E-01
         0.22282E-01
         0.15584E-01
         0.11842E-01
         0.10205E-01
         0.95485E-02
         0.91095E-02
         0.96439E-02
         0.12371E-01
         0.15501E-01
         0.16484E-01
         0.15015E-01
         0.14560E-01
         0.83129E-03
         0.75428E-03
         0.17737E-02
         0.76551E-03
         0.59897E-02
         0.53736E-02
         0.61257E-03
         0.18882E-02
         0.13827E-02
         0.30185E-02
         0.10887E-02
         0.26851E-02
         0.19589E-02
         0.23317E-02
         0.68442E-02
         0.10875E-02
         0.26619E-02
         0.10374E-02
         0.30053E-02
         0.32913E-02
         0.94772E-02
         0.14026E-01
         0.74959E-02
         0.36352E-02
         0.14666E-02
         0.20336E-02
         0.39966E-02
         0.80248E-02
         0.19227E-01
         0.69836E-02
         0.14162E-02
         0.19356E-02
         0.97242E-03
         0.17636E-02
         0.52002E-02
         0.24495E-02
         0.22425E-02
         0.14597E-01
         0.26487E-01
         0.43326E-01
         0.60523E-01
         0.41062E-01
         0.24654E-01
         0.57308E-02
         0.45958E-02
         0.51640E-02
         0.42805E-02
         0.37922E-02
         0.38254E-02
         0.50229E-02
         0.67063E-02
         0.53318E-02
         0.97013E-02
         0.13545E-01
         0.75665E-02
         0.69723E-02
         0.64861E-02
         0.71108E-02
         0.13550E-01
         0.31942E-01
         0.63806E-01
         0.99499E-01
         0.11503E+00
         0.90884E-01
         0.56116E-01
         0.31849E-01
         0.19438E-01
         0.13796E-01
         0.10825E-01
         0.95695E-02
         0.97435E-02
         0.10337E-01
         0.10075E-01
         0.11089E-01
         0.12902E-01
         0.12540E-01
         0.11103E-01
         0.11560E-01
         0.16605E-02
         0.20803E-02
         0.34919E-02
         0.23654E-02
         0.66388E-02
         0.58415E-02
         0.16184E-02
         0.21317E-02
         0.12251E-02
         0.25389E-02
         0.27781E-02
         0.51316E-02
         0.28935E-02
         0.36618E-02
         0.96401E-02
         0.10538E-02
         0.17806E-02
         0.15162E-02
         0.21895E-02
         0.26091E-02
         0.93776E-02
         0.14910E-01
         0.73478E-02
         0.35566E-02
         0.14812E-02
         0.28488E-02
         0.52556E-02
         0.99913E-02
         0.22478E-01
         0.91305E-02
         0.33466E-02
         0.41603E-02
         0.36843E-02
         0.51303E-02
         0.84151E-02
         0.65304E-02
         0.40218E-02
         0.16372E-01
         0.27674E-01
         0.45646E-01
         0.65769E-01
         0.47248E-01
         0.28606E-01
         0.62522E-02
         0.65034E-02
         0.84292E-02
         0.80621E-02
         0.80186E-02
         0.87947E-02
         0.10647E-01
         0.12704E-01
         0.86164E-02
         0.15013E-01
         0.15512E-01
         0.14563E-01
         0.87682E-02
         0.65344E-02
         0.92482E-02
         0.16666E-01
         0.32890E-01
         0.62268E-01
         0.98948E-01
         0.12216E+00
         0.10507E+00
         0.62969E-01
         0.32231E-01
         0.18990E-01
         0.12668E-01
         0.10341E-01
         0.10986E-01
         0.13701E-01
         0.16985E-01
         0.18476E-01
         0.20720E-01
         0.23566E-01
         0.22792E-01
         0.18734E-01
         0.15275E-01
         0.16428E-02
         0.16917E-02
         0.41993E-02
         0.35360E-02
         0.75698E-02
         0.90689E-02
         0.14847E-02
         0.22296E-02
         0.15647E-02
         0.27541E-02
         0.37440E-02
         0.75208E-02
         0.44152E-02
         0.48316E-02
         0.12536E-01
         0.76658E-03
         0.23866E-02
         0.17091E-02
         0.34727E-02
         0.33191E-02
         0.14802E-01
         0.19275E-01
         0.12339E-01
         0.57855E-02
         0.37318E-02
         0.35712E-02
         0.71090E-02
         0.13317E-01
         0.27166E-01
         0.11978E-01
         0.28865E-02
         0.48096E-02
         0.42917E-02
         0.74637E-02
         0.92897E-02
         0.83832E-02
         0.54497E-02
         0.19399E-01
         0.31242E-01
         0.50305E-01
         0.72201E-01
         0.54392E-01
         0.34154E-01
         0.95978E-02
         0.99395E-02
         0.13164E-01
         0.12139E-01
         0.12081E-01
         0.12621E-01
         0.14504E-01
         0.17134E-01
         0.12796E-01
         0.14649E-01
         0.15631E-01
         0.18191E-01
         0.12898E-01
         0.10146E-01
         0.13573E-01
         0.22053E-01
         0.37827E-01
         0.64826E-01
         0.10038E+00
         0.12721E+00
         0.11698E+00
         0.75199E-01
         0.45199E-01
         0.33383E-01
         0.24417E-01
         0.18665E-01
         0.18593E-01
         0.21688E-01
         0.26922E-01
         0.29239E-01
         0.28910E-01
         0.29496E-01
         0.28051E-01
         0.24265E-01
         0.20145E-01
         0.13354E-01
         0.14270E-01
         0.17381E-01
         0.15811E-01
         0.20347E-01
         0.18920E-01
         0.13219E-01
         0.13397E-01
         0.12829E-01
         0.12507E-01
         0.10628E-01
         0.58884E-02
         0.95410E-02
         0.92892E-02
         0.66218E-02
         0.18269E-01
         0.15179E-01
         0.14534E-01
         0.27448E-01
         0.20061E-01
         0.58882E-01
         0.53903E-01
         0.61356E-01
         0.37559E-01
         0.12114E-01
         0.32384E-01
         0.79440E-02
         0.13515E-01
         0.30072E-01
         0.17226E-01
         0.20864E-01
         0.33569E-01
         0.19150E-01
         0.22518E-01
         0.24433E-01
         0.20494E-01
         0.13708E-01
         0.18551E-01
         0.36554E-01
         0.61202E-01
         0.89929E-01
         0.68858E-01
         0.54250E-01
         0.56422E-01
         0.54467E-01
         0.57706E-01
         0.45726E-01
         0.38024E-01
         0.36771E-01
         0.37944E-01
         0.38390E-01
         0.26818E-01
         0.29022E-01
         0.20250E-01
         0.24880E-01
         0.15319E-01
         0.11922E-01
         0.14385E-01
         0.24572E-01
         0.47262E-01
         0.86322E-01
         0.13235E+00
         0.16334E+00
         0.15959E+00
         0.13631E+00
         0.13412E+00
         0.12998E+00
         0.11419E+00
         0.95983E-01
         0.85187E-01
         0.80975E-01
         0.78839E-01
         0.77139E-01
         0.72921E-01
         0.67284E-01
         0.54373E-01
         0.35738E-01
         0.20866E-01
         0.32313E-01
         0.35433E-01
         0.41565E-01
         0.37390E-01
         0.46142E-01
         0.42259E-01
         0.33915E-01
         0.33802E-01
         0.31843E-01
         0.32188E-01
         0.31367E-01
         0.25226E-01
         0.29755E-01
         0.29544E-01
         0.20572E-01
         0.46372E-01
         0.38623E-01
         0.35283E-01
         0.67318E-01
         0.52926E-01
         0.12964E+00
         0.12903E+00
         0.13069E+00
         0.86902E-01
         0.32053E-01
         0.75765E-01
         0.24689E-01
         0.25075E-01
         0.53902E-01
         0.47667E-01
         0.49816E-01
         0.75560E-01
         0.47633E-01
         0.54240E-01
         0.54961E-01
         0.50959E-01
         0.38339E-01
         0.27099E-01
         0.52506E-01
         0.89514E-01
         0.13708E+00
         0.12442E+00
         0.12571E+00
         0.11898E+00
         0.11208E+00
         0.11568E+00
         0.94380E-01
         0.78819E-01
         0.78966E-01
         0.82050E-01
         0.81004E-01
         0.59697E-01
         0.62756E-01
         0.50260E-01
         0.63145E-01
         0.39674E-01
         0.22544E-01
         0.16245E-01
         0.24683E-01
         0.60254E-01
         0.11999E+00
         0.18353E+00
         0.23486E+00
         0.26444E+00
         0.27398E+00
         0.28195E+00
         0.25973E+00
         0.21961E+00
         0.18030E+00
         0.15586E+00
         0.14892E+00
         0.14326E+00
         0.13659E+00
         0.13119E+00
         0.12317E+00
         0.10280E+00
         0.71817E-01
         0.44241E-01
  
SCALARS                     nodal_mass  double 1
LOOKUP_TABLE default
         0.24608E-05
         0.19551E-05
         0.20945E-05
         0.35953E-05
         0.12304E-05
         0.97770E-06
         0.10472E-05
         0.17973E-05
         0.19315E-05
         0.24627E-05
         0.96570E-06
         0.12312E-05
         0.13823E-05
         0.16614E-05
         0.69133E-06
         0.83095E-06
         0.27274E-05
         0.20125E-05
         0.13635E-05
         0.10066E-05
         0.81737E-06
         0.15393E-05
         0.16929E-05
         0.40889E-06
         0.76975E-06
         0.84649E-06
         0.13859E-05
         0.17532E-05
         0.69345E-06
         0.87672E-06
         0.32470E-05
         0.25355E-05
         0.32225E-05
         0.16233E-05
         0.12675E-05
         0.16109E-05
         0.18980E-05
         0.21673E-05
         0.94902E-06
         0.10836E-05
         0.20482E-05
         0.22683E-05
         0.10242E-05
         0.11342E-05
         0.17426E-05
         0.10823E-05
         0.87140E-06
         0.54121E-06
         0.20598E-05
         0.10301E-05
         0.17103E-05
         0.85523E-06
         0.17977E-05
         0.89958E-06
         0.18362E-05
         0.91859E-06
         0.15911E-05
         0.19369E-05
         0.79575E-06
         0.96860E-06
         0.24553E-05
         0.17361E-05
         0.12277E-05
         0.86816E-06
         0.27409E-05
         0.13702E-05
         0.23792E-05
         0.11891E-05
         0.10821E-05
         0.16705E-05
         0.54106E-06
         0.83538E-06
         0.18955E-05
         0.94787E-06
         0.20026E-05
         0.10014E-05
         0.19316E-05
         0.96578E-06
         0.15181E-05
         0.75906E-06
         0.95443E-06
         0.15782E-05
         0.47723E-06
         0.78918E-06
         0.20886E-05
         0.10443E-05
         0.16867E-05
         0.84342E-06
         0.14838E-05
         0.74203E-06
         0.97224E-06
         0.16569E-05
         0.48620E-06
         0.82849E-06
         0.22482E-05
         0.11241E-05
         0.23568E-05
         0.11783E-05
         0.19018E-05
         0.95085E-06
         0.11709E-05
         0.20091E-05
         0.58544E-06
         0.10044E-05
         0.74681E-06
         0.94889E-06
         0.37348E-06
         0.47447E-06
         0.88885E-06
         0.44455E-06
         0.10466E-05
         0.52333E-06
         0.10205E-05
         0.51021E-06
         0.99108E-06
         0.49550E-06
         0.10560E-05
         0.52791E-06
         0.11142E-05
         0.55694E-06
         0.10497E-05
         0.52469E-06
         0.82085E-06
         0.41039E-06
         0.66950E-06
         0.33475E-06
         0.86397E-06
         0.43199E-06
         0.11504E-05
         0.57519E-06
         0.12637E-05
         0.63182E-06
         0.12132E-05
         0.60658E-06
         0.10948E-05
         0.54745E-06
         0.99429E-06
         0.49718E-06
         0.80759E-06
         0.40382E-06
         0.67982E-06
         0.33995E-06
         0.88797E-06
         0.44401E-06
         0.11753E-05
         0.58766E-06
         0.12140E-05
         0.60702E-06
         0.98236E-06
         0.49125E-06
         0.79766E-06
         0.39889E-06
         0.97540E-06
         0.48769E-06
         0.11548E-05
         0.57743E-06
         0.24609E-05
         0.19547E-05
         0.20946E-05
         0.35969E-05
         0.19318E-05
         0.24634E-05
         0.13815E-05
         0.16603E-05
         0.27283E-05
         0.20111E-05
         0.81658E-06
         0.15390E-05
         0.16927E-05
         0.13839E-05
         0.17528E-05
         0.32479E-05
         0.25367E-05
         0.32241E-05
         0.18980E-05
         0.21675E-05
         0.20481E-05
         0.22684E-05
         0.17424E-05
         0.10822E-05
         0.20589E-05
         0.17102E-05
         0.17950E-05
         0.18344E-05
         0.15904E-05
         0.19365E-05
         0.24555E-05
         0.17359E-05
         0.27423E-05
         0.23814E-05
         0.10820E-05
         0.16702E-05
         0.18953E-05
         0.20025E-05
         0.19317E-05
         0.15181E-05
         0.95442E-06
         0.15780E-05
         0.20884E-05
         0.16864E-05
         0.14835E-05
         0.97197E-06
         0.16567E-05
         0.22482E-05
         0.23571E-05
         0.19022E-05
         0.11709E-05
         0.20101E-05
         0.74658E-06
         0.94886E-06
         0.88841E-06
         0.10467E-05
         0.10207E-05
         0.99128E-06
         0.10565E-05
         0.11150E-05
         0.10503E-05
         0.82102E-06
         0.66954E-06
         0.86398E-06
         0.11506E-05
         0.12640E-05
         0.12133E-05
         0.10948E-05
         0.99421E-06
         0.80751E-06
         0.67970E-06
         0.88789E-06
         0.11752E-05
         0.12140E-05
         0.98215E-06
         0.79747E-06
         0.97551E-06
         0.11548E-05
         0.24611E-05
         0.19543E-05
         0.20949E-05
         0.35987E-05
         0.19321E-05
         0.24642E-05
         0.13808E-05
         0.16594E-05
         0.27293E-05
         0.20098E-05
         0.81582E-06
         0.15388E-05
         0.16927E-05
         0.13821E-05
         0.17525E-05
         0.32489E-05
         0.25379E-05
         0.32257E-05
         0.18982E-05
         0.21678E-05
         0.20480E-05
         0.22685E-05
         0.17423E-05
         0.10821E-05
         0.20580E-05
         0.17101E-05
         0.17924E-05
         0.18326E-05
         0.15898E-05
         0.19361E-05
         0.24558E-05
         0.17357E-05
         0.27438E-05
         0.23836E-05
         0.10821E-05
         0.16699E-05
         0.18951E-05
         0.20024E-05
         0.19318E-05
         0.15183E-05
         0.95445E-06
         0.15778E-05
         0.20884E-05
         0.16862E-05
         0.14831E-05
         0.97174E-06
         0.16566E-05
         0.22483E-05
         0.23575E-05
         0.19026E-05
         0.11709E-05
         0.20112E-05
         0.74636E-06
         0.94886E-06
         0.88800E-06
         0.10467E-05
         0.10210E-05
         0.99152E-06
         0.10570E-05
         0.11159E-05
         0.10509E-05
         0.82122E-06
         0.66961E-06
         0.86402E-06
         0.11507E-05
         0.12643E-05
         0.12135E-05
         0.10948E-05
         0.99417E-06
         0.80747E-06
         0.67961E-06
         0.88784E-06
         0.11752E-05
         0.12140E-05
         0.98197E-06
         0.79731E-06
         0.97565E-06
         0.11548E-05
         0.24612E-05
         0.19539E-05
         0.20950E-05
         0.36004E-05
         0.19324E-05
         0.24650E-05
         0.13801E-05
         0.16584E-05
         0.27303E-05
         0.20085E-05
         0.81504E-06
         0.15385E-05
         0.16925E-05
         0.13801E-05
         0.17521E-05
         0.32498E-05
         0.25390E-05
         0.32274E-05
         0.18982E-05
         0.21681E-05
         0.20479E-05
         0.22686E-05
         0.17421E-05
         0.10820E-05
         0.20571E-05
         0.17099E-05
         0.17897E-05
         0.18308E-05
         0.15891E-05
         0.19356E-05
         0.24561E-05
         0.17355E-05
         0.27453E-05
         0.23857E-05
         0.10820E-05
         0.16696E-05
         0.18948E-05
         0.20022E-05
         0.19320E-05
         0.15183E-05
         0.95445E-06
         0.15776E-05
         0.20883E-05
         0.16859E-05
         0.14828E-05
         0.97149E-06
         0.16564E-05
         0.22483E-05
         0.23578E-05
         0.19030E-05
         0.11710E-05
         0.20122E-05
         0.74613E-06
         0.94884E-06
         0.88756E-06
         0.10467E-05
         0.10212E-05
         0.99173E-06
         0.10574E-05
         0.11167E-05
         0.10515E-05
         0.82140E-06
         0.66966E-06
         0.86404E-06
         0.11509E-05
         0.12646E-05
         0.12136E-05
         0.10947E-05
         0.99410E-06
         0.80740E-06
         0.67950E-06
         0.88777E-06
         0.11752E-05
         0.12140E-05
         0.98177E-06
         0.79713E-06
         0.97576E-06
         0.11547E-05
         0.24613E-05
         0.19535E-05
         0.20952E-05
         0.36022E-05
         0.19327E-05
         0.24657E-05
         0.13794E-05
         0.16574E-05
         0.27313E-05
         0.20072E-05
         0.81426E-06
         0.15382E-05
         0.16924E-05
         0.13782E-05
         0.17517E-05
         0.32508E-05
         0.25402E-05
         0.32290E-05
         0.18983E-05
         0.21684E-05
         0.20479E-05
         0.22687E-05
         0.17420E-05
         0.10819E-05
         0.20563E-05
         0.17098E-05
         0.17870E-05
         0.18290E-05
         0.15884E-05
         0.19352E-05
         0.24563E-05
         0.17353E-05
         0.27467E-05
         0.23879E-05
         0.10820E-05
         0.16693E-05
         0.18946E-05
         0.20021E-05
         0.19321E-05
         0.15184E-05
         0.95445E-06
         0.15773E-05
         0.20882E-05
         0.16857E-05
         0.14824E-05
         0.97124E-06
         0.16563E-05
         0.22484E-05
         0.23582E-05
         0.19034E-05
         0.11710E-05
         0.20132E-05
         0.74590E-06
         0.94883E-06
         0.88713E-06
         0.10468E-05
         0.10215E-05
         0.99194E-06
         0.10579E-05
         0.11175E-05
         0.10521E-05
         0.82159E-06
         0.66972E-06
         0.86406E-06
         0.11510E-05
         0.12649E-05
         0.12138E-05
         0.10947E-05
         0.99404E-06
         0.80734E-06
         0.67940E-06
         0.88771E-06
         0.11752E-05
         0.12140E-05
         0.98157E-06
         0.79696E-06
         0.97588E-06
         0.11547E-05
         0.24615E-05
         0.19531E-05
         0.20954E-05
         0.36039E-05
         0.19331E-05
         0.24665E-05
         0.13787E-05
         0.16564E-05
         0.27322E-05
         0.20059E-05
         0.81349E-06
         0.15380E-05
         0.16923E-05
         0.13763E-05
         0.17514E-05
         0.32518E-05
         0.25414E-05
         0.32306E-05
         0.18984E-05
         0.21687E-05
         0.20478E-05
         0.22688E-05
         0.17418E-05
         0.10818E-05
         0.20554E-05
         0.17096E-05
         0.17843E-05
         0.18272E-05
         0.15878E-05
         0.19347E-05
         0.24566E-05
         0.17351E-05
         0.27482E-05
         0.23901E-05
         0.10820E-05
         0.16690E-05
         0.18943E-05
         0.20019E-05
         0.19322E-05
         0.15185E-05
         0.95446E-06
         0.15771E-05
         0.20881E-05
         0.16855E-05
         0.14821E-05
         0.97100E-06
         0.16562E-05
         0.22484E-05
         0.23586E-05
         0.19038E-05
         0.11710E-05
         0.20142E-05
         0.74568E-06
         0.94882E-06
         0.88671E-06
         0.10468E-05
         0.10217E-05
         0.99216E-06
         0.10583E-05
         0.11183E-05
         0.10528E-05
         0.82178E-06
         0.66977E-06
         0.86408E-06
         0.11512E-05
         0.12652E-05
         0.12139E-05
         0.10947E-05
         0.99398E-06
         0.80728E-06
         0.67930E-06
         0.88766E-06
         0.11752E-05
         0.12140E-05
         0.98138E-06
         0.79679E-06
         0.97601E-06
         0.11547E-05
         0.24616E-05
         0.19527E-05
         0.20956E-05
         0.36056E-05
         0.19334E-05
         0.24672E-05
         0.13779E-05
         0.16554E-05
         0.27332E-05
         0.20046E-05
         0.81271E-06
         0.15377E-05
         0.16922E-05
         0.13744E-05
         0.17510E-05
         0.32527E-05
         0.25425E-05
         0.32322E-05
         0.18984E-05
         0.21689E-05
         0.20477E-05
         0.22689E-05
         0.17416E-05
         0.10816E-05
         0.20545E-05
         0.17095E-05
         0.17817E-05
         0.18254E-05
         0.15871E-05
         0.19343E-05
         0.24568E-05
         0.17349E-05
         0.27496E-05
         0.23922E-05
         0.10820E-05
         0.16686E-05
         0.18941E-05
         0.20018E-05
         0.19324E-05
         0.15186E-05
         0.95446E-06
         0.15769E-05
         0.20880E-05
         0.16852E-05
         0.14817E-05
         0.97074E-06
         0.16560E-05
         0.22484E-05
         0.23589E-05
         0.19042E-05
         0.11710E-05
         0.20152E-05
         0.74544E-06
         0.94880E-06
         0.88627E-06
         0.10469E-05
         0.10219E-05
         0.99237E-06
         0.10588E-05
         0.11191E-05
         0.10534E-05
         0.82196E-06
         0.66982E-06
         0.86410E-06
         0.11513E-05
         0.12654E-05
         0.12140E-05
         0.10947E-05
         0.99391E-06
         0.80721E-06
         0.67919E-06
         0.88759E-06
         0.11751E-05
         0.12140E-05
         0.98118E-06
         0.79661E-06
         0.97612E-06
         0.11546E-05
         0.24618E-05
         0.19523E-05
         0.20957E-05
         0.36073E-05
         0.19337E-05
         0.24680E-05
         0.13772E-05
         0.16545E-05
         0.27341E-05
         0.20033E-05
         0.81194E-06
         0.15374E-05
         0.16921E-05
         0.13725E-05
         0.17506E-05
         0.32537E-05
         0.25437E-05
         0.32339E-05
         0.18985E-05
         0.21692E-05
         0.20476E-05
         0.22690E-05
         0.17414E-05
         0.10815E-05
         0.20536E-05
         0.17093E-05
         0.17790E-05
         0.18236E-05
         0.15864E-05
         0.19339E-05
         0.24571E-05
         0.17347E-05
         0.27511E-05
         0.23944E-05
         0.10820E-05
         0.16683E-05
         0.18938E-05
         0.20016E-05
         0.19325E-05
         0.15186E-05
         0.95446E-06
         0.15767E-05
         0.20878E-05
         0.16850E-05
         0.14814E-05
         0.97050E-06
         0.16559E-05
         0.22484E-05
         0.23593E-05
         0.19046E-05
         0.11711E-05
         0.20162E-05
         0.74522E-06
         0.94878E-06
         0.88584E-06
         0.10469E-05
         0.10222E-05
         0.99258E-06
         0.10593E-05
         0.11199E-05
         0.10540E-05
         0.82215E-06
         0.66988E-06
         0.86413E-06
         0.11515E-05
         0.12657E-05
         0.12142E-05
         0.10946E-05
         0.99385E-06
         0.80715E-06
         0.67909E-06
         0.88752E-06
         0.11751E-05
         0.12140E-05
         0.98098E-06
         0.79643E-06
         0.97624E-06
         0.11546E-05
         0.24619E-05
         0.19519E-05
         0.20959E-05
         0.36091E-05
         0.19340E-05
         0.24688E-05
         0.13765E-05
         0.16535E-05
         0.27351E-05
         0.20020E-05
         0.81117E-06
         0.15372E-05
         0.16920E-05
         0.13706E-05
         0.17503E-05
         0.32546E-05
         0.25448E-05
         0.32355E-05
         0.18986E-05
         0.21695E-05
         0.20475E-05
         0.22691E-05
         0.17413E-05
         0.10814E-05
         0.20527E-05
         0.17092E-05
         0.17763E-05
         0.18219E-05
         0.15858E-05
         0.19334E-05
         0.24573E-05
         0.17345E-05
         0.27525E-05
         0.23966E-05
         0.10820E-05
         0.16680E-05
         0.18936E-05
         0.20015E-05
         0.19326E-05
         0.15187E-05
         0.95447E-06
         0.15765E-05
         0.20878E-05
         0.16848E-05
         0.14810E-05
         0.97025E-06
         0.16557E-05
         0.22485E-05
         0.23597E-05
         0.19050E-05
         0.11711E-05
         0.20172E-05
         0.74499E-06
         0.94877E-06
         0.88541E-06
         0.10469E-05
         0.10224E-05
         0.99280E-06
         0.10597E-05
         0.11207E-05
         0.10546E-05
         0.82234E-06
         0.66994E-06
         0.86415E-06
         0.11517E-05
         0.12660E-05
         0.12143E-05
         0.10946E-05
         0.99379E-06
         0.80709E-06
         0.67898E-06
         0.88746E-06
         0.11751E-05
         0.12140E-05
         0.98079E-06
         0.79626E-06
         0.97636E-06
         0.11546E-05
         0.24621E-05
         0.19515E-05
         0.20961E-05
         0.36108E-05
         0.19343E-05
         0.24695E-05
         0.13758E-05
         0.16525E-05
         0.27361E-05
         0.20006E-05
         0.81039E-06
         0.15369E-05
         0.16919E-05
         0.13686E-05
         0.17499E-05
         0.32556E-05
         0.25460E-05
         0.32371E-05
         0.18986E-05
         0.21697E-05
         0.20474E-05
         0.22692E-05
         0.17411E-05
         0.10813E-05
         0.20519E-05
         0.17091E-05
         0.17736E-05
         0.18201E-05
         0.15851E-05
         0.19330E-05
         0.24575E-05
         0.17342E-05
         0.27540E-05
         0.23987E-05
         0.10820E-05
         0.16677E-05
         0.18933E-05
         0.20014E-05
         0.19328E-05
         0.15188E-05
         0.95448E-06
         0.15763E-05
         0.20876E-05
         0.16845E-05
         0.14807E-05
         0.97000E-06
         0.16556E-05
         0.22485E-05
         0.23600E-05
         0.19053E-05
         0.11711E-05
         0.20182E-05
         0.74476E-06
         0.94875E-06
         0.88498E-06
         0.10470E-05
         0.10227E-05
         0.99301E-06
         0.10602E-05
         0.11215E-05
         0.10553E-05
         0.82252E-06
         0.66999E-06
         0.86417E-06
         0.11518E-05
         0.12663E-05
         0.12145E-05
         0.10946E-05
         0.99373E-06
         0.80702E-06
         0.67888E-06
         0.88740E-06
         0.11751E-05
         0.12140E-05
         0.98058E-06
         0.79608E-06
         0.97648E-06
         0.11546E-05
         0.24622E-05
         0.19511E-05
         0.20963E-05
         0.36125E-05
         0.19346E-05
         0.24703E-05
         0.13751E-05
         0.16515E-05
         0.27370E-05
         0.19993E-05
         0.80962E-06
         0.15366E-05
         0.16917E-05
         0.13667E-05
         0.17495E-05
         0.32565E-05
         0.25471E-05
         0.32388E-05
         0.18987E-05
         0.21700E-05
         0.20473E-05
         0.22693E-05
         0.17409E-05
         0.10812E-05
         0.20510E-05
         0.17089E-05
         0.17710E-05
         0.18183E-05
         0.15844E-05
         0.19325E-05
         0.24578E-05
         0.17340E-05
         0.27554E-05
         0.24009E-05
         0.10820E-05
         0.16674E-05
         0.18931E-05
         0.20012E-05
         0.19329E-05
         0.15189E-05
         0.95448E-06
         0.15760E-05
         0.20875E-05
         0.16843E-05
         0.14803E-05
         0.96975E-06
         0.16555E-05
         0.22485E-05
         0.23604E-05
         0.19057E-05
         0.11712E-05
         0.20192E-05
         0.74453E-06
         0.94874E-06
         0.88455E-06
         0.10470E-05
         0.10229E-05
         0.99322E-06
         0.10606E-05
         0.11223E-05
         0.10559E-05
         0.82270E-06
         0.67004E-06
         0.86419E-06
         0.11520E-05
         0.12666E-05
         0.12146E-05
         0.10945E-05
         0.99366E-06
         0.80696E-06
         0.67877E-06
         0.88733E-06
         0.11751E-05
         0.12140E-05
         0.98038E-06
         0.79590E-06
         0.97660E-06
         0.11545E-05
         0.24623E-05
         0.19507E-05
         0.20964E-05
         0.36142E-05
         0.19349E-05
         0.24710E-05
         0.13743E-05
         0.16505E-05
         0.27380E-05
         0.19980E-05
         0.80885E-06
         0.15364E-05
         0.16916E-05
         0.13648E-05
         0.17492E-05
         0.32575E-05
         0.25483E-05
         0.32404E-05
         0.18988E-05
         0.21703E-05
         0.20473E-05
         0.22694E-05
         0.17407E-05
         0.10811E-05
         0.20501E-05
         0.17088E-05
         0.17683E-05
         0.18165E-05
         0.15837E-05
         0.19321E-05
         0.24580E-05
         0.17338E-05
         0.27569E-05
         0.24031E-05
         0.10820E-05
         0.16670E-05
         0.18928E-05
         0.20011E-05
         0.19330E-05
         0.15189E-05
         0.95448E-06
         0.15758E-05
         0.20874E-05
         0.16840E-05
         0.14800E-05
         0.96950E-06
         0.16553E-05
         0.22485E-05
         0.23608E-05
         0.19061E-05
         0.11712E-05
         0.20202E-05
         0.74430E-06
         0.94872E-06
         0.88412E-06
         0.10470E-05
         0.10231E-05
         0.99344E-06
         0.10611E-05
         0.11231E-05
         0.10565E-05
         0.82289E-06
         0.67009E-06
         0.86422E-06
         0.11521E-05
         0.12669E-05
         0.12147E-05
         0.10945E-05
         0.99360E-06
         0.80690E-06
         0.67867E-06
         0.88727E-06
         0.11750E-05
         0.12140E-05
         0.98019E-06
         0.79573E-06
         0.97672E-06
         0.11545E-05
         0.24625E-05
         0.19503E-05
         0.20966E-05
         0.36160E-05
         0.19352E-05
         0.24718E-05
         0.13736E-05
         0.16496E-05
         0.27389E-05
         0.19967E-05
         0.80807E-06
         0.15361E-05
         0.16915E-05
         0.13629E-05
         0.17488E-05
         0.32584E-05
         0.25495E-05
         0.32420E-05
         0.18988E-05
         0.21705E-05
         0.20472E-05
         0.22695E-05
         0.17406E-05
         0.10810E-05
         0.20492E-05
         0.17086E-05
         0.17656E-05
         0.18147E-05
         0.15831E-05
         0.19317E-05
         0.24583E-05
         0.17336E-05
         0.27583E-05
         0.24053E-05
         0.10820E-05
         0.16667E-05
         0.18926E-05
         0.20009E-05
         0.19331E-05
         0.15190E-05
         0.95449E-06
         0.15756E-05
         0.20873E-05
         0.16838E-05
         0.14796E-05
         0.96925E-06
         0.16552E-05
         0.22486E-05
         0.23611E-05
         0.19065E-05
         0.11712E-05
         0.20212E-05
         0.74407E-06
         0.94870E-06
         0.88368E-06
         0.10471E-05
         0.10234E-05
         0.99365E-06
         0.10616E-05
         0.11239E-05
         0.10571E-05
         0.82307E-06
         0.67014E-06
         0.86424E-06
         0.11523E-05
         0.12672E-05
         0.12149E-05
         0.10945E-05
         0.99354E-06
         0.80683E-06
         0.67856E-06
         0.88721E-06
         0.11750E-05
         0.12140E-05
         0.97999E-06
         0.79555E-06
         0.97684E-06
         0.11545E-05
         0.24626E-05
         0.19499E-05
         0.20968E-05
         0.36177E-05
         0.19355E-05
         0.24725E-05
         0.13729E-05
         0.16486E-05
         0.27399E-05
         0.19954E-05
         0.80730E-06
         0.15358E-05
         0.16914E-05
         0.13610E-05
         0.17484E-05
         0.32594E-05
         0.25506E-05
         0.32437E-05
         0.18989E-05
         0.21708E-05
         0.20471E-05
         0.22696E-05
         0.17404E-05
         0.10808E-05
         0.20483E-05
         0.17085E-05
         0.17629E-05
         0.18129E-05
         0.15824E-05
         0.19312E-05
         0.24585E-05
         0.17334E-05
         0.27598E-05
         0.24074E-05
         0.10820E-05
         0.16664E-05
         0.18923E-05
         0.20008E-05
         0.19333E-05
         0.15191E-05
         0.95449E-06
         0.15754E-05
         0.20872E-05
         0.16835E-05
         0.14793E-05
         0.96901E-06
         0.16550E-05
         0.22486E-05
         0.23615E-05
         0.19069E-05
         0.11713E-05
         0.20222E-05
         0.74384E-06
         0.94869E-06
         0.88325E-06
         0.10471E-05
         0.10236E-05
         0.99386E-06
         0.10620E-05
         0.11247E-05
         0.10577E-05
         0.82326E-06
         0.67020E-06
         0.86426E-06
         0.11524E-05
         0.12674E-05
         0.12150E-05
         0.10944E-05
         0.99348E-06
         0.80677E-06
         0.67846E-06
         0.88714E-06
         0.11750E-05
         0.12140E-05
         0.97979E-06
         0.79538E-06
         0.97696E-06
         0.11544E-05
         0.24628E-05
         0.19495E-05
         0.20970E-05
         0.36194E-05
         0.19358E-05
         0.24733E-05
         0.13722E-05
         0.16476E-05
         0.27409E-05
         0.19941E-05
         0.80652E-06
         0.15355E-05
         0.16913E-05
         0.13591E-05
         0.17481E-05
         0.32604E-05
         0.25518E-05
         0.32453E-05
         0.18990E-05
         0.21711E-05
         0.20470E-05
         0.22697E-05
         0.17402E-05
         0.10807E-05
         0.20474E-05
         0.17084E-05
         0.17603E-05
         0.18111E-05
         0.15817E-05
         0.19308E-05
         0.24588E-05
         0.17332E-05
         0.27613E-05
         0.24096E-05
         0.10819E-05
         0.16661E-05
         0.18921E-05
         0.20006E-05
         0.19334E-05
         0.15192E-05
         0.95450E-06
         0.15752E-05
         0.20871E-05
         0.16833E-05
         0.14789E-05
         0.96876E-06
         0.16549E-05
         0.22486E-05
         0.23619E-05
         0.19073E-05
         0.11713E-05
         0.20232E-05
         0.74362E-06
         0.94868E-06
         0.88282E-06
         0.10472E-05
         0.10238E-05
         0.99408E-06
         0.10625E-05
         0.11255E-05
         0.10584E-05
         0.82345E-06
         0.67025E-06
         0.86428E-06
         0.11526E-05
         0.12677E-05
         0.12152E-05
         0.10944E-05
         0.99342E-06
         0.80671E-06
         0.67836E-06
         0.88709E-06
         0.11750E-05
         0.12140E-05
         0.97959E-06
         0.79521E-06
         0.97708E-06
         0.11544E-05
         0.24629E-05
         0.19491E-05
         0.20972E-05
         0.36212E-05
         0.19361E-05
         0.24741E-05
         0.13715E-05
         0.16466E-05
         0.27418E-05
         0.19928E-05
         0.80575E-06
         0.15353E-05
         0.16912E-05
         0.13572E-05
         0.17477E-05
         0.32613E-05
         0.25529E-05
         0.32469E-05
         0.18990E-05
         0.21714E-05
         0.20469E-05
         0.22698E-05
         0.17400E-05
         0.10806E-05
         0.20466E-05
         0.17082E-05
         0.17576E-05
         0.18093E-05
         0.15810E-05
         0.19303E-05
         0.24590E-05
         0.17330E-05
         0.27627E-05
         0.24118E-05
         0.10819E-05
         0.16658E-05
         0.18919E-05
         0.20005E-05
         0.19335E-05
         0.15192E-05
         0.95450E-06
         0.15750E-05
         0.20870E-05
         0.16831E-05
         0.14786E-05
         0.96851E-06
         0.16548E-05
         0.22487E-05
         0.23622E-05
         0.19077E-05
         0.11713E-05
         0.20242E-05
         0.74339E-06
         0.94866E-06
         0.88239E-06
         0.10472E-05
         0.10241E-05
         0.99429E-06
         0.10630E-05
         0.11263E-05
         0.10590E-05
         0.82363E-06
         0.67030E-06
         0.86430E-06
         0.11527E-05
         0.12680E-05
         0.12153E-05
         0.10944E-05
         0.99335E-06
         0.80665E-06
         0.67825E-06
         0.88702E-06
         0.11749E-05
         0.12140E-05
         0.97939E-06
         0.79503E-06
         0.97720E-06
         0.11544E-05
         0.24631E-05
         0.19487E-05
         0.20973E-05
         0.36229E-05
         0.19364E-05
         0.24748E-05
         0.13707E-05
         0.16456E-05
         0.27428E-05
         0.19915E-05
         0.80498E-06
         0.15350E-05
         0.16911E-05
         0.13553E-05
         0.17473E-05
         0.32623E-05
         0.25541E-05
         0.32486E-05
         0.18991E-05
         0.21716E-05
         0.20468E-05
         0.22699E-05
         0.17399E-05
         0.10805E-05
         0.20457E-05
         0.17081E-05
         0.17549E-05
         0.18075E-05
         0.15804E-05
         0.19299E-05
         0.24592E-05
         0.17328E-05
         0.27642E-05
         0.24140E-05
         0.10819E-05
         0.16654E-05
         0.18916E-05
         0.20003E-05
         0.19337E-05
         0.15193E-05
         0.95450E-06
         0.15748E-05
         0.20869E-05
         0.16828E-05
         0.14782E-05
         0.96826E-06
         0.16546E-05
         0.22487E-05
         0.23626E-05
         0.19081E-05
         0.11714E-05
         0.20253E-05
         0.74316E-06
         0.94864E-06
         0.88196E-06
         0.10472E-05
         0.10243E-05
         0.99450E-06
         0.10634E-05
         0.11271E-05
         0.10596E-05
         0.82381E-06
         0.67036E-06
         0.86432E-06
         0.11529E-05
         0.12683E-05
         0.12154E-05
         0.10943E-05
         0.99329E-06
         0.80658E-06
         0.67815E-06
         0.88696E-06
         0.11749E-05
         0.12140E-05
         0.97919E-06
         0.79485E-06
         0.97732E-06
         0.11544E-05
         0.24632E-05
         0.19483E-05
         0.20975E-05
         0.36246E-05
         0.19368E-05
         0.24756E-05
         0.13700E-05
         0.16447E-05
         0.27437E-05
         0.19902E-05
         0.80421E-06
         0.15347E-05
         0.16910E-05
         0.13534E-05
         0.17470E-05
         0.32632E-05
         0.25552E-05
         0.32502E-05
         0.18992E-05
         0.21719E-05
         0.20467E-05
         0.22700E-05
         0.17397E-05
         0.10804E-05
         0.20448E-05
         0.17079E-05
         0.17523E-05
         0.18057E-05
         0.15797E-05
         0.19295E-05
         0.24595E-05
         0.17326E-05
         0.27656E-05
         0.24161E-05
         0.10819E-05
         0.16651E-05
         0.18914E-05
         0.20002E-05
         0.19338E-05
         0.15194E-05
         0.95451E-06
         0.15745E-05
         0.20868E-05
         0.16826E-05
         0.14779E-05
         0.96801E-06
         0.16545E-05
         0.22487E-05
         0.23630E-05
         0.19085E-05
         0.11714E-05
         0.20263E-05
         0.74293E-06
         0.94863E-06
         0.88153E-06
         0.10473E-05
         0.10245E-05
         0.99472E-06
         0.10639E-05
         0.11279E-05
         0.10602E-05
         0.82400E-06
         0.67041E-06
         0.86435E-06
         0.11530E-05
         0.12686E-05
         0.12156E-05
         0.10943E-05
         0.99323E-06
         0.80652E-06
         0.67804E-06
         0.88690E-06
         0.11749E-05
         0.12140E-05
         0.97900E-06
         0.79468E-06
         0.97744E-06
         0.11543E-05
         0.24633E-05
         0.19479E-05
         0.20977E-05
         0.36264E-05
         0.19371E-05
         0.24763E-05
         0.13693E-05
         0.16437E-05
         0.27447E-05
         0.19888E-05
         0.80343E-06
         0.15345E-05
         0.16908E-05
         0.13515E-05
         0.17466E-05
         0.32642E-05
         0.25564E-05
         0.32518E-05
         0.18992E-05
         0.21722E-05
         0.20466E-05
         0.22701E-05
         0.17395E-05
         0.10803E-05
         0.20439E-05
         0.17078E-05
         0.17496E-05
         0.18039E-05
         0.15790E-05
         0.19290E-05
         0.24597E-05
         0.17323E-05
         0.27671E-05
         0.24183E-05
         0.10819E-05
         0.16648E-05
         0.18911E-05
         0.20001E-05
         0.19339E-05
         0.15195E-05
         0.95452E-06
         0.15743E-05
         0.20867E-05
         0.16823E-05
         0.14775E-05
         0.96776E-06
         0.16543E-05
         0.22487E-05
         0.23633E-05
         0.19089E-05
         0.11714E-05
         0.20273E-05
         0.74270E-06
         0.94861E-06
         0.88109E-06
         0.10473E-05
         0.10248E-05
         0.99493E-06
         0.10643E-05
         0.11287E-05
         0.10609E-05
         0.82418E-06
         0.67046E-06
         0.86437E-06
         0.11532E-05
         0.12689E-05
         0.12157E-05
         0.10943E-05
         0.99316E-06
         0.80646E-06
         0.67794E-06
         0.88683E-06
         0.11749E-05
         0.12140E-05
         0.97879E-06
         0.79450E-06
         0.97755E-06
         0.11543E-05
         0.24635E-05
         0.19475E-05
         0.20979E-05
         0.36281E-05
         0.19374E-05
         0.24771E-05
         0.13686E-05
         0.16427E-05
         0.27456E-05
         0.19875E-05
         0.80266E-06
         0.15342E-05
         0.16907E-05
         0.13496E-05
         0.17463E-05
         0.32651E-05
         0.25575E-05
         0.32534E-05
         0.18993E-05
         0.21724E-05
         0.20466E-05
         0.22702E-05
         0.17393E-05
         0.10802E-05
         0.20430E-05
         0.17076E-05
         0.17469E-05
         0.18021E-05
         0.15784E-05
         0.19286E-05
         0.24600E-05
         0.17321E-05
         0.27685E-05
         0.24205E-05
         0.10819E-05
         0.16645E-05
         0.18909E-05
         0.19999E-05
         0.19341E-05
         0.15195E-05
         0.95452E-06
         0.15741E-05
         0.20866E-05
         0.16821E-05
         0.14772E-05
         0.96751E-06
         0.16542E-05
         0.22488E-05
         0.23637E-05
         0.19092E-05
         0.11715E-05
         0.20283E-05
         0.74247E-06
         0.94860E-06
         0.88066E-06
         0.10473E-05
         0.10250E-05
         0.99514E-06
         0.10648E-05
         0.11295E-05
         0.10615E-05
         0.82437E-06
         0.67052E-06
         0.86439E-06
         0.11533E-05
         0.12691E-05
         0.12159E-05
         0.10942E-05
         0.99310E-06
         0.80639E-06
         0.67783E-06
         0.88676E-06
         0.11748E-05
         0.12140E-05
         0.97859E-06
         0.79433E-06
         0.97767E-06
         0.11543E-05
         0.24636E-05
         0.19471E-05
         0.20980E-05
         0.36298E-05
         0.19377E-05
         0.24779E-05
         0.13679E-05
         0.16417E-05
         0.27466E-05
         0.19862E-05
         0.80189E-06
         0.15339E-05
         0.16906E-05
         0.13477E-05
         0.17459E-05
         0.32661E-05
         0.25587E-05
         0.32551E-05
         0.18994E-05
         0.21727E-05
         0.20465E-05
         0.22703E-05
         0.17392E-05
         0.10800E-05
         0.20421E-05
         0.17075E-05
         0.17443E-05
         0.18003E-05
         0.15777E-05
         0.19281E-05
         0.24602E-05
         0.17319E-05
         0.27700E-05
         0.24227E-05
         0.10819E-05
         0.16642E-05
         0.18906E-05
         0.19998E-05
         0.19342E-05
         0.15196E-05
         0.95453E-06
         0.15739E-05
         0.20865E-05
         0.16819E-05
         0.14768E-05
         0.96727E-06
         0.16541E-05
         0.22488E-05
         0.23640E-05
         0.19096E-05
         0.11715E-05
         0.20293E-05
         0.74225E-06
         0.94859E-06
         0.88023E-06
         0.10474E-05
         0.10253E-05
         0.99535E-06
         0.10653E-05
         0.11303E-05
         0.10621E-05
         0.82456E-06
         0.67057E-06
         0.86441E-06
         0.11535E-05
         0.12694E-05
         0.12160E-05
         0.10942E-05
         0.99304E-06
         0.80633E-06
         0.67773E-06
         0.88671E-06
         0.11748E-05
         0.12140E-05
         0.97840E-06
         0.79415E-06
         0.97780E-06
         0.11542E-05
         0.24637E-05
         0.19466E-05
         0.20982E-05
         0.36315E-05
         0.19380E-05
         0.24786E-05
         0.13671E-05
         0.16407E-05
         0.27475E-05
         0.19849E-05
         0.80110E-06
         0.15336E-05
         0.16905E-05
         0.13457E-05
         0.17455E-05
         0.32669E-05
         0.25598E-05
         0.32567E-05
         0.18994E-05
         0.21729E-05
         0.20464E-05
         0.22703E-05
         0.17390E-05
         0.10799E-05
         0.20412E-05
         0.17073E-05
         0.17416E-05
         0.17985E-05
         0.15770E-05
         0.19277E-05
         0.24604E-05
         0.17317E-05
         0.27714E-05
         0.24248E-05
         0.10819E-05
         0.16638E-05
         0.18903E-05
         0.19996E-05
         0.19343E-05
         0.15196E-05
         0.95451E-06
         0.15737E-05
         0.20864E-05
         0.16816E-05
         0.14765E-05
         0.96700E-06
         0.16539E-05
         0.22488E-05
         0.23644E-05
         0.19100E-05
         0.11715E-05
         0.20303E-05
         0.74200E-06
         0.94855E-06
         0.87978E-06
         0.10474E-05
         0.10255E-05
         0.99555E-06
         0.10657E-05
         0.11311E-05
         0.10627E-05
         0.82472E-06
         0.67061E-06
         0.86442E-06
         0.11536E-05
         0.12697E-05
         0.12161E-05
         0.10941E-05
         0.99295E-06
         0.80625E-06
         0.67761E-06
         0.88662E-06
         0.11748E-05
         0.12140E-05
         0.97818E-06
         0.79396E-06
         0.97790E-06
         0.11542E-05
         0.24639E-05
         0.19463E-05
         0.20984E-05
         0.36333E-05
         0.19383E-05
         0.24794E-05
         0.13664E-05
         0.16398E-05
         0.27485E-05
         0.19836E-05
         0.80034E-06
         0.15334E-05
         0.16904E-05
         0.13439E-05
         0.17452E-05
         0.32679E-05
         0.25610E-05
         0.32583E-05
         0.18995E-05
         0.21732E-05
         0.20463E-05
         0.22704E-05
         0.17388E-05
         0.10798E-05
         0.20404E-05
         0.17072E-05
         0.17389E-05
         0.17967E-05
         0.15763E-05
         0.19272E-05
         0.24607E-05
         0.17315E-05
         0.27729E-05
         0.24270E-05
         0.10819E-05
         0.16635E-05
         0.18901E-05
         0.19995E-05
         0.19345E-05
         0.15197E-05
         0.95453E-06
         0.15735E-05
         0.20863E-05
         0.16814E-05
         0.14761E-05
         0.96677E-06
         0.16538E-05
         0.22488E-05
         0.23647E-05
         0.19104E-05
         0.11716E-05
         0.20313E-05
         0.74179E-06
         0.94855E-06
         0.87936E-06
         0.10475E-05
         0.10257E-05
         0.99577E-06
         0.10662E-05
         0.11319E-05
         0.10633E-05
         0.82492E-06
         0.67068E-06
         0.86446E-06
         0.11538E-05
         0.12700E-05
         0.12163E-05
         0.10941E-05
         0.99291E-06
         0.80620E-06
         0.67752E-06
         0.88657E-06
         0.11748E-05
         0.12140E-05
         0.97800E-06
         0.79380E-06
         0.97803E-06
         0.11542E-05
         0.12320E-05
         0.97306E-06
         0.10493E-05
         0.18171E-05
         0.96926E-06
         0.12399E-05
         0.68306E-06
         0.81967E-06
         0.13745E-05
         0.99152E-06
         0.39999E-06
         0.76665E-06
         0.84519E-06
         0.67148E-06
         0.87252E-06
         0.16343E-05
         0.12808E-05
         0.16296E-05
         0.94981E-06
         0.10867E-05
         0.10232E-05
         0.11353E-05
         0.86940E-06
         0.53990E-06
         0.10200E-05
         0.85360E-06
         0.86884E-06
         0.89793E-06
         0.78802E-06
         0.96354E-06
         0.12305E-05
         0.86572E-06
         0.13869E-05
         0.12141E-05
         0.54095E-06
         0.83170E-06
         0.94503E-06
         0.99975E-06
         0.96729E-06
         0.75992E-06
         0.47728E-06
         0.78670E-06
         0.10432E-05
         0.84065E-06
         0.73800E-06
         0.48334E-06
         0.82688E-06
         0.11245E-05
         0.11825E-05
         0.95534E-06
         0.58581E-06
         0.10159E-05
         0.37085E-06
         0.47429E-06
         0.43959E-06
         0.52375E-06
         0.51294E-06
         0.49796E-06
         0.53322E-06
         0.56619E-06
         0.53185E-06
         0.41252E-06
         0.33536E-06
         0.43225E-06
         0.57696E-06
         0.63509E-06
         0.60820E-06
         0.54708E-06
         0.49646E-06
         0.40310E-06
         0.33875E-06
         0.44329E-06
         0.58740E-06
         0.60700E-06
         0.48897E-06
         0.39687E-06
         0.48906E-06
         0.57710E-06
  
SCALARS                 Poissons_ratio  double 1
LOOKUP_TABLE default
         0.30000E+00
         0.30000E+00
         0.30000E+00
         0.30000E+00
         0.30000E+00
         0.30000E+00
         0.30000E+00
         0.30000E+00
         0.30000E+00
         0.30000E+00
         0.30000E+00
         0.30000E+00
         0.30000E+00
         0.30000E+00
         0.30000E+00
         0.30000E+00
         0.30000E+00
         0.30000E+00
         0.30000E+00
         0.30000E+00
         0.30000E+00
         0.30000E+00
         0.30000E+00
         0.30000E+00
         0.30000E+00
         0.30000E+00
         0.30000E+00
         0.30000E+00
         0.30000E+00
         0.30000E+00
         0.30000E+00
         0.30000E+00
         0.30000E+00
         0.30000E+00
         0.30000E+00
         0.30000E+00
         0.30000E+00
         0.30000E+00
         0.30000E+00
         0.30000E+00
         0.30000E+00
         0.30000E+00
         0.30000E+00
         0.30000E+00
         0.30000E+00
         0.30000E+00
         0.30000E+00
         0.30000E+00
         0.30000E+00
         0.30000E+00
         0.30000E+00
         0.30000E+00
         0.30000E+00
         0.30000E+00
         0.30000E+00
         0.30000E+00
         0.30000E+00
         0.30000E+00
         0.30000E+00
         0.30000E+00
         0.30000E+00
         0.30000E+00
         0.30000E+00
         0.30000E+00
         0.30000E+00
         0.30000E+00
         0.30000E+00
         0.30000E+00
         0.30000E+00
         0.30000E+00
         0.30000E+00
         0.30000E+00
         0.30000E+00
         0.30000E+00
         0.30000E+00
         0.30000E+00
         0.30000E+00
         0.30000E+00
         0.30000E+00
         0.30000E+00
         0.30000E+00
         0.30000E+00
         0.30000E+00
         0.30000E+00
         0.30000E+00
         0.30000E+00
         0.30000E+00
         0.30000E+00
         0.30000E+00
         0.30000E+00
         0.30000E+00
         0.30000E+00
         0.30000E+00
         0.30000E+00
         0.30000E+00
         0.30000E+00
         0.30000E+00
         0.30000E+00
         0.30000E+00
         0.30000E+00
         0.30000E+00
         0.30000E+00
         0.30000E+00
         0.30000E+00
         0.30000E+00
         0.30000E+00
         0.30000E+00
         0.30000E+00
         0.30000E+00
         0.30000E+00
         0.30000E+00
         0.30000E+00
         0.30000E+00
         0.30000E+00
         0.30000E+00
         0.30000E+00
         0.30000E+00
         0.30000E+00
         0.30000E+00
         0.30000E+00
         0.30000E+00
         0.30000E+00
         0.30000E+00
         0.30000E+00
         0.30000E+00
         0.30000E+00
         0.30000E+00
         0.30000E+00
         0.30000E+00
         0.30000E+00
         0.30000E+00
         0.30000E+00
         0.30000E+00
         0.30000E+00
         0.30000E+00
         0.30000E+00
         0.30000E+00
         0.30000E+00
         0.30000E+00
         0.30000E+00
         0.30000E+00
         0.30000E+00
         0.30000E+00
         0.30000E+00
         0.30000E+00
         0.30000E+00
         0.30000E+00
         0.30000E+00
         0.30000E+00
         0.30000E+00
         0.30000E+00
         0.30000E+00
         0.30000E+00
         0.30000E+00
         0.30000E+00
         0.30000E+00
         0.30000E+00
         0.30000E+00
         0.30000E+00
         0.30000E+00
         0.30000E+00
         0.30000E+00
         0.30000E+00
         0.30000E+00
         0.30000E+00
         0.30000E+00
         0.30000E+00
         0.30000E+00
         0.30000E+00
         0.30000E+00
         0.30000E+00
         0.30000E+00
         0.30000E+00
         0.30000E+00
         0.30000E+00
         0.30000E+00
         0.30000E+00
         0.30000E+00
         0.30000E+00
         0.30000E+00
         0.30000E+00
         0.30000E+00
         0.30000E+00
         0.30000E+00
         0.30000E+00
         0.30000E+00
         0.30000E+00
         0.30000E+00
         0.30000E+00
         0.30000E+00
         0.30000E+00
         0.30000E+00
         0.30000E+00
         0.30000E+00
         0.30000E+00
         0.30000E+00
         0.30000E+00
         0.30000E+00
         0.30000E+00
         0.30000E+00
         0.30000E+00
         0.30000E+00
         0.30000E+00
         0.30000E+00
         0.30000E+00
         0.30000E+00
         0.30000E+00
         0.30000E+00
         0.30000E+00
         0.30000E+00
         0.30000E+00
         0.30000E+00
         0.30000E+00
         0.30000E+00
         0.30000E+00
         0.30000E+00
         0.30000E+00
         0.30000E+00
         0.30000E+00
         0.30000E+00
         0.30000E+00
         0.30000E+00
         0.30000E+00
         0.30000E+00
         0.30000E+00
         0.30000E+00
         0.30000E+00
         0.30000E+00
         0.30000E+00
         0.30000E+00
         0.30000E+00
         0.30000E+00
         0.30000E+00
         0.30000E+00
         0.30000E+00
         0.30000E+00
         0.30000E+00
         0.30000E+00
         0.30000E+00
         0.30000E+00
         0.30000E+00
         0.30000E+00
         0.30000E+00
         0.30000E+00
         0.30000E+00
         0.30000E+00
         0.30000E+00
         0.30000E+00
         0.30000E+00
         0.30000E+00
         0.30000E+00
         0.30000E+00
         0.30000E+00
         0.30000E+00
         0.30000E+00
         0.30000E+00
         0.30000E+00
         0.30000E+00
         0.30000E+00
         0.30000E+00
         0.30000E+00
         0.30000E+00
         0.30000E+00
         0.30000E+00
         0.30000E+00
         0.30000E+00
         0.30000E+00
         0.30000E+00
         0.30000E+00
         0.30000E+00
         0.30000E+00
         0.30000E+00
         0.30000E+00
         0.30000E+00
         0.30000E+00
         0.30000E+00
         0.30000E+00
         0.30000E+00
         0.30000E+00
         0.30000E+00
         0.30000E+00
         0.30000E+00
         0.30000E+00
         0.30000E+00
         0.30000E+00
         0.30000E+00
         0.30000E+00
         0.30000E+00
         0.30000E+00
         0.30000E+00
         0.30000E+00
         0.30000E+00
         0.30000E+00
         0.30000E+00
         0.30000E+00
         0.30000E+00
         0.30000E+00
         0.30000E+00
         0.30000E+00
         0.30000E+00
         0.30000E+00
         0.30000E+00
         0.30000E+00
         0.30000E+00
         0.30000E+00
         0.30000E+00
         0.30000E+00
         0.30000E+00
         0.30000E+00
         0.30000E+00
         0.30000E+00
         0.30000E+00
         0.30000E+00
         0.30000E+00
         0.30000E+00
         0.30000E+00
         0.30000E+00
         0.30000E+00
         0.30000E+00
         0.30000E+00
         0.30000E+00
         0.30000E+00
         0.30000E+00
         0.30000E+00
         0.30000E+00
         0.30000E+00
         0.30000E+00
         0.30000E+00
         0.30000E+00
         0.30000E+00
         0.30000E+00
         0.30000E+00
         0.30000E+00
         0.30000E+00
         0.30000E+00
         0.30000E+00
         0.30000E+00
         0.30000E+00
         0.30000E+00
         0.30000E+00
         0.30000E+00
         0.30000E+00
         0.30000E+00
         0.30000E+00
         0.30000E+00
         0.30000E+00
         0.30000E+00
         0.30000E+00
         0.30000E+00
         0.30000E+00
         0.30000E+00
         0.30000E+00
         0.30000E+00
         0.30000E+00
         0.30000E+00
         0.30000E+00
         0.30000E+00
         0.30000E+00
         0.30000E+00
         0.30000E+00
         0.30000E+00
         0.30000E+00
         0.30000E+00
         0.30000E+00
         0.30000E+00
         0.30000E+00
         0.30000E+00
         0.30000E+00
         0.30000E+00
         0.30000E+00
         0.30000E+00
         0.30000E+00
         0.30000E+00
         0.30000E+00
         0.30000E+00
         0.30000E+00
         0.30000E+00
         0.30000E+00
         0.30000E+00
         0.30000E+00
         0.30000E+00
         0.30000E+00
         0.30000E+00
         0.30000E+00
         0.30000E+00
         0.30000E+00
         0.30000E+00
         0.30000E+00
         0.30000E+00
         0.30000E+00
         0.30000E+00
         0.30000E+00
         0.30000E+00
         0.30000E+00
         0.30000E+00
         0.30000E+00
         0.30000E+00
         0.30000E+00
         0.30000E+00
         0.30000E+00
         0.30000E+00
         0.30000E+00
         0.30000E+00
         0.30000E+00
         0.30000E+00
         0.30000E+00
         0.30000E+00
         0.30000E+00
         0.30000E+00
         0.30000E+00
         0.30000E+00
         0.30000E+00
         0.30000E+00
         0.30000E+00
         0.30000E+00
         0.30000E+00
         0.30000E+00
         0.30000E+00
         0.30000E+00
         0.30000E+00
         0.30000E+00
         0.30000E+00
         0.30000E+00
         0.30000E+00
         0.30000E+00
         0.30000E+00
         0.30000E+00
         0.30000E+00
         0.30000E+00
         0.30000E+00
         0.30000E+00
         0.30000E+00
         0.30000E+00
         0.30000E+00
         0.30000E+00
         0.30000E+00
         0.30000E+00
         0.30000E+00
         0.30000E+00
         0.30000E+00
         0.30000E+00
         0.30000E+00
         0.30000E+00
         0.30000E+00
         0.30000E+00
         0.30000E+00
         0.30000E+00
         0.30000E+00
         0.30000E+00
         0.30000E+00
         0.30000E+00
         0.30000E+00
         0.30000E+00
         0.30000E+00
         0.30000E+00
         0.30000E+00
         0.30000E+00
         0.30000E+00
         0.30000E+00
         0.30000E+00
         0.30000E+00
         0.30000E+00
         0.30000E+00
         0.30000E+00
         0.30000E+00
         0.30000E+00
         0.30000E+00
         0.30000E+00
         0.30000E+00
         0.30000E+00
         0.30000E+00
         0.30000E+00
         0.30000E+00
         0.30000E+00
         0.30000E+00
         0.30000E+00
         0.30000E+00
         0.30000E+00
         0.30000E+00
         0.30000E+00
         0.30000E+00
         0.30000E+00
         0.30000E+00
         0.30000E+00
         0.30000E+00
         0.30000E+00
         0.30000E+00
         0.30000E+00
         0.30000E+00
         0.30000E+00
         0.30000E+00
         0.30000E+00
         0.30000E+00
         0.30000E+00
         0.30000E+00
         0.30000E+00
         0.30000E+00
         0.30000E+00
         0.30000E+00
         0.30000E+00
         0.30000E+00
         0.30000E+00
         0.30000E+00
         0.30000E+00
         0.30000E+00
         0.30000E+00
         0.30000E+00
         0.30000E+00
         0.30000E+00
         0.30000E+00
         0.30000E+00
         0.30000E+00
         0.30000E+00
         0.30000E+00
         0.30000E+00
         0.30000E+00
         0.30000E+00
         0.30000E+00
         0.30000E+00
         0.30000E+00
         0.30000E+00
         0.30000E+00
         0.30000E+00
         0.30000E+00
         0.30000E+00
         0.30000E+00
         0.30000E+00
         0.30000E+00
         0.30000E+00
         0.30000E+00
         0.30000E+00
         0.30000E+00
         0.30000E+00
         0.30000E+00
         0.30000E+00
         0.30000E+00
         0.30000E+00
         0.30000E+00
         0.30000E+00
         0.30000E+00
         0.30000E+00
         0.30000E+00
         0.30000E+00
         0.30000E+00
         0.30000E+00
         0.30000E+00
         0.30000E+00
         0.30000E+00
         0.30000E+00
         0.30000E+00
         0.30000E+00
         0.30000E+00
         0.30000E+00
         0.30000E+00
         0.30000E+00
         0.30000E+00
         0.30000E+00
         0.30000E+00
         0.30000E+00
         0.30000E+00
         0.30000E+00
         0.30000E+00
         0.30000E+00
         0.30000E+00
         0.30000E+00
         0.30000E+00
         0.30000E+00
         0.30000E+00
         0.30000E+00
         0.30000E+00
         0.30000E+00
         0.30000E+00
         0.30000E+00
         0.30000E+00
         0.30000E+00
         0.30000E+00
         0.30000E+00
         0.30000E+00
         0.30000E+00
         0.30000E+00
         0.30000E+00
         0.30000E+00
         0.30000E+00
         0.30000E+00
         0.30000E+00
         0.30000E+00
         0.30000E+00
         0.30000E+00
         0.30000E+00
         0.30000E+00
         0.30000E+00
         0.30000E+00
         0.30000E+00
         0.30000E+00
         0.30000E+00
         0.30000E+00
         0.30000E+00
         0.30000E+00
         0.30000E+00
         0.30000E+00
         0.30000E+00
         0.30000E+00
         0.30000E+00
         0.30000E+00
         0.30000E+00
         0.30000E+00
         0.30000E+00
         0.30000E+00
         0.30000E+00
         0.30000E+00
         0.30000E+00
         0.30000E+00
         0.30000E+00
         0.30000E+00
         0.30000E+00
         0.30000E+00
         0.30000E+00
         0.30000E+00
         0.30000E+00
         0.30000E+00
         0.30000E+00
         0.30000E+00
         0.30000E+00
         0.30000E+00
         0.30000E+00
         0.30000E+00
         0.30000E+00
         0.30000E+00
         0.30000E+00
         0.30000E+00
         0.30000E+00
         0.30000E+00
         0.30000E+00
         0.30000E+00
         0.30000E+00
         0.30000E+00
         0.30000E+00
         0.30000E+00
         0.30000E+00
         0.30000E+00
         0.30000E+00
         0.30000E+00
         0.30000E+00
         0.30000E+00
         0.30000E+00
         0.30000E+00
         0.30000E+00
         0.30000E+00
         0.30000E+00
         0.30000E+00
         0.30000E+00
         0.30000E+00
         0.30000E+00
         0.30000E+00
         0.30000E+00
         0.30000E+00
         0.30000E+00
         0.30000E+00
         0.30000E+00
         0.30000E+00
         0.30000E+00
         0.30000E+00
         0.30000E+00
         0.30000E+00
         0.30000E+00
         0.30000E+00
         0.30000E+00
         0.30000E+00
         0.30000E+00
         0.30000E+00
         0.30000E+00
         0.30000E+00
         0.30000E+00
         0.30000E+00
         0.30000E+00
         0.30000E+00
         0.30000E+00
         0.30000E+00
         0.30000E+00
         0.30000E+00
         0.30000E+00
         0.30000E+00
         0.30000E+00
         0.30000E+00
         0.30000E+00
         0.30000E+00
         0.30000E+00
         0.30000E+00
         0.30000E+00
         0.30000E+00
         0.30000E+00
         0.30000E+00
         0.30000E+00
         0.30000E+00
         0.30000E+00
         0.30000E+00
         0.30000E+00
         0.30000E+00
         0.30000E+00
         0.30000E+00
         0.30000E+00
         0.30000E+00
         0.30000E+00
         0.30000E+00
         0.30000E+00
         0.30000E+00
         0.30000E+00
         0.30000E+00
         0.30000E+00
         0.30000E+00
         0.30000E+00
         0.30000E+00
         0.30000E+00
         0.30000E+00
         0.30000E+00
         0.30000E+00
         0.30000E+00
         0.30000E+00
         0.30000E+00
         0.30000E+00
         0.30000E+00
         0.30000E+00
         0.30000E+00
         0.30000E+00
         0.30000E+00
         0.30000E+00
         0.30000E+00
         0.30000E+00
         0.30000E+00
         0.30000E+00
         0.30000E+00
         0.30000E+00
         0.30000E+00
         0.30000E+00
         0.30000E+00
         0.30000E+00
         0.30000E+00
         0.30000E+00
         0.30000E+00
         0.30000E+00
         0.30000E+00
         0.30000E+00
         0.30000E+00
         0.30000E+00
         0.30000E+00
         0.30000E+00
         0.30000E+00
         0.30000E+00
         0.30000E+00
         0.30000E+00
         0.30000E+00
         0.30000E+00
         0.30000E+00
         0.30000E+00
         0.30000E+00
         0.30000E+00
         0.30000E+00
         0.30000E+00
         0.30000E+00
         0.30000E+00
         0.30000E+00
         0.30000E+00
         0.30000E+00
         0.30000E+00
         0.30000E+00
         0.30000E+00
         0.30000E+00
         0.30000E+00
         0.30000E+00
         0.30000E+00
         0.30000E+00
         0.30000E+00
         0.30000E+00
         0.30000E+00
         0.30000E+00
         0.30000E+00
         0.30000E+00
         0.30000E+00
         0.30000E+00
         0.30000E+00
         0.30000E+00
         0.30000E+00
         0.30000E+00
         0.30000E+00
         0.30000E+00
         0.30000E+00
         0.30000E+00
         0.30000E+00
         0.30000E+00
         0.30000E+00
         0.30000E+00
         0.30000E+00
         0.30000E+00
         0.30000E+00
         0.30000E+00
         0.30000E+00
         0.30000E+00
         0.30000E+00
         0.30000E+00
         0.30000E+00
         0.30000E+00
         0.30000E+00
         0.30000E+00
         0.30000E+00
         0.30000E+00
         0.30000E+00
         0.30000E+00
         0.30000E+00
         0.30000E+00
         0.30000E+00
         0.30000E+00
         0.30000E+00
         0.30000E+00
         0.30000E+00
         0.30000E+00
         0.30000E+00
         0.30000E+00
         0.30000E+00
         0.30000E+00
         0.30000E+00
         0.30000E+00
         0.30000E+00
         0.30000E+00
         0.30000E+00
         0.30000E+00
         0.30000E+00
         0.30000E+00
         0.30000E+00
         0.30000E+00
         0.30000E+00
         0.30000E+00
         0.30000E+00
         0.30000E+00
         0.30000E+00
         0.30000E+00
         0.30000E+00
         0.30000E+00
         0.30000E+00
         0.30000E+00
         0.30000E+00
         0.30000E+00
         0.30000E+00
         0.30000E+00
         0.30000E+00
         0.30000E+00
         0.30000E+00
         0.30000E+00
         0.30000E+00
         0.30000E+00
         0.30000E+00
         0.30000E+00
         0.30000E+00
         0.30000E+00
         0.30000E+00
         0.30000E+00
         0.30000E+00
         0.30000E+00
         0.30000E+00
         0.30000E+00
         0.30000E+00
         0.30000E+00
         0.30000E+00
         0.30000E+00
         0.30000E+00
         0.30000E+00
         0.30000E+00
         0.30000E+00
         0.30000E+00
         0.30000E+00
         0.30000E+00
         0.30000E+00
         0.30000E+00
         0.30000E+00
         0.30000E+00
         0.30000E+00
         0.30000E+00
         0.30000E+00
         0.30000E+00
         0.30000E+00
         0.30000E+00
         0.30000E+00
         0.30000E+00
         0.30000E+00
         0.30000E+00
         0.30000E+00
         0.30000E+00
         0.30000E+00
         0.30000E+00
         0.30000E+00
         0.30000E+00
         0.30000E+00
         0.30000E+00
         0.30000E+00
         0.30000E+00
         0.30000E+00
         0.30000E+00
         0.30000E+00
         0.30000E+00
         0.30000E+00
         0.30000E+00
         0.30000E+00
         0.30000E+00
         0.30000E+00
         0.30000E+00
         0.30000E+00
         0.30000E+00
         0.30000E+00
         0.30000E+00
         0.30000E+00
         0.30000E+00
         0.30000E+00
         0.30000E+00
         0.30000E+00
         0.30000E+00
         0.30000E+00
         0.30000E+00
         0.30000E+00
         0.30000E+00
         0.30000E+00
         0.30000E+00
         0.30000E+00
         0.30000E+00
         0.30000E+00
         0.30000E+00
         0.30000E+00
         0.30000E+00
         0.30000E+00
         0.30000E+00
         0.30000E+00
         0.30000E+00
         0.30000E+00
         0.30000E+00
         0.30000E+00
         0.30000E+00
         0.30000E+00
         0.30000E+00
         0.30000E+00
         0.30000E+00
         0.30000E+00
         0.30000E+00
         0.30000E+00
         0.30000E+00
         0.30000E+00
         0.30000E+00
         0.30000E+00
         0.30000E+00
         0.30000E+00
         0.30000E+00
         0.30000E+00
         0.30000E+00
         0.30000E+00
         0.30000E+00
         0.30000E+00
         0.30000E+00
         0.30000E+00
         0.30000E+00
         0.30000E+00
         0.30000E+00
         0.30000E+00
         0.30000E+00
         0.30000E+00
         0.30000E+00
         0.30000E+00
         0.30000E+00
         0.30000E+00
         0.30000E+00
         0.30000E+00
         0.30000E+00
         0.30000E+00
         0.30000E+00
         0.30000E+00
         0.30000E+00
         0.30000E+00
         0.30000E+00
         0.30000E+00
         0.30000E+00
         0.30000E+00
         0.30000E+00
         0.30000E+00
         0.30000E+00
         0.30000E+00
         0.30000E+00
         0.30000E+00
         0.30000E+00
         0.30000E+00
         0.30000E+00
         0.30000E+00
         0.30000E+00
         0.30000E+00
         0.30000E+00
         0.30000E+00
         0.30000E+00
         0.30000E+00
         0.30000E+00
         0.30000E+00
         0.30000E+00
         0.30000E+00
         0.30000E+00
         0.30000E+00
         0.30000E+00
         0.30000E+00
         0.30000E+00
         0.30000E+00
         0.30000E+00
         0.30000E+00
         0.30000E+00
         0.30000E+00
         0.30000E+00
         0.30000E+00
         0.30000E+00
         0.30000E+00
         0.30000E+00
         0.30000E+00
         0.30000E+00
         0.30000E+00
         0.30000E+00
         0.30000E+00
         0.30000E+00
         0.30000E+00
         0.30000E+00
         0.30000E+00
         0.30000E+00
         0.30000E+00
         0.30000E+00
         0.30000E+00
         0.30000E+00
         0.30000E+00
         0.30000E+00
         0.30000E+00
         0.30000E+00
         0.30000E+00
         0.30000E+00
         0.30000E+00
         0.30000E+00
         0.30000E+00
         0.30000E+00
         0.30000E+00
         0.30000E+00
         0.30000E+00
         0.30000E+00
         0.30000E+00
         0.30000E+00
         0.30000E+00
         0.30000E+00
         0.30000E+00
         0.30000E+00
         0.30000E+00
         0.30000E+00
         0.30000E+00
         0.30000E+00
         0.30000E+00
         0.30000E+00
         0.30000E+00
         0.30000E+00
         0.30000E+00
         0.30000E+00
         0.30000E+00
         0.30000E+00
         0.30000E+00
         0.30000E+00
         0.30000E+00
         0.30000E+00
         0.30000E+00
         0.30000E+00
         0.30000E+00
         0.30000E+00
         0.30000E+00
         0.30000E+00
         0.30000E+00
         0.30000E+00
         0.30000E+00
         0.30000E+00
         0.30000E+00
         0.30000E+00
         0.30000E+00
         0.30000E+00
         0.30000E+00
         0.30000E+00
         0.30000E+00
         0.30000E+00
         0.30000E+00
         0.30000E+00
         0.30000E+00
         0.30000E+00
         0.30000E+00
         0.30000E+00
         0.30000E+00
         0.30000E+00
         0.30000E+00
         0.30000E+00
         0.30000E+00
         0.30000E+00
         0.30000E+00
         0.30000E+00
         0.30000E+00
         0.30000E+00
         0.30000E+00
         0.30000E+00
         0.30000E+00
         0.30000E+00
         0.30000E+00
         0.30000E+00
         0.30000E+00
         0.30000E+00
         0.30000E+00
         0.30000E+00
         0.30000E+00
         0.30000E+00
         0.30000E+00
         0.30000E+00
         0.30000E+00
         0.30000E+00
         0.30000E+00
         0.30000E+00
         0.30000E+00
         0.30000E+00
         0.30000E+00
         0.30000E+00
         0.30000E+00
         0.30000E+00
         0.30000E+00
         0.30000E+00
         0.30000E+00
         0.30000E+00
         0.30000E+00
         0.30000E+00
         0.30000E+00
         0.30000E+00
         0.30000E+00
         0.30000E+00
         0.30000E+00
         0.30000E+00
         0.30000E+00
         0.30000E+00
         0.30000E+00
         0.30000E+00
         0.30000E+00
         0.30000E+00
         0.30000E+00
         0.30000E+00
         0.30000E+00
         0.30000E+00
         0.30000E+00
         0.30000E+00
         0.30000E+00
         0.30000E+00
         0.30000E+00
         0.30000E+00
         0.30000E+00
         0.30000E+00
         0.30000E+00
         0.30000E+00
         0.30000E+00
         0.30000E+00
         0.30000E+00
         0.30000E+00
         0.30000E+00
         0.30000E+00
         0.30000E+00
         0.30000E+00
         0.30000E+00
         0.30000E+00
         0.30000E+00
         0.30000E+00
         0.30000E+00
         0.30000E+00
         0.30000E+00
         0.30000E+00
         0.30000E+00
         0.30000E+00
         0.30000E+00
         0.30000E+00
         0.30000E+00
         0.30000E+00
         0.30000E+00
         0.30000E+00
         0.30000E+00
         0.30000E+00
         0.30000E+00
         0.30000E+00
         0.30000E+00
         0.30000E+00
         0.30000E+00
         0.30000E+00
         0.30000E+00
         0.30000E+00
         0.30000E+00
         0.30000E+00
         0.30000E+00
         0.30000E+00
         0.30000E+00
         0.30000E+00
         0.30000E+00
         0.30000E+00
         0.30000E+00
         0.30000E+00
         0.30000E+00
         0.30000E+00
         0.30000E+00
         0.30000E+00
         0.30000E+00
         0.30000E+00
         0.30000E+00
         0.30000E+00
         0.30000E+00
         0.30000E+00
         0.30000E+00
         0.30000E+00
         0.30000E+00
         0.30000E+00
         0.30000E+00
         0.30000E+00
         0.30000E+00
         0.30000E+00
         0.30000E+00
         0.30000E+00
         0.30000E+00
         0.30000E+00
         0.30000E+00
         0.30000E+00
         0.30000E+00
         0.30000E+00
         0.30000E+00
         0.30000E+00
         0.30000E+00
         0.30000E+00
         0.30000E+00
         0.30000E+00
         0.30000E+00
         0.30000E+00
         0.30000E+00
         0.30000E+00
         0.30000E+00
         0.30000E+00
         0.30000E+00
         0.30000E+00
         0.30000E+00
         0.30000E+00
         0.30000E+00
         0.30000E+00
         0.30000E+00
         0.30000E+00
         0.30000E+00
         0.30000E+00
         0.30000E+00
         0.30000E+00
         0.30000E+00
         0.30000E+00
         0.30000E+00
         0.30000E+00
         0.30000E+00
         0.30000E+00
         0.30000E+00
         0.30000E+00
         0.30000E+00
         0.30000E+00
         0.30000E+00
         0.30000E+00
         0.30000E+00
         0.30000E+00
         0.30000E+00
         0.30000E+00
         0.30000E+00
         0.30000E+00
         0.30000E+00
         0.30000E+00
         0.30000E+00
         0.30000E+00
         0.30000E+00
         0.30000E+00
         0.30000E+00
         0.30000E+00
         0.30000E+00
         0.30000E+00
         0.30000E+00
         0.30000E+00
         0.30000E+00
         0.30000E+00
         0.30000E+00
         0.30000E+00
         0.30000E+00
         0.30000E+00
         0.30000E+00
         0.30000E+00
         0.30000E+00
         0.30000E+00
         0.30000E+00
         0.30000E+00
         0.30000E+00
         0.30000E+00
         0.30000E+00
         0.30000E+00
         0.30000E+00
         0.30000E+00
         0.30000E+00
         0.30000E+00
         0.30000E+00
         0.30000E+00
         0.30000E+00
         0.30000E+00
         0.30000E+00
         0.30000E+00
         0.30000E+00
         0.30000E+00
         0.30000E+00
         0.30000E+00
         0.30000E+00
         0.30000E+00
         0.30000E+00
         0.30000E+00
         0.30000E+00
         0.30000E+00
         0.30000E+00
         0.30000E+00
         0.30000E+00
         0.30000E+00
         0.30000E+00
         0.30000E+00
         0.30000E+00
         0.30000E+00
         0.30000E+00
         0.30000E+00
         0.30000E+00
         0.30000E+00
         0.30000E+00
         0.30000E+00
         0.30000E+00
         0.30000E+00
         0.30000E+00
         0.30000E+00
         0.30000E+00
         0.30000E+00
         0.30000E+00
         0.30000E+00
         0.30000E+00
         0.30000E+00
         0.30000E+00
         0.30000E+00
         0.30000E+00
         0.30000E+00
         0.30000E+00
         0.30000E+00
         0.30000E+00
         0.30000E+00
         0.30000E+00
         0.30000E+00
         0.30000E+00
         0.30000E+00
         0.30000E+00
         0.30000E+00
         0.30000E+00
         0.30000E+00
         0.30000E+00
         0.30000E+00
         0.30000E+00
         0.30000E+00
         0.30000E+00
         0.30000E+00
         0.30000E+00
         0.30000E+00
         0.30000E+00
         0.30000E+00
         0.30000E+00
         0.30000E+00
         0.30000E+00
         0.30000E+00
         0.30000E+00
         0.30000E+00
         0.30000E+00
         0.30000E+00
         0.30000E+00
         0.30000E+00
         0.30000E+00
         0.30000E+00
         0.30000E+00
         0.30000E+00
         0.30000E+00
         0.30000E+00
         0.30000E+00
         0.30000E+00
         0.30000E+00
         0.30000E+00
         0.30000E+00
         0.30000E+00
         0.30000E+00
         0.30000E+00
         0.30000E+00
         0.30000E+00
         0.30000E+00
         0.30000E+00
         0.30000E+00
         0.30000E+00
         0.30000E+00
         0.30000E+00
         0.30000E+00
         0.30000E+00
         0.30000E+00
         0.30000E+00
         0.30000E+00
         0.30000E+00
         0.30000E+00
         0.30000E+00
         0.30000E+00
         0.30000E+00
         0.30000E+00
         0.30000E+00
         0.30000E+00
         0.30000E+00
         0.30000E+00
         0.30000E+00
         0.30000E+00
         0.30000E+00
         0.30000E+00
         0.30000E+00
         0.30000E+00
         0.30000E+00
         0.30000E+00
         0.30000E+00
         0.30000E+00
         0.30000E+00
         0.30000E+00
         0.30000E+00
         0.30000E+00
         0.30000E+00
         0.30000E+00
         0.30000E+00
         0.30000E+00
         0.30000E+00
         0.30000E+00
         0.30000E+00
         0.30000E+00
         0.30000E+00
         0.30000E+00
         0.30000E+00
         0.30000E+00
         0.30000E+00
         0.30000E+00
         0.30000E+00
         0.30000E+00
         0.30000E+00
         0.30000E+00
         0.30000E+00
         0.30000E+00
         0.30000E+00
         0.30000E+00
         0.30000E+00
         0.30000E+00
         0.30000E+00
         0.30000E+00
         0.30000E+00
         0.30000E+00
         0.30000E+00
         0.30000E+00
         0.30000E+00
         0.30000E+00
         0.30000E+00
         0.30000E+00
         0.30000E+00
         0.30000E+00
         0.30000E+00
         0.30000E+00
         0.30000E+00
         0.30000E+00
         0.30000E+00
         0.30000E+00
         0.30000E+00
         0.30000E+00
         0.30000E+00
         0.30000E+00
         0.30000E+00
         0.30000E+00
         0.30000E+00
         0.30000E+00
         0.30000E+00
         0.30000E+00
         0.30000E+00
         0.30000E+00
         0.30000E+00
         0.30000E+00
         0.30000E+00
         0.30000E+00
         0.30000E+00
         0.30000E+00
         0.30000E+00
         0.30000E+00
         0.30000E+00
         0.30000E+00
         0.30000E+00
         0.30000E+00
         0.30000E+00
         0.30000E+00
         0.30000E+00
         0.30000E+00
         0.30000E+00
         0.30000E+00
         0.30000E+00
         0.30000E+00
         0.30000E+00
         0.30000E+00
         0.30000E+00
         0.30000E+00
         0.30000E+00
         0.30000E+00
         0.30000E+00
         0.30000E+00
         0.30000E+00
         0.30000E+00
         0.30000E+00
         0.30000E+00
         0.30000E+00
         0.30000E+00
         0.30000E+00
         0.30000E+00
         0.30000E+00
         0.30000E+00
         0.30000E+00
         0.30000E+00
         0.30000E+00
         0.30000E+00
         0.30000E+00
         0.30000E+00
         0.30000E+00
         0.30000E+00
         0.30000E+00
         0.30000E+00
         0.30000E+00
         0.30000E+00
         0.30000E+00
         0.30000E+00
         0.30000E+00
         0.30000E+00
         0.30000E+00
         0.30000E+00
         0.30000E+00
         0.30000E+00
         0.30000E+00
         0.30000E+00
         0.30000E+00
         0.30000E+00
         0.30000E+00
         0.30000E+00
         0.30000E+00
         0.30000E+00
         0.30000E+00
         0.30000E+00
         0.30000E+00
         0.30000E+00
         0.30000E+00
         0.30000E+00
         0.30000E+00
         0.30000E+00
         0.30000E+00
         0.30000E+00
         0.30000E+00
         0.30000E+00
         0.30000E+00
         0.30000E+00
         0.30000E+00
         0.30000E+00
         0.30000E+00
         0.30000E+00
         0.30000E+00
         0.30000E+00
         0.30000E+00
         0.30000E+00
         0.30000E+00
         0.30000E+00
         0.30000E+00
         0.30000E+00
         0.30000E+00
         0.30000E+00
         0.30000E+00
         0.30000E+00
         0.30000E+00
         0.30000E+00
         0.30000E+00
         0.30000E+00
         0.30000E+00
         0.30000E+00
         0.30000E+00
         0.30000E+00
         0.30000E+00
         0.30000E+00
         0.30000E+00
         0.30000E+00
         0.30000E+00
         0.30000E+00
         0.30000E+00
         0.30000E+00
         0.30000E+00
         0.30000E+00
         0.30000E+00
         0.30000E+00
         0.30000E+00
         0.30000E+00
         0.30000E+00
         0.30000E+00
         0.30000E+00
         0.30000E+00
         0.30000E+00
         0.30000E+00
         0.30000E+00
         0.30000E+00
         0.30000E+00
         0.30000E+00
         0.30000E+00
         0.30000E+00
         0.30000E+00
         0.30000E+00
         0.30000E+00
         0.30000E+00
         0.30000E+00
         0.30000E+00
         0.30000E+00
         0.30000E+00
         0.30000E+00
         0.30000E+00
         0.30000E+00
         0.30000E+00
         0.30000E+00
         0.30000E+00
         0.30000E+00
         0.30000E+00
         0.30000E+00
         0.30000E+00
         0.30000E+00
         0.30000E+00
         0.30000E+00
         0.30000E+00
         0.30000E+00
         0.30000E+00
         0.30000E+00
         0.30000E+00
         0.30000E+00
         0.30000E+00
         0.30000E+00
         0.30000E+00
         0.30000E+00
         0.30000E+00
         0.30000E+00
         0.30000E+00
         0.30000E+00
         0.30000E+00
         0.30000E+00
         0.30000E+00
         0.30000E+00
         0.30000E+00
         0.30000E+00
         0.30000E+00
         0.30000E+00
         0.30000E+00
         0.30000E+00
         0.30000E+00
         0.30000E+00
         0.30000E+00
         0.30000E+00
         0.30000E+00
         0.30000E+00
         0.30000E+00
         0.30000E+00
         0.30000E+00
         0.30000E+00
         0.30000E+00
         0.30000E+00
         0.30000E+00
         0.30000E+00
         0.30000E+00
         0.30000E+00
         0.30000E+00
         0.30000E+00
         0.30000E+00
         0.30000E+00
         0.30000E+00
         0.30000E+00
         0.30000E+00
         0.30000E+00
         0.30000E+00
         0.30000E+00
         0.30000E+00
         0.30000E+00
         0.30000E+00
         0.30000E+00
         0.30000E+00
         0.30000E+00
         0.30000E+00
         0.30000E+00
         0.30000E+00
         0.30000E+00
         0.30000E+00
         0.30000E+00
         0.30000E+00
         0.30000E+00
         0.30000E+00
         0.30000E+00
         0.30000E+00
         0.30000E+00
         0.30000E+00
         0.30000E+00
         0.30000E+00
         0.30000E+00
         0.30000E+00
         0.30000E+00
         0.30000E+00
         0.30000E+00
         0.30000E+00
         0.30000E+00
         0.30000E+00
         0.30000E+00
         0.30000E+00
         0.30000E+00
         0.30000E+00
         0.30000E+00
         0.30000E+00
         0.30000E+00
         0.30000E+00
         0.30000E+00
         0.30000E+00
         0.30000E+00
         0.30000E+00
         0.30000E+00
         0.30000E+00
         0.30000E+00
         0.30000E+00
         0.30000E+00
         0.30000E+00
         0.30000E+00
         0.30000E+00
         0.30000E+00
         0.30000E+00
         0.30000E+00
         0.30000E+00
         0.30000E+00
         0.30000E+00
         0.30000E+00
         0.30000E+00
         0.30000E+00
         0.30000E+00
         0.30000E+00
         0.30000E+00
         0.30000E+00
         0.30000E+00
         0.30000E+00
         0.30000E+00
         0.30000E+00
         0.30000E+00
         0.30000E+00
         0.30000E+00
         0.30000E+00
         0.30000E+00
         0.30000E+00
         0.30000E+00
         0.30000E+00
         0.30000E+00
         0.30000E+00
         0.30000E+00
         0.30000E+00
         0.30000E+00
         0.30000E+00
         0.30000E+00
         0.30000E+00
         0.30000E+00
         0.30000E+00
         0.30000E+00
         0.30000E+00
         0.30000E+00
         0.30000E+00
         0.30000E+00
         0.30000E+00
         0.30000E+00
         0.30000E+00
         0.30000E+00
         0.30000E+00
         0.30000E+00
         0.30000E+00
         0.30000E+00
         0.30000E+00
         0.30000E+00
         0.30000E+00
         0.30000E+00
         0.30000E+00
         0.30000E+00
         0.30000E+00
         0.30000E+00
         0.30000E+00
         0.30000E+00
         0.30000E+00
         0.30000E+00
         0.30000E+00
         0.30000E+00
         0.30000E+00
         0.30000E+00
         0.30000E+00
         0.30000E+00
         0.30000E+00
         0.30000E+00
         0.30000E+00
         0.30000E+00
         0.30000E+00
         0.30000E+00
         0.30000E+00
         0.30000E+00
         0.30000E+00
         0.30000E+00
         0.30000E+00
         0.30000E+00
         0.30000E+00
         0.30000E+00
         0.30000E+00
         0.30000E+00
         0.30000E+00
         0.30000E+00
         0.30000E+00
         0.30000E+00
         0.30000E+00
         0.30000E+00
         0.30000E+00
         0.30000E+00
         0.30000E+00
         0.30000E+00
         0.30000E+00
         0.30000E+00
         0.30000E+00
         0.30000E+00
         0.30000E+00
         0.30000E+00
         0.30000E+00
         0.30000E+00
         0.30000E+00
         0.30000E+00
         0.30000E+00
         0.30000E+00
         0.30000E+00
         0.30000E+00
         0.30000E+00
         0.30000E+00
         0.30000E+00
         0.30000E+00
         0.30000E+00
         0.30000E+00
         0.30000E+00
         0.30000E+00
         0.30000E+00
         0.30000E+00
         0.30000E+00
         0.30000E+00
         0.30000E+00
         0.30000E+00
         0.30000E+00
         0.30000E+00
         0.30000E+00
         0.30000E+00
         0.30000E+00
         0.30000E+00
         0.30000E+00
         0.30000E+00
         0.30000E+00
         0.30000E+00
         0.30000E+00
         0.30000E+00
         0.30000E+00
         0.30000E+00
         0.30000E+00
         0.30000E+00
         0.30000E+00
         0.30000E+00
         0.30000E+00
         0.30000E+00
         0.30000E+00
         0.30000E+00
         0.30000E+00
         0.30000E+00
         0.30000E+00
         0.30000E+00
         0.30000E+00
         0.30000E+00
         0.30000E+00
         0.30000E+00
         0.30000E+00
         0.30000E+00
         0.30000E+00
         0.30000E+00
         0.30000E+00
         0.30000E+00
         0.30000E+00
         0.30000E+00
         0.30000E+00
         0.30000E+00
         0.30000E+00
         0.30000E+00
         0.30000E+00
         0.30000E+00
         0.30000E+00
         0.30000E+00
         0.30000E+00
         0.30000E+00
         0.30000E+00
         0.30000E+00
         0.30000E+00
         0.30000E+00
         0.30000E+00
         0.30000E+00
         0.30000E+00
         0.30000E+00
         0.30000E+00
         0.30000E+00
         0.30000E+00
         0.30000E+00
         0.30000E+00
         0.30000E+00
         0.30000E+00
         0.30000E+00
         0.30000E+00
         0.30000E+00
         0.30000E+00
         0.30000E+00
         0.30000E+00
         0.30000E+00
         0.30000E+00
         0.30000E+00
         0.30000E+00
         0.30000E+00
         0.30000E+00
         0.30000E+00
         0.30000E+00
         0.30000E+00
         0.30000E+00
         0.30000E+00
         0.30000E+00
         0.30000E+00
         0.30000E+00
         0.30000E+00
         0.30000E+00
         0.30000E+00
         0.30000E+00
         0.30000E+00
         0.30000E+00
         0.30000E+00
         0.30000E+00
         0.30000E+00
         0.30000E+00
         0.30000E+00
         0.30000E+00
         0.30000E+00
         0.30000E+00
         0.30000E+00
         0.30000E+00
         0.30000E+00
         0.30000E+00
         0.30000E+00
         0.30000E+00
  
SCALARS                 Youngs_modulus  double 1
LOOKUP_TABLE default
         0.78200E+11
         0.78200E+11
         0.78200E+11
         0.78200E+11
         0.78200E+11
         0.78200E+11
         0.78200E+11
         0.78200E+11
         0.78200E+11
         0.78200E+11
         0.78200E+11
         0.78200E+11
         0.78200E+11
         0.78200E+11
         0.78200E+11
         0.78200E+11
         0.78200E+11
         0.78200E+11
         0.78200E+11
         0.78200E+11
         0.78200E+11
         0.78200E+11
         0.78200E+11
         0.78200E+11
         0.78200E+11
         0.78200E+11
         0.78200E+11
         0.78200E+11
         0.78200E+11
         0.78200E+11
         0.78200E+11
         0.78200E+11
         0.78200E+11
         0.78200E+11
         0.78200E+11
         0.78200E+11
         0.78200E+11
         0.78200E+11
         0.78200E+11
         0.78200E+11
         0.78200E+11
         0.78200E+11
         0.78200E+11
         0.78200E+11
         0.78200E+11
         0.78200E+11
         0.78200E+11
         0.78200E+11
         0.78200E+11
         0.78200E+11
         0.78200E+11
         0.78200E+11
         0.78200E+11
         0.78200E+11
         0.78200E+11
         0.78200E+11
         0.78200E+11
         0.78200E+11
         0.78200E+11
         0.78200E+11
         0.78200E+11
         0.78200E+11
         0.78200E+11
         0.78200E+11
         0.78200E+11
         0.78200E+11
         0.78200E+11
         0.78200E+11
         0.78200E+11
         0.78200E+11
         0.78200E+11
         0.78200E+11
         0.78200E+11
         0.78200E+11
         0.78200E+11
         0.78200E+11
         0.78200E+11
         0.78200E+11
         0.78200E+11
         0.78200E+11
         0.78200E+11
         0.78200E+11
         0.78200E+11
         0.78200E+11
         0.78200E+11
         0.78200E+11
         0.78200E+11
         0.78200E+11
         0.78200E+11
         0.78200E+11
         0.78200E+11
         0.78200E+11
         0.78200E+11
         0.78200E+11
         0.78200E+11
         0.78200E+11
         0.78200E+11
         0.78200E+11
         0.78200E+11
         0.78200E+11
         0.78200E+11
         0.78200E+11
         0.78200E+11
         0.78200E+11
         0.78200E+11
         0.78200E+11
         0.78200E+11
         0.78200E+11
         0.78200E+11
         0.78200E+11
         0.78200E+11
         0.78200E+11
         0.78200E+11
         0.78200E+11
         0.78200E+11
         0.78200E+11
         0.78200E+11
         0.78200E+11
         0.78200E+11
         0.78200E+11
         0.78200E+11
         0.78200E+11
         0.78200E+11
         0.78200E+11
         0.78200E+11
         0.78200E+11
         0.78200E+11
         0.78200E+11
         0.78200E+11
         0.78200E+11
         0.78200E+11
         0.78200E+11
         0.78200E+11
         0.78200E+11
         0.78200E+11
         0.78200E+11
         0.78200E+11
         0.78200E+11
         0.78200E+11
         0.78200E+11
         0.78200E+11
         0.78200E+11
         0.78200E+11
         0.78200E+11
         0.78200E+11
         0.78200E+11
         0.78200E+11
         0.78200E+11
         0.78200E+11
         0.78200E+11
         0.78200E+11
         0.78200E+11
         0.78200E+11
         0.78200E+11
         0.78200E+11
         0.78200E+11
         0.78200E+11
         0.78200E+11
         0.78200E+11
         0.78200E+11
         0.78200E+11
         0.78200E+11
         0.78200E+11
         0.78200E+11
         0.78200E+11
         0.78200E+11
         0.78200E+11
         0.78200E+11
         0.78200E+11
         0.78200E+11
         0.78200E+11
         0.78200E+11
         0.78200E+11
         0.78200E+11
         0.78200E+11
         0.78200E+11
         0.78200E+11
         0.78200E+11
         0.78200E+11
         0.78200E+11
         0.78200E+11
         0.78200E+11
         0.78200E+11
         0.78200E+11
         0.78200E+11
         0.78200E+11
         0.78200E+11
         0.78200E+11
         0.78200E+11
         0.78200E+11
         0.78200E+11
         0.78200E+11
         0.78200E+11
         0.78200E+11
         0.78200E+11
         0.78200E+11
         0.78200E+11
         0.78200E+11
         0.78200E+11
         0.78200E+11
         0.78200E+11
         0.78200E+11
         0.78200E+11
         0.78200E+11
         0.78200E+11
         0.78200E+11
         0.78200E+11
         0.78200E+11
         0.78200E+11
         0.78200E+11
         0.78200E+11
         0.78200E+11
         0.78200E+11
         0.78200E+11
         0.78200E+11
         0.78200E+11
         0.78200E+11
         0.78200E+11
         0.78200E+11
         0.78200E+11
         0.78200E+11
         0.78200E+11
         0.78200E+11
         0.78200E+11
         0.78200E+11
         0.78200E+11
         0.78200E+11
         0.78200E+11
         0.78200E+11
         0.78200E+11
         0.78200E+11
         0.78200E+11
         0.78200E+11
         0.78200E+11
         0.78200E+11
         0.78200E+11
         0.78200E+11
         0.78200E+11
         0.78200E+11
         0.78200E+11
         0.78200E+11
         0.78200E+11
         0.78200E+11
         0.78200E+11
         0.78200E+11
         0.78200E+11
         0.78200E+11
         0.78200E+11
         0.78200E+11
         0.78200E+11
         0.78200E+11
         0.78200E+11
         0.78200E+11
         0.78200E+11
         0.78200E+11
         0.78200E+11
         0.78200E+11
         0.78200E+11
         0.78200E+11
         0.78200E+11
         0.78200E+11
         0.78200E+11
         0.78200E+11
         0.78200E+11
         0.78200E+11
         0.78200E+11
         0.78200E+11
         0.78200E+11
         0.78200E+11
         0.78200E+11
         0.78200E+11
         0.78200E+11
         0.78200E+11
         0.78200E+11
         0.78200E+11
         0.78200E+11
         0.78200E+11
         0.78200E+11
         0.78200E+11
         0.78200E+11
         0.78200E+11
         0.78200E+11
         0.78200E+11
         0.78200E+11
         0.78200E+11
         0.78200E+11
         0.78200E+11
         0.78200E+11
         0.78200E+11
         0.78200E+11
         0.78200E+11
         0.78200E+11
         0.78200E+11
         0.78200E+11
         0.78200E+11
         0.78200E+11
         0.78200E+11
         0.78200E+11
         0.78200E+11
         0.78200E+11
         0.78200E+11
         0.78200E+11
         0.78200E+11
         0.78200E+11
         0.78200E+11
         0.78200E+11
         0.78200E+11
         0.78200E+11
         0.78200E+11
         0.78200E+11
         0.78200E+11
         0.78200E+11
         0.78200E+11
         0.78200E+11
         0.78200E+11
         0.78200E+11
         0.78200E+11
         0.78200E+11
         0.78200E+11
         0.78200E+11
         0.78200E+11
         0.78200E+11
         0.78200E+11
         0.78200E+11
         0.78200E+11
         0.78200E+11
         0.78200E+11
         0.78200E+11
         0.78200E+11
         0.78200E+11
         0.78200E+11
         0.78200E+11
         0.78200E+11
         0.78200E+11
         0.78200E+11
         0.78200E+11
         0.78200E+11
         0.78200E+11
         0.78200E+11
         0.78200E+11
         0.78200E+11
         0.78200E+11
         0.78200E+11
         0.78200E+11
         0.78200E+11
         0.78200E+11
         0.78200E+11
         0.78200E+11
         0.78200E+11
         0.78200E+11
         0.78200E+11
         0.78200E+11
         0.78200E+11
         0.78200E+11
         0.78200E+11
         0.78200E+11
         0.78200E+11
         0.78200E+11
         0.78200E+11
         0.78200E+11
         0.78200E+11
         0.78200E+11
         0.78200E+11
         0.78200E+11
         0.78200E+11
         0.78200E+11
         0.78200E+11
         0.78200E+11
         0.78200E+11
         0.78200E+11
         0.78200E+11
         0.78200E+11
         0.78200E+11
         0.78200E+11
         0.78200E+11
         0.78200E+11
         0.78200E+11
         0.78200E+11
         0.78200E+11
         0.78200E+11
         0.78200E+11
         0.78200E+11
         0.78200E+11
         0.78200E+11
         0.78200E+11
         0.78200E+11
         0.78200E+11
         0.78200E+11
         0.78200E+11
         0.78200E+11
         0.78200E+11
         0.78200E+11
         0.78200E+11
         0.78200E+11
         0.78200E+11
         0.78200E+11
         0.78200E+11
         0.78200E+11
         0.78200E+11
         0.78200E+11
         0.78200E+11
         0.78200E+11
         0.78200E+11
         0.78200E+11
         0.78200E+11
         0.78200E+11
         0.78200E+11
         0.78200E+11
         0.78200E+11
         0.78200E+11
         0.78200E+11
         0.78200E+11
         0.78200E+11
         0.78200E+11
         0.78200E+11
         0.78200E+11
         0.78200E+11
         0.78200E+11
         0.78200E+11
         0.78200E+11
         0.78200E+11
         0.78200E+11
         0.78200E+11
         0.78200E+11
         0.78200E+11
         0.78200E+11
         0.78200E+11
         0.78200E+11
         0.78200E+11
         0.78200E+11
         0.78200E+11
         0.78200E+11
         0.78200E+11
         0.78200E+11
         0.78200E+11
         0.78200E+11
         0.78200E+11
         0.78200E+11
         0.78200E+11
         0.78200E+11
         0.78200E+11
         0.78200E+11
         0.78200E+11
         0.78200E+11
         0.78200E+11
         0.78200E+11
         0.78200E+11
         0.78200E+11
         0.78200E+11
         0.78200E+11
         0.78200E+11
         0.78200E+11
         0.78200E+11
         0.78200E+11
         0.78200E+11
         0.78200E+11
         0.78200E+11
         0.78200E+11
         0.78200E+11
         0.78200E+11
         0.78200E+11
         0.78200E+11
         0.78200E+11
         0.78200E+11
         0.78200E+11
         0.78200E+11
         0.78200E+11
         0.78200E+11
         0.78200E+11
         0.78200E+11
         0.78200E+11
         0.78200E+11
         0.78200E+11
         0.78200E+11
         0.78200E+11
         0.78200E+11
         0.78200E+11
         0.78200E+11
         0.78200E+11
         0.78200E+11
         0.78200E+11
         0.78200E+11
         0.78200E+11
         0.78200E+11
         0.78200E+11
         0.78200E+11
         0.78200E+11
         0.78200E+11
         0.78200E+11
         0.78200E+11
         0.78200E+11
         0.78200E+11
         0.78200E+11
         0.78200E+11
         0.78200E+11
         0.78200E+11
         0.78200E+11
         0.78200E+11
         0.78200E+11
         0.78200E+11
         0.78200E+11
         0.78200E+11
         0.78200E+11
         0.78200E+11
         0.78200E+11
         0.78200E+11
         0.78200E+11
         0.78200E+11
         0.78200E+11
         0.78200E+11
         0.78200E+11
         0.78200E+11
         0.78200E+11
         0.78200E+11
         0.78200E+11
         0.78200E+11
         0.78200E+11
         0.78200E+11
         0.78200E+11
         0.78200E+11
         0.78200E+11
         0.78200E+11
         0.78200E+11
         0.78200E+11
         0.78200E+11
         0.78200E+11
         0.78200E+11
         0.78200E+11
         0.78200E+11
         0.78200E+11
         0.78200E+11
         0.78200E+11
         0.78200E+11
         0.78200E+11
         0.78200E+11
         0.78200E+11
         0.78200E+11
         0.78200E+11
         0.78200E+11
         0.78200E+11
         0.78200E+11
         0.78200E+11
         0.78200E+11
         0.78200E+11
         0.78200E+11
         0.78200E+11
         0.78200E+11
         0.78200E+11
         0.78200E+11
         0.78200E+11
         0.78200E+11
         0.78200E+11
         0.78200E+11
         0.78200E+11
         0.78200E+11
         0.78200E+11
         0.78200E+11
         0.78200E+11
         0.78200E+11
         0.78200E+11
         0.78200E+11
         0.78200E+11
         0.78200E+11
         0.78200E+11
         0.78200E+11
         0.78200E+11
         0.78200E+11
         0.78200E+11
         0.78200E+11
         0.78200E+11
         0.78200E+11
         0.78200E+11
         0.78200E+11
         0.78200E+11
         0.78200E+11
         0.78200E+11
         0.78200E+11
         0.78200E+11
         0.78200E+11
         0.78200E+11
         0.78200E+11
         0.78200E+11
         0.78200E+11
         0.78200E+11
         0.78200E+11
         0.78200E+11
         0.78200E+11
         0.78200E+11
         0.78200E+11
         0.78200E+11
         0.78200E+11
         0.78200E+11
         0.78200E+11
         0.78200E+11
         0.78200E+11
         0.78200E+11
         0.78200E+11
         0.78200E+11
         0.78200E+11
         0.78200E+11
         0.78200E+11
         0.78200E+11
         0.78200E+11
         0.78200E+11
         0.78200E+11
         0.78200E+11
         0.78200E+11
         0.78200E+11
         0.78200E+11
         0.78200E+11
         0.78200E+11
         0.78200E+11
         0.78200E+11
         0.78200E+11
         0.78200E+11
         0.78200E+11
         0.78200E+11
         0.78200E+11
         0.78200E+11
         0.78200E+11
         0.78200E+11
         0.78200E+11
         0.78200E+11
         0.78200E+11
         0.78200E+11
         0.78200E+11
         0.78200E+11
         0.78200E+11
         0.78200E+11
         0.78200E+11
         0.78200E+11
         0.78200E+11
         0.78200E+11
         0.78200E+11
         0.78200E+11
         0.78200E+11
         0.78200E+11
         0.78200E+11
         0.78200E+11
         0.78200E+11
         0.78200E+11
         0.78200E+11
         0.78200E+11
         0.78200E+11
         0.78200E+11
         0.78200E+11
         0.78200E+11
         0.78200E+11
         0.78200E+11
         0.78200E+11
         0.78200E+11
         0.78200E+11
         0.78200E+11
         0.78200E+11
         0.78200E+11
         0.78200E+11
         0.78200E+11
         0.78200E+11
         0.78200E+11
         0.78200E+11
         0.78200E+11
         0.78200E+11
         0.78200E+11
         0.78200E+11
         0.78200E+11
         0.78200E+11
         0.78200E+11
         0.78200E+11
         0.78200E+11
         0.78200E+11
         0.78200E+11
         0.78200E+11
         0.78200E+11
         0.78200E+11
         0.78200E+11
         0.78200E+11
         0.78200E+11
         0.78200E+11
         0.78200E+11
         0.78200E+11
         0.78200E+11
         0.78200E+11
         0.78200E+11
         0.78200E+11
         0.78200E+11
         0.78200E+11
         0.78200E+11
         0.78200E+11
         0.78200E+11
         0.78200E+11
         0.78200E+11
         0.78200E+11
         0.78200E+11
         0.78200E+11
         0.78200E+11
         0.78200E+11
         0.78200E+11
         0.78200E+11
         0.78200E+11
         0.78200E+11
         0.78200E+11
         0.78200E+11
         0.78200E+11
         0.78200E+11
         0.78200E+11
         0.78200E+11
         0.78200E+11
         0.78200E+11
         0.78200E+11
         0.78200E+11
         0.78200E+11
         0.78200E+11
         0.78200E+11
         0.78200E+11
         0.78200E+11
         0.78200E+11
         0.78200E+11
         0.78200E+11
         0.78200E+11
         0.78200E+11
         0.78200E+11
         0.78200E+11
         0.78200E+11
         0.78200E+11
         0.78200E+11
         0.78200E+11
         0.78200E+11
         0.78200E+11
         0.78200E+11
         0.78200E+11
         0.78200E+11
         0.78200E+11
         0.78200E+11
         0.78200E+11
         0.78200E+11
         0.78200E+11
         0.78200E+11
         0.78200E+11
         0.78200E+11
         0.78200E+11
         0.78200E+11
         0.78200E+11
         0.78200E+11
         0.78200E+11
         0.78200E+11
         0.78200E+11
         0.78200E+11
         0.78200E+11
         0.78200E+11
         0.78200E+11
         0.78200E+11
         0.78200E+11
         0.78200E+11
         0.78200E+11
         0.78200E+11
         0.78200E+11
         0.78200E+11
         0.78200E+11
         0.78200E+11
         0.78200E+11
         0.78200E+11
         0.78200E+11
         0.78200E+11
         0.78200E+11
         0.78200E+11
         0.78200E+11
         0.78200E+11
         0.78200E+11
         0.78200E+11
         0.78200E+11
         0.78200E+11
         0.78200E+11
         0.78200E+11
         0.78200E+11
         0.78200E+11
         0.78200E+11
         0.78200E+11
         0.78200E+11
         0.78200E+11
         0.78200E+11
         0.78200E+11
         0.78200E+11
         0.78200E+11
         0.78200E+11
         0.78200E+11
         0.78200E+11
         0.78200E+11
         0.78200E+11
         0.78200E+11
         0.78200E+11
         0.78200E+11
         0.78200E+11
         0.78200E+11
         0.78200E+11
         0.78200E+11
         0.78200E+11
         0.78200E+11
         0.78200E+11
         0.78200E+11
         0.78200E+11
         0.78200E+11
         0.78200E+11
         0.78200E+11
         0.78200E+11
         0.78200E+11
         0.78200E+11
         0.78200E+11
         0.78200E+11
         0.78200E+11
         0.78200E+11
         0.78200E+11
         0.78200E+11
         0.78200E+11
         0.78200E+11
         0.78200E+11
         0.78200E+11
         0.78200E+11
         0.78200E+11
         0.78200E+11
         0.78200E+11
         0.78200E+11
         0.78200E+11
         0.78200E+11
         0.78200E+11
         0.78200E+11
         0.78200E+11
         0.78200E+11
         0.78200E+11
         0.78200E+11
         0.78200E+11
         0.78200E+11
         0.78200E+11
         0.78200E+11
         0.78200E+11
         0.78200E+11
         0.78200E+11
         0.78200E+11
         0.78200E+11
         0.78200E+11
         0.78200E+11
         0.78200E+11
         0.78200E+11
         0.78200E+11
         0.78200E+11
         0.78200E+11
         0.78200E+11
         0.78200E+11
         0.78200E+11
         0.78200E+11
         0.78200E+11
         0.78200E+11
         0.78200E+11
         0.78200E+11
         0.78200E+11
         0.78200E+11
         0.78200E+11
         0.78200E+11
         0.78200E+11
         0.78200E+11
         0.78200E+11
         0.78200E+11
         0.78200E+11
         0.78200E+11
         0.78200E+11
         0.78200E+11
         0.78200E+11
         0.78200E+11
         0.78200E+11
         0.78200E+11
         0.78200E+11
         0.78200E+11
         0.78200E+11
         0.78200E+11
         0.78200E+11
         0.78200E+11
         0.78200E+11
         0.78200E+11
         0.78200E+11
         0.78200E+11
         0.78200E+11
         0.78200E+11
         0.78200E+11
         0.78200E+11
         0.78200E+11
         0.78200E+11
         0.78200E+11
         0.78200E+11
         0.78200E+11
         0.78200E+11
         0.78200E+11
         0.78200E+11
         0.78200E+11
         0.78200E+11
         0.78200E+11
         0.78200E+11
         0.78200E+11
         0.78200E+11
         0.78200E+11
         0.78200E+11
         0.78200E+11
         0.78200E+11
         0.78200E+11
         0.78200E+11
         0.78200E+11
         0.78200E+11
         0.78200E+11
         0.78200E+11
         0.78200E+11
         0.78200E+11
         0.78200E+11
         0.78200E+11
         0.78200E+11
         0.78200E+11
         0.78200E+11
         0.78200E+11
         0.78200E+11
         0.78200E+11
         0.78200E+11
         0.78200E+11
         0.78200E+11
         0.78200E+11
         0.78200E+11
         0.78200E+11
         0.78200E+11
         0.78200E+11
         0.78200E+11
         0.78200E+11
         0.78200E+11
         0.78200E+11
         0.78200E+11
         0.78200E+11
         0.78200E+11
         0.78200E+11
         0.78200E+11
         0.78200E+11
         0.78200E+11
         0.78200E+11
         0.78200E+11
         0.78200E+11
         0.78200E+11
         0.78200E+11
         0.78200E+11
         0.78200E+11
         0.78200E+11
         0.78200E+11
         0.78200E+11
         0.78200E+11
         0.78200E+11
         0.78200E+11
         0.78200E+11
         0.78200E+11
         0.78200E+11
         0.78200E+11
         0.78200E+11
         0.78200E+11
         0.78200E+11
         0.78200E+11
         0.78200E+11
         0.78200E+11
         0.78200E+11
         0.78200E+11
         0.78200E+11
         0.78200E+11
         0.78200E+11
         0.78200E+11
         0.78200E+11
         0.78200E+11
         0.78200E+11
         0.78200E+11
         0.78200E+11
         0.78200E+11
         0.78200E+11
         0.78200E+11
         0.78200E+11
         0.78200E+11
         0.78200E+11
         0.78200E+11
         0.78200E+11
         0.78200E+11
         0.78200E+11
         0.78200E+11
         0.78200E+11
         0.78200E+11
         0.78200E+11
         0.78200E+11
         0.78200E+11
         0.78200E+11
         0.78200E+11
         0.78200E+11
         0.78200E+11
         0.78200E+11
         0.78200E+11
         0.78200E+11
         0.78200E+11
         0.78200E+11
         0.78200E+11
         0.78200E+11
         0.78200E+11
         0.78200E+11
         0.78200E+11
         0.78200E+11
         0.78200E+11
         0.78200E+11
         0.78200E+11
         0.78200E+11
         0.78200E+11
         0.78200E+11
         0.78200E+11
         0.78200E+11
         0.78200E+11
         0.78200E+11
         0.78200E+11
         0.78200E+11
         0.78200E+11
         0.78200E+11
         0.78200E+11
         0.78200E+11
         0.78200E+11
         0.78200E+11
         0.78200E+11
         0.78200E+11
         0.78200E+11
         0.78200E+11
         0.78200E+11
         0.78200E+11
         0.78200E+11
         0.78200E+11
         0.78200E+11
         0.78200E+11
         0.78200E+11
         0.78200E+11
         0.78200E+11
         0.78200E+11
         0.78200E+11
         0.78200E+11
         0.78200E+11
         0.78200E+11
         0.78200E+11
         0.78200E+11
         0.78200E+11
         0.78200E+11
         0.78200E+11
         0.78200E+11
         0.78200E+11
         0.78200E+11
         0.78200E+11
         0.78200E+11
         0.78200E+11
         0.78200E+11
         0.78200E+11
         0.78200E+11
         0.78200E+11
         0.78200E+11
         0.78200E+11
         0.78200E+11
         0.78200E+11
         0.78200E+11
         0.78200E+11
         0.78200E+11
         0.78200E+11
         0.78200E+11
         0.78200E+11
         0.78200E+11
         0.78200E+11
         0.78200E+11
         0.78200E+11
         0.78200E+11
         0.78200E+11
         0.78200E+11
         0.78200E+11
         0.78200E+11
         0.78200E+11
         0.78200E+11
         0.78200E+11
         0.78200E+11
         0.78200E+11
         0.78200E+11
         0.78200E+11
         0.78200E+11
         0.78200E+11
         0.78200E+11
         0.78200E+11
         0.78200E+11
         0.78200E+11
         0.78200E+11
         0.78200E+11
         0.78200E+11
         0.78200E+11
         0.78200E+11
         0.78200E+11
         0.78200E+11
         0.78200E+11
         0.78200E+11
         0.78200E+11
         0.78200E+11
         0.78200E+11
         0.78200E+11
         0.78200E+11
         0.78200E+11
         0.78200E+11
         0.78200E+11
         0.78200E+11
         0.78200E+11
         0.78200E+11
         0.78200E+11
         0.78200E+11
         0.78200E+11
         0.78200E+11
         0.78200E+11
         0.78200E+11
         0.78200E+11
         0.78200E+11
         0.78200E+11
         0.78200E+11
         0.78200E+11
         0.78200E+11
         0.78200E+11
         0.78200E+11
         0.78200E+11
         0.78200E+11
         0.78200E+11
         0.78200E+11
         0.78200E+11
         0.78200E+11
         0.78200E+11
         0.78200E+11
         0.78200E+11
         0.78200E+11
         0.78200E+11
         0.78200E+11
         0.78200E+11
         0.78200E+11
         0.78200E+11
         0.78200E+11
         0.78200E+11
         0.78200E+11
         0.78200E+11
         0.78200E+11
         0.78200E+11
         0.78200E+11
         0.78200E+11
         0.78200E+11
         0.78200E+11
         0.78200E+11
         0.78200E+11
         0.78200E+11
         0.78200E+11
         0.78200E+11
         0.78200E+11
         0.78200E+11
         0.78200E+11
         0.78200E+11
         0.78200E+11
         0.78200E+11
         0.78200E+11
         0.78200E+11
         0.78200E+11
         0.78200E+11
         0.78200E+11
         0.78200E+11
         0.78200E+11
         0.78200E+11
         0.78200E+11
         0.78200E+11
         0.78200E+11
         0.78200E+11
         0.78200E+11
         0.78200E+11
         0.78200E+11
         0.78200E+11
         0.78200E+11
         0.78200E+11
         0.78200E+11
         0.78200E+11
         0.78200E+11
         0.78200E+11
         0.78200E+11
         0.78200E+11
         0.78200E+11
         0.78200E+11
         0.78200E+11
         0.78200E+11
         0.78200E+11
         0.78200E+11
         0.78200E+11
         0.78200E+11
         0.78200E+11
         0.78200E+11
         0.78200E+11
         0.78200E+11
         0.78200E+11
         0.78200E+11
         0.78200E+11
         0.78200E+11
         0.78200E+11
         0.78200E+11
         0.78200E+11
         0.78200E+11
         0.78200E+11
         0.78200E+11
         0.78200E+11
         0.78200E+11
         0.78200E+11
         0.78200E+11
         0.78200E+11
         0.78200E+11
         0.78200E+11
         0.78200E+11
         0.78200E+11
         0.78200E+11
         0.78200E+11
         0.78200E+11
         0.78200E+11
         0.78200E+11
         0.78200E+11
         0.78200E+11
         0.78200E+11
         0.78200E+11
         0.78200E+11
         0.78200E+11
         0.78200E+11
         0.78200E+11
         0.78200E+11
         0.78200E+11
         0.78200E+11
         0.78200E+11
         0.78200E+11
         0.78200E+11
         0.78200E+11
         0.78200E+11
         0.78200E+11
         0.78200E+11
         0.78200E+11
         0.78200E+11
         0.78200E+11
         0.78200E+11
         0.78200E+11
         0.78200E+11
         0.78200E+11
         0.78200E+11
         0.78200E+11
         0.78200E+11
         0.78200E+11
         0.78200E+11
         0.78200E+11
         0.78200E+11
         0.78200E+11
         0.78200E+11
         0.78200E+11
         0.78200E+11
         0.78200E+11
         0.78200E+11
         0.78200E+11
         0.78200E+11
         0.78200E+11
         0.78200E+11
         0.78200E+11
         0.78200E+11
         0.78200E+11
         0.78200E+11
         0.78200E+11
         0.78200E+11
         0.78200E+11
         0.78200E+11
         0.78200E+11
         0.78200E+11
         0.78200E+11
         0.78200E+11
         0.78200E+11
         0.78200E+11
         0.78200E+11
         0.78200E+11
         0.78200E+11
         0.78200E+11
         0.78200E+11
         0.78200E+11
         0.78200E+11
         0.78200E+11
         0.78200E+11
         0.78200E+11
         0.78200E+11
         0.78200E+11
         0.78200E+11
         0.78200E+11
         0.78200E+11
         0.78200E+11
         0.78200E+11
         0.78200E+11
         0.78200E+11
         0.78200E+11
         0.78200E+11
         0.78200E+11
         0.78200E+11
         0.78200E+11
         0.78200E+11
         0.78200E+11
         0.78200E+11
         0.78200E+11
         0.78200E+11
         0.78200E+11
         0.78200E+11
         0.78200E+11
         0.78200E+11
         0.78200E+11
         0.78200E+11
         0.78200E+11
         0.78200E+11
         0.78200E+11
         0.78200E+11
         0.78200E+11
         0.78200E+11
         0.78200E+11
         0.78200E+11
         0.78200E+11
         0.78200E+11
         0.78200E+11
         0.78200E+11
         0.78200E+11
         0.78200E+11
         0.78200E+11
         0.78200E+11
         0.78200E+11
         0.78200E+11
         0.78200E+11
         0.78200E+11
         0.78200E+11
         0.78200E+11
         0.78200E+11
         0.78200E+11
         0.78200E+11
         0.78200E+11
         0.78200E+11
         0.78200E+11
         0.78200E+11
         0.78200E+11
         0.78200E+11
         0.78200E+11
         0.78200E+11
         0.78200E+11
         0.78200E+11
         0.78200E+11
         0.78200E+11
         0.78200E+11
         0.78200E+11
         0.78200E+11
         0.78200E+11
         0.78200E+11
         0.78200E+11
         0.78200E+11
         0.78200E+11
         0.78200E+11
         0.78200E+11
         0.78200E+11
         0.78200E+11
         0.78200E+11
         0.78200E+11
         0.78200E+11
         0.78200E+11
         0.78200E+11
         0.78200E+11
         0.78200E+11
         0.78200E+11
         0.78200E+11
         0.78200E+11
         0.78200E+11
         0.78200E+11
         0.78200E+11
         0.78200E+11
         0.78200E+11
         0.78200E+11
         0.78200E+11
         0.78200E+11
         0.78200E+11
         0.78200E+11
         0.78200E+11
         0.78200E+11
         0.78200E+11
         0.78200E+11
         0.78200E+11
         0.78200E+11
         0.78200E+11
         0.78200E+11
         0.78200E+11
         0.78200E+11
         0.78200E+11
         0.78200E+11
         0.78200E+11
         0.78200E+11
         0.78200E+11
         0.78200E+11
         0.78200E+11
         0.78200E+11
         0.78200E+11
         0.78200E+11
         0.78200E+11
         0.78200E+11
         0.78200E+11
         0.78200E+11
         0.78200E+11
         0.78200E+11
         0.78200E+11
         0.78200E+11
         0.78200E+11
         0.78200E+11
         0.78200E+11
         0.78200E+11
         0.78200E+11
         0.78200E+11
         0.78200E+11
         0.78200E+11
         0.78200E+11
         0.78200E+11
         0.78200E+11
         0.78200E+11
         0.78200E+11
         0.78200E+11
         0.78200E+11
         0.78200E+11
         0.78200E+11
         0.78200E+11
         0.78200E+11
         0.78200E+11
         0.78200E+11
         0.78200E+11
         0.78200E+11
         0.78200E+11
         0.78200E+11
         0.78200E+11
         0.78200E+11
         0.78200E+11
         0.78200E+11
         0.78200E+11
         0.78200E+11
         0.78200E+11
         0.78200E+11
         0.78200E+11
         0.78200E+11
         0.78200E+11
         0.78200E+11
         0.78200E+11
         0.78200E+11
         0.78200E+11
         0.78200E+11
         0.78200E+11
         0.78200E+11
         0.78200E+11
         0.78200E+11
         0.78200E+11
         0.78200E+11
         0.78200E+11
         0.78200E+11
         0.78200E+11
         0.78200E+11
         0.78200E+11
         0.78200E+11
         0.78200E+11
         0.78200E+11
         0.78200E+11
         0.78200E+11
         0.78200E+11
         0.78200E+11
         0.78200E+11
         0.78200E+11
         0.78200E+11
         0.78200E+11
         0.78200E+11
         0.78200E+11
         0.78200E+11
         0.78200E+11
         0.78200E+11
         0.78200E+11
         0.78200E+11
         0.78200E+11
         0.78200E+11
         0.78200E+11
         0.78200E+11
         0.78200E+11
         0.78200E+11
         0.78200E+11
         0.78200E+11
         0.78200E+11
         0.78200E+11
         0.78200E+11
         0.78200E+11
         0.78200E+11
         0.78200E+11
         0.78200E+11
         0.78200E+11
         0.78200E+11
         0.78200E+11
         0.78200E+11
         0.78200E+11
         0.78200E+11
         0.78200E+11
         0.78200E+11
         0.78200E+11
         0.78200E+11
         0.78200E+11
         0.78200E+11
         0.78200E+11
         0.78200E+11
         0.78200E+11
         0.78200E+11
         0.78200E+11
         0.78200E+11
         0.78200E+11
         0.78200E+11
         0.78200E+11
         0.78200E+11
         0.78200E+11
         0.78200E+11
         0.78200E+11
         0.78200E+11
         0.78200E+11
         0.78200E+11
         0.78200E+11
         0.78200E+11
         0.78200E+11
         0.78200E+11
         0.78200E+11
         0.78200E+11
         0.78200E+11
         0.78200E+11
         0.78200E+11
         0.78200E+11
         0.78200E+11
         0.78200E+11
         0.78200E+11
         0.78200E+11
         0.78200E+11
         0.78200E+11
         0.78200E+11
         0.78200E+11
         0.78200E+11
         0.78200E+11
         0.78200E+11
         0.78200E+11
         0.78200E+11
         0.78200E+11
         0.78200E+11
         0.78200E+11
         0.78200E+11
         0.78200E+11
         0.78200E+11
         0.78200E+11
         0.78200E+11
         0.78200E+11
         0.78200E+11
         0.78200E+11
         0.78200E+11
         0.78200E+11
         0.78200E+11
         0.78200E+11
         0.78200E+11
         0.78200E+11
         0.78200E+11
         0.78200E+11
         0.78200E+11
         0.78200E+11
         0.78200E+11
         0.78200E+11
         0.78200E+11
         0.78200E+11
         0.78200E+11
         0.78200E+11
         0.78200E+11
         0.78200E+11
         0.78200E+11
         0.78200E+11
         0.78200E+11
         0.78200E+11
         0.78200E+11
         0.78200E+11
         0.78200E+11
         0.78200E+11
         0.78200E+11
         0.78200E+11
         0.78200E+11
         0.78200E+11
         0.78200E+11
         0.78200E+11
         0.78200E+11
         0.78200E+11
         0.78200E+11
         0.78200E+11
         0.78200E+11
         0.78200E+11
         0.78200E+11
         0.78200E+11
         0.78200E+11
         0.78200E+11
         0.78200E+11
         0.78200E+11
         0.78200E+11
         0.78200E+11
         0.78200E+11
         0.78200E+11
         0.78200E+11
         0.78200E+11
         0.78200E+11
         0.78200E+11
         0.78200E+11
         0.78200E+11
         0.78200E+11
         0.78200E+11
         0.78200E+11
         0.78200E+11
         0.78200E+11
         0.78200E+11
         0.78200E+11
         0.78200E+11
         0.78200E+11
         0.78200E+11
         0.78200E+11
         0.78200E+11
         0.78200E+11
         0.78200E+11
         0.78200E+11
         0.78200E+11
         0.78200E+11
         0.78200E+11
         0.78200E+11
         0.78200E+11
         0.78200E+11
         0.78200E+11
         0.78200E+11
         0.78200E+11
         0.78200E+11
         0.78200E+11
         0.78200E+11
         0.78200E+11
         0.78200E+11
         0.78200E+11
         0.78200E+11
         0.78200E+11
         0.78200E+11
         0.78200E+11
         0.78200E+11
         0.78200E+11
         0.78200E+11
         0.78200E+11
         0.78200E+11
         0.78200E+11
         0.78200E+11
         0.78200E+11
         0.78200E+11
         0.78200E+11
         0.78200E+11
         0.78200E+11
         0.78200E+11
         0.78200E+11
         0.78200E+11
         0.78200E+11
         0.78200E+11
         0.78200E+11
         0.78200E+11
         0.78200E+11
         0.78200E+11
         0.78200E+11
         0.78200E+11
         0.78200E+11
         0.78200E+11
         0.78200E+11
         0.78200E+11
         0.78200E+11
         0.78200E+11
         0.78200E+11
         0.78200E+11
         0.78200E+11
         0.78200E+11
         0.78200E+11
         0.78200E+11
         0.78200E+11
         0.78200E+11
         0.78200E+11
         0.78200E+11
         0.78200E+11
         0.78200E+11
         0.78200E+11
         0.78200E+11
         0.78200E+11
         0.78200E+11
         0.78200E+11
         0.78200E+11
         0.78200E+11
         0.78200E+11
         0.78200E+11
         0.78200E+11
         0.78200E+11
         0.78200E+11
         0.78200E+11
         0.78200E+11
         0.78200E+11
         0.78200E+11
         0.78200E+11
         0.78200E+11
         0.78200E+11
         0.78200E+11
         0.78200E+11
         0.78200E+11
         0.78200E+11
         0.78200E+11
         0.78200E+11
         0.78200E+11
         0.78200E+11
         0.78200E+11
         0.78200E+11
         0.78200E+11
         0.78200E+11
         0.78200E+11
         0.78200E+11
         0.78200E+11
         0.78200E+11
         0.78200E+11
         0.78200E+11
         0.78200E+11
         0.78200E+11
         0.78200E+11
         0.78200E+11
         0.78200E+11
         0.78200E+11
         0.78200E+11
         0.78200E+11
         0.78200E+11
         0.78200E+11
         0.78200E+11
         0.78200E+11
         0.78200E+11
         0.78200E+11
         0.78200E+11
         0.78200E+11
         0.78200E+11
         0.78200E+11
         0.78200E+11
         0.78200E+11
         0.78200E+11
         0.78200E+11
         0.78200E+11
         0.78200E+11
         0.78200E+11
         0.78200E+11
         0.78200E+11
         0.78200E+11
         0.78200E+11
         0.78200E+11
         0.78200E+11
         0.78200E+11
         0.78200E+11
         0.78200E+11
         0.78200E+11
         0.78200E+11
         0.78200E+11
         0.78200E+11
         0.78200E+11
         0.78200E+11
         0.78200E+11
         0.78200E+11
         0.78200E+11
         0.78200E+11
         0.78200E+11
         0.78200E+11
         0.78200E+11
         0.78200E+11
         0.78200E+11
         0.78200E+11
         0.78200E+11
         0.78200E+11
         0.78200E+11
         0.78200E+11
         0.78200E+11
         0.78200E+11
         0.78200E+11
         0.78200E+11
         0.78200E+11
         0.78200E+11
         0.78200E+11
         0.78200E+11
         0.78200E+11
         0.78200E+11
         0.78200E+11
         0.78200E+11
         0.78200E+11
         0.78200E+11
         0.78200E+11
         0.78200E+11
         0.78200E+11
         0.78200E+11
         0.78200E+11
         0.78200E+11
         0.78200E+11
         0.78200E+11
         0.78200E+11
         0.78200E+11
         0.78200E+11
         0.78200E+11
         0.78200E+11
         0.78200E+11
         0.78200E+11
         0.78200E+11
         0.78200E+11
         0.78200E+11
         0.78200E+11
         0.78200E+11
         0.78200E+11
         0.78200E+11
         0.78200E+11
         0.78200E+11
         0.78200E+11
         0.78200E+11
         0.78200E+11
         0.78200E+11
         0.78200E+11
         0.78200E+11
         0.78200E+11
         0.78200E+11
         0.78200E+11
         0.78200E+11
         0.78200E+11
         0.78200E+11
         0.78200E+11
         0.78200E+11
         0.78200E+11
         0.78200E+11
         0.78200E+11
         0.78200E+11
         0.78200E+11
         0.78200E+11
         0.78200E+11
         0.78200E+11
         0.78200E+11
         0.78200E+11
         0.78200E+11
         0.78200E+11
         0.78200E+11
         0.78200E+11
         0.78200E+11
         0.78200E+11
         0.78200E+11
         0.78200E+11
         0.78200E+11
         0.78200E+11
         0.78200E+11
         0.78200E+11
         0.78200E+11
         0.78200E+11
         0.78200E+11
         0.78200E+11
         0.78200E+11
         0.78200E+11
         0.78200E+11
         0.78200E+11
         0.78200E+11
         0.78200E+11
         0.78200E+11
         0.78200E+11
         0.78200E+11
         0.78200E+11
         0.78200E+11
         0.78200E+11
         0.78200E+11
         0.78200E+11
         0.78200E+11
         0.78200E+11
         0.78200E+11
         0.78200E+11
         0.78200E+11
         0.78200E+11
         0.78200E+11
         0.78200E+11
         0.78200E+11
         0.78200E+11
         0.78200E+11
         0.78200E+11
         0.78200E+11
         0.78200E+11
         0.78200E+11
         0.78200E+11
         0.78200E+11
         0.78200E+11
         0.78200E+11
         0.78200E+11
         0.78200E+11
         0.78200E+11
         0.78200E+11
         0.78200E+11
         0.78200E+11
         0.78200E+11
         0.78200E+11
         0.78200E+11
         0.78200E+11
         0.78200E+11
         0.78200E+11
         0.78200E+11
         0.78200E+11
         0.78200E+11
         0.78200E+11
         0.78200E+11
         0.78200E+11
         0.78200E+11
         0.78200E+11
         0.78200E+11
         0.78200E+11
         0.78200E+11
         0.78200E+11
         0.78200E+11
         0.78200E+11
         0.78200E+11
         0.78200E+11
         0.78200E+11
         0.78200E+11
         0.78200E+11
         0.78200E+11
         0.78200E+11
         0.78200E+11
         0.78200E+11
         0.78200E+11
         0.78200E+11
         0.78200E+11
         0.78200E+11
         0.78200E+11
         0.78200E+11
         0.78200E+11
         0.78200E+11
         0.78200E+11
         0.78200E+11
         0.78200E+11
         0.78200E+11
         0.78200E+11
         0.78200E+11
         0.78200E+11
         0.78200E+11
         0.78200E+11
         0.78200E+11
         0.78200E+11
         0.78200E+11
         0.78200E+11
         0.78200E+11
         0.78200E+11
         0.78200E+11
         0.78200E+11
         0.78200E+11
         0.78200E+11
         0.78200E+11
         0.78200E+11
         0.78200E+11
         0.78200E+11
         0.78200E+11
         0.78200E+11
         0.78200E+11
         0.78200E+11
  
SCALARS                        density  double 1
LOOKUP_TABLE default
         0.27000E+04
         0.27000E+04
         0.27000E+04
         0.27000E+04
         0.27000E+04
         0.27000E+04
         0.27000E+04
         0.27000E+04
         0.27000E+04
         0.27000E+04
         0.27000E+04
         0.27000E+04
         0.27000E+04
         0.27000E+04
         0.27000E+04
         0.27000E+04
         0.27000E+04
         0.27000E+04
         0.27000E+04
         0.27000E+04
         0.27000E+04
         0.27000E+04
         0.27000E+04
         0.27000E+04
         0.27000E+04
         0.27000E+04
         0.27000E+04
         0.27000E+04
         0.27000E+04
         0.27000E+04
         0.27000E+04
         0.27000E+04
         0.27000E+04
         0.27000E+04
         0.27000E+04
         0.27000E+04
         0.27000E+04
         0.27000E+04
         0.27000E+04
         0.27000E+04
         0.27000E+04
         0.27000E+04
         0.27000E+04
         0.27000E+04
         0.27000E+04
         0.27000E+04
         0.27000E+04
         0.27000E+04
         0.27000E+04
         0.27000E+04
         0.27000E+04
         0.27000E+04
         0.27000E+04
         0.27000E+04
         0.27000E+04
         0.27000E+04
         0.27000E+04
         0.27000E+04
         0.27000E+04
         0.27000E+04
         0.27000E+04
         0.27000E+04
         0.27000E+04
         0.27000E+04
         0.27000E+04
         0.27000E+04
         0.27000E+04
         0.27000E+04
         0.27000E+04
         0.27000E+04
         0.27000E+04
         0.27000E+04
         0.27000E+04
         0.27000E+04
         0.27000E+04
         0.27000E+04
         0.27000E+04
         0.27000E+04
         0.27000E+04
         0.27000E+04
         0.27000E+04
         0.27000E+04
         0.27000E+04
         0.27000E+04
         0.27000E+04
         0.27000E+04
         0.27000E+04
         0.27000E+04
         0.27000E+04
         0.27000E+04
         0.27000E+04
         0.27000E+04
         0.27000E+04
         0.27000E+04
         0.27000E+04
         0.27000E+04
         0.27000E+04
         0.27000E+04
         0.27000E+04
         0.27000E+04
         0.27000E+04
         0.27000E+04
         0.27000E+04
         0.27000E+04
         0.27000E+04
         0.27000E+04
         0.27000E+04
         0.27000E+04
         0.27000E+04
         0.27000E+04
         0.27000E+04
         0.27000E+04
         0.27000E+04
         0.27000E+04
         0.27000E+04
         0.27000E+04
         0.27000E+04
         0.27000E+04
         0.27000E+04
         0.27000E+04
         0.27000E+04
         0.27000E+04
         0.27000E+04
         0.27000E+04
         0.27000E+04
         0.27000E+04
         0.27000E+04
         0.27000E+04
         0.27000E+04
         0.27000E+04
         0.27000E+04
         0.27000E+04
         0.27000E+04
         0.27000E+04
         0.27000E+04
         0.27000E+04
         0.27000E+04
         0.27000E+04
         0.27000E+04
         0.27000E+04
         0.27000E+04
         0.27000E+04
         0.27000E+04
         0.27000E+04
         0.27000E+04
         0.27000E+04
         0.27000E+04
         0.27000E+04
         0.27000E+04
         0.27000E+04
         0.27000E+04
         0.27000E+04
         0.27000E+04
         0.27000E+04
         0.27000E+04
         0.27000E+04
         0.27000E+04
         0.27000E+04
         0.27000E+04
         0.27000E+04
         0.27000E+04
         0.27000E+04
         0.27000E+04
         0.27000E+04
         0.27000E+04
         0.27000E+04
         0.27000E+04
         0.27000E+04
         0.27000E+04
         0.27000E+04
         0.27000E+04
         0.27000E+04
         0.27000E+04
         0.27000E+04
         0.27000E+04
         0.27000E+04
         0.27000E+04
         0.27000E+04
         0.27000E+04
         0.27000E+04
         0.27000E+04
         0.27000E+04
         0.27000E+04
         0.27000E+04
         0.27000E+04
         0.27000E+04
         0.27000E+04
         0.27000E+04
         0.27000E+04
         0.27000E+04
         0.27000E+04
         0.27000E+04
         0.27000E+04
         0.27000E+04
         0.27000E+04
         0.27000E+04
         0.27000E+04
         0.27000E+04
         0.27000E+04
         0.27000E+04
         0.27000E+04
         0.27000E+04
         0.27000E+04
         0.27000E+04
         0.27000E+04
         0.27000E+04
         0.27000E+04
         0.27000E+04
         0.27000E+04
         0.27000E+04
         0.27000E+04
         0.27000E+04
         0.27000E+04
         0.27000E+04
         0.27000E+04
         0.27000E+04
         0.27000E+04
         0.27000E+04
         0.27000E+04
         0.27000E+04
         0.27000E+04
         0.27000E+04
         0.27000E+04
         0.27000E+04
         0.27000E+04
         0.27000E+04
         0.27000E+04
         0.27000E+04
         0.27000E+04
         0.27000E+04
         0.27000E+04
         0.27000E+04
         0.27000E+04
         0.27000E+04
         0.27000E+04
         0.27000E+04
         0.27000E+04
         0.27000E+04
         0.27000E+04
         0.27000E+04
         0.27000E+04
         0.27000E+04
         0.27000E+04
         0.27000E+04
         0.27000E+04
         0.27000E+04
         0.27000E+04
         0.27000E+04
         0.27000E+04
         0.27000E+04
         0.27000E+04
         0.27000E+04
         0.27000E+04
         0.27000E+04
         0.27000E+04
         0.27000E+04
         0.27000E+04
         0.27000E+04
         0.27000E+04
         0.27000E+04
         0.27000E+04
         0.27000E+04
         0.27000E+04
         0.27000E+04
         0.27000E+04
         0.27000E+04
         0.27000E+04
         0.27000E+04
         0.27000E+04
         0.27000E+04
         0.27000E+04
         0.27000E+04
         0.27000E+04
         0.27000E+04
         0.27000E+04
         0.27000E+04
         0.27000E+04
         0.27000E+04
         0.27000E+04
         0.27000E+04
         0.27000E+04
         0.27000E+04
         0.27000E+04
         0.27000E+04
         0.27000E+04
         0.27000E+04
         0.27000E+04
         0.27000E+04
         0.27000E+04
         0.27000E+04
         0.27000E+04
         0.27000E+04
         0.27000E+04
         0.27000E+04
         0.27000E+04
         0.27000E+04
         0.27000E+04
         0.27000E+04
         0.27000E+04
         0.27000E+04
         0.27000E+04
         0.27000E+04
         0.27000E+04
         0.27000E+04
         0.27000E+04
         0.27000E+04
         0.27000E+04
         0.27000E+04
         0.27000E+04
         0.27000E+04
         0.27000E+04
         0.27000E+04
         0.27000E+04
         0.27000E+04
         0.27000E+04
         0.27000E+04
         0.27000E+04
         0.27000E+04
         0.27000E+04
         0.27000E+04
         0.27000E+04
         0.27000E+04
         0.27000E+04
         0.27000E+04
         0.27000E+04
         0.27000E+04
         0.27000E+04
         0.27000E+04
         0.27000E+04
         0.27000E+04
         0.27000E+04
         0.27000E+04
         0.27000E+04
         0.27000E+04
         0.27000E+04
         0.27000E+04
         0.27000E+04
         0.27000E+04
         0.27000E+04
         0.27000E+04
         0.27000E+04
         0.27000E+04
         0.27000E+04
         0.27000E+04
         0.27000E+04
         0.27000E+04
         0.27000E+04
         0.27000E+04
         0.27000E+04
         0.27000E+04
         0.27000E+04
         0.27000E+04
         0.27000E+04
         0.27000E+04
         0.27000E+04
         0.27000E+04
         0.27000E+04
         0.27000E+04
         0.27000E+04
         0.27000E+04
         0.27000E+04
         0.27000E+04
         0.27000E+04
         0.27000E+04
         0.27000E+04
         0.27000E+04
         0.27000E+04
         0.27000E+04
         0.27000E+04
         0.27000E+04
         0.27000E+04
         0.27000E+04
         0.27000E+04
         0.27000E+04
         0.27000E+04
         0.27000E+04
         0.27000E+04
         0.27000E+04
         0.27000E+04
         0.27000E+04
         0.27000E+04
         0.27000E+04
         0.27000E+04
         0.27000E+04
         0.27000E+04
         0.27000E+04
         0.27000E+04
         0.27000E+04
         0.27000E+04
         0.27000E+04
         0.27000E+04
         0.27000E+04
         0.27000E+04
         0.27000E+04
         0.27000E+04
         0.27000E+04
         0.27000E+04
         0.27000E+04
         0.27000E+04
         0.27000E+04
         0.27000E+04
         0.27000E+04
         0.27000E+04
         0.27000E+04
         0.27000E+04
         0.27000E+04
         0.27000E+04
         0.27000E+04
         0.27000E+04
         0.27000E+04
         0.27000E+04
         0.27000E+04
         0.27000E+04
         0.27000E+04
         0.27000E+04
         0.27000E+04
         0.27000E+04
         0.27000E+04
         0.27000E+04
         0.27000E+04
         0.27000E+04
         0.27000E+04
         0.27000E+04
         0.27000E+04
         0.27000E+04
         0.27000E+04
         0.27000E+04
         0.27000E+04
         0.27000E+04
         0.27000E+04
         0.27000E+04
         0.27000E+04
         0.27000E+04
         0.27000E+04
         0.27000E+04
         0.27000E+04
         0.27000E+04
         0.27000E+04
         0.27000E+04
         0.27000E+04
         0.27000E+04
         0.27000E+04
         0.27000E+04
         0.27000E+04
         0.27000E+04
         0.27000E+04
         0.27000E+04
         0.27000E+04
         0.27000E+04
         0.27000E+04
         0.27000E+04
         0.27000E+04
         0.27000E+04
         0.27000E+04
         0.27000E+04
         0.27000E+04
         0.27000E+04
         0.27000E+04
         0.27000E+04
         0.27000E+04
         0.27000E+04
         0.27000E+04
         0.27000E+04
         0.27000E+04
         0.27000E+04
         0.27000E+04
         0.27000E+04
         0.27000E+04
         0.27000E+04
         0.27000E+04
         0.27000E+04
         0.27000E+04
         0.27000E+04
         0.27000E+04
         0.27000E+04
         0.27000E+04
         0.27000E+04
         0.27000E+04
         0.27000E+04
         0.27000E+04
         0.27000E+04
         0.27000E+04
         0.27000E+04
         0.27000E+04
         0.27000E+04
         0.27000E+04
         0.27000E+04
         0.27000E+04
         0.27000E+04
         0.27000E+04
         0.27000E+04
         0.27000E+04
         0.27000E+04
         0.27000E+04
         0.27000E+04
         0.27000E+04
         0.27000E+04
         0.27000E+04
         0.27000E+04
         0.27000E+04
         0.27000E+04
         0.27000E+04
         0.27000E+04
         0.27000E+04
         0.27000E+04
         0.27000E+04
         0.27000E+04
         0.27000E+04
         0.27000E+04
         0.27000E+04
         0.27000E+04
         0.27000E+04
         0.27000E+04
         0.27000E+04
         0.27000E+04
         0.27000E+04
         0.27000E+04
         0.27000E+04
         0.27000E+04
         0.27000E+04
         0.27000E+04
         0.27000E+04
         0.27000E+04
         0.27000E+04
         0.27000E+04
         0.27000E+04
         0.27000E+04
         0.27000E+04
         0.27000E+04
         0.27000E+04
         0.27000E+04
         0.27000E+04
         0.27000E+04
         0.27000E+04
         0.27000E+04
         0.27000E+04
         0.27000E+04
         0.27000E+04
         0.27000E+04
         0.27000E+04
         0.27000E+04
         0.27000E+04
         0.27000E+04
         0.27000E+04
         0.27000E+04
         0.27000E+04
         0.27000E+04
         0.27000E+04
         0.27000E+04
         0.27000E+04
         0.27000E+04
         0.27000E+04
         0.27000E+04
         0.27000E+04
         0.27000E+04
         0.27000E+04
         0.27000E+04
         0.27000E+04
         0.27000E+04
         0.27000E+04
         0.27000E+04
         0.27000E+04
         0.27000E+04
         0.27000E+04
         0.27000E+04
         0.27000E+04
         0.27000E+04
         0.27000E+04
         0.27000E+04
         0.27000E+04
         0.27000E+04
         0.27000E+04
         0.27000E+04
         0.27000E+04
         0.27000E+04
         0.27000E+04
         0.27000E+04
         0.27000E+04
         0.27000E+04
         0.27000E+04
         0.27000E+04
         0.27000E+04
         0.27000E+04
         0.27000E+04
         0.27000E+04
         0.27000E+04
         0.27000E+04
         0.27000E+04
         0.27000E+04
         0.27000E+04
         0.27000E+04
         0.27000E+04
         0.27000E+04
         0.27000E+04
         0.27000E+04
         0.27000E+04
         0.27000E+04
         0.27000E+04
         0.27000E+04
         0.27000E+04
         0.27000E+04
         0.27000E+04
         0.27000E+04
         0.27000E+04
         0.27000E+04
         0.27000E+04
         0.27000E+04
         0.27000E+04
         0.27000E+04
         0.27000E+04
         0.27000E+04
         0.27000E+04
         0.27000E+04
         0.27000E+04
         0.27000E+04
         0.27000E+04
         0.27000E+04
         0.27000E+04
         0.27000E+04
         0.27000E+04
         0.27000E+04
         0.27000E+04
         0.27000E+04
         0.27000E+04
         0.27000E+04
         0.27000E+04
         0.27000E+04
         0.27000E+04
         0.27000E+04
         0.27000E+04
         0.27000E+04
         0.27000E+04
         0.27000E+04
         0.27000E+04
         0.27000E+04
         0.27000E+04
         0.27000E+04
         0.27000E+04
         0.27000E+04
         0.27000E+04
         0.27000E+04
         0.27000E+04
         0.27000E+04
         0.27000E+04
         0.27000E+04
         0.27000E+04
         0.27000E+04
         0.27000E+04
         0.27000E+04
         0.27000E+04
         0.27000E+04
         0.27000E+04
         0.27000E+04
         0.27000E+04
         0.27000E+04
         0.27000E+04
         0.27000E+04
         0.27000E+04
         0.27000E+04
         0.27000E+04
         0.27000E+04
         0.27000E+04
         0.27000E+04
         0.27000E+04
         0.27000E+04
         0.27000E+04
         0.27000E+04
         0.27000E+04
         0.27000E+04
         0.27000E+04
         0.27000E+04
         0.27000E+04
         0.27000E+04
         0.27000E+04
         0.27000E+04
         0.27000E+04
         0.27000E+04
         0.27000E+04
         0.27000E+04
         0.27000E+04
         0.27000E+04
         0.27000E+04
         0.27000E+04
         0.27000E+04
         0.27000E+04
         0.27000E+04
         0.27000E+04
         0.27000E+04
         0.27000E+04
         0.27000E+04
         0.27000E+04
         0.27000E+04
         0.27000E+04
         0.27000E+04
         0.27000E+04
         0.27000E+04
         0.27000E+04
         0.27000E+04
         0.27000E+04
         0.27000E+04
         0.27000E+04
         0.27000E+04
         0.27000E+04
         0.27000E+04
         0.27000E+04
         0.27000E+04
         0.27000E+04
         0.27000E+04
         0.27000E+04
         0.27000E+04
         0.27000E+04
         0.27000E+04
         0.27000E+04
         0.27000E+04
         0.27000E+04
         0.27000E+04
         0.27000E+04
         0.27000E+04
         0.27000E+04
         0.27000E+04
         0.27000E+04
         0.27000E+04
         0.27000E+04
         0.27000E+04
         0.27000E+04
         0.27000E+04
         0.27000E+04
         0.27000E+04
         0.27000E+04
         0.27000E+04
         0.27000E+04
         0.27000E+04
         0.27000E+04
         0.27000E+04
         0.27000E+04
         0.27000E+04
         0.27000E+04
         0.27000E+04
         0.27000E+04
         0.27000E+04
         0.27000E+04
         0.27000E+04
         0.27000E+04
         0.27000E+04
         0.27000E+04
         0.27000E+04
         0.27000E+04
         0.27000E+04
         0.27000E+04
         0.27000E+04
         0.27000E+04
         0.27000E+04
         0.27000E+04
         0.27000E+04
         0.27000E+04
         0.27000E+04
         0.27000E+04
         0.27000E+04
         0.27000E+04
         0.27000E+04
         0.27000E+04
         0.27000E+04
         0.27000E+04
         0.27000E+04
         0.27000E+04
         0.27000E+04
         0.27000E+04
         0.27000E+04
         0.27000E+04
         0.27000E+04
         0.27000E+04
         0.27000E+04
         0.27000E+04
         0.27000E+04
         0.27000E+04
         0.27000E+04
         0.27000E+04
         0.27000E+04
         0.27000E+04
         0.27000E+04
         0.27000E+04
         0.27000E+04
         0.27000E+04
         0.27000E+04
         0.27000E+04
         0.27000E+04
         0.27000E+04
         0.27000E+04
         0.27000E+04
         0.27000E+04
         0.27000E+04
         0.27000E+04
         0.27000E+04
         0.27000E+04
         0.27000E+04
         0.27000E+04
         0.27000E+04
         0.27000E+04
         0.27000E+04
         0.27000E+04
         0.27000E+04
         0.27000E+04
         0.27000E+04
         0.27000E+04
         0.27000E+04
         0.27000E+04
         0.27000E+04
         0.27000E+04
         0.27000E+04
         0.27000E+04
         0.27000E+04
         0.27000E+04
         0.27000E+04
         0.27000E+04
         0.27000E+04
         0.27000E+04
         0.27000E+04
         0.27000E+04
         0.27000E+04
         0.27000E+04
         0.27000E+04
         0.27000E+04
         0.27000E+04
         0.27000E+04
         0.27000E+04
         0.27000E+04
         0.27000E+04
         0.27000E+04
         0.27000E+04
         0.27000E+04
         0.27000E+04
         0.27000E+04
         0.27000E+04
         0.27000E+04
         0.27000E+04
         0.27000E+04
         0.27000E+04
         0.27000E+04
         0.27000E+04
         0.27000E+04
         0.27000E+04
         0.27000E+04
         0.27000E+04
         0.27000E+04
         0.27000E+04
         0.27000E+04
         0.27000E+04
         0.27000E+04
         0.27000E+04
         0.27000E+04
         0.27000E+04
         0.27000E+04
         0.27000E+04
         0.27000E+04
         0.27000E+04
         0.27000E+04
         0.27000E+04
         0.27000E+04
         0.27000E+04
         0.27000E+04
         0.27000E+04
         0.27000E+04
         0.27000E+04
         0.27000E+04
         0.27000E+04
         0.27000E+04
         0.27000E+04
         0.27000E+04
         0.27000E+04
         0.27000E+04
         0.27000E+04
         0.27000E+04
         0.27000E+04
         0.27000E+04
         0.27000E+04
         0.27000E+04
         0.27000E+04
         0.27000E+04
         0.27000E+04
         0.27000E+04
         0.27000E+04
         0.27000E+04
         0.27000E+04
         0.27000E+04
         0.27000E+04
         0.27000E+04
         0.27000E+04
         0.27000E+04
         0.27000E+04
         0.27000E+04
         0.27000E+04
         0.27000E+04
         0.27000E+04
         0.27000E+04
         0.27000E+04
         0.27000E+04
         0.27000E+04
         0.27000E+04
         0.27000E+04
         0.27000E+04
         0.27000E+04
         0.27000E+04
         0.27000E+04
         0.27000E+04
         0.27000E+04
         0.27000E+04
         0.27000E+04
         0.27000E+04
         0.27000E+04
         0.27000E+04
         0.27000E+04
         0.27000E+04
         0.27000E+04
         0.27000E+04
         0.27000E+04
         0.27000E+04
         0.27000E+04
         0.27000E+04
         0.27000E+04
         0.27000E+04
         0.27000E+04
         0.27000E+04
         0.27000E+04
         0.27000E+04
         0.27000E+04
         0.27000E+04
         0.27000E+04
         0.27000E+04
         0.27000E+04
         0.27000E+04
         0.27000E+04
         0.27000E+04
         0.27000E+04
         0.27000E+04
         0.27000E+04
         0.27000E+04
         0.27000E+04
         0.27000E+04
         0.27000E+04
         0.27000E+04
         0.27000E+04
         0.27000E+04
         0.27000E+04
         0.27000E+04
         0.27000E+04
         0.27000E+04
         0.27000E+04
         0.27000E+04
         0.27000E+04
         0.27000E+04
         0.27000E+04
         0.27000E+04
         0.27000E+04
         0.27000E+04
         0.27000E+04
         0.27000E+04
         0.27000E+04
         0.27000E+04
         0.27000E+04
         0.27000E+04
         0.27000E+04
         0.27000E+04
         0.27000E+04
         0.27000E+04
         0.27000E+04
         0.27000E+04
         0.27000E+04
         0.27000E+04
         0.27000E+04
         0.27000E+04
         0.27000E+04
         0.27000E+04
         0.27000E+04
         0.27000E+04
         0.27000E+04
         0.27000E+04
         0.27000E+04
         0.27000E+04
         0.27000E+04
         0.27000E+04
         0.27000E+04
         0.27000E+04
         0.27000E+04
         0.27000E+04
         0.27000E+04
         0.27000E+04
         0.27000E+04
         0.27000E+04
         0.27000E+04
         0.27000E+04
         0.27000E+04
         0.27000E+04
         0.27000E+04
         0.27000E+04
         0.27000E+04
         0.27000E+04
         0.27000E+04
         0.27000E+04
         0.27000E+04
         0.27000E+04
         0.27000E+04
         0.27000E+04
         0.27000E+04
         0.27000E+04
         0.27000E+04
         0.27000E+04
         0.27000E+04
         0.27000E+04
         0.27000E+04
         0.27000E+04
         0.27000E+04
         0.27000E+04
         0.27000E+04
         0.27000E+04
         0.27000E+04
         0.27000E+04
         0.27000E+04
         0.27000E+04
         0.27000E+04
         0.27000E+04
         0.27000E+04
         0.27000E+04
         0.27000E+04
         0.27000E+04
         0.27000E+04
         0.27000E+04
         0.27000E+04
         0.27000E+04
         0.27000E+04
         0.27000E+04
         0.27000E+04
         0.27000E+04
         0.27000E+04
         0.27000E+04
         0.27000E+04
         0.27000E+04
         0.27000E+04
         0.27000E+04
         0.27000E+04
         0.27000E+04
         0.27000E+04
         0.27000E+04
         0.27000E+04
         0.27000E+04
         0.27000E+04
         0.27000E+04
         0.27000E+04
         0.27000E+04
         0.27000E+04
         0.27000E+04
         0.27000E+04
         0.27000E+04
         0.27000E+04
         0.27000E+04
         0.27000E+04
         0.27000E+04
         0.27000E+04
         0.27000E+04
         0.27000E+04
         0.27000E+04
         0.27000E+04
         0.27000E+04
         0.27000E+04
         0.27000E+04
         0.27000E+04
         0.27000E+04
         0.27000E+04
         0.27000E+04
         0.27000E+04
         0.27000E+04
         0.27000E+04
         0.27000E+04
         0.27000E+04
         0.27000E+04
         0.27000E+04
         0.27000E+04
         0.27000E+04
         0.27000E+04
         0.27000E+04
         0.27000E+04
         0.27000E+04
         0.27000E+04
         0.27000E+04
         0.27000E+04
         0.27000E+04
         0.27000E+04
         0.27000E+04
         0.27000E+04
         0.27000E+04
         0.27000E+04
         0.27000E+04
         0.27000E+04
         0.27000E+04
         0.27000E+04
         0.27000E+04
         0.27000E+04
         0.27000E+04
         0.27000E+04
         0.27000E+04
         0.27000E+04
         0.27000E+04
         0.27000E+04
         0.27000E+04
         0.27000E+04
         0.27000E+04
         0.27000E+04
         0.27000E+04
         0.27000E+04
         0.27000E+04
         0.27000E+04
         0.27000E+04
         0.27000E+04
         0.27000E+04
         0.27000E+04
         0.27000E+04
         0.27000E+04
         0.27000E+04
         0.27000E+04
         0.27000E+04
         0.27000E+04
         0.27000E+04
         0.27000E+04
         0.27000E+04
         0.27000E+04
         0.27000E+04
         0.27000E+04
         0.27000E+04
         0.27000E+04
         0.27000E+04
         0.27000E+04
         0.27000E+04
         0.27000E+04
         0.27000E+04
         0.27000E+04
         0.27000E+04
         0.27000E+04
         0.27000E+04
         0.27000E+04
         0.27000E+04
         0.27000E+04
         0.27000E+04
         0.27000E+04
         0.27000E+04
         0.27000E+04
         0.27000E+04
         0.27000E+04
         0.27000E+04
         0.27000E+04
         0.27000E+04
         0.27000E+04
         0.27000E+04
         0.27000E+04
         0.27000E+04
         0.27000E+04
         0.27000E+04
         0.27000E+04
         0.27000E+04
         0.27000E+04
         0.27000E+04
         0.27000E+04
         0.27000E+04
         0.27000E+04
         0.27000E+04
         0.27000E+04
         0.27000E+04
         0.27000E+04
         0.27000E+04
         0.27000E+04
         0.27000E+04
         0.27000E+04
         0.27000E+04
         0.27000E+04
         0.27000E+04
         0.27000E+04
         0.27000E+04
         0.27000E+04
         0.27000E+04
         0.27000E+04
         0.27000E+04
         0.27000E+04
         0.27000E+04
         0.27000E+04
         0.27000E+04
         0.27000E+04
         0.27000E+04
         0.27000E+04
         0.27000E+04
         0.27000E+04
         0.27000E+04
         0.27000E+04
         0.27000E+04
         0.27000E+04
         0.27000E+04
         0.27000E+04
         0.27000E+04
         0.27000E+04
         0.27000E+04
         0.27000E+04
         0.27000E+04
         0.27000E+04
         0.27000E+04
         0.27000E+04
         0.27000E+04
         0.27000E+04
         0.27000E+04
         0.27000E+04
         0.27000E+04
         0.27000E+04
         0.27000E+04
         0.27000E+04
         0.27000E+04
         0.27000E+04
         0.27000E+04
         0.27000E+04
         0.27000E+04
         0.27000E+04
         0.27000E+04
         0.27000E+04
         0.27000E+04
         0.27000E+04
         0.27000E+04
         0.27000E+04
         0.27000E+04
         0.27000E+04
         0.27000E+04
         0.27000E+04
         0.27000E+04
         0.27000E+04
         0.27000E+04
         0.27000E+04
         0.27000E+04
         0.27000E+04
         0.27000E+04
         0.27000E+04
         0.27000E+04
         0.27000E+04
         0.27000E+04
         0.27000E+04
         0.27000E+04
         0.27000E+04
         0.27000E+04
         0.27000E+04
         0.27000E+04
         0.27000E+04
         0.27000E+04
         0.27000E+04
         0.27000E+04
         0.27000E+04
         0.27000E+04
         0.27000E+04
         0.27000E+04
         0.27000E+04
         0.27000E+04
         0.27000E+04
         0.27000E+04
         0.27000E+04
         0.27000E+04
         0.27000E+04
         0.27000E+04
         0.27000E+04
         0.27000E+04
         0.27000E+04
         0.27000E+04
         0.27000E+04
         0.27000E+04
         0.27000E+04
         0.27000E+04
         0.27000E+04
         0.27000E+04
         0.27000E+04
         0.27000E+04
         0.27000E+04
         0.27000E+04
         0.27000E+04
         0.27000E+04
         0.27000E+04
         0.27000E+04
         0.27000E+04
         0.27000E+04
         0.27000E+04
         0.27000E+04
         0.27000E+04
         0.27000E+04
         0.27000E+04
         0.27000E+04
         0.27000E+04
         0.27000E+04
         0.27000E+04
         0.27000E+04
         0.27000E+04
         0.27000E+04
         0.27000E+04
         0.27000E+04
         0.27000E+04
         0.27000E+04
         0.27000E+04
         0.27000E+04
         0.27000E+04
         0.27000E+04
         0.27000E+04
         0.27000E+04
         0.27000E+04
         0.27000E+04
         0.27000E+04
         0.27000E+04
         0.27000E+04
         0.27000E+04
         0.27000E+04
         0.27000E+04
         0.27000E+04
         0.27000E+04
         0.27000E+04
         0.27000E+04
         0.27000E+04
         0.27000E+04
         0.27000E+04
         0.27000E+04
         0.27000E+04
         0.27000E+04
         0.27000E+04
         0.27000E+04
         0.27000E+04
         0.27000E+04
         0.27000E+04
         0.27000E+04
         0.27000E+04
         0.27000E+04
         0.27000E+04
         0.27000E+04
         0.27000E+04
         0.27000E+04
         0.27000E+04
         0.27000E+04
         0.27000E+04
         0.27000E+04
         0.27000E+04
         0.27000E+04
         0.27000E+04
         0.27000E+04
         0.27000E+04
         0.27000E+04
         0.27000E+04
         0.27000E+04
         0.27000E+04
         0.27000E+04
         0.27000E+04
         0.27000E+04
         0.27000E+04
         0.27000E+04
         0.27000E+04
         0.27000E+04
         0.27000E+04
         0.27000E+04
         0.27000E+04
         0.27000E+04
         0.27000E+04
         0.27000E+04
         0.27000E+04
         0.27000E+04
         0.27000E+04
         0.27000E+04
         0.27000E+04
         0.27000E+04
         0.27000E+04
         0.27000E+04
         0.27000E+04
         0.27000E+04
         0.27000E+04
         0.27000E+04
         0.27000E+04
         0.27000E+04
         0.27000E+04
         0.27000E+04
         0.27000E+04
         0.27000E+04
         0.27000E+04
         0.27000E+04
         0.27000E+04
         0.27000E+04
         0.27000E+04
         0.27000E+04
         0.27000E+04
         0.27000E+04
         0.27000E+04
         0.27000E+04
         0.27000E+04
         0.27000E+04
         0.27000E+04
         0.27000E+04
         0.27000E+04
         0.27000E+04
         0.27000E+04
         0.27000E+04
         0.27000E+04
         0.27000E+04
         0.27000E+04
         0.27000E+04
         0.27000E+04
         0.27000E+04
         0.27000E+04
         0.27000E+04
         0.27000E+04
         0.27000E+04
         0.27000E+04
         0.27000E+04
         0.27000E+04
         0.27000E+04
         0.27000E+04
         0.27000E+04
         0.27000E+04
         0.27000E+04
         0.27000E+04
         0.27000E+04
         0.27000E+04
         0.27000E+04
         0.27000E+04
         0.27000E+04
         0.27000E+04
         0.27000E+04
         0.27000E+04
         0.27000E+04
         0.27000E+04
         0.27000E+04
         0.27000E+04
         0.27000E+04
         0.27000E+04
         0.27000E+04
         0.27000E+04
         0.27000E+04
         0.27000E+04
         0.27000E+04
         0.27000E+04
         0.27000E+04
         0.27000E+04
         0.27000E+04
         0.27000E+04
         0.27000E+04
         0.27000E+04
         0.27000E+04
         0.27000E+04
         0.27000E+04
         0.27000E+04
         0.27000E+04
         0.27000E+04
         0.27000E+04
         0.27000E+04
         0.27000E+04
         0.27000E+04
         0.27000E+04
         0.27000E+04
         0.27000E+04
         0.27000E+04
         0.27000E+04
         0.27000E+04
         0.27000E+04
         0.27000E+04
         0.27000E+04
         0.27000E+04
         0.27000E+04
         0.27000E+04
         0.27000E+04
         0.27000E+04
         0.27000E+04
         0.27000E+04
         0.27000E+04
         0.27000E+04
         0.27000E+04
         0.27000E+04
         0.27000E+04
         0.27000E+04
         0.27000E+04
         0.27000E+04
         0.27000E+04
         0.27000E+04
         0.27000E+04
         0.27000E+04
         0.27000E+04
         0.27000E+04
         0.27000E+04
         0.27000E+04
         0.27000E+04
         0.27000E+04
         0.27000E+04
         0.27000E+04
         0.27000E+04
         0.27000E+04
         0.27000E+04
         0.27000E+04
         0.27000E+04
         0.27000E+04
         0.27000E+04
         0.27000E+04
         0.27000E+04
         0.27000E+04
         0.27000E+04
         0.27000E+04
         0.27000E+04
         0.27000E+04
         0.27000E+04
         0.27000E+04
         0.27000E+04
         0.27000E+04
         0.27000E+04
         0.27000E+04
         0.27000E+04
         0.27000E+04
         0.27000E+04
         0.27000E+04
         0.27000E+04
         0.27000E+04
         0.27000E+04
         0.27000E+04
         0.27000E+04
         0.27000E+04
         0.27000E+04
         0.27000E+04
         0.27000E+04
         0.27000E+04
         0.27000E+04
         0.27000E+04
         0.27000E+04
         0.27000E+04
         0.27000E+04
         0.27000E+04
         0.27000E+04
         0.27000E+04
         0.27000E+04
         0.27000E+04
         0.27000E+04
         0.27000E+04
         0.27000E+04
         0.27000E+04
         0.27000E+04
         0.27000E+04
         0.27000E+04
         0.27000E+04
         0.27000E+04
         0.27000E+04
         0.27000E+04
         0.27000E+04
         0.27000E+04
         0.27000E+04
         0.27000E+04
         0.27000E+04
         0.27000E+04
         0.27000E+04
         0.27000E+04
         0.27000E+04
         0.27000E+04
         0.27000E+04
         0.27000E+04
         0.27000E+04
         0.27000E+04
         0.27000E+04
         0.27000E+04
         0.27000E+04
         0.27000E+04
         0.27000E+04
         0.27000E+04
         0.27000E+04
         0.27000E+04
         0.27000E+04
         0.27000E+04
         0.27000E+04
         0.27000E+04
         0.27000E+04
         0.27000E+04
         0.27000E+04
         0.27000E+04
         0.27000E+04
         0.27000E+04
         0.27000E+04
         0.27000E+04
         0.27000E+04
         0.27000E+04
         0.27000E+04
         0.27000E+04
         0.27000E+04
         0.27000E+04
         0.27000E+04
         0.27000E+04
         0.27000E+04
         0.27000E+04
         0.27000E+04
         0.27000E+04
         0.27000E+04
         0.27000E+04
         0.27000E+04
         0.27000E+04
         0.27000E+04
         0.27000E+04
         0.27000E+04
         0.27000E+04
         0.27000E+04
         0.27000E+04
         0.27000E+04
         0.27000E+04
         0.27000E+04
         0.27000E+04
         0.27000E+04
         0.27000E+04
         0.27000E+04
         0.27000E+04
         0.27000E+04
         0.27000E+04
         0.27000E+04
         0.27000E+04
         0.27000E+04
         0.27000E+04
         0.27000E+04
         0.27000E+04
         0.27000E+04
         0.27000E+04
         0.27000E+04
         0.27000E+04
         0.27000E+04
         0.27000E+04
         0.27000E+04
         0.27000E+04
         0.27000E+04
         0.27000E+04
         0.27000E+04
         0.27000E+04
         0.27000E+04
         0.27000E+04
         0.27000E+04
         0.27000E+04
         0.27000E+04
         0.27000E+04
         0.27000E+04
         0.27000E+04
         0.27000E+04
         0.27000E+04
         0.27000E+04
         0.27000E+04
         0.27000E+04
         0.27000E+04
         0.27000E+04
         0.27000E+04
         0.27000E+04
         0.27000E+04
         0.27000E+04
         0.27000E+04
         0.27000E+04
         0.27000E+04
         0.27000E+04
         0.27000E+04
         0.27000E+04
         0.27000E+04
         0.27000E+04
         0.27000E+04
         0.27000E+04
         0.27000E+04
         0.27000E+04
         0.27000E+04
         0.27000E+04
         0.27000E+04
         0.27000E+04
         0.27000E+04
         0.27000E+04
         0.27000E+04
         0.27000E+04
         0.27000E+04
         0.27000E+04
         0.27000E+04
         0.27000E+04
         0.27000E+04
         0.27000E+04
         0.27000E+04
         0.27000E+04
         0.27000E+04
         0.27000E+04
         0.27000E+04
         0.27000E+04
         0.27000E+04
         0.27000E+04
         0.27000E+04
         0.27000E+04
         0.27000E+04
         0.27000E+04
         0.27000E+04
         0.27000E+04
         0.27000E+04
         0.27000E+04
         0.27000E+04
         0.27000E+04
         0.27000E+04
         0.27000E+04
         0.27000E+04
         0.27000E+04
         0.27000E+04
         0.27000E+04
         0.27000E+04
         0.27000E+04
         0.27000E+04
         0.27000E+04
         0.27000E+04
         0.27000E+04
         0.27000E+04
         0.27000E+04
         0.27000E+04
         0.27000E+04
         0.27000E+04
         0.27000E+04
         0.27000E+04
         0.27000E+04
         0.27000E+04
         0.27000E+04
         0.27000E+04
         0.27000E+04
         0.27000E+04
         0.27000E+04
         0.27000E+04
         0.27000E+04
         0.27000E+04
         0.27000E+04
         0.27000E+04
         0.27000E+04
         0.27000E+04
         0.27000E+04
         0.27000E+04
         0.27000E+04
         0.27000E+04
         0.27000E+04
         0.27000E+04
         0.27000E+04
         0.27000E+04
         0.27000E+04
         0.27000E+04
         0.27000E+04
         0.27000E+04
         0.27000E+04
         0.27000E+04
         0.27000E+04
         0.27000E+04
         0.27000E+04
         0.27000E+04
         0.27000E+04
         0.27000E+04
         0.27000E+04
         0.27000E+04
         0.27000E+04
         0.27000E+04
         0.27000E+04
         0.27000E+04
         0.27000E+04
         0.27000E+04
         0.27000E+04
         0.27000E+04
         0.27000E+04
         0.27000E+04
         0.27000E+04
         0.27000E+04
         0.27000E+04
         0.27000E+04
         0.27000E+04
         0.27000E+04
         0.27000E+04
         0.27000E+04
         0.27000E+04
         0.27000E+04
         0.27000E+04
         0.27000E+04
         0.27000E+04
         0.27000E+04
         0.27000E+04
         0.27000E+04
         0.27000E+04
         0.27000E+04
         0.27000E+04
         0.27000E+04
         0.27000E+04
         0.27000E+04
         0.27000E+04
         0.27000E+04
         0.27000E+04
         0.27000E+04
         0.27000E+04
         0.27000E+04
         0.27000E+04
         0.27000E+04
         0.27000E+04
         0.27000E+04
         0.27000E+04
         0.27000E+04
         0.27000E+04
         0.27000E+04
         0.27000E+04
         0.27000E+04
         0.27000E+04
         0.27000E+04
         0.27000E+04
         0.27000E+04
         0.27000E+04
         0.27000E+04
         0.27000E+04
         0.27000E+04
         0.27000E+04
         0.27000E+04
         0.27000E+04
         0.27000E+04
         0.27000E+04
         0.27000E+04
         0.27000E+04
         0.27000E+04
         0.27000E+04
         0.27000E+04
         0.27000E+04
         0.27000E+04
         0.27000E+04
         0.27000E+04
         0.27000E+04
         0.27000E+04
         0.27000E+04
         0.27000E+04
         0.27000E+04
         0.27000E+04
         0.27000E+04
         0.27000E+04
         0.27000E+04
         0.27000E+04
         0.27000E+04
         0.27000E+04
         0.27000E+04
         0.27000E+04
         0.27000E+04
         0.27000E+04
         0.27000E+04
         0.27000E+04
         0.27000E+04
         0.27000E+04
         0.27000E+04
         0.27000E+04
         0.27000E+04
         0.27000E+04
         0.27000E+04
         0.27000E+04
         0.27000E+04
         0.27000E+04
         0.27000E+04
         0.27000E+04
         0.27000E+04
         0.27000E+04
         0.27000E+04
         0.27000E+04
         0.27000E+04
         0.27000E+04
         0.27000E+04
         0.27000E+04
         0.27000E+04
         0.27000E+04
         0.27000E+04
         0.27000E+04
         0.27000E+04
         0.27000E+04
         0.27000E+04
         0.27000E+04
         0.27000E+04
         0.27000E+04
         0.27000E+04
         0.27000E+04
         0.27000E+04
         0.27000E+04
         0.27000E+04
         0.27000E+04
         0.27000E+04
         0.27000E+04
         0.27000E+04
         0.27000E+04
         0.27000E+04
         0.27000E+04
         0.27000E+04
         0.27000E+04
         0.27000E+04
         0.27000E+04
         0.27000E+04
         0.27000E+04
         0.27000E+04
         0.27000E+04
         0.27000E+04
         0.27000E+04
         0.27000E+04
         0.27000E+04
         0.27000E+04
         0.27000E+04
         0.27000E+04
         0.27000E+04
         0.27000E+04
         0.27000E+04
         0.27000E+04
         0.27000E+04
         0.27000E+04
         0.27000E+04
         0.27000E+04
         0.27000E+04
         0.27000E+04
         0.27000E+04
         0.27000E+04
         0.27000E+04
         0.27000E+04
         0.27000E+04
         0.27000E+04
         0.27000E+04
         0.27000E+04
         0.27000E+04
         0.27000E+04
         0.27000E+04
         0.27000E+04
         0.27000E+04
         0.27000E+04
         0.27000E+04
         0.27000E+04
         0.27000E+04
         0.27000E+04
         0.27000E+04
         0.27000E+04
         0.27000E+04
         0.27000E+04
         0.27000E+04
         0.27000E+04
         0.27000E+04
         0.27000E+04
         0.27000E+04
         0.27000E+04
         0.27000E+04
         0.27000E+04
         0.27000E+04
         0.27000E+04
         0.27000E+04
         0.27000E+04
         0.27000E+04
         0.27000E+04
         0.27000E+04
         0.27000E+04
         0.27000E+04
         0.27000E+04
         0.27000E+04
         0.27000E+04
         0.27000E+04
         0.27000E+04
         0.27000E+04
         0.27000E+04
         0.27000E+04
         0.27000E+04
         0.27000E+04
         0.27000E+04
         0.27000E+04
         0.27000E+04
         0.27000E+04
         0.27000E+04
